     Program PWSCF v.7.1 starts on  2Mar2024 at  9:35: 9

     Reading input from espresso.pwi
Warning: card &CELL ignored
Warning: card    CELL_DYNAMICS    = 'BFGS' ignored
Warning: card / ignored

     Current dimensions of program PWSCF are:
     Max number of different atomic species (ntypx) = 10
     Max number of k-points (npk) =  40000
     Max angular momentum in pseudopotentials (lmaxx) =  4
     file Pb.pbe-dn-kjpaw_psl.1.0.0.UPF: wavefunction(s)  6S 6P 5D renormalized
     file I.pbe-dn-kjpaw_psl.1.0.0.UPF: wavefunction(s)  5S 5P renormalized

     IMPORTANT: XC functional enforced from input :
     Exchange-correlation= BEEF-VDW
                           (   1   4  43  14   2   0   0)
     Any further DFT definition will be discarded
     Please, verify this is what you really want

     R & G space division:  proc/nbgrp/npool/nimage =     128
     Subspace diagonalization in iterative solution of the eigenvalue problem:
     a serial algorithm will be used

     Using Slab Decomposition

     bravais-lattice index     =            4
     lattice parameter (alat)  =      35.6073  a.u.
     unit-cell volume          =   30614.2220 (a.u.)^3
     number of atoms/cell      =           96
     number of atomic types    =            2
     number of electrons       =      1536.00
     number of Kohn-Sham states=          922
     kinetic-energy cutoff     =      70.0000  Ry
     charge density cutoff     =     350.0000  Ry
     scf convergence threshold =      1.0E-07
     mixing beta               =       0.7000
     number of iterations used =            8  plain     mixing
     energy convergence thresh.=      1.0E-04
     force convergence thresh. =      1.0E-03
     Exchange-correlation= BEEF-VDW
                           (   1   4  43  14   2   0   0)
     nstep                     =           50

     celldm(1)=  35.607290  celldm(2)=   0.000000  celldm(3)=   0.783025
     celldm(4)=   0.000000  celldm(5)=   0.000000  celldm(6)=   0.000000

     crystal axes: (cart. coord. in units of alat)
               a(1) = (   1.000000   0.000000   0.000000 )
               a(2) = (  -0.500000   0.866025   0.000000 )
               a(3) = (   0.000000   0.000000   0.783025 )

     reciprocal axes: (cart. coord. in units 2 pi/alat)
               b(1) = (  1.000000  0.577350 -0.000000 )
               b(2) = (  0.000000  1.154701  0.000000 )
               b(3) = (  0.000000 -0.000000  1.277098 )

     PseudoPot. # 1 for Pb read from file:
     /trace/group/acmegroup/atimmins/packages/espresso/pseudo/psl_1.0.0/pslibrary.1.0.0/pbe/PSEUDOPOTENTIALS/Pb.pbe-dn-kjpaw_psl.1.0.0.UPF
     MD5 check sum: 39ab5b8a6bbd56b7735ad9f188aac93a
     Pseudo is Projector augmented-wave + core cor, Zval = 14.0
     Generated using 'atomic' code by A. Dal Corso  v.7.1
     Shape of augmentation charge: PSQ
     Using radial grid of 1281 points,  6 beta functions with:
                l(1) =   0
                l(2) =   0
                l(3) =   1
                l(4) =   1
                l(5) =   2
                l(6) =   2
     Q(r) pseudized with 0 coefficients

     PseudoPot. # 2 for I  read from file:
     /trace/group/acmegroup/atimmins/packages/espresso/pseudo/psl_1.0.0/pslibrary.1.0.0/pbe/PSEUDOPOTENTIALS/I.pbe-dn-kjpaw_psl.1.0.0.UPF
     MD5 check sum: bfa8781bc1224d19af3f3980e3fab11e
     Pseudo is Projector augmented-wave + core cor, Zval = 17.0
     Generated using 'atomic' code by A. Dal Corso  v.7.1
     Shape of augmentation charge: PSQ
     Using radial grid of 1247 points,  6 beta functions with:
                l(1) =   0
                l(2) =   0
                l(3) =   1
                l(4) =   1
                l(5) =   2
                l(6) =   2
     Q(r) pseudized with 0 coefficients

     atomic species   valence    mass     pseudopotential
        Pb            14.00   207.20000     Pb( 1.00)
        I             17.00   126.90447     I ( 1.00)

     No symmetry found

                                    s                        frac. trans.

      isym =  1     identity

 cryst.   s( 1) = (     1          0          0      )
                  (     0          1          0      )
                  (     0          0          1      )

 cart.    s( 1) = (  1.0000000  0.0000000  0.0000000 )
                  (  0.0000000  1.0000000  0.0000000 )
                  (  0.0000000  0.0000000  1.0000000 )

     point group C_1 (1)
     there are  1 classes
     the character table:

       E
A      1.00

     the symmetry operations in each class and the name of the first element:

     E        1
          identity

   Cartesian axes

     site n.     atom                  positions (alat units)
         1           Pb  tau(   1) = (   0.1250034   0.2164916   0.3915076  )
         2           Pb  tau(   2) = (   0.0000077   0.4329922   0.7830161  )
         3           Pb  tau(   3) = (   0.0000025   0.4329968   0.3915034  )
         4           Pb  tau(   4) = (  -0.1249932   0.6494975   0.7830119  )
         5           Pb  tau(   5) = (  -0.1249984   0.6495021   0.3914992  )
         6           Pb  tau(   6) = (  -0.2499941   0.8660028   0.7830077  )
         7           Pb  tau(   7) = (  -0.2499993   0.8660074   0.3914950  )
         8           Pb  tau(   8) = (   0.3750086   0.2164859   0.7830237  )
         9           Pb  tau(   9) = (   0.3750034   0.2164905   0.3915110  )
        10           Pb  tau(  10) = (   0.2500077   0.4329912   0.7830194  )
        11           Pb  tau(  11) = (   0.2500025   0.4329958   0.3915068  )
        12           Pb  tau(  12) = (   0.1250068   0.6494965   0.7830152  )
        13           Pb  tau(  13) = (   0.1250016   0.6495011   0.3915026  )
        14           Pb  tau(  14) = (   0.0000059   0.8660017   0.7830110  )
        15           Pb  tau(  15) = (   0.0000007   0.8660063   0.3914983  )
        16           Pb  tau(  16) = (   0.6250086   0.2164849   0.7830270  )
        17           Pb  tau(  17) = (   0.6250034   0.2164895   0.3915143  )
        18           Pb  tau(  18) = (   0.5000077   0.4329901   0.7830228  )
        19           Pb  tau(  19) = (   0.5000025   0.4329947   0.3915101  )
        20           Pb  tau(  20) = (   0.3750068   0.6494954   0.7830186  )
        21           Pb  tau(  21) = (   0.3750016   0.6495000   0.3915059  )
        22           Pb  tau(  22) = (   0.2500059   0.8660007   0.7830144  )
        23           Pb  tau(  23) = (   0.2500007   0.8660053   0.3915017  )
        24           Pb  tau(  24) = (   0.8750086   0.2164838   0.7830303  )
        25           Pb  tau(  25) = (   0.8750034   0.2164884   0.3915177  )
        26           Pb  tau(  26) = (   0.7500077   0.4329891   0.7830261  )
        27           Pb  tau(  27) = (   0.7500025   0.4329937   0.3915135  )
        28           Pb  tau(  28) = (   0.6250068   0.6494944   0.7830219  )
        29           Pb  tau(  29) = (   0.6250016   0.6494990   0.3915092  )
        30           Pb  tau(  30) = (   0.5000059   0.8659996   0.7830177  )
        31           Pb  tau(  31) = (   0.5000007   0.8660042   0.3915050  )
        32           I   tau(  32) = (   0.1250056   0.0721546   0.2909163  )
        33           I   tau(  33) = (   0.1250108   0.0721500   0.6824290  )
        34           I   tau(  34) = (   0.0000047   0.2886599   0.2909121  )
        35           I   tau(  35) = (   0.0000099   0.2886553   0.6824248  )
        36           I   tau(  36) = (  -0.1249962   0.5051652   0.2909079  )
        37           I   tau(  37) = (  -0.1249910   0.5051606   0.6824206  )
        38           I   tau(  38) = (  -0.2499972   0.7216704   0.2909037  )
        39           I   tau(  39) = (  -0.2499919   0.7216658   0.6824164  )
        40           I   tau(  40) = (   0.3750056   0.0721536   0.2909197  )
        41           I   tau(  41) = (   0.3750108   0.0721490   0.6824324  )
        42           I   tau(  42) = (   0.2500047   0.2886589   0.2909155  )
        43           I   tau(  43) = (   0.2500099   0.2886543   0.6824282  )
        44           I   tau(  44) = (   0.1250038   0.5051641   0.2909113  )
        45           I   tau(  45) = (   0.1250090   0.5051595   0.6824240  )
        46           I   tau(  46) = (   0.0000028   0.7216694   0.2909071  )
        47           I   tau(  47) = (   0.0000081   0.7216648   0.6824197  )
        48           I   tau(  48) = (   0.6250056   0.0721525   0.2909230  )
        49           I   tau(  49) = (   0.6250108   0.0721479   0.6824357  )
        50           I   tau(  50) = (   0.5000047   0.2886578   0.2909188  )
        51           I   tau(  51) = (   0.5000099   0.2886532   0.6824315  )
        52           I   tau(  52) = (   0.3750038   0.5051631   0.2909146  )
        53           I   tau(  53) = (   0.3750090   0.5051585   0.6824273  )
        54           I   tau(  54) = (   0.2500028   0.7216683   0.2909104  )
        55           I   tau(  55) = (   0.2500081   0.7216637   0.6824231  )
        56           I   tau(  56) = (   0.8750056   0.0721515   0.2909264  )
        57           I   tau(  57) = (   0.8750108   0.0721469   0.6824391  )
        58           I   tau(  58) = (   0.7500047   0.2886567   0.2909222  )
        59           I   tau(  59) = (   0.7500099   0.2886521   0.6824348  )
        60           I   tau(  60) = (   0.6250038   0.5051620   0.2909180  )
[...]
        82           I   tau(  82) = (   0.3749973   0.3608329   0.1005958  )
        83           I   tau(  83) = (   0.3750025   0.3608283   0.4921084  )
        84           I   tau(  84) = (   0.2499964   0.5773382   0.1005915  )
        85           I   tau(  85) = (   0.2500016   0.5773336   0.4921042  )
        86           I   tau(  86) = (   0.1249955   0.7938434   0.1005873  )
        87           I   tau(  87) = (   0.1250007   0.7938388   0.4921000  )
        88           I   tau(  88) = (   0.7499982   0.1443266   0.1006033  )
        89           I   tau(  89) = (   0.7500034   0.1443220   0.4921160  )
        90           I   tau(  90) = (   0.6249973   0.3608319   0.1005991  )
        91           I   tau(  91) = (   0.6250025   0.3608273   0.4921118  )
        92           I   tau(  92) = (   0.4999964   0.5773371   0.1005949  )
        93           I   tau(  93) = (   0.5000016   0.5773325   0.4921076  )
        94           I   tau(  94) = (   0.3749955   0.7938424   0.1005907  )
        95           I   tau(  95) = (   0.3750007   0.7938378   0.4921034  )
        96           I   tau(  96) = (   0.1250086   0.2164870   0.7830203  )

   Crystallographic axes

     site n.     atom                  positions (cryst. coord.)
         1           Pb  tau(   1) = (  0.2499949  0.2499829  0.4999935  )
         2           Pb  tau(   2) = (  0.2499959  0.4999764  0.9999882  )
         3           Pb  tau(   3) = (  0.2499933  0.4999817  0.4999882  )
         4           Pb  tau(   4) = (  0.2499944  0.7499751  0.9999828  )
         5           Pb  tau(   5) = (  0.2499918  0.7499804  0.4999828  )
         6           Pb  tau(   6) = (  0.2499928  0.9999739  0.9999774  )
         7           Pb  tau(   7) = (  0.2499903  0.9999792  0.4999774  )
[...]
     atom   55 type  2   force =     0.00000000    0.00000000    0.00000000
     atom   56 type  2   force =     0.00000000    0.00000000    0.00000000
     atom   57 type  2   force =     0.00000000    0.00000000    0.00000000
     atom   58 type  2   force =     0.00000000    0.00000000    0.00000000
     atom   59 type  2   force =     0.00000000    0.00000000    0.00000000
     atom   60 type  2   force =     0.00000000    0.00000000    0.00000000
[...]
     atom   82 type  2   force =     0.00000000    0.00000000    0.00000000
     atom   83 type  2   force =     0.00000000    0.00000000    0.00000000
     atom   84 type  2   force =     0.00000000    0.00000000    0.00000000
     atom   85 type  2   force =     0.00000000    0.00000000    0.00000000
     atom   86 type  2   force =     0.00000000    0.00000000    0.00000000
     atom   87 type  2   force =     0.00000000    0.00000000    0.00000000
     atom   88 type  2   force =     0.00000000    0.00000000    0.00000000
     atom   89 type  2   force =     0.00000000    0.00000000    0.00000000
     atom   90 type  2   force =     0.00000000    0.00000000    0.00000000
     atom   91 type  2   force =     0.00000000    0.00000000    0.00000000
     atom   92 type  2   force =     0.00000000    0.00000000    0.00000000
     atom   93 type  2   force =     0.00000000    0.00000000    0.00000000
     atom   94 type  2   force =     0.00000000    0.00000000    0.00000000
     atom   95 type  2   force =     0.00000000    0.00000000    0.00000000
     atom   96 type  2   force =     0.00000000    0.00000000    0.00000000
     The SCF correction term to forces
     atom    1 type  1   force =     0.00000426    0.00001643   -0.00000611
     atom    2 type  1   force =     0.00001116   -0.00000562    0.00000724
     atom    3 type  1   force =     0.00000272   -0.00001381   -0.00000065
     atom    4 type  1   force =     0.00000957   -0.00000729    0.00000337
     atom    5 type  1   force =     0.00001139   -0.00000646   -0.00000269
     atom    6 type  1   force =     0.00001375    0.00000756    0.00001076
     atom    7 type  1   force =     0.00001647    0.00002455   -0.00001071
     atom    8 type  1   force =    -0.00000095    0.00001519   -0.00000899
     atom    9 type  1   force =    -0.00000877    0.00000915    0.00000168
     atom   10 type  1   force =    -0.00000229   -0.00000918   -0.00000473
     atom   11 type  1   force =     0.00000323   -0.00001520    0.00000363
     atom   12 type  1   force =     0.00000944   -0.00000206    0.00000906
     atom   13 type  1   force =     0.00000583   -0.00001049   -0.00000126
     atom   14 type  1   force =     0.00001431    0.00000687    0.00000697
     atom   15 type  1   force =    -0.00000574    0.00001307   -0.00000596
     atom   16 type  1   force =    -0.00000295    0.00000255    0.00000083
     atom   17 type  1   force =    -0.00000430    0.00000248   -0.00000074
     atom   18 type  1   force =    -0.00000110   -0.00000492   -0.00000723
     atom   19 type  1   force =    -0.00001807   -0.00001370    0.00000558
     atom   20 type  1   force =    -0.00000986   -0.00001143    0.00000251
     atom   21 type  1   force =    -0.00001146   -0.00001118   -0.00000198
     atom   22 type  1   force =    -0.00001236   -0.00000147    0.00000994
     atom   23 type  1   force =     0.00000272    0.00000454   -0.00000740
     atom   24 type  1   force =    -0.00000151    0.00000376    0.00001351
     atom   25 type  1   force =     0.00000889    0.00000809   -0.00000648
     atom   26 type  1   force =    -0.00000793   -0.00000963   -0.00000322
     atom   27 type  1   force =     0.00001244   -0.00001703    0.00000344
     atom   28 type  1   force =    -0.00000910   -0.00001902   -0.00000141
     atom   29 type  1   force =    -0.00000587   -0.00001017   -0.00000544
     atom   30 type  1   force =    -0.00001528    0.00000581    0.00002008
     atom   31 type  1   force =    -0.00001365    0.00002056   -0.00001403
     atom   32 type  2   force =    -0.00000223    0.00003330   -0.00001362
     atom   33 type  2   force =     0.00000609    0.00003378    0.00000405
     atom   34 type  2   force =     0.00000744   -0.00000278   -0.00000779
     atom   35 type  2   force =     0.00001676    0.00001331    0.00000111
     atom   36 type  2   force =     0.00001336   -0.00001411   -0.00000043
     atom   37 type  2   force =     0.00000538   -0.00000869   -0.00000130
     atom   38 type  2   force =     0.00002072    0.00000734   -0.00001426
     atom   39 type  2   force =     0.00001221   -0.00001234    0.00000358
     atom   40 type  2   force =     0.00000177    0.00001443    0.00000510
     atom   41 type  2   force =     0.00000937    0.00002309   -0.00000747
     atom   42 type  2   force =    -0.00000667    0.00000031    0.00000151
     atom   43 type  2   force =     0.00000156    0.00001343   -0.00000576
     atom   44 type  2   force =     0.00000651   -0.00002095   -0.00001237
     atom   45 type  2   force =     0.00001155   -0.00001691   -0.00000170
     atom   46 type  2   force =    -0.00000583    0.00000384   -0.00001090
     atom   47 type  2   force =     0.00000944   -0.00000407    0.00000538
     atom   48 type  2   force =    -0.00000228    0.00000874   -0.00001434
     atom   49 type  2   force =    -0.00000277    0.00001619    0.00001789
     atom   50 type  2   force =    -0.00001145   -0.00000658   -0.00000232
     atom   51 type  2   force =     0.00000419    0.00000270    0.00000165
     atom   52 type  2   force =    -0.00001204   -0.00000687   -0.00000307
     atom   53 type  2   force =    -0.00000444   -0.00000369   -0.00000275
     atom   54 type  2   force =     0.00001185   -0.00000332   -0.00001640
     atom   55 type  2   force =     0.00000494   -0.00001449    0.00001009
     atom   56 type  2   force =     0.00000290    0.00001188   -0.00000897
     atom   57 type  2   force =    -0.00001266    0.00001013    0.00000359
     atom   58 type  2   force =     0.00000885   -0.00000701   -0.00000527
     atom   59 type  2   force =    -0.00001960    0.00000357    0.00000492
     atom   60 type  2   force =    -0.00000681   -0.00001987   -0.00001018
[...]
     atom   82 type  2   force =    -0.00000883   -0.00000141   -0.00000050
     atom   83 type  2   force =    -0.00001366   -0.00000485    0.00000576
     atom   84 type  2   force =     0.00000416    0.00000254   -0.00000177
     atom   85 type  2   force =     0.00001300   -0.00001710    0.00001048
     atom   86 type  2   force =     0.00000712    0.00000621   -0.00000774
     atom   87 type  2   force =     0.00000254    0.00000463    0.00000550
     atom   88 type  2   force =    -0.00001348    0.00000417    0.00000010
     atom   89 type  2   force =    -0.00000070    0.00001234    0.00000203
     atom   90 type  2   force =    -0.00000343   -0.00001666   -0.00001715
     atom   91 type  2   force =    -0.00000599   -0.00001128    0.00001288
     atom   92 type  2   force =    -0.00002120   -0.00000662   -0.00000773
     atom   93 type  2   force =    -0.00003124   -0.00002222    0.00001419
     atom   94 type  2   force =    -0.00001571   -0.00001135    0.00000767
     atom   95 type  2   force =    -0.00001334   -0.00000736   -0.00000027
     atom   96 type  2   force =     0.00000763    0.00003226    0.00001267

     Total force =     0.013432     Total SCF correction =     0.000193

     Computing stress (Cartesian axis) and pressure

[...]

          total   stress  (Ry/bohr**3)                   (kbar)     P=      -10.21
  -0.00007212  -0.00000023   0.00000152          -10.61       -0.03        0.22
  -0.00000023  -0.00006638   0.00000178           -0.03       -9.77        0.26
   0.00000152   0.00000178  -0.00006979            0.22        0.26      -10.27

     kinetic stress (kbar)  14917.60      0.62     -0.69
                                0.62  14921.76      2.44
                               -0.69      2.44  14927.97

     local   stress (kbar)  -7497.46     62.77   -101.29
                               62.77  -7302.09    113.04
                             -101.29    113.04   1274.72

     nonloc. stress (kbar)   -973.78      0.72     -1.24
                                0.72   -970.55      2.50
                               -1.24      2.50   -980.01

     hartree stress (kbar)  12079.06    -21.79     38.67
                              -21.79  12006.41    -44.47
                               38.67    -44.47   8127.94

     exc-cor stress (kbar)   6989.01     -0.10      0.11
                               -0.10   6988.84     -0.04
                                0.11     -0.04   6987.90

     corecor stress (kbar) -11365.49     -0.02      0.03
                               -0.02 -11365.56     -0.06
                                0.03     -0.06 -11365.40

     ewald   stress (kbar) -14243.41    -42.27     64.66
                              -42.27 -14372.50    -73.17
                               64.66    -73.17 -19068.54

     hubbard stress (kbar)      0.00      0.00      0.00
                                0.00      0.00      0.00
                                0.00      0.00      0.00

     DFT-D   stress (kbar)      0.00      0.00      0.00
                                0.00      0.00      0.00
                                0.00      0.00      0.00

     XDM     stress (kbar)      0.00      0.00      0.00
                                0.00      0.00      0.00
                                0.00      0.00      0.00

     dft-nl  stress (kbar)     83.85      0.03     -0.04
                                0.03     83.93      0.02
                               -0.04      0.02     85.15

     TS-vdW  stress (kbar)      0.00      0.00      0.00
                                0.00      0.00      0.00
                                0.00      0.00      0.00

     MDB     stress (kbar)      0.00      0.00      0.00
                                0.00      0.00      0.00
                                0.00      0.00      0.00

     3D-RISM stress (kbar)      0.00      0.00      0.00
                                0.00      0.00      0.00
                                0.00      0.00      0.00

     Energy error            =      3.1E-04 Ry
     Gradient error          =      3.1E-03 Ry/Bohr

     number of scf cycles    =  40
     number of bfgs steps    =  39

     energy             old  =  -64424.0958418814 Ry
     energy             new  =  -64424.0961506790 Ry

     CASE: energy            _new < energy            _old

     new trust radius        =       0.1171938281 bohr
     new conv_thr            =       0.0000000031 Ry

ATOMIC_POSITIONS (angstrom)
Pb            2.3554438250        4.0798537839        7.3733147583
Pb            0.0566884250        8.2518240508       14.8785024003
Pb           -0.0049536972        8.1465903006        7.3788376328
Pb           -2.3544673910       12.2380234141       14.7551418030
Pb           -2.3549855303       12.2381766089        7.3754880986
Pb           -4.7690822911       16.2237485324       14.6297501117
Pb           -4.7055337558       16.3298076529        7.3708190076
Pb            7.1431727947        4.1251301309       14.7004859438
Pb            7.0505094275        4.0717001021        7.3746346587
Pb            4.7084462523        8.2483777007       14.8183793421
Pb            4.7080982143        8.1511353262        7.3789422418
Pb            2.3575294232       12.2791822511       14.7334827772
Pb            2.3535752587       12.2459052494        7.3267093880
Pb            0.0013753668       16.3032910341       14.7570991907
Pb           -0.0009194431       16.3167822097        7.2945751973
Pb           11.7770984741        4.0787348684       14.7554927247
Pb           11.7766444748        4.0790049639        7.3755738173
Pb            9.4400345639        8.1891296538       14.7773122904
Pb            9.4264232200        8.1605018029        7.4374999549
Pb            7.0654217865       12.2383966380       14.7548082798
Pb            7.0660120618       12.2380711429        7.3754469076
Pb            4.6904065079       16.2866790621       14.7339777251
Pb            4.7047591923       16.3154912979        7.3140351205
Pb           16.4099917701        4.0361086481       14.8082267296
Pb           16.5028078657        4.0873608746        7.3746870857
Pb           14.1324739699        8.1720903905       14.7538713372
Pb           14.1339270113        8.1589147047        7.4569638599
Pb           11.7743501147       12.1984337743       14.7782461822
Pb           11.7784009863       12.2312109131        7.4250632080
Pb            9.4253772362       16.2273686611       14.6900084359
Pb            9.4239374181       16.3251606037        7.3709075991
I             2.3620849088        1.3614819970        5.5023327129
I             2.3251607134        1.0449602606       12.6562269383
I             0.0075667808        5.4373279190        5.4877772522
I             0.3292334318        5.2579981186       12.9469285500
I            -2.3787322510        9.5134162641        5.5105944692
I            -2.3259258093        9.5008662596       12.8928426895
I            -4.7135169217       13.5892728677        5.5028284277
I            -4.7038320794       13.5800100710       12.8384807989
I             7.0168736385        1.3868329841        5.4590496321
I             7.0462090874        1.3711020789       12.8615546516
I             4.7096555963        5.4361332324        5.4994089593
I             4.6898370066        5.4693952178       12.8187734064
I             2.3574021475        9.5340306729        5.4790458707
I             2.3542442048        9.5249147904       12.8668690554
I            -0.0191081535       13.5750717943        5.4446849721
I             0.0071398350       13.5916088123       12.8691486102
I            11.7843717205        1.3914570910        5.4422784139
I            11.7859745264        1.3606025424       12.8799530545
I             9.4231503838        5.4470098682        5.5093873287
I             9.3952508390        5.4285750870       12.8496598152
I             7.0766580485        9.5139707840        5.5094679367
I             7.0555424344        9.5270298185       12.8607743542
I             4.7283792558       13.5836755867        5.4469995997
I             4.7091473501       13.5987257312       12.8519233786
I            16.5128402739        1.3693046088        5.4622484550
I            16.4914221544        1.3625522064       12.8628675110
I            14.1258656331        5.4607240706        5.5118807899
I            14.1636863578        5.4228086283       12.8815260196
I            11.7820919992        9.5035236056        5.5408384117
[...]
I             7.0610874560        6.7958722556        1.8902617122
I             7.0405536880        6.7888136983        9.2932448994
I             4.7304951531       10.9083460766        1.9175924098
I             4.7044702169       10.8909089207        9.2524103773
I             2.3615309076       14.9561522694        1.8802274964
I             2.3500785519       14.9730066173        9.2155829142
I            14.1587834251        2.7294720665        1.9037541262
I            14.1296429248        2.7099743672        9.2472068259
I            11.7674750298        6.7979586295        1.8735192568
I            11.7691594077        6.7655575452        9.3134713947
I             9.4233611052       10.8777716875        1.9000927476
I             9.4027532954       10.8929852104        9.3080389056
I             7.0767078072       14.9505593022        1.8920355516
I             7.0535532705       14.9625530925        9.2463160534
I             2.3520314343        4.0812830025       14.7495608801

     Writing config-only to output data dir ./PbI2.save/
     NEW-OLD atomic charge density approx. for the potential

     Check: negative core charge=   -0.000001

[...]

     Self-consistent Calculation

[...]

     ethr =  3.19E-09,  avg # of iterations = 20.0

[...]

     c_bands:  1 eigenvalues not converged
     ethr =  1.61E-10,  avg # of iterations = 20.0

     Non-local corr. energy    =      46.33256712 Ry

     total energy              =  -64424.09670566 Ry
     estimated scf accuracy    <       0.00000039 Ry

     iteration # 18     ecut=    70.00 Ry     beta= 0.70
     Davidson diagonalization with overlap

     max_seconds     =  154800.00
     Calculation stopped in k-point loop, point #     1
     Calculation stopped in scf loop at iteration #    17

     Writing config to output data dir ./PbI2.save/
     Message from routine punch:
     wavefunctions written to file

     General routines

     Parallel routines

     PAW routines

   This run was terminated on:   4:39:45   4Mar2024

   JOB DONE.