     Program PWSCF v.7.1 starts on  4Mar2024 at 15:13:12

     Reading input from espresso.pwi
Warning: card &CELL ignored
Warning: card    CELL_DYNAMICS    = 'BFGS' ignored
Warning: card / ignored

     Current dimensions of program PWSCF are:
     Max number of different atomic species (ntypx) = 10
     Max number of k-points (npk) =  40000
     Max angular momentum in pseudopotentials (lmaxx) =  4
     file Pb.pbe-dn-kjpaw_psl.1.0.0.UPF: wavefunction(s)  6S 6P 5D renormalized
     file I.pbe-dn-kjpaw_psl.1.0.0.UPF: wavefunction(s)  5S 5P renormalized

     IMPORTANT: XC functional enforced from input :
     Exchange-correlation= BEEF-VDW
                           (   1   4  43  14   2   0   0)
     Any further DFT definition will be discarded
     Please, verify this is what you really want

     R & G space division:  proc/nbgrp/npool/nimage =     128
     Subspace diagonalization in iterative solution of the eigenvalue problem:
     a serial algorithm will be used

     Using Slab Decomposition

     bravais-lattice index     =            4
     lattice parameter (alat)  =      35.6073  a.u.
     unit-cell volume          =   30614.2220 (a.u.)^3
     number of atoms/cell      =           96
     number of atomic types    =            2
     number of electrons       =      1536.00
     number of Kohn-Sham states=          922
     kinetic-energy cutoff     =      70.0000  Ry
     charge density cutoff     =     350.0000  Ry
     scf convergence threshold =      1.0E-07
     mixing beta               =       0.7000
     number of iterations used =            8  plain     mixing
     energy convergence thresh.=      1.0E-04
     force convergence thresh. =      1.0E-03
     Exchange-correlation= BEEF-VDW
                           (   1   4  43  14   2   0   0)
     nstep                     =           50

     celldm(1)=  35.607290  celldm(2)=   0.000000  celldm(3)=   0.783025
     celldm(4)=   0.000000  celldm(5)=   0.000000  celldm(6)=   0.000000

     crystal axes: (cart. coord. in units of alat)
               a(1) = (   1.000000   0.000000   0.000000 )
               a(2) = (  -0.500000   0.866025   0.000000 )
               a(3) = (   0.000000   0.000000   0.783025 )

     reciprocal axes: (cart. coord. in units 2 pi/alat)
               b(1) = (  1.000000  0.577350 -0.000000 )
               b(2) = (  0.000000  1.154701  0.000000 )
               b(3) = (  0.000000 -0.000000  1.277098 )

     PseudoPot. # 1 for Pb read from file:
     //group///packages/espresso/pseudo/psl_1.0.0/pslibrary.1.0.0/pbe/PSEUDOPOTENTIALS/Pb.pbe-dn-kjpaw_psl.1.0.0.UPF
     MD5 check sum: 39ab5b8a6bbd56b7735ad9f188aac93a
     Pseudo is Projector augmented-wave + core cor, Zval = 14.0
     Generated using 'atomic' code by A. Dal Corso  v.7.1
     Shape of augmentation charge: PSQ
     Using radial grid of 1281 points,  6 beta functions with:
                l(1) =   0
                l(2) =   0
                l(3) =   1
                l(4) =   1
                l(5) =   2
                l(6) =   2
     Q(r) pseudized with 0 coefficients

     PseudoPot. # 2 for I  read from file:
     //group///packages/espresso/pseudo/psl_1.0.0/pslibrary.1.0.0/pbe/PSEUDOPOTENTIALS/I.pbe-dn-kjpaw_psl.1.0.0.UPF
     MD5 check sum: bfa8781bc1224d19af3f3980e3fab11e
     Pseudo is Projector augmented-wave + core cor, Zval = 17.0
     Generated using 'atomic' code by A. Dal Corso  v.7.1
     Shape of augmentation charge: PSQ
     Using radial grid of 1247 points,  6 beta functions with:
                l(1) =   0
                l(2) =   0
                l(3) =   1
                l(4) =   1
                l(5) =   2
                l(6) =   2
     Q(r) pseudized with 0 coefficients

     atomic species   valence    mass     pseudopotential
        Pb            14.00   207.20000     Pb( 1.00)
        I             17.00   126.90447     I ( 1.00)

     No symmetry found

                                    s                        frac. trans.

      isym =  1     identity

 cryst.   s( 1) = (     1          0          0      )
                  (     0          1          0      )
                  (     0          0          1      )

 cart.    s( 1) = (  1.0000000  0.0000000  0.0000000 )
                  (  0.0000000  1.0000000  0.0000000 )
                  (  0.0000000  0.0000000  1.0000000 )

     point group C_1 (1)
     there are  1 classes
     the character table:

       E
A      1.00

     the symmetry operations in each class and the name of the first element:

     E        1
          identity

   Cartesian axes

     site n.     atom                  positions (alat units)
         1           Pb  tau(   1) = (   0.1250034   0.2164916   0.3915076  )
         2           Pb  tau(   2) = (   0.0000077   0.4329922   0.7830161  )
         3           Pb  tau(   3) = (   0.0000025   0.4329968   0.3915034  )
         4           Pb  tau(   4) = (  -0.1249932   0.6494975   0.7830119  )
         5           Pb  tau(   5) = (  -0.1249984   0.6495021   0.3914992  )
         6           Pb  tau(   6) = (  -0.2499941   0.8660028   0.7830077  )
         7           Pb  tau(   7) = (  -0.2499993   0.8660074   0.3914950  )
         8           Pb  tau(   8) = (   0.3750086   0.2164859   0.7830237  )
         9           Pb  tau(   9) = (   0.3750034   0.2164905   0.3915110  )
        10           Pb  tau(  10) = (   0.2500077   0.4329912   0.7830194  )
        11           Pb  tau(  11) = (   0.2500025   0.4329958   0.3915068  )
        12           Pb  tau(  12) = (   0.1250068   0.6494965   0.7830152  )
        13           Pb  tau(  13) = (   0.1250016   0.6495011   0.3915026  )
        14           Pb  tau(  14) = (   0.0000059   0.8660017   0.7830110  )
        15           Pb  tau(  15) = (   0.0000007   0.8660063   0.3914983  )
        16           Pb  tau(  16) = (   0.6250086   0.2164849   0.7830270  )
        17           Pb  tau(  17) = (   0.6250034   0.2164895   0.3915143  )
        18           Pb  tau(  18) = (   0.5000077   0.4329901   0.7830228  )
        19           Pb  tau(  19) = (   0.5000025   0.4329947   0.3915101  )
        20           Pb  tau(  20) = (   0.3750068   0.6494954   0.7830186  )
        21           Pb  tau(  21) = (   0.3750016   0.6495000   0.3915059  )
        22           Pb  tau(  22) = (   0.2500059   0.8660007   0.7830144  )
        23           Pb  tau(  23) = (   0.2500007   0.8660053   0.3915017  )
        24           Pb  tau(  24) = (   0.8750086   0.2164838   0.7830303  )
        25           Pb  tau(  25) = (   0.8750034   0.2164884   0.3915177  )
        26           Pb  tau(  26) = (   0.7500077   0.4329891   0.7830261  )
        27           Pb  tau(  27) = (   0.7500025   0.4329937   0.3915135  )
        28           Pb  tau(  28) = (   0.6250068   0.6494944   0.7830219  )
        29           Pb  tau(  29) = (   0.6250016   0.6494990   0.3915092  )
        30           Pb  tau(  30) = (   0.5000059   0.8659996   0.7830177  )
        31           Pb  tau(  31) = (   0.5000007   0.8660042   0.3915050  )
        32           I   tau(  32) = (   0.1250056   0.0721546   0.2909163  )
        33           I   tau(  33) = (   0.1250108   0.0721500   0.6824290  )
        34           I   tau(  34) = (   0.0000047   0.2886599   0.2909121  )
        35           I   tau(  35) = (   0.0000099   0.2886553   0.6824248  )
        36           I   tau(  36) = (  -0.1249962   0.5051652   0.2909079  )
        37           I   tau(  37) = (  -0.1249910   0.5051606   0.6824206  )
        38           I   tau(  38) = (  -0.2499972   0.7216704   0.2909037  )
        39           I   tau(  39) = (  -0.2499919   0.7216658   0.6824164  )
        40           I   tau(  40) = (   0.3750056   0.0721536   0.2909197  )
        41           I   tau(  41) = (   0.3750108   0.0721490   0.6824324  )
        42           I   tau(  42) = (   0.2500047   0.2886589   0.2909155  )
        43           I   tau(  43) = (   0.2500099   0.2886543   0.6824282  )
        44           I   tau(  44) = (   0.1250038   0.5051641   0.2909113  )
        45           I   tau(  45) = (   0.1250090   0.5051595   0.6824240  )
        46           I   tau(  46) = (   0.0000028   0.7216694   0.2909071  )
        47           I   tau(  47) = (   0.0000081   0.7216648   0.6824197  )
        48           I   tau(  48) = (   0.6250056   0.0721525   0.2909230  )
        49           I   tau(  49) = (   0.6250108   0.0721479   0.6824357  )
        50           I   tau(  50) = (   0.5000047   0.2886578   0.2909188  )
        51           I   tau(  51) = (   0.5000099   0.2886532   0.6824315  )
        52           I   tau(  52) = (   0.3750038   0.5051631   0.2909146  )
        53           I   tau(  53) = (   0.3750090   0.5051585   0.6824273  )
        54           I   tau(  54) = (   0.2500028   0.7216683   0.2909104  )
        55           I   tau(  55) = (   0.2500081   0.7216637   0.6824231  )
        56           I   tau(  56) = (   0.8750056   0.0721515   0.2909264  )
        57           I   tau(  57) = (   0.8750108   0.0721469   0.6824391  )
        58           I   tau(  58) = (   0.7500047   0.2886567   0.2909222  )
        59           I   tau(  59) = (   0.7500099   0.2886521   0.6824348  )
        60           I   tau(  60) = (   0.6250038   0.5051620   0.2909180  )
[...]
        82           I   tau(  82) = (   0.3749973   0.3608329   0.1005958  )
        83           I   tau(  83) = (   0.3750025   0.3608283   0.4921084  )
        84           I   tau(  84) = (   0.2499964   0.5773382   0.1005915  )
        85           I   tau(  85) = (   0.2500016   0.5773336   0.4921042  )
        86           I   tau(  86) = (   0.1249955   0.7938434   0.1005873  )
        87           I   tau(  87) = (   0.1250007   0.7938388   0.4921000  )
        88           I   tau(  88) = (   0.7499982   0.1443266   0.1006033  )
        89           I   tau(  89) = (   0.7500034   0.1443220   0.4921160  )
        90           I   tau(  90) = (   0.6249973   0.3608319   0.1005991  )
        91           I   tau(  91) = (   0.6250025   0.3608273   0.4921118  )
        92           I   tau(  92) = (   0.4999964   0.5773371   0.1005949  )
        93           I   tau(  93) = (   0.5000016   0.5773325   0.4921076  )
        94           I   tau(  94) = (   0.3749955   0.7938424   0.1005907  )
        95           I   tau(  95) = (   0.3750007   0.7938378   0.4921034  )
        96           I   tau(  96) = (   0.1250086   0.2164870   0.7830203  )

   Crystallographic axes

     site n.     atom                  positions (cryst. coord.)
         1           Pb  tau(   1) = (  0.2499949  0.2499829  0.4999935  )
         2           Pb  tau(   2) = (  0.2499959  0.4999764  0.9999882  )
         3           Pb  tau(   3) = (  0.2499933  0.4999817  0.4999882  )
         4           Pb  tau(   4) = (  0.2499944  0.7499751  0.9999828  )
         5           Pb  tau(   5) = (  0.2499918  0.7499804  0.4999828  )
         6           Pb  tau(   6) = (  0.2499928  0.9999739  0.9999774  )
         7           Pb  tau(   7) = (  0.2499903  0.9999792  0.4999774  )
         8           Pb  tau(   8) = (  0.4999968  0.2499764  0.9999978  )
[...]
     atom   44 type  2   force =     0.00000000    0.00000000    0.00000000
     atom   45 type  2   force =     0.00000000    0.00000000    0.00000000
     atom   46 type  2   force =     0.00000000    0.00000000    0.00000000
     atom   47 type  2   force =     0.00000000    0.00000000    0.00000000
     atom   48 type  2   force =     0.00000000    0.00000000    0.00000000
     atom   49 type  2   force =     0.00000000    0.00000000    0.00000000
     atom   50 type  2   force =     0.00000000    0.00000000    0.00000000
     atom   51 type  2   force =     0.00000000    0.00000000    0.00000000
     atom   52 type  2   force =     0.00000000    0.00000000    0.00000000
     atom   53 type  2   force =     0.00000000    0.00000000    0.00000000
     atom   54 type  2   force =     0.00000000    0.00000000    0.00000000
     atom   55 type  2   force =     0.00000000    0.00000000    0.00000000
     atom   56 type  2   force =     0.00000000    0.00000000    0.00000000
     atom   57 type  2   force =     0.00000000    0.00000000    0.00000000
     atom   58 type  2   force =     0.00000000    0.00000000    0.00000000
     atom   59 type  2   force =     0.00000000    0.00000000    0.00000000
     atom   60 type  2   force =     0.00000000    0.00000000    0.00000000
[...]
     atom   82 type  2   force =     0.00000000    0.00000000    0.00000000
     atom   83 type  2   force =     0.00000000    0.00000000    0.00000000
     atom   84 type  2   force =     0.00000000    0.00000000    0.00000000
     atom   85 type  2   force =     0.00000000    0.00000000    0.00000000
     atom   86 type  2   force =     0.00000000    0.00000000    0.00000000
     atom   87 type  2   force =     0.00000000    0.00000000    0.00000000
     atom   88 type  2   force =     0.00000000    0.00000000    0.00000000
     atom   89 type  2   force =     0.00000000    0.00000000    0.00000000
     atom   90 type  2   force =     0.00000000    0.00000000    0.00000000
     atom   91 type  2   force =     0.00000000    0.00000000    0.00000000
     atom   92 type  2   force =     0.00000000    0.00000000    0.00000000
     atom   93 type  2   force =     0.00000000    0.00000000    0.00000000
     atom   94 type  2   force =     0.00000000    0.00000000    0.00000000
     atom   95 type  2   force =     0.00000000    0.00000000    0.00000000
     atom   96 type  2   force =     0.00000000    0.00000000    0.00000000
     The SCF correction term to forces
     atom    1 type  1   force =    -0.00001591    0.00000021   -0.00000394
     atom    2 type  1   force =    -0.00000481    0.00000741   -0.00000251
     atom    3 type  1   force =    -0.00000113   -0.00000482    0.00000519
     atom    4 type  1   force =    -0.00000103   -0.00001036   -0.00000983
     atom    5 type  1   force =    -0.00000275   -0.00001153    0.00001067
     atom    6 type  1   force =    -0.00000276    0.00000293    0.00000689
     atom    7 type  1   force =    -0.00001593   -0.00000443    0.00000103
     atom    8 type  1   force =    -0.00000345   -0.00000331    0.00000229
     atom    9 type  1   force =    -0.00001071    0.00000256    0.00000759
     atom   10 type  1   force =    -0.00000249    0.00000319   -0.00000089
     atom   11 type  1   force =    -0.00001237    0.00000453    0.00001026
     atom   12 type  1   force =     0.00000129   -0.00000983   -0.00001311
     atom   13 type  1   force =    -0.00000091   -0.00000997    0.00001851
     atom   14 type  1   force =    -0.00000516    0.00000344   -0.00000873
     atom   15 type  1   force =     0.00000238   -0.00000901    0.00001563
     atom   16 type  1   force =     0.00000978    0.00000275   -0.00001097
     atom   17 type  1   force =     0.00001758    0.00000279    0.00001287
     atom   18 type  1   force =     0.00000152    0.00000423   -0.00001043
     atom   19 type  1   force =     0.00000471    0.00001321    0.00001211
     atom   20 type  1   force =     0.00000209    0.00000263   -0.00001143
     atom   21 type  1   force =     0.00000538    0.00000474    0.00001433
     atom   22 type  1   force =     0.00001217    0.00000516   -0.00001213
     atom   23 type  1   force =     0.00001479    0.00000376    0.00001508
     atom   24 type  1   force =    -0.00000564   -0.00000461   -0.00000116
     atom   25 type  1   force =     0.00000885   -0.00000100    0.00000228
     atom   26 type  1   force =     0.00000599   -0.00000155   -0.00000854
     atom   27 type  1   force =     0.00000863    0.00000263    0.00000403
     atom   28 type  1   force =    -0.00000216    0.00000007   -0.00000761
     atom   29 type  1   force =    -0.00000185    0.00000262    0.00000584
     atom   30 type  1   force =    -0.00000408    0.00000272   -0.00000193
     atom   31 type  1   force =    -0.00000092    0.00000468    0.00000357
     atom   32 type  2   force =    -0.00001264    0.00000314   -0.00000063
     atom   33 type  2   force =    -0.00000823    0.00000029    0.00000145
     atom   34 type  2   force =    -0.00000058   -0.00000536    0.00000847
     atom   35 type  2   force =    -0.00000581   -0.00000281   -0.00000304
     atom   36 type  2   force =     0.00000142   -0.00000961    0.00000957
     atom   37 type  2   force =    -0.00000233   -0.00000049   -0.00000681
     atom   38 type  2   force =    -0.00001459   -0.00000224    0.00000671
     atom   39 type  2   force =    -0.00000267   -0.00001015   -0.00000792
     atom   40 type  2   force =    -0.00001910   -0.00000247   -0.00000640
     atom   41 type  2   force =     0.00000002    0.00000055    0.00000483
     atom   42 type  2   force =    -0.00002290   -0.00000225   -0.00000293
     atom   43 type  2   force =    -0.00000292   -0.00000223    0.00000755
     atom   44 type  2   force =    -0.00000819   -0.00000982    0.00001459
     atom   45 type  2   force =    -0.00000354    0.00000872   -0.00000899
     atom   46 type  2   force =    -0.00000222   -0.00001407    0.00001066
     atom   47 type  2   force =     0.00000208   -0.00001129   -0.00001152
     atom   48 type  2   force =     0.00001574    0.00000101    0.00000596
     atom   49 type  2   force =     0.00001238    0.00000069   -0.00000895
     atom   50 type  2   force =     0.00000312    0.00000821   -0.00000014
     atom   51 type  2   force =     0.00000437    0.00000599   -0.00000246
     atom   52 type  2   force =    -0.00000036    0.00000683    0.00000758
     atom   53 type  2   force =     0.00000269    0.00000730   -0.00000483
     atom   54 type  2   force =     0.00000795    0.00000006    0.00001115
     atom   55 type  2   force =     0.00000582    0.00000041   -0.00000930
     atom   56 type  2   force =     0.00001584    0.00000885    0.00000925
     atom   57 type  2   force =    -0.00000413   -0.00000181   -0.00000525
     atom   58 type  2   force =     0.00001955    0.00000310    0.00000643
     atom   59 type  2   force =     0.00000343    0.00000099   -0.00000529
     atom   60 type  2   force =     0.00000714    0.00000996    0.00000984
[...]
     atom   82 type  2   force =    -0.00000679   -0.00000275   -0.00000968
     atom   83 type  2   force =    -0.00000365    0.00001173    0.00000865
     atom   84 type  2   force =    -0.00000057   -0.00000365   -0.00001206
     atom   85 type  2   force =    -0.00000466    0.00000102    0.00000854
     atom   86 type  2   force =     0.00000760   -0.00000202   -0.00001079
     atom   87 type  2   force =     0.00000897   -0.00000724    0.00001155
     atom   88 type  2   force =     0.00001658    0.00000197   -0.00000930
     atom   89 type  2   force =     0.00001575   -0.00000040    0.00000799
     atom   90 type  2   force =     0.00001022    0.00000656   -0.00000967
     atom   91 type  2   force =     0.00001080    0.00000797    0.00001052
     atom   92 type  2   force =     0.00000394    0.00000473   -0.00000922
     atom   93 type  2   force =     0.00000381    0.00000895    0.00000590
     atom   94 type  2   force =     0.00000922    0.00000930   -0.00001059
     atom   95 type  2   force =     0.00000583    0.00000455    0.00000596
     atom   96 type  2   force =     0.00000259   -0.00001454    0.00002384

     Total force =     0.003876     Total SCF correction =     0.000134

     Computing stress (Cartesian axis) and pressure

     Non-local corr. energy    =      46.33070437 Ry

          total   stress  (Ry/bohr**3)                   (kbar)     P=       -9.69
  -0.00006888   0.00000036  -0.00000016          -10.13        0.05       -0.02
   0.00000036  -0.00006221   0.00000154            0.05       -9.15        0.23
  -0.00000016   0.00000154  -0.00006656           -0.02        0.23       -9.79

     kinetic stress (kbar)  14917.78      0.06      0.01
                                0.06  14924.32      3.80
                                0.01      3.80  14929.47

     local   stress (kbar)  -7669.27     -3.69      5.74
                               -3.69  -7288.48    213.70
                                5.74    213.70   1308.18

     nonloc. stress (kbar)   -975.52     -0.02     -0.01
                               -0.02   -970.24      4.01
                               -0.01      4.01   -980.70

     hartree stress (kbar)  12153.28      1.67     -2.13
                                1.67  12007.52    -85.56
                               -2.13    -85.56   8114.41

     exc-cor stress (kbar)   6988.92      0.00     -0.01
                                0.00   6988.62     -0.06
                               -0.01     -0.06   6987.72

     corecor stress (kbar) -11365.48      0.00      0.00
                                0.00 -11365.60     -0.10
                                0.00     -0.10 -11365.40

     ewald   stress (kbar) -14143.67      2.04     -3.62
                                2.04 -14389.25   -135.62
                               -3.62   -135.62 -19088.64

     hubbard stress (kbar)      0.00      0.00      0.00
                                0.00      0.00      0.00
                                0.00      0.00      0.00

     DFT-D   stress (kbar)      0.00      0.00      0.00
                                0.00      0.00      0.00
                                0.00      0.00      0.00

     XDM     stress (kbar)      0.00      0.00      0.00
                                0.00      0.00      0.00
                                0.00      0.00      0.00

     dft-nl  stress (kbar)     83.82     -0.00      0.00
                               -0.00     83.96      0.04
                                0.00      0.04     85.16

     TS-vdW  stress (kbar)      0.00      0.00      0.00
                                0.00      0.00      0.00
                                0.00      0.00      0.00

     MDB     stress (kbar)      0.00      0.00      0.00
                                0.00      0.00      0.00
                                0.00      0.00      0.00

     3D-RISM stress (kbar)      0.00      0.00      0.00
                                0.00      0.00      0.00
                                0.00      0.00      0.00

     Energy error            =      6.5E-05 Ry
     Gradient error          =      7.7E-04 Ry/Bohr

     bfgs converged in  61 scf cycles and  60 bfgs steps
     (criteria: energy <  1.0E-04 Ry, force <  1.0E-03 Ry/Bohr)

     End of BFGS Geometry Optimization

     Final energy             =  -64424.1147204695 Ry

     File ./PbI2.bfgs deleted, as requested
Begin final coordinates

ATOMIC_POSITIONS (angstrom)
Pb            2.3555946986        4.0791189627        7.3775567067
Pb            0.0749452215        8.2845828718       14.9394485706
Pb           -0.0076437575        8.1610408347        7.3832964414
Pb           -2.3552197298       12.2384270716       14.7537583904
Pb           -2.3555468080       12.2380379442        7.3780120862
Pb           -4.7848879518       16.1922663806       14.5677923405
Pb           -4.7026221948       16.3154283046        7.3721454330
Pb            7.1995716911        4.0895378205       14.7427796680
Pb            7.0521831721        4.0791858945        7.3883080363
Pb            4.6713077259        8.3040845702       14.9286778488
Pb            4.7213360585        8.1663663209        7.3931266387
Pb            2.3544390704       12.3021715349       14.7177858576
Pb            2.3507766848       12.2609602858        7.3860390124
Pb           -0.0306459433       16.2947602196       14.7111500966
Pb           -0.0082614007       16.3290595932        7.3124181634
Pb           11.7765989997        4.0794694823       14.7539621406
Pb           11.7765981727        4.0789862041        7.3779010604
Pb            9.4215929943        8.1895133650       14.7854708257
Pb            9.4193558496        8.1475746632        7.4223441612
Pb            7.0657290855       12.2384391205       14.7536402221
Pb            7.0662068282       12.2382471306        7.3777284676
Pb            4.7106138784       16.2870247634       14.7222798861
Pb            4.7129882733       16.3287941706        7.3334549341
Pb           16.3534734095        4.0681301487       14.7649275266
Pb           16.5012754433        4.0787218303        7.3670167735
Pb           14.1623130962        8.1822137414       14.7964933122
Pb           14.1399218245        8.1473690769        7.4435228989
Pb           11.7778918402       12.1743568683       14.7891532294
Pb           11.7814510397       12.2151816780        7.3695007160
Pb            9.4602598570       16.1733583707       14.5791489380
Pb            9.4106955189       16.3101550784        7.3616958432
I             2.3569192184        1.3532849537        5.4996476154
I             2.3191980190        0.8802108706       12.5537274495
I             0.0036096882        5.4394169281        5.4863623244
I             0.2681245019        5.2972234801       12.9558851671
I            -2.3832479196        9.5024188245        5.5175630406
I            -2.2924857840        9.4983320040       12.9117769423
I            -4.7143448428       13.5913027113        5.4899109686
I            -4.6895355109       13.5351298455       12.8221321893
I             7.0057625411        1.3918936069        5.4434325005
I             7.0464973338        1.3844224856       12.8469520626
I             4.7159397327        5.4407503349        5.5031360149
I             4.4118380710        5.3247775692       12.9520777257
I             2.3578743521        9.5741727622        5.5164112519
I             2.3601018444        9.5353068294       12.9145925126
I            -0.0028281412       13.5828234835        5.4662254347
I            -0.0022004430       13.6041733656       12.8452728743
I            11.7802401985        1.3888740508        5.4474765325
I            11.7679973406        1.3662746034       12.8741109596
I             9.4160611630        5.4482886963        5.5115358926
I             9.3984611526        5.4218447951       12.8540588823
I             7.0857601336        9.5060639685        5.5135529664
I             7.0497338678        9.5116118926       12.8972768802
I             4.7067369364       13.5894701611        5.4811995269
I             4.7072972655       13.6002108780       12.8465767136
I            16.5333872934        1.3794248298        5.4411753893
I            16.4839125189        1.3659578856       12.8617140572
I            14.1316213907        5.4620965501        5.5129884720
I            14.1755707710        5.4071187914       12.8668404905
I            11.7901871347        9.4664933195        5.5312929883
[...]
I             7.0691484009        6.7924942339        1.8935254280
I             7.0191962173        6.7788849163        9.3118236134
I             4.7331503737       10.9548212542        1.9337849500
I             4.7024787376       10.8921545711        9.2654668961
I             2.3348762574       14.9833084610        1.8677863941
I             2.3422797734       15.0093609226        9.2215302786
I            14.1563650066        2.7372135940        1.9009365363
I            14.1376575336        2.7097591297        9.2417742647
I            11.7853597302        6.7925516143        1.8812997779
I            11.7729312123        6.7690046572        9.3060864907
I             9.4244137337       10.8769221975        1.9088069587
I             9.4252507191       10.8870948466        9.2721098124
I             7.0825623693       14.9647584503        1.8571390053
I             7.0466029961       14.9707300447        9.2394894084
I             2.3562748862        4.0786125112       14.7542843786
End final coordinates

     Writing all to output data dir ./PbI2.save/

     General routines

     Parallel routines

     PAW routines

   This run was terminated on:  16: 5:34   5Mar2024

   JOB DONE.