     Program PWSCF v.7.1 starts on  5Mar2024 at 16:31:34

     Reading input from espresso.pwi
Warning: card &CELL ignored
Warning: card    CELL_DYNAMICS    = 'BFGS' ignored
Warning: card / ignored

     Current dimensions of program PWSCF are:
     Max number of different atomic species (ntypx) = 10
     Max number of k-points (npk) =  40000
     Max angular momentum in pseudopotentials (lmaxx) =  4
     file Pb.pbe-dn-kjpaw_psl.1.0.0.UPF: wavefunction(s)  6S 6P 5D renormalized
     file I.pbe-dn-kjpaw_psl.1.0.0.UPF: wavefunction(s)  5S 5P renormalized

     IMPORTANT: XC functional enforced from input :
     Exchange-correlation= BEEF-VDW
                           (   1   4  43  14   2   0   0)
     Any further DFT definition will be discarded
     Please, verify this is what you really want

     R & G space division:  proc/nbgrp/npool/nimage =     128
     Subspace diagonalization in iterative solution of the eigenvalue problem:
     a serial algorithm will be used

     Using Slab Decomposition

     bravais-lattice index     =            4
     lattice parameter (alat)  =      35.6073  a.u.
     unit-cell volume          =   30614.2220 (a.u.)^3
     number of atoms/cell      =           96
     number of atomic types    =            2
     number of electrons       =      1536.00
     number of Kohn-Sham states=          922
     kinetic-energy cutoff     =      70.0000  Ry
     charge density cutoff     =     350.0000  Ry
     scf convergence threshold =      1.0E-07
     mixing beta               =       0.7000
     number of iterations used =            8  plain     mixing
     Exchange-correlation= BEEF-VDW
                           (   1   4  43  14   2   0   0)

     celldm(1)=  35.607290  celldm(2)=   0.000000  celldm(3)=   0.783025
     celldm(4)=   0.000000  celldm(5)=   0.000000  celldm(6)=   0.000000

     crystal axes: (cart. coord. in units of alat)
               a(1) = (   1.000000   0.000000   0.000000 )
               a(2) = (  -0.500000   0.866025   0.000000 )
               a(3) = (   0.000000   0.000000   0.783025 )

     reciprocal axes: (cart. coord. in units 2 pi/alat)
               b(1) = (  1.000000  0.577350 -0.000000 )
               b(2) = (  0.000000  1.154701  0.000000 )
               b(3) = (  0.000000 -0.000000  1.277098 )

     PseudoPot. # 1 for Pb read from file:
     //group///packages/espresso/pseudo/psl_1.0.0/pslibrary.1.0.0/pbe/PSEUDOPOTENTIALS/Pb.pbe-dn-kjpaw_psl.1.0.0.UPF
     MD5 check sum: 39ab5b8a6bbd56b7735ad9f188aac93a
     Pseudo is Projector augmented-wave + core cor, Zval = 14.0
     Generated using 'atomic' code by A. Dal Corso  v.7.1
     Shape of augmentation charge: PSQ
     Using radial grid of 1281 points,  6 beta functions with:
                l(1) =   0
                l(2) =   0
                l(3) =   1
                l(4) =   1
                l(5) =   2
                l(6) =   2
     Q(r) pseudized with 0 coefficients

     PseudoPot. # 2 for I  read from file:
     //group///packages/espresso/pseudo/psl_1.0.0/pslibrary.1.0.0/pbe/PSEUDOPOTENTIALS/I.pbe-dn-kjpaw_psl.1.0.0.UPF
     MD5 check sum: bfa8781bc1224d19af3f3980e3fab11e
     Pseudo is Projector augmented-wave + core cor, Zval = 17.0
     Generated using 'atomic' code by A. Dal Corso  v.7.1
     Shape of augmentation charge: PSQ
     Using radial grid of 1247 points,  6 beta functions with:
                l(1) =   0
                l(2) =   0
                l(3) =   1
                l(4) =   1
                l(5) =   2
                l(6) =   2
     Q(r) pseudized with 0 coefficients

     atomic species   valence    mass     pseudopotential
        Pb            14.00   207.20000     Pb( 1.00)
        I             17.00   126.90447     I ( 1.00)

     No symmetry found

                                    s                        frac. trans.

      isym =  1     identity

 cryst.   s( 1) = (     1          0          0      )
                  (     0          1          0      )
                  (     0          0          1      )

 cart.    s( 1) = (  1.0000000  0.0000000  0.0000000 )
                  (  0.0000000  1.0000000  0.0000000 )
                  (  0.0000000  0.0000000  1.0000000 )

     point group C_1 (1)
     there are  1 classes
     the character table:

       E
A      1.00

     the symmetry operations in each class and the name of the first element:

     E        1
          identity

   Cartesian axes

     site n.     atom                  positions (alat units)
         1           Pb  tau(   1) = (   0.1250034   0.2164916   0.3915076  )
         2           Pb  tau(   2) = (   0.0000077   0.4329922   0.7830161  )
         3           Pb  tau(   3) = (   0.0000025   0.4329968   0.3915034  )
         4           Pb  tau(   4) = (  -0.1249932   0.6494975   0.7830119  )
         5           Pb  tau(   5) = (  -0.1249984   0.6495021   0.3914992  )
         6           Pb  tau(   6) = (  -0.2499941   0.8660028   0.7830077  )
         7           Pb  tau(   7) = (  -0.2499993   0.8660074   0.3914950  )
         8           Pb  tau(   8) = (   0.3750086   0.2164859   0.7830237  )
         9           Pb  tau(   9) = (   0.3750034   0.2164905   0.3915110  )
        10           Pb  tau(  10) = (   0.2500077   0.4329912   0.7830194  )
        11           Pb  tau(  11) = (   0.2500025   0.4329958   0.3915068  )
        12           Pb  tau(  12) = (   0.1250068   0.6494965   0.7830152  )
        13           Pb  tau(  13) = (   0.1250016   0.6495011   0.3915026  )
        14           Pb  tau(  14) = (   0.0000059   0.8660017   0.7830110  )
        15           Pb  tau(  15) = (   0.0000007   0.8660063   0.3914983  )
        16           Pb  tau(  16) = (   0.6250086   0.2164849   0.7830270  )
        17           Pb  tau(  17) = (   0.6250034   0.2164895   0.3915143  )
        18           Pb  tau(  18) = (   0.5000077   0.4329901   0.7830228  )
        19           Pb  tau(  19) = (   0.5000025   0.4329947   0.3915101  )
        20           Pb  tau(  20) = (   0.3750068   0.6494954   0.7830186  )
        21           Pb  tau(  21) = (   0.3750016   0.6495000   0.3915059  )
        22           Pb  tau(  22) = (   0.2500059   0.8660007   0.7830144  )
        23           Pb  tau(  23) = (   0.2500007   0.8660053   0.3915017  )
        24           Pb  tau(  24) = (   0.8750086   0.2164838   0.7830303  )
        25           Pb  tau(  25) = (   0.8750034   0.2164884   0.3915177  )
        26           Pb  tau(  26) = (   0.7500077   0.4329891   0.7830261  )
        27           Pb  tau(  27) = (   0.7500025   0.4329937   0.3915135  )
        28           Pb  tau(  28) = (   0.6250068   0.6494944   0.7830219  )
        29           Pb  tau(  29) = (   0.6250016   0.6494990   0.3915092  )
        30           Pb  tau(  30) = (   0.5000059   0.8659996   0.7830177  )
        31           Pb  tau(  31) = (   0.5000007   0.8660042   0.3915050  )
        32           I   tau(  32) = (   0.1250056   0.0721546   0.2909163  )
        33           I   tau(  33) = (   0.1250108   0.0721500   0.6824290  )
        34           I   tau(  34) = (   0.0000047   0.2886599   0.2909121  )
        35           I   tau(  35) = (   0.0000099   0.2886553   0.6824248  )
        36           I   tau(  36) = (  -0.1249962   0.5051652   0.2909079  )
        37           I   tau(  37) = (  -0.1249910   0.5051606   0.6824206  )
        38           I   tau(  38) = (  -0.2499972   0.7216704   0.2909037  )
        39           I   tau(  39) = (  -0.2499919   0.7216658   0.6824164  )
        40           I   tau(  40) = (   0.3750056   0.0721536   0.2909197  )
        41           I   tau(  41) = (   0.3750108   0.0721490   0.6824324  )
        42           I   tau(  42) = (   0.2500047   0.2886589   0.2909155  )
        43           I   tau(  43) = (   0.2500099   0.2886543   0.6824282  )
        44           I   tau(  44) = (   0.1250038   0.5051641   0.2909113  )
        45           I   tau(  45) = (   0.1250090   0.5051595   0.6824240  )
        46           I   tau(  46) = (   0.0000028   0.7216694   0.2909071  )
        47           I   tau(  47) = (   0.0000081   0.7216648   0.6824197  )
        48           I   tau(  48) = (   0.6250056   0.0721525   0.2909230  )
        49           I   tau(  49) = (   0.6250108   0.0721479   0.6824357  )
        50           I   tau(  50) = (   0.5000047   0.2886578   0.2909188  )
        51           I   tau(  51) = (   0.5000099   0.2886532   0.6824315  )
        52           I   tau(  52) = (   0.3750038   0.5051631   0.2909146  )
        53           I   tau(  53) = (   0.3750090   0.5051585   0.6824273  )
        54           I   tau(  54) = (   0.2500028   0.7216683   0.2909104  )
        55           I   tau(  55) = (   0.2500081   0.7216637   0.6824231  )
        56           I   tau(  56) = (   0.8750056   0.0721515   0.2909264  )
        57           I   tau(  57) = (   0.8750108   0.0721469   0.6824391  )
        58           I   tau(  58) = (   0.7500047   0.2886567   0.2909222  )
        59           I   tau(  59) = (   0.7500099   0.2886521   0.6824348  )
        60           I   tau(  60) = (   0.6250038   0.5051620   0.2909180  )
[...]
        82           I   tau(  82) = (   0.3749973   0.3608329   0.1005958  )
        83           I   tau(  83) = (   0.3750025   0.3608283   0.4921084  )
        84           I   tau(  84) = (   0.2499964   0.5773382   0.1005915  )
        85           I   tau(  85) = (   0.2500016   0.5773336   0.4921042  )
        86           I   tau(  86) = (   0.1249955   0.7938434   0.1005873  )
        87           I   tau(  87) = (   0.1250007   0.7938388   0.4921000  )
        88           I   tau(  88) = (   0.7499982   0.1443266   0.1006033  )
        89           I   tau(  89) = (   0.7500034   0.1443220   0.4921160  )
        90           I   tau(  90) = (   0.6249973   0.3608319   0.1005991  )
        91           I   tau(  91) = (   0.6250025   0.3608273   0.4921118  )
        92           I   tau(  92) = (   0.4999964   0.5773371   0.1005949  )
        93           I   tau(  93) = (   0.5000016   0.5773325   0.4921076  )
        94           I   tau(  94) = (   0.3749955   0.7938424   0.1005907  )
        95           I   tau(  95) = (   0.3750007   0.7938378   0.4921034  )
        96           I   tau(  96) = (   0.1250086   0.2164870   0.7830203  )

   Crystallographic axes

     site n.     atom                  positions (cryst. coord.)
         1           Pb  tau(   1) = (  0.2499949  0.2499829  0.4999935  )
         2           Pb  tau(   2) = (  0.2499959  0.4999764  0.9999882  )
         3           Pb  tau(   3) = (  0.2499933  0.4999817  0.4999882  )
         4           Pb  tau(   4) = (  0.2499944  0.7499751  0.9999828  )
         5           Pb  tau(   5) = (  0.2499918  0.7499804  0.4999828  )
         6           Pb  tau(   6) = (  0.2499928  0.9999739  0.9999774  )
         7           Pb  tau(   7) = (  0.2499903  0.9999792  0.4999774  )
         8           Pb  tau(   8) = (  0.4999968  0.2499764  0.9999978  )
         9           Pb  tau(   9) = (  0.4999943  0.2499817  0.4999978  )
[...]
     atom   26 type  1   force =     0.00000000    0.00000000    0.00000000
     atom   27 type  1   force =     0.00000000    0.00000000    0.00000000
     atom   28 type  1   force =     0.00000000    0.00000000    0.00000000
     atom   29 type  1   force =     0.00000000    0.00000000    0.00000000
     atom   30 type  1   force =     0.00000000    0.00000000    0.00000000
     atom   31 type  1   force =     0.00000000    0.00000000    0.00000000
     atom   32 type  2   force =     0.00000000    0.00000000    0.00000000
     atom   33 type  2   force =     0.00000000    0.00000000    0.00000000
     atom   34 type  2   force =     0.00000000    0.00000000    0.00000000
     atom   35 type  2   force =     0.00000000    0.00000000    0.00000000
     atom   36 type  2   force =     0.00000000    0.00000000    0.00000000
     atom   37 type  2   force =     0.00000000    0.00000000    0.00000000
     atom   38 type  2   force =     0.00000000    0.00000000    0.00000000
     atom   39 type  2   force =     0.00000000    0.00000000    0.00000000
     atom   40 type  2   force =     0.00000000    0.00000000    0.00000000
     atom   41 type  2   force =     0.00000000    0.00000000    0.00000000
     atom   42 type  2   force =     0.00000000    0.00000000    0.00000000
     atom   43 type  2   force =     0.00000000    0.00000000    0.00000000
     atom   44 type  2   force =     0.00000000    0.00000000    0.00000000
     atom   45 type  2   force =     0.00000000    0.00000000    0.00000000
     atom   46 type  2   force =     0.00000000    0.00000000    0.00000000
     atom   47 type  2   force =     0.00000000    0.00000000    0.00000000
     atom   48 type  2   force =     0.00000000    0.00000000    0.00000000
     atom   49 type  2   force =     0.00000000    0.00000000    0.00000000
     atom   50 type  2   force =     0.00000000    0.00000000    0.00000000
     atom   51 type  2   force =     0.00000000    0.00000000    0.00000000
     atom   52 type  2   force =     0.00000000    0.00000000    0.00000000
     atom   53 type  2   force =     0.00000000    0.00000000    0.00000000
     atom   54 type  2   force =     0.00000000    0.00000000    0.00000000
     atom   55 type  2   force =     0.00000000    0.00000000    0.00000000
     atom   56 type  2   force =     0.00000000    0.00000000    0.00000000
     atom   57 type  2   force =     0.00000000    0.00000000    0.00000000
     atom   58 type  2   force =     0.00000000    0.00000000    0.00000000
     atom   59 type  2   force =     0.00000000    0.00000000    0.00000000
     atom   60 type  2   force =     0.00000000    0.00000000    0.00000000
[...]
     atom   82 type  2   force =     0.00000000    0.00000000    0.00000000
     atom   83 type  2   force =     0.00000000    0.00000000    0.00000000
     atom   84 type  2   force =     0.00000000    0.00000000    0.00000000
     atom   85 type  2   force =     0.00000000    0.00000000    0.00000000
     atom   86 type  2   force =     0.00000000    0.00000000    0.00000000
     atom   87 type  2   force =     0.00000000    0.00000000    0.00000000
     atom   88 type  2   force =     0.00000000    0.00000000    0.00000000
     atom   89 type  2   force =     0.00000000    0.00000000    0.00000000
     atom   90 type  2   force =     0.00000000    0.00000000    0.00000000
     atom   91 type  2   force =     0.00000000    0.00000000    0.00000000
     atom   92 type  2   force =     0.00000000    0.00000000    0.00000000
     atom   93 type  2   force =     0.00000000    0.00000000    0.00000000
     atom   94 type  2   force =     0.00000000    0.00000000    0.00000000
     atom   95 type  2   force =     0.00000000    0.00000000    0.00000000
     atom   96 type  2   force =     0.00000000    0.00000000    0.00000000
     The SCF correction term to forces
     atom    1 type  1   force =     0.00010354    0.00000895    0.00001006
     atom    2 type  1   force =     0.00002216   -0.00000323    0.00002097
     atom    3 type  1   force =     0.00002218    0.00003715   -0.00003366
     atom    4 type  1   force =     0.00001746    0.00004881    0.00005612
     atom    5 type  1   force =     0.00002901    0.00007008   -0.00006027
     atom    6 type  1   force =     0.00005225   -0.00000645   -0.00000228
     atom    7 type  1   force =     0.00010592    0.00003466   -0.00001721
     atom    8 type  1   force =     0.00003320    0.00000968    0.00000488
     atom    9 type  1   force =     0.00006962   -0.00001263   -0.00003369
     atom   10 type  1   force =     0.00002392   -0.00001725    0.00002224
     atom   11 type  1   force =     0.00006759   -0.00002669   -0.00004779
     atom   12 type  1   force =    -0.00000852    0.00003967    0.00007319
     atom   13 type  1   force =    -0.00000390    0.00005257   -0.00008752
     atom   14 type  1   force =     0.00001200    0.00000654    0.00005553
     atom   15 type  1   force =    -0.00000880    0.00005723   -0.00007181
     atom   16 type  1   force =    -0.00005813   -0.00001673    0.00005720
     atom   17 type  1   force =    -0.00011060   -0.00002295   -0.00006412
     atom   18 type  1   force =    -0.00001680   -0.00003867    0.00005405
     atom   19 type  1   force =    -0.00003202   -0.00008762   -0.00006008
     atom   20 type  1   force =    -0.00002063   -0.00002589    0.00006323
     atom   21 type  1   force =    -0.00003557   -0.00004068   -0.00007158
     atom   22 type  1   force =    -0.00007161   -0.00001514    0.00006612
     atom   23 type  1   force =    -0.00010185   -0.00001040   -0.00007529
     atom   24 type  1   force =    -0.00001336    0.00002047    0.00001233
     atom   25 type  1   force =    -0.00006151    0.00000324   -0.00002233
     atom   26 type  1   force =    -0.00003027   -0.00000309    0.00004821
     atom   27 type  1   force =    -0.00005809   -0.00001790   -0.00003991
     atom   28 type  1   force =     0.00001018   -0.00001171    0.00004474
     atom   29 type  1   force =     0.00000986   -0.00002298   -0.00004241
     atom   30 type  1   force =     0.00000809   -0.00002018    0.00001748
     atom   31 type  1   force =     0.00000389   -0.00002359   -0.00002531
     atom   32 type  2   force =     0.00009140   -0.00000786   -0.00000519
     atom   33 type  2   force =     0.00006452    0.00001787   -0.00000061
     atom   34 type  2   force =     0.00001725    0.00003548   -0.00004229
     atom   35 type  2   force =     0.00003809    0.00002137    0.00001437
     atom   36 type  2   force =    -0.00000309    0.00005583   -0.00005745
     atom   37 type  2   force =     0.00000835    0.00001183    0.00004266
     atom   38 type  2   force =     0.00008073    0.00002255   -0.00003907
     atom   39 type  2   force =     0.00003560    0.00003838    0.00003819
     atom   40 type  2   force =     0.00010928    0.00002597    0.00002671
     atom   41 type  2   force =     0.00003175    0.00001870   -0.00001263
     atom   42 type  2   force =     0.00013117    0.00000774    0.00001177
     atom   43 type  2   force =     0.00004765    0.00000774   -0.00002233
     atom   44 type  2   force =     0.00004793    0.00005475   -0.00006089
     atom   45 type  2   force =     0.00002525   -0.00002371    0.00004474
     atom   46 type  2   force =     0.00001780    0.00008520   -0.00004734
     atom   47 type  2   force =    -0.00000462    0.00006235    0.00005259
     atom   48 type  2   force =    -0.00010190    0.00000244   -0.00002419
     atom   49 type  2   force =    -0.00007509    0.00000497    0.00003779
     atom   50 type  2   force =    -0.00002201   -0.00005621    0.00000575
     atom   51 type  2   force =    -0.00003077   -0.00003580    0.00000962
     atom   52 type  2   force =     0.00000090   -0.00005487   -0.00003637
     atom   53 type  2   force =    -0.00000877   -0.00005774    0.00003247
     atom   54 type  2   force =    -0.00006327   -0.00000081   -0.00005882
     atom   55 type  2   force =    -0.00004262   -0.00000162    0.00005378
     atom   56 type  2   force =    -0.00009529   -0.00003714   -0.00004904
     atom   57 type  2   force =    -0.00001985    0.00000882    0.00003001
     atom   58 type  2   force =    -0.00012513   -0.00002248   -0.00003962
     atom   59 type  2   force =    -0.00004721   -0.00000836    0.00003091
     atom   60 type  2   force =    -0.00004801   -0.00006261   -0.00005023
[...]
     atom   82 type  2   force =     0.00003983   -0.00001071    0.00004919
     atom   83 type  2   force =     0.00002611   -0.00007367   -0.00005005
     atom   84 type  2   force =    -0.00000317    0.00000918    0.00005626
     atom   85 type  2   force =     0.00001369   -0.00001996   -0.00004600
     atom   86 type  2   force =    -0.00004638    0.00002087    0.00006413
     atom   87 type  2   force =    -0.00006113    0.00004880   -0.00007087
     atom   88 type  2   force =    -0.00010766   -0.00001549    0.00004689
     atom   89 type  2   force =    -0.00011384   -0.00000093   -0.00003967
     atom   90 type  2   force =    -0.00006221   -0.00003943    0.00005296
     atom   91 type  2   force =    -0.00008240   -0.00005966   -0.00005527
     atom   92 type  2   force =    -0.00002134   -0.00004652    0.00004349
     atom   93 type  2   force =    -0.00002508   -0.00006660   -0.00003160
     atom   94 type  2   force =    -0.00006165   -0.00004454    0.00004520
     atom   95 type  2   force =    -0.00004597   -0.00002618   -0.00002889
     atom   96 type  2   force =     0.00003872    0.00007396   -0.00008663

     Total force =     0.003880     Total SCF correction =     0.000783
     SCF correction compared to forces is large: reduce conv_thr to get better values

     Computing stress (Cartesian axis) and pressure

[...]

          total   stress  (Ry/bohr**3)                   (kbar)     P=       -9.69
  -0.00006888   0.00000036  -0.00000016          -10.13        0.05       -0.02
   0.00000036  -0.00006221   0.00000154            0.05       -9.15        0.23
  -0.00000016   0.00000154  -0.00006655           -0.02        0.23       -9.79

     kinetic stress (kbar)  14917.78      0.06      0.01
                                0.06  14924.32      3.80
                                0.01      3.80  14929.47

     local   stress (kbar)  -7669.27     -3.69      5.74
                               -3.69  -7288.49    213.70
                                5.74    213.70   1308.18

     nonloc. stress (kbar)   -975.52     -0.02     -0.01
                               -0.02   -970.24      4.01
                               -0.01      4.01   -980.70

     hartree stress (kbar)  12153.28      1.67     -2.13
                                1.67  12007.52    -85.56
                               -2.13    -85.56   8114.41

     exc-cor stress (kbar)   6988.92      0.00     -0.01
                                0.00   6988.62     -0.06
                               -0.01     -0.06   6987.72

     corecor stress (kbar) -11365.48      0.00      0.00
                                0.00 -11365.60     -0.10
                                0.00     -0.10 -11365.40

     ewald   stress (kbar) -14143.67      2.04     -3.62
                                2.04 -14389.25   -135.62
                               -3.62   -135.62 -19088.64

     hubbard stress (kbar)      0.00      0.00      0.00
                                0.00      0.00      0.00
                                0.00      0.00      0.00

     DFT-D   stress (kbar)      0.00      0.00      0.00
                                0.00      0.00      0.00
                                0.00      0.00      0.00

     XDM     stress (kbar)      0.00      0.00      0.00
                                0.00      0.00      0.00
                                0.00      0.00      0.00

     dft-nl  stress (kbar)     83.82     -0.00      0.00
                               -0.00     83.96      0.04
                                0.00      0.04     85.16

     TS-vdW  stress (kbar)      0.00      0.00      0.00
                                0.00      0.00      0.00
                                0.00      0.00      0.00

     MDB     stress (kbar)      0.00      0.00      0.00
                                0.00      0.00      0.00
                                0.00      0.00      0.00

     3D-RISM stress (kbar)      0.00      0.00      0.00
                                0.00      0.00      0.00
                                0.00      0.00      0.00

[...]

     Non-local corr. energy    =      46.33070380 Ry

 BEEFens 2000 ensemble energies
             -0.388118360271624E+02
             -0.390850694563314E+03
             -0.177921092376573E+03
              0.136460405753036E+03
             -0.298766463827772E+03
             -0.365816567975334E+03
              0.187728014702334E+03
              0.834900374034305E+00
              0.316382880421381E+03
             -0.200740156255238E+02
              0.162075476230039E+03
              0.165725023154605E+02
             -0.124454668006167E+02
             -0.100570511108988E+02
              0.201981588568344E+03
             -0.152016246608639E+03
             -0.298429863610002E+03
             -0.963538155854544E+02
              0.863478703086125E+02
             -0.183481569637615E+01
              0.440223569488943E+03
              0.367395788632800E+03
             -0.226387454103001E+03
              0.781698776827018E+02
             -0.471526207812635E+03
              0.387047775835458E+03
              0.132305819166621E+03
              0.349472550904626E+03
              0.235532374295743E+03
             -0.109307690864948E+03
              0.861946511639169E+02
             -0.154102246887081E+03
              0.644154661765767E+02
              0.234407670086418E+03
              0.252089212133856E+03
             -0.109644755142441E+03
              0.556271138544297E+03
             -0.223864971616790E+03
             -0.149154592581571E+03
              0.222491911107711E+03
              0.980990889110519E+02
              0.169020642227857E+03
             -0.326475710991323E+03
             -0.211625058222421E+02
              0.313264360590332E+03
              0.409483401200725E+03
             -0.415762968710080E+03
              0.266792068460733E+02
              0.144180360745352E+03
              0.931699809469951E+02
              0.162537128886139E+03
              0.356924455118475E+03
             -0.231762167407529E+03
             -0.224975470515747E+03
             -0.313466507109715E+03
             -0.454379676928791E+02
             -0.267507415275154E+03
              0.345426740343621E+02
             -0.385243160765663E+02
             -0.212063263050028E+03
[...]
              0.264793740723383E+03
              0.169713642921362E+03
              0.172964610813432E+03
             -0.320114834613507E+03
             -0.330712841019101E+03
             -0.744918737081325E+02
             -0.295556859973682E+03
              0.469197985067896E+03
              0.395233984703688E+03
              0.186424690128844E+03
              0.513938545782581E+03
             -0.256902716442295E+03
             -0.110555753374630E+03
             -0.159416066205659E+03
              0.444627019710335E+03

 BEEF-vdW xc energy contributions
            1 :    -4018.430524309709
            2 :     3682.139661183940
            3 :    -3108.880053952277
            4 :     2451.561062242733
            5 :    -1853.959467957468
            6 :     1404.459944480009
            7 :    -1121.790258192721
            8 :     968.3605331664394
            9 :    -878.6942635120413
           10 :     790.8408525935879
           11 :    -670.0299865620591
           12 :     516.3082325106425
           13 :    -354.8729426332693
           14 :     216.7592420983274
           15 :    -121.5149485170305
           16 :     69.80123511634156
           17 :    -46.70202305295697
           18 :     31.46463036796831
           19 :    -8.066847988151494
           20 :    -28.06286305104368
           21 :     69.81503822161812
           22 :    -104.2860368671263
           23 :     121.2354898294689
           24 :    -119.2217347702790
           25 :     106.1788887573539
           26 :    -94.68041013448601
           27 :     94.99126434336995
           28 :    -109.7387207917909
           29 :     132.8034501572365
           30 :    -152.8047094743424
           31 :    -345.1974826435726
           32 :    -248.2487752377501

     Writing all to output data dir ./PbI2.save/

     General routines

     Parallel routines

     PAW routines

   This run was terminated on:  16:39: 3   5Mar2024

   JOB DONE.