     Program PWSCF v.7.1 starts on 18Mar2024 at 22:18:17

     Reading input from espresso.pwi
Warning: card &CELL ignored
Warning: card    CELL_DYNAMICS    = 'BFGS' ignored
Warning: card / ignored

     Current dimensions of program PWSCF are:
     Max number of different atomic species (ntypx) = 10
     Max number of k-points (npk) =  40000
     Max angular momentum in pseudopotentials (lmaxx) =  4
     file Ga.pbe-dn-kjpaw_psl.1.0.0.UPF: wavefunction(s)  4S renormalized
     file N.pbe-n-kjpaw_psl.1.0.0.UPF: wavefunction(s)  2S renormalized

     IMPORTANT: XC functional enforced from input :
     Exchange-correlation= BEEF-VDW
                           (   1   4  43  14   2   0   0)
     Any further DFT definition will be discarded
     Please, verify this is what you really want

     K-points division:     npool     =       4
     R & G space division:  proc/nbgrp/npool/nimage =      64
     Subspace diagonalization in iterative solution of the eigenvalue problem:
     a serial algorithm will be used

     Using Slab Decomposition

     bravais-lattice index     =            4
     lattice parameter (alat)  =      30.6565  a.u.
     unit-cell volume          =   24400.9461 (a.u.)^3
     number of atoms/cell      =          299
     number of atomic types    =            2
     number of electrons       =      2694.00
     number of Kohn-Sham states=         1616
     kinetic-energy cutoff     =      70.0000  Ry
     charge density cutoff     =     350.0000  Ry
     scf convergence threshold =      1.0E-07
     mixing beta               =       0.7000
     number of iterations used =            8  plain     mixing
     Exchange-correlation= BEEF-VDW
                           (   1   4  43  14   2   0   0)

     celldm(1)=  30.656540  celldm(2)=   0.000000  celldm(3)=   0.977927
     celldm(4)=   0.000000  celldm(5)=   0.000000  celldm(6)=   0.000000

     crystal axes: (cart. coord. in units of alat)
               a(1) = (   1.000000   0.000000   0.000000 )
               a(2) = (  -0.500000   0.866025   0.000000 )
               a(3) = (   0.000000   0.000000   0.977927 )

     reciprocal axes: (cart. coord. in units 2 pi/alat)
               b(1) = (  1.000000  0.577350 -0.000000 )
               b(2) = (  0.000000  1.154701  0.000000 )
               b(3) = (  0.000000 -0.000000  1.022571 )

     PseudoPot. # 1 for Ga read from file:
     //group///packages/espresso/pseudo/psl_1.0.0/pslibrary.1.0.0/pbe/PSEUDOPOTENTIALS/Ga.pbe-dn-kjpaw_psl.1.0.0.UPF
     MD5 check sum: cd2a01e492f15b435d17032472d8505c
     Pseudo is Projector augmented-wave + core cor, Zval = 13.0
     Generated using 'atomic' code by A. Dal Corso  v.7.1
     Shape of augmentation charge: PSQ
     Using radial grid of 1205 points,  6 beta functions with:
                l(1) =   0
                l(2) =   0
                l(3) =   1
                l(4) =   1
                l(5) =   2
                l(6) =   2
     Q(r) pseudized with 0 coefficients

     PseudoPot. # 2 for N  read from file:
     //group///packages/espresso/pseudo/psl_1.0.0/pslibrary.1.0.0/pbe/PSEUDOPOTENTIALS/N.pbe-n-kjpaw_psl.1.0.0.UPF
     MD5 check sum: f77f775694dac7e2c3fe1c82443d1a16
     Pseudo is Projector augmented-wave + core cor, Zval =  5.0
     Generated using 'atomic' code by A. Dal Corso  v.7.1
     Shape of augmentation charge: PSQ
     Using radial grid of 1085 points,  4 beta functions with:
                l(1) =   0
                l(2) =   0
                l(3) =   1
                l(4) =   1
     Q(r) pseudized with 0 coefficients

     atomic species   valence    mass     pseudopotential
        Ga            13.00    69.72300     Ga( 1.00)
        N              5.00    14.00700     N ( 1.00)

      2 Sym. Ops. (no inversion) found

                                    s                        frac. trans.

      isym =  1     identity

 cryst.   s( 1) = (     1          0          0      )
                  (     0          1          0      )
                  (     0          0          1      )

 cart.    s( 1) = (  1.0000000  0.0000000  0.0000000 )
                  (  0.0000000  1.0000000  0.0000000 )
                  (  0.0000000  0.0000000  1.0000000 )

      isym =  2     inv. 180 deg rotation - cryst. axis [0,1,0]

 cryst.   s( 2) = (     1          1          0      )
                  (     0         -1          0      )
                  (     0          0          1      )

 cart.    s( 2) = (  0.5000000  0.8660254  0.0000000 )
                  (  0.8660254 -0.5000000  0.0000000 )
                  (  0.0000000  0.0000000  1.0000000 )

     point group C_s (m)
     there are  2 classes
     the character table:

       E     s
A'     1.00  1.00
A''    1.00 -1.00

     the symmetry operations in each class and the name of the first element:

     E        1
          identity
     s        2
          inv. 180 deg rotation - cryst. axis [0,1,0]

   Cartesian axes

     site n.     atom                  positions (alat units)
         1           Ga  tau(   1) = (   0.1000001   0.0577350   0.1627148  )
         2           Ga  tau(   2) = (   0.1000001   0.0577350   0.4886906  )
         3           Ga  tau(   3) = (   0.1000001   0.0577350   0.8146665  )
         4           Ga  tau(   4) = (   0.0000001   0.2309401   0.1627148  )
         5           Ga  tau(   5) = (   0.0000001   0.2309401   0.4886906  )
         6           Ga  tau(   6) = (   0.0000001   0.2309401   0.8146665  )
         7           Ga  tau(   7) = (  -0.0999999   0.4041451   0.1627148  )
         8           Ga  tau(   8) = (  -0.0999999   0.4041451   0.4886906  )
         9           Ga  tau(   9) = (  -0.0999999   0.4041451   0.8146665  )
        10           Ga  tau(  10) = (  -0.1999999   0.5773502   0.1627148  )
        11           Ga  tau(  11) = (  -0.1999999   0.5773502   0.4886906  )
        12           Ga  tau(  12) = (  -0.1999999   0.5773502   0.8146665  )
        13           Ga  tau(  13) = (  -0.2999999   0.7505553   0.1627148  )
        14           Ga  tau(  14) = (  -0.2999999   0.7505553   0.4886906  )
        15           Ga  tau(  15) = (  -0.2999999   0.7505553   0.8146665  )
        16           Ga  tau(  16) = (   0.3000001   0.0577350   0.1627148  )
        17           Ga  tau(  17) = (   0.3000001   0.0577350   0.4886906  )
        18           Ga  tau(  18) = (   0.3000001   0.0577350   0.8146665  )
        19           Ga  tau(  19) = (   0.2000001   0.2309401   0.1627148  )
        20           Ga  tau(  20) = (   0.2000001   0.2309401   0.4886906  )
        21           Ga  tau(  21) = (   0.2000001   0.2309401   0.8146665  )
        22           Ga  tau(  22) = (   0.1000001   0.4041451   0.1627148  )
        23           Ga  tau(  23) = (   0.1000001   0.4041451   0.4886906  )
        24           Ga  tau(  24) = (   0.1000001   0.4041451   0.8146665  )
        25           Ga  tau(  25) = (   0.0000001   0.5773502   0.1627148  )
        26           Ga  tau(  26) = (   0.0000001   0.5773502   0.4886906  )
        27           Ga  tau(  27) = (   0.0000001   0.5773502   0.8146665  )
        28           Ga  tau(  28) = (  -0.0999999   0.7505553   0.1627148  )
        29           Ga  tau(  29) = (  -0.0999999   0.7505553   0.4886906  )
        30           Ga  tau(  30) = (  -0.0999999   0.7505553   0.8146665  )
        31           Ga  tau(  31) = (   0.5000001   0.0577350   0.1627148  )
        32           Ga  tau(  32) = (   0.5000001   0.0577350   0.4886906  )
        33           Ga  tau(  33) = (   0.5000001   0.0577350   0.8146665  )
        34           Ga  tau(  34) = (   0.4000001   0.2309401   0.1627148  )
        35           Ga  tau(  35) = (   0.4000001   0.2309401   0.4886906  )
        36           Ga  tau(  36) = (   0.4000001   0.2309401   0.8146665  )
        37           Ga  tau(  37) = (   0.3000001   0.4041451   0.1627148  )
        38           Ga  tau(  38) = (   0.3000001   0.4041451   0.4886906  )
        39           Ga  tau(  39) = (   0.3000001   0.4041451   0.8146665  )
        40           Ga  tau(  40) = (   0.2000001   0.5773502   0.1627148  )
        41           Ga  tau(  41) = (   0.2000001   0.5773502   0.4886906  )
        42           Ga  tau(  42) = (   0.2000001   0.5773502   0.8146665  )
        43           Ga  tau(  43) = (   0.1000001   0.7505553   0.1627148  )
        44           Ga  tau(  44) = (   0.1000001   0.7505553   0.4886906  )
        45           Ga  tau(  45) = (   0.1000001   0.7505553   0.8146665  )
        46           Ga  tau(  46) = (   0.7000001   0.0577350   0.1627148  )
        47           Ga  tau(  47) = (   0.7000001   0.0577350   0.4886906  )
        48           Ga  tau(  48) = (   0.7000001   0.0577350   0.8146665  )
        49           Ga  tau(  49) = (   0.6000001   0.2309401   0.1627148  )
        50           Ga  tau(  50) = (   0.6000001   0.2309401   0.4886906  )
        51           Ga  tau(  51) = (   0.6000001   0.2309401   0.8146665  )
        52           Ga  tau(  52) = (   0.5000001   0.4041451   0.1627148  )
        53           Ga  tau(  53) = (   0.5000001   0.4041451   0.4886906  )
        54           Ga  tau(  54) = (   0.5000001   0.4041451   0.8146665  )
        55           Ga  tau(  55) = (   0.4000001   0.5773502   0.1627148  )
        56           Ga  tau(  56) = (   0.4000001   0.5773502   0.4886906  )
        57           Ga  tau(  57) = (   0.4000001   0.5773502   0.8146665  )
        58           Ga  tau(  58) = (   0.3000001   0.7505553   0.1627148  )
        59           Ga  tau(  59) = (   0.3000001   0.7505553   0.4886906  )
        60           Ga  tau(  60) = (   0.3000001   0.7505553   0.8146665  )
[...]
       285           N   tau( 285) = (   0.7999999   0.1154701   0.1225140  )
       286           N   tau( 286) = (   0.7999999   0.1154701   0.4484898  )
       287           N   tau( 287) = (   0.7999999   0.1154701   0.7744656  )
       288           N   tau( 288) = (   0.6999999   0.2886752   0.1225140  )
       289           N   tau( 289) = (   0.6999999   0.2886752   0.4484898  )
       290           N   tau( 290) = (   0.6999999   0.2886752   0.7744656  )
       291           N   tau( 291) = (   0.5999999   0.4618803   0.1225140  )
       292           N   tau( 292) = (   0.5999999   0.4618803   0.4484898  )
       293           N   tau( 293) = (   0.5999999   0.4618803   0.7744656  )
       294           N   tau( 294) = (   0.4999999   0.6350854   0.1225140  )
       295           N   tau( 295) = (   0.4999999   0.6350854   0.4484898  )
       296           N   tau( 296) = (   0.4999999   0.6350854   0.7744656  )
       297           N   tau( 297) = (   0.3999999   0.8082905   0.1225140  )
       298           N   tau( 298) = (   0.3999999   0.8082905   0.4484898  )
       299           N   tau( 299) = (   0.3999999   0.8082905   0.7744656  )

   Crystallographic axes

     site n.     atom                  positions (cryst. coord.)
         1           Ga  tau(   1) = (  0.1333334  0.0666666  0.1663874  )
         2           Ga  tau(   2) = (  0.1333334  0.0666666  0.4997208  )
         3           Ga  tau(   3) = (  0.1333334  0.0666666  0.8330541  )
[...]
     atom   25 type  1   force =     0.00000000    0.00000000    0.00000000
     atom   26 type  1   force =     0.00000000    0.00000000    0.00000000
     atom   27 type  1   force =     0.00000000    0.00000000    0.00000000
     atom   28 type  1   force =     0.00000000    0.00000000    0.00000000
     atom   29 type  1   force =     0.00000000    0.00000000    0.00000000
     atom   30 type  1   force =     0.00000000    0.00000000    0.00000000
     atom   31 type  1   force =     0.00000000    0.00000000    0.00000000
     atom   32 type  1   force =     0.00000000    0.00000000    0.00000000
     atom   33 type  1   force =     0.00000000    0.00000000    0.00000000
     atom   34 type  1   force =     0.00000000    0.00000000    0.00000000
     atom   35 type  1   force =     0.00000000    0.00000000    0.00000000
     atom   36 type  1   force =     0.00000000    0.00000000    0.00000000
     atom   37 type  1   force =     0.00000000    0.00000000    0.00000000
     atom   38 type  1   force =     0.00000000    0.00000000    0.00000000
     atom   39 type  1   force =     0.00000000    0.00000000    0.00000000
     atom   40 type  1   force =     0.00000000    0.00000000    0.00000000
     atom   41 type  1   force =     0.00000000    0.00000000    0.00000000
     atom   42 type  1   force =     0.00000000    0.00000000    0.00000000
     atom   43 type  1   force =     0.00000000    0.00000000    0.00000000
     atom   44 type  1   force =     0.00000000    0.00000000    0.00000000
     atom   45 type  1   force =     0.00000000    0.00000000    0.00000000
     atom   46 type  1   force =     0.00000000    0.00000000    0.00000000
     atom   47 type  1   force =     0.00000000    0.00000000    0.00000000
     atom   48 type  1   force =     0.00000000    0.00000000    0.00000000
     atom   49 type  1   force =     0.00000000    0.00000000    0.00000000
     atom   50 type  1   force =     0.00000000    0.00000000    0.00000000
     atom   51 type  1   force =     0.00000000    0.00000000    0.00000000
     atom   52 type  1   force =     0.00000000    0.00000000    0.00000000
     atom   53 type  1   force =     0.00000000    0.00000000    0.00000000
     atom   54 type  1   force =     0.00000000    0.00000000    0.00000000
     atom   55 type  1   force =     0.00000000    0.00000000    0.00000000
     atom   56 type  1   force =     0.00000000    0.00000000    0.00000000
     atom   57 type  1   force =     0.00000000    0.00000000    0.00000000
     atom   58 type  1   force =     0.00000000    0.00000000    0.00000000
     atom   59 type  1   force =     0.00000000    0.00000000    0.00000000
     atom   60 type  1   force =     0.00000000    0.00000000    0.00000000
[...]
     atom  285 type  2   force =     0.00000000    0.00000000    0.00000000
     atom  286 type  2   force =     0.00000000    0.00000000    0.00000000
     atom  287 type  2   force =     0.00000000    0.00000000    0.00000000
     atom  288 type  2   force =     0.00000000    0.00000000    0.00000000
     atom  289 type  2   force =     0.00000000    0.00000000    0.00000000
     atom  290 type  2   force =     0.00000000    0.00000000    0.00000000
     atom  291 type  2   force =     0.00000000    0.00000000    0.00000000
     atom  292 type  2   force =     0.00000000    0.00000000    0.00000000
     atom  293 type  2   force =     0.00000000    0.00000000    0.00000000
     atom  294 type  2   force =     0.00000000    0.00000000    0.00000000
     atom  295 type  2   force =     0.00000000    0.00000000    0.00000000
     atom  296 type  2   force =     0.00000000    0.00000000    0.00000000
     atom  297 type  2   force =     0.00000000    0.00000000    0.00000000
     atom  298 type  2   force =     0.00000000    0.00000000    0.00000000
     atom  299 type  2   force =     0.00000000    0.00000000    0.00000000
     The SCF correction term to forces
     atom    1 type  1   force =     0.00000219    0.00000126   -0.00002826
     atom    2 type  1   force =     0.00000157    0.00000091    0.00003263
     atom    3 type  1   force =     0.00000077    0.00000044   -0.00000264
     atom    4 type  1   force =    -0.00000320    0.00000461   -0.00003030
     atom    5 type  1   force =     0.00000620   -0.00002283    0.00002270
     atom    6 type  1   force =     0.00000892   -0.00001556    0.00000091
     atom    7 type  1   force =     0.00000166   -0.00000049   -0.00001290
     atom    8 type  1   force =     0.00001522   -0.00001479    0.00000469
     atom    9 type  1   force =     0.00000780   -0.00000718    0.00000850
     atom   10 type  1   force =     0.00000040    0.00000169   -0.00001290
     atom   11 type  1   force =    -0.00000520    0.00002057    0.00000469
     atom   12 type  1   force =    -0.00000232    0.00001035    0.00000850
     atom   13 type  1   force =     0.00000239   -0.00000507   -0.00003030
     atom   14 type  1   force =    -0.00001668    0.00001678    0.00002270
     atom   15 type  1   force =    -0.00000902    0.00001550    0.00000091
     atom   16 type  1   force =     0.00000581    0.00000312   -0.00003014
     atom   17 type  1   force =    -0.00002271    0.00000830    0.00002215
     atom   18 type  1   force =    -0.00001701    0.00000162    0.00000118
     atom   19 type  1   force =     0.00000560    0.00000347   -0.00003014
     atom   20 type  1   force =    -0.00000416   -0.00002382    0.00002215
     atom   21 type  1   force =    -0.00000711   -0.00001554    0.00000118
     atom   22 type  1   force =     0.00000060    0.00000154   -0.00001852
     atom   23 type  1   force =     0.00000052   -0.00002497    0.00001195
     atom   24 type  1   force =     0.00000085   -0.00001131    0.00000602
     atom   25 type  1   force =    -0.00000278   -0.00000160   -0.00002078
     atom   26 type  1   force =    -0.00000501   -0.00000289    0.00000877
     atom   27 type  1   force =     0.00000207    0.00000120    0.00001105
     atom   28 type  1   force =     0.00000163   -0.00000025   -0.00001852
     atom   29 type  1   force =    -0.00002137    0.00001293    0.00001195
     atom   30 type  1   force =    -0.00000937    0.00000639    0.00000602
     atom   31 type  1   force =    -0.00000174    0.00000018   -0.00001315
     atom   32 type  1   force =    -0.00002076   -0.00000442    0.00000475
     atom   33 type  1   force =    -0.00000991   -0.00000186    0.00000851
     atom   34 type  1   force =    -0.00000710   -0.00000410   -0.00001701
     atom   35 type  1   force =    -0.00003567   -0.00002060    0.00000749
     atom   36 type  1   force =    -0.00001444   -0.00000834    0.00000844
     atom   37 type  1   force =    -0.00000072   -0.00000159   -0.00001315
     atom   38 type  1   force =    -0.00001421   -0.00001577    0.00000475
     atom   39 type  1   force =    -0.00000656   -0.00000765    0.00000851
     atom   40 type  1   force =     0.00000314   -0.00000187   -0.00002129
     atom   41 type  1   force =     0.00000542   -0.00000309    0.00000892
     atom   42 type  1   force =    -0.00000095    0.00000088    0.00001080
     atom   43 type  1   force =    -0.00000004    0.00000366   -0.00002129
     atom   44 type  1   force =     0.00000004    0.00000624    0.00000892
     atom   45 type  1   force =     0.00000029   -0.00000126    0.00001080
     atom   46 type  1   force =     0.00000040   -0.00000036   -0.00001315
     atom   47 type  1   force =     0.00001997   -0.00000492    0.00000498
     atom   48 type  1   force =     0.00000933   -0.00000254    0.00000835
     atom   49 type  1   force =    -0.00000081   -0.00001194   -0.00002158
     atom   50 type  1   force =    -0.00000075   -0.00001931    0.00001145
     atom   51 type  1   force =    -0.00000099   -0.00000346    0.00001566
     atom   52 type  1   force =    -0.00001074    0.00000527   -0.00002158
     atom   53 type  1   force =    -0.00001710    0.00000901    0.00001145
     atom   54 type  1   force =    -0.00000350    0.00000087    0.00001566
     atom   55 type  1   force =    -0.00000011    0.00000053   -0.00001315
     atom   56 type  1   force =     0.00000573    0.00001976    0.00000498
     atom   57 type  1   force =     0.00000246    0.00000935    0.00000835
     atom   58 type  1   force =    -0.00000197   -0.00000114   -0.00001878
     atom   59 type  1   force =     0.00002126    0.00001227    0.00001206
     atom   60 type  1   force =     0.00000936    0.00000540    0.00000573
[...]
     atom  285 type  2   force =    -0.00000017    0.00000044   -0.00000812
     atom  286 type  2   force =     0.00001335   -0.00000167    0.00000481
     atom  287 type  2   force =     0.00000870   -0.00000199    0.00000304
     atom  288 type  2   force =     0.00000272   -0.00000209   -0.00000979
     atom  289 type  2   force =     0.00000996   -0.00000632    0.00000261
     atom  290 type  2   force =     0.00000245   -0.00000218    0.00000772
     atom  291 type  2   force =    -0.00000045    0.00000341   -0.00000979
     atom  292 type  2   force =    -0.00000050    0.00001178    0.00000261
     atom  293 type  2   force =    -0.00000067    0.00000321    0.00000772
     atom  294 type  2   force =     0.00000029   -0.00000036   -0.00000812
     atom  295 type  2   force =     0.00000523    0.00001240    0.00000481
     atom  296 type  2   force =     0.00000263    0.00000853    0.00000304
     atom  297 type  2   force =     0.00000040    0.00000023   -0.00001308
     atom  298 type  2   force =     0.00000916    0.00000529    0.00001028
     atom  299 type  2   force =     0.00000753    0.00000435    0.00000165

     Total force =     0.003657     Total SCF correction =     0.000293

     Computing stress (Cartesian axis) and pressure

[...]

          total   stress  (Ry/bohr**3)                   (kbar)     P=       -5.74
  -0.00004330   0.00000001   0.00000003           -6.37        0.00        0.00
   0.00000001  -0.00004332   0.00000002            0.00       -6.37        0.00
   0.00000003   0.00000002  -0.00003039            0.00        0.00       -4.47

     kinetic stress (kbar)  18373.91      0.00      0.00
                                0.00  18373.91      0.00
                                0.00      0.00  18369.38

     local   stress (kbar)   5386.63      0.37      0.01
                                0.37   5386.03      0.01
                                0.01      0.01   3750.18

     nonloc. stress (kbar)     84.96      0.00     -0.00
                                0.00     84.96     -0.00
                               -0.00     -0.00     96.01

     hartree stress (kbar)  19614.67     -0.17     -0.01
                               -0.17  19614.87     -0.01
                               -0.01     -0.01  20362.79

     exc-cor stress (kbar)   5227.06     -0.00      0.00
                               -0.00   5227.06      0.00
                                0.00      0.00   5227.33

     corecor stress (kbar) -14106.08     -0.00     -0.00
                               -0.00 -14106.08     -0.00
                               -0.00     -0.00 -14105.52

     ewald   stress (kbar) -34749.52     -0.19      0.00
                               -0.19 -34749.07      0.00
                                0.00      0.00 -33865.76

     hubbard stress (kbar)      0.00      0.00      0.00
                                0.00      0.00      0.00
                                0.00      0.00      0.00

     DFT-D   stress (kbar)      0.00      0.00      0.00
                                0.00      0.00      0.00
                                0.00      0.00      0.00

     XDM     stress (kbar)      0.00      0.00      0.00
                                0.00      0.00      0.00
                                0.00      0.00      0.00

     dft-nl  stress (kbar)    161.97      0.00     -0.00
                                0.00    161.97     -0.00
                               -0.00     -0.00    161.12

     TS-vdW  stress (kbar)      0.00      0.00      0.00
                                0.00      0.00      0.00
                                0.00      0.00      0.00

     MDB     stress (kbar)      0.00      0.00      0.00
                                0.00      0.00      0.00
                                0.00      0.00      0.00

     3D-RISM stress (kbar)      0.00      0.00      0.00
                                0.00      0.00      0.00
                                0.00      0.00      0.00

[...]

     Non-local corr. energy    =      81.68806972 Ry

 BEEFens 2000 ensemble energies
             -0.660464550578101E+02
             -0.594969761544387E+03
             -0.256000736522823E+03
              0.209356932427101E+03
             -0.427887784670233E+03
             -0.550258891331433E+03
              0.282715322414962E+03
             -0.297827210925334E+02
              0.471306769580728E+03
             -0.203843512000353E+02
              0.231352197022605E+03
              0.958354599365668E+01
              0.943181372559479E+01
             -0.202109329328091E+02
              0.308468236728391E+03
             -0.224599085318419E+03
             -0.462798422865992E+03
             -0.151287966713483E+03
              0.113016323671477E+03
             -0.101747221284095E+02
              0.675765298773459E+03
              0.575017773839777E+03
             -0.329249793694688E+03
              0.119138472981604E+03
             -0.721756572696955E+03
              0.578719820211430E+03
              0.188996177772719E+03
              0.562538033380699E+03
              0.369610128524369E+03
             -0.179838607252102E+03
              0.136203130552095E+03
             -0.265737323345526E+03
              0.744883951615111E+02
              0.361779215433794E+03
              0.383589235719614E+03
             -0.138595655453025E+03
              0.852005257667621E+03
             -0.323457928494366E+03
             -0.232796240004343E+03
              0.341502380290484E+03
              0.152740938331334E+03
              0.255608537025404E+03
             -0.487173755763774E+03
             -0.136402662138116E+02
              0.478169657813191E+03
              0.621198833595683E+03
             -0.618459608234343E+03
              0.440136850959161E+02
              0.233119074647291E+03
              0.113638250380019E+03
              0.258575906152246E+03
              0.547678599339804E+03
             -0.331069599264092E+03
             -0.362976150034183E+03
             -0.471927126920899E+03
             -0.729414844728481E+02
             -0.430479335231940E+03
              0.421835342170907E+02
             -0.796022732136407E+02
             -0.335415441576949E+03
[...]
              0.418587956836635E+03
              0.231355977335126E+03
              0.293780105223204E+03
             -0.474949956382919E+03
             -0.454859751198076E+03
             -0.114986821798433E+03
             -0.445730357571074E+03
              0.713483356411284E+03
              0.611477495257736E+03
              0.292231083865150E+03
              0.791393324717716E+03
             -0.411855674494925E+03
             -0.167772003304305E+03
             -0.233545644614940E+03
              0.654680249739580E+03

 BEEF-vdW xc energy contributions
            1 :    -5998.626281040013
            2 :     5402.986499594320
            3 :    -4405.222867394355
            4 :     3297.592107269388
            5 :    -2337.123247844100
            6 :     1647.800503493258
            7 :    -1206.794363803443
            8 :     908.1460237085066
            9 :    -652.6193974904509
           10 :     405.2775226731919
           11 :    -193.1814722585323
           12 :     59.49336960559503
           13 :    -16.16720211784923
           14 :     30.24929857086863
           15 :    -48.29035415021553
           16 :     34.42934258256446
           17 :     8.994940006288743
           18 :    -51.97892549545213
           19 :     66.65562630036766
           20 :    -51.06420866856388
           21 :     29.11185177889001
           22 :    -29.36997996192622
           23 :     61.59844664080083
           24 :    -109.8280113174642
           25 :     146.0838414522259
           26 :    -152.2658862140688
           27 :     132.4201547370358
           28 :    -106.7624411040533
           29 :     93.92217845425512
           30 :    -96.55605460737024
           31 :    -513.7367874893735
           32 :    -352.0079065399150

     Writing all to output data dir ./GaN.save/

     General routines

     Parallel routines

     PAW routines

   This run was terminated on:  23:35: 0  18Mar2024

   JOB DONE.