     Program PWSCF v.7.1 starts on 19Feb2024 at 22:12:32

     Reading input from espresso.pwi
Warning: card &CELL ignored
Warning: card    CELL_DYNAMICS    = 'BFGS' ignored
Warning: card / ignored

     Current dimensions of program PWSCF are:
     Max number of different atomic species (ntypx) = 10
     Max number of k-points (npk) =  40000
     Max angular momentum in pseudopotentials (lmaxx) =  4
     file C.pbe-n-kjpaw_psl.1.0.0.UPF: wavefunction(s)  2S 2P renormalized

     IMPORTANT: XC functional enforced from input :
     Exchange-correlation= BEEF-VDW
                           (   1   4  43  14   2   0   0)
     Any further DFT definition will be discarded
     Please, verify this is what you really want

     R & G space division:  proc/nbgrp/npool/nimage =     256
     wavefunctions fft division:  task group distribution
                                  #TG    x Z-proc =       8     32
     Subspace diagonalization in iterative solution of the eigenvalue problem:
     a serial algorithm will be used

     Using Pencil Decomposition

     bravais-lattice index     =            1
     lattice parameter (alat)  =      33.7534  a.u.
     unit-cell volume          =   38454.8879 (a.u.)^3
     number of atoms/cell      =          999
     number of atomic types    =            1
     number of electrons       =      3996.00
     number of Kohn-Sham states=         2398
     kinetic-energy cutoff     =      70.0000  Ry
     charge density cutoff     =     350.0000  Ry
     scf convergence threshold =      1.0E-07
     mixing beta               =       0.7000
     number of iterations used =            8  plain     mixing
     Exchange-correlation= BEEF-VDW
                           (   1   4  43  14   2   0   0)

     celldm(1)=  33.753373  celldm(2)=   0.000000  celldm(3)=   0.000000
     celldm(4)=   0.000000  celldm(5)=   0.000000  celldm(6)=   0.000000

     crystal axes: (cart. coord. in units of alat)
               a(1) = (   1.000000   0.000000   0.000000 )
               a(2) = (   0.000000   1.000000   0.000000 )
               a(3) = (   0.000000   0.000000   1.000000 )

     reciprocal axes: (cart. coord. in units 2 pi/alat)
               b(1) = (  1.000000  0.000000  0.000000 )
               b(2) = (  0.000000  1.000000  0.000000 )
               b(3) = (  0.000000  0.000000  1.000000 )

     PseudoPot. # 1 for C  read from file:
     //group///packages/espresso/pseudo/psl_1.0.0/pslibrary.1.0.0/pbe/PSEUDOPOTENTIALS/C.pbe-n-kjpaw_psl.1.0.0.UPF
     MD5 check sum: 5459cf7f2c8c37df2f7cde8914797f4d
     Pseudo is Projector augmented-wave + core cor, Zval =  4.0
     Generated using 'atomic' code by A. Dal Corso  v.7.1
     Shape of augmentation charge: PSQ
     Using radial grid of 1073 points,  4 beta functions with:
                l(1) =   0
                l(2) =   0
                l(3) =   1
                l(4) =   1
     Q(r) pseudized with 0 coefficients

     atomic species   valence    mass     pseudopotential
        C              4.00    12.01100     C ( 1.00)

      2 Sym. Ops. (no inversion) found

                                    s                        frac. trans.

      isym =  1     identity

 cryst.   s( 1) = (     1          0          0      )
                  (     0          1          0      )
                  (     0          0          1      )

 cart.    s( 1) = (  1.0000000  0.0000000  0.0000000 )
                  (  0.0000000  1.0000000  0.0000000 )
                  (  0.0000000  0.0000000  1.0000000 )

      isym =  2     inv. 180 deg rotation - cart. axis [-1,0,1]

 cryst.   s( 2) = (     0          0          1      )
                  (     0          1          0      )
                  (     1          0          0      )

 cart.    s( 2) = (  0.0000000  0.0000000  1.0000000 )
                  (  0.0000000  1.0000000  0.0000000 )
                  (  1.0000000  0.0000000  0.0000000 )

     point group C_s (m)
     there are  2 classes
     the character table:

       E     s
A'     1.00  1.00
A''    1.00 -1.00

     the symmetry operations in each class and the name of the first element:

     E        1
          identity
     s        2
          inv. 180 deg rotation - cart. axis [-1,0,1]

   Cartesian axes

     site n.     atom                  positions (alat units)
         1           C   tau(   1) = (   0.0500012   0.1499988   0.2500012  )
         2           C   tau(   2) = (   0.0500012   0.1499988   0.4500012  )
         3           C   tau(   3) = (   0.0500012   0.1499988   0.6500012  )
         4           C   tau(   4) = (   0.0500012   0.1499988   0.8500012  )
         5           C   tau(   5) = (   0.0500012   0.3499988   0.0500012  )
         6           C   tau(   6) = (   0.0500012   0.3499988   0.2500012  )
         7           C   tau(   7) = (   0.0500012   0.3499988   0.4500012  )
         8           C   tau(   8) = (   0.0500012   0.3499988   0.6500012  )
         9           C   tau(   9) = (   0.0500012   0.3499988   0.8500012  )
        10           C   tau(  10) = (   0.0500012   0.5499988   0.0500012  )
        11           C   tau(  11) = (   0.0500012   0.5499988   0.2500012  )
        12           C   tau(  12) = (   0.0500012   0.5499988   0.4500012  )
        13           C   tau(  13) = (   0.0500012   0.5499988   0.6500012  )
        14           C   tau(  14) = (   0.0500012   0.5499988   0.8500012  )
        15           C   tau(  15) = (   0.0500012   0.7499988   0.0500012  )
        16           C   tau(  16) = (   0.0500012   0.7499988   0.2500012  )
        17           C   tau(  17) = (   0.0500012   0.7499988   0.4500012  )
        18           C   tau(  18) = (   0.0500012   0.7499988   0.6500012  )
        19           C   tau(  19) = (   0.0500012   0.7499988   0.8500012  )
        20           C   tau(  20) = (   0.0500012   0.9499988   0.0500012  )
        21           C   tau(  21) = (   0.0500012   0.9499988   0.2500012  )
        22           C   tau(  22) = (   0.0500012   0.9499988   0.4500012  )
        23           C   tau(  23) = (   0.0500012   0.9499988   0.6500012  )
        24           C   tau(  24) = (   0.0500012   0.9499988   0.8500012  )
        25           C   tau(  25) = (   0.2500012   0.1499988   0.0500012  )
        26           C   tau(  26) = (   0.2500012   0.1499988   0.2500012  )
        27           C   tau(  27) = (   0.2500012   0.1499988   0.4500012  )
        28           C   tau(  28) = (   0.2500012   0.1499988   0.6500012  )
        29           C   tau(  29) = (   0.2500012   0.1499988   0.8500012  )
        30           C   tau(  30) = (   0.2500012   0.3499988   0.0500012  )
        31           C   tau(  31) = (   0.2500012   0.3499988   0.2500012  )
        32           C   tau(  32) = (   0.2500012   0.3499988   0.4500012  )
        33           C   tau(  33) = (   0.2500012   0.3499988   0.6500012  )
        34           C   tau(  34) = (   0.2500012   0.3499988   0.8500012  )
        35           C   tau(  35) = (   0.2500012   0.5499988   0.0500012  )
        36           C   tau(  36) = (   0.2500012   0.5499988   0.2500012  )
        37           C   tau(  37) = (   0.2500012   0.5499988   0.4500012  )
        38           C   tau(  38) = (   0.2500012   0.5499988   0.6500012  )
        39           C   tau(  39) = (   0.2500012   0.5499988   0.8500012  )
        40           C   tau(  40) = (   0.2500012   0.7499988   0.0500012  )
        41           C   tau(  41) = (   0.2500012   0.7499988   0.2500012  )
        42           C   tau(  42) = (   0.2500012   0.7499988   0.4500012  )
        43           C   tau(  43) = (   0.2500012   0.7499988   0.6500012  )
        44           C   tau(  44) = (   0.2500012   0.7499988   0.8500012  )
        45           C   tau(  45) = (   0.2500012   0.9499988   0.0500012  )
        46           C   tau(  46) = (   0.2500012   0.9499988   0.2500012  )
        47           C   tau(  47) = (   0.2500012   0.9499988   0.4500012  )
        48           C   tau(  48) = (   0.2500012   0.9499988   0.6500012  )
        49           C   tau(  49) = (   0.2500012   0.9499988   0.8500012  )
        50           C   tau(  50) = (   0.4500012   0.1499988   0.0500012  )
        51           C   tau(  51) = (   0.4500012   0.1499988   0.2500012  )
        52           C   tau(  52) = (   0.4500012   0.1499988   0.4500012  )
        53           C   tau(  53) = (   0.4500012   0.1499988   0.6500012  )
        54           C   tau(  54) = (   0.4500012   0.1499988   0.8500012  )
        55           C   tau(  55) = (   0.4500012   0.3499988   0.0500012  )
        56           C   tau(  56) = (   0.4500012   0.3499988   0.2500012  )
        57           C   tau(  57) = (   0.4500012   0.3499988   0.4500012  )
        58           C   tau(  58) = (   0.4500012   0.3499988   0.6500012  )
        59           C   tau(  59) = (   0.4500012   0.3499988   0.8500012  )
        60           C   tau(  60) = (   0.4500012   0.5499988   0.0500012  )
[...]
       985           C   tau( 985) = (   0.9000000   0.5000000   0.1000000  )
       986           C   tau( 986) = (   0.9000000   0.5000000   0.3000000  )
       987           C   tau( 987) = (   0.9000000   0.5000000   0.5000000  )
       988           C   tau( 988) = (   0.9000000   0.5000000   0.7000000  )
       989           C   tau( 989) = (   0.9000000   0.5000000   0.9000000  )
       990           C   tau( 990) = (   0.9000000   0.7000000   0.1000000  )
       991           C   tau( 991) = (   0.9000000   0.7000000   0.3000000  )
       992           C   tau( 992) = (   0.9000000   0.7000000   0.5000000  )
       993           C   tau( 993) = (   0.9000000   0.7000000   0.7000000  )
       994           C   tau( 994) = (   0.9000000   0.7000000   0.9000000  )
       995           C   tau( 995) = (   0.9000000   0.9000000   0.1000000  )
       996           C   tau( 996) = (   0.9000000   0.9000000   0.3000000  )
       997           C   tau( 997) = (   0.9000000   0.9000000   0.5000000  )
       998           C   tau( 998) = (   0.9000000   0.9000000   0.7000000  )
       999           C   tau( 999) = (   0.9000000   0.9000000   0.9000000  )

   Crystallographic axes

     site n.     atom                  positions (cryst. coord.)
         1           C   tau(   1) = (  0.0500012  0.1499988  0.2500012  )
         2           C   tau(   2) = (  0.0500012  0.1499988  0.4500012  )
         3           C   tau(   3) = (  0.0500012  0.1499988  0.6500012  )
         4           C   tau(   4) = (  0.0500012  0.1499988  0.8500012  )
         5           C   tau(   5) = (  0.0500012  0.3499988  0.0500012  )
         6           C   tau(   6) = (  0.0500012  0.3499988  0.2500012  )
         7           C   tau(   7) = (  0.0500012  0.3499988  0.4500012  )
         8           C   tau(   8) = (  0.0500012  0.3499988  0.6500012  )
         9           C   tau(   9) = (  0.0500012  0.3499988  0.8500012  )
        10           C   tau(  10) = (  0.0500012  0.5499988  0.0500012  )
        11           C   tau(  11) = (  0.0500012  0.5499988  0.2500012  )
        12           C   tau(  12) = (  0.0500012  0.5499988  0.4500012  )
[...]
     atom   26 type  1   force =     0.00000000    0.00000000    0.00000000
     atom   27 type  1   force =     0.00000000    0.00000000    0.00000000
     atom   28 type  1   force =     0.00000000    0.00000000    0.00000000
     atom   29 type  1   force =     0.00000000    0.00000000    0.00000000
     atom   30 type  1   force =     0.00000000    0.00000000    0.00000000
     atom   31 type  1   force =     0.00000000    0.00000000    0.00000000
     atom   32 type  1   force =     0.00000000    0.00000000    0.00000000
     atom   33 type  1   force =     0.00000000    0.00000000    0.00000000
     atom   34 type  1   force =     0.00000000    0.00000000    0.00000000
     atom   35 type  1   force =     0.00000000    0.00000000    0.00000000
     atom   36 type  1   force =     0.00000000    0.00000000    0.00000000
     atom   37 type  1   force =     0.00000000    0.00000000    0.00000000
     atom   38 type  1   force =     0.00000000    0.00000000    0.00000000
     atom   39 type  1   force =     0.00000000    0.00000000    0.00000000
     atom   40 type  1   force =     0.00000000    0.00000000    0.00000000
     atom   41 type  1   force =     0.00000000    0.00000000    0.00000000
     atom   42 type  1   force =     0.00000000    0.00000000    0.00000000
     atom   43 type  1   force =     0.00000000    0.00000000    0.00000000
     atom   44 type  1   force =     0.00000000    0.00000000    0.00000000
     atom   45 type  1   force =     0.00000000    0.00000000    0.00000000
     atom   46 type  1   force =     0.00000000    0.00000000    0.00000000
     atom   47 type  1   force =     0.00000000    0.00000000    0.00000000
     atom   48 type  1   force =     0.00000000    0.00000000    0.00000000
     atom   49 type  1   force =     0.00000000    0.00000000    0.00000000
     atom   50 type  1   force =     0.00000000    0.00000000    0.00000000
     atom   51 type  1   force =     0.00000000    0.00000000    0.00000000
     atom   52 type  1   force =     0.00000000    0.00000000    0.00000000
     atom   53 type  1   force =     0.00000000    0.00000000    0.00000000
     atom   54 type  1   force =     0.00000000    0.00000000    0.00000000
     atom   55 type  1   force =     0.00000000    0.00000000    0.00000000
     atom   56 type  1   force =     0.00000000    0.00000000    0.00000000
     atom   57 type  1   force =     0.00000000    0.00000000    0.00000000
     atom   58 type  1   force =     0.00000000    0.00000000    0.00000000
     atom   59 type  1   force =     0.00000000    0.00000000    0.00000000
     atom   60 type  1   force =     0.00000000    0.00000000    0.00000000
[...]
     atom  985 type  1   force =     0.00000000    0.00000000    0.00000000
     atom  986 type  1   force =     0.00000000    0.00000000    0.00000000
     atom  987 type  1   force =     0.00000000    0.00000000    0.00000000
     atom  988 type  1   force =     0.00000000    0.00000000    0.00000000
     atom  989 type  1   force =     0.00000000    0.00000000    0.00000000
     atom  990 type  1   force =     0.00000000    0.00000000    0.00000000
     atom  991 type  1   force =     0.00000000    0.00000000    0.00000000
     atom  992 type  1   force =     0.00000000    0.00000000    0.00000000
     atom  993 type  1   force =     0.00000000    0.00000000    0.00000000
     atom  994 type  1   force =     0.00000000    0.00000000    0.00000000
     atom  995 type  1   force =     0.00000000    0.00000000    0.00000000
     atom  996 type  1   force =     0.00000000    0.00000000    0.00000000
     atom  997 type  1   force =     0.00000000    0.00000000    0.00000000
     atom  998 type  1   force =     0.00000000    0.00000000    0.00000000
     atom  999 type  1   force =     0.00000000    0.00000000    0.00000000
     The SCF correction term to forces
     atom    1 type  1   force =     0.00002357   -0.00001961   -0.00002315
     atom    2 type  1   force =     0.00000470   -0.00000544   -0.00001347
     atom    3 type  1   force =     0.00000459   -0.00000282   -0.00000422
     atom    4 type  1   force =     0.00002072    0.00000711   -0.00001554
     atom    5 type  1   force =     0.00000875   -0.00000528    0.00000875
     atom    6 type  1   force =     0.00000178   -0.00002191   -0.00001028
     atom    7 type  1   force =     0.00000149   -0.00001801   -0.00000948
     atom    8 type  1   force =     0.00000434   -0.00001503    0.00000087
     atom    9 type  1   force =     0.00001145   -0.00001050    0.00001095
     atom   10 type  1   force =     0.00000336   -0.00000142    0.00000336
     atom   11 type  1   force =     0.00000161   -0.00000290   -0.00001030
     atom   12 type  1   force =     0.00000170   -0.00000798   -0.00001236
     atom   13 type  1   force =     0.00000327   -0.00000755    0.00000695
     atom   14 type  1   force =     0.00000464   -0.00000263    0.00001242
     atom   15 type  1   force =     0.00000596    0.00000951    0.00000596
     atom   16 type  1   force =     0.00000646    0.00001451   -0.00001081
     atom   17 type  1   force =     0.00000423    0.00001609   -0.00001373
     atom   18 type  1   force =     0.00000269    0.00001343    0.00000605
     atom   19 type  1   force =     0.00000285    0.00000662    0.00001260
     atom   20 type  1   force =     0.00003533    0.00000912    0.00003533
     atom   21 type  1   force =     0.00002429    0.00003099   -0.00002337
     atom   22 type  1   force =     0.00000656    0.00001529   -0.00001401
     atom   23 type  1   force =     0.00000347    0.00001196   -0.00000221
     atom   24 type  1   force =     0.00001101   -0.00000116    0.00000330
     atom   25 type  1   force =    -0.00002315   -0.00001961    0.00002357
     atom   26 type  1   force =    -0.00002878   -0.00002222   -0.00002878
     atom   27 type  1   force =    -0.00001234   -0.00000764   -0.00001385
     atom   28 type  1   force =    -0.00000890   -0.00000337    0.00000123
     atom   29 type  1   force =    -0.00000539   -0.00000038    0.00001722
     atom   30 type  1   force =    -0.00001028   -0.00002191    0.00000178
     atom   31 type  1   force =    -0.00001272   -0.00002310   -0.00001272
     atom   32 type  1   force =    -0.00001011   -0.00001629   -0.00000813
     atom   33 type  1   force =    -0.00000743   -0.00001307    0.00000573
     atom   34 type  1   force =    -0.00000911   -0.00001632    0.00001426
     atom   35 type  1   force =    -0.00001030   -0.00000290    0.00000161
     atom   36 type  1   force =    -0.00000912   -0.00000116   -0.00000912
     atom   37 type  1   force =    -0.00000034   -0.00000279   -0.00000781
     atom   38 type  1   force =     0.00000272   -0.00000510    0.00000599
     atom   39 type  1   force =    -0.00000700   -0.00000602    0.00000964
     atom   40 type  1   force =    -0.00001081    0.00001451    0.00000646
     atom   41 type  1   force =    -0.00000911    0.00001798   -0.00000911
     atom   42 type  1   force =     0.00000222    0.00001510   -0.00001133
     atom   43 type  1   force =     0.00000153    0.00001036    0.00000223
     atom   44 type  1   force =    -0.00000749    0.00000850    0.00001114
     atom   45 type  1   force =    -0.00002337    0.00003099    0.00002429
     atom   46 type  1   force =    -0.00002156    0.00002549   -0.00002156
     atom   47 type  1   force =    -0.00000906    0.00001242   -0.00001516
     atom   48 type  1   force =    -0.00000677    0.00001107   -0.00000102
     atom   49 type  1   force =    -0.00000640    0.00001347    0.00001662
     atom   50 type  1   force =    -0.00001347   -0.00000544    0.00000470
     atom   51 type  1   force =    -0.00001385   -0.00000764   -0.00001234
     atom   52 type  1   force =    -0.00001367   -0.00000677   -0.00001367
     atom   53 type  1   force =    -0.00001247   -0.00000451    0.00000737
     atom   54 type  1   force =    -0.00000949   -0.00000281    0.00001397
     atom   55 type  1   force =    -0.00000948   -0.00001801    0.00000149
     atom   56 type  1   force =    -0.00000813   -0.00001629   -0.00001011
     atom   57 type  1   force =    -0.00000822   -0.00000600   -0.00000822
     atom   58 type  1   force =    -0.00000997   -0.00000306    0.00000695
     atom   59 type  1   force =    -0.00001092   -0.00001336    0.00001028
     atom   60 type  1   force =    -0.00001236   -0.00000798    0.00000170
[...]
     atom  985 type  1   force =     0.00001014   -0.00000910    0.00000308
     atom  986 type  1   force =     0.00000654   -0.00001102   -0.00001132
     atom  987 type  1   force =     0.00000285   -0.00001196   -0.00000826
     atom  988 type  1   force =     0.00000634   -0.00000795    0.00000637
     atom  989 type  1   force =     0.00001054   -0.00000467    0.00001054
     atom  990 type  1   force =     0.00001185    0.00000485    0.00000056
     atom  991 type  1   force =     0.00000879    0.00000655   -0.00001222
     atom  992 type  1   force =     0.00000011    0.00000903   -0.00000769
     atom  993 type  1   force =     0.00000217    0.00000860    0.00000960
     atom  994 type  1   force =     0.00000948    0.00000586    0.00000948
     atom  995 type  1   force =     0.00001534    0.00000839    0.00000944
     atom  996 type  1   force =     0.00001551    0.00001708   -0.00001148
     atom  997 type  1   force =     0.00000873    0.00001595   -0.00000664
     atom  998 type  1   force =     0.00000505    0.00001146    0.00000475
     atom  999 type  1   force =     0.00000442    0.00000281    0.00000442

     Total force =     0.004433     Total SCF correction =     0.000626
     SCF correction compared to forces is large: reduce conv_thr to get better values

     Computing stress (Cartesian axis) and pressure

[...]

          total   stress  (Ry/bohr**3)                   (kbar)     P=        0.22
   0.00000167   0.00000004  -0.00000003            0.25        0.01       -0.00
   0.00000004   0.00000120   0.00000004            0.01        0.18        0.01
  -0.00000003   0.00000004   0.00000167           -0.00        0.01        0.25

     kinetic stress (kbar)  18977.35      0.01     -0.01
                                0.01  18977.28      0.01
                               -0.01      0.01  18977.35

     local   stress (kbar)  -3509.08     -0.02     -0.02
                               -0.02  -3509.20     -0.02
                               -0.02     -0.02  -3509.08

     nonloc. stress (kbar)   4319.84      0.00     -0.00
                                0.00   4319.84      0.00
                               -0.00      0.00   4319.84

     hartree stress (kbar)   1276.92      0.00      0.02
                                0.00   1276.98      0.00
                                0.02      0.00   1276.92

     exc-cor stress (kbar)   -413.55      0.00     -0.00
                                0.00   -413.54      0.00
                               -0.00      0.00   -413.55

     corecor stress (kbar)  -4430.61     -0.00      0.00
                               -0.00  -4430.63     -0.00
                                0.00     -0.00  -4430.61

     ewald   stress (kbar) -16245.44      0.02      0.01
                                0.02 -16245.37      0.02
                                0.01      0.02 -16245.44

     hubbard stress (kbar)      0.00      0.00      0.00
                                0.00      0.00      0.00
                                0.00      0.00      0.00

     DFT-D   stress (kbar)      0.00      0.00      0.00
                                0.00      0.00      0.00
                                0.00      0.00      0.00

     XDM     stress (kbar)      0.00      0.00      0.00
                                0.00      0.00      0.00
                                0.00      0.00      0.00

     dft-nl  stress (kbar)     24.81     -0.00      0.00
                               -0.00     24.81     -0.00
                                0.00     -0.00     24.81

     TS-vdW  stress (kbar)      0.00      0.00      0.00
                                0.00      0.00      0.00
                                0.00      0.00      0.00

     MDB     stress (kbar)      0.00      0.00      0.00
                                0.00      0.00      0.00
                                0.00      0.00      0.00

     3D-RISM stress (kbar)      0.00      0.00      0.00
                                0.00      0.00      0.00
                                0.00      0.00      0.00

[...]

     Non-local corr. energy    =      34.16088235 Ry

 BEEFens 2000 ensemble energies
             -0.604584241038704E+02
             -0.421119085679934E+03
             -0.149498023236105E+03
              0.165351472660450E+03
             -0.278534298199021E+03
             -0.389657698080397E+03
              0.230686146292653E+03
             -0.478255724627322E+02
              0.320104603199408E+03
             -0.528659857881939E+01
              0.130142909195699E+03
              0.653260704710829E+01
              0.179971466994721E+02
             -0.379786768091185E+02
              0.216721349067697E+03
             -0.162063647851345E+03
             -0.371832756297577E+03
             -0.103075386026335E+03
              0.840080361206232E+02
              0.903553056266719E+01
              0.444951547097767E+03
              0.403520077736384E+03
             -0.198271404739779E+03
              0.111315144482103E+03
             -0.505545517103321E+03
              0.407158924341067E+03
              0.145732753216850E+03
              0.428665173273532E+03
              0.270420237897196E+03
             -0.168915168723482E+03
              0.105505557750001E+03
             -0.219416564711041E+03
              0.648497150956473E+01
              0.215688989998940E+03
              0.278330196946705E+03
             -0.685314844429374E+02
              0.599966112499336E+03
             -0.210077644348092E+03
             -0.151888140051562E+03
              0.232503666351171E+03
              0.800891058483521E+02
              0.195711035503852E+03
             -0.341911488209283E+03
             -0.140462376775404E+02
              0.362400922596402E+03
              0.442051116447401E+03
             -0.400622302117449E+03
              0.331556265017150E+02
              0.157918288201772E+03
              0.368793455332939E+02
              0.193126003369630E+03
              0.387526921058131E+03
             -0.259651757392575E+03
             -0.273160957496068E+03
             -0.346254652293920E+03
             -0.954338916927147E+02
             -0.289115104435603E+03
              0.154348999938322E+02
             -0.768505111294039E+02
             -0.262254725766688E+03
[...]
              0.340127613196067E+03
              0.139117562946516E+03
              0.237135349883198E+03
             -0.339527220735879E+03
             -0.264601460265837E+03
             -0.107680720395049E+03
             -0.290982879591347E+03
              0.524448169682145E+03
              0.449835606760769E+03
              0.195501389744328E+03
              0.530343031627649E+03
             -0.284500869263415E+03
             -0.136839305981870E+03
             -0.141259095385045E+03
              0.418471579494931E+03

 BEEF-vdW xc energy contributions
            1 :    -4089.974728077123
            2 :     3608.770295801165
            3 :    -2778.941476633102
            4 :     1815.625535894997
            5 :    -938.4956846983014
            6 :     299.1942561297255
            7 :     56.69245450636754
            8 :    -181.4554256874871
            9 :     180.6586201653454
           10 :    -156.8231582653143
           11 :     167.9387633476299
           12 :    -216.4589588905865
           13 :     267.5411313371960
           14 :    -281.4338858105684
           15 :     240.6343817802326
           16 :    -158.6285521218861
           17 :     69.04632985512671
           18 :    -4.788010784531252
           19 :    -19.42393647574227
           20 :     11.68182914909812
           21 :     5.987492392106105
           22 :    -12.90737210030511
           23 :     1.663001056290341
           24 :     19.80883651089334
           25 :    -35.76638958688181
           26 :     33.98888203769366
           27 :    -13.52139559703119
           28 :    -15.46229725223475
           29 :     38.69953513395558
           30 :    -46.70559713825878
           31 :    -535.0748611556892
           32 :    -388.2764458263391

     Writing all to output data dir ./diamond.save/

     General routines

     Parallel routines

     PAW routines

   This run was terminated on:   3:38:50  20Feb2024

   JOB DONE.