     Program PWSCF v.7.1 starts on  4Nov2023 at 10:30:11

     Reading input from espresso.pwi
Warning: card &CELL ignored
Warning: card    CELL_DYNAMICS    = 'BFGS' ignored
Warning: card / ignored

     Current dimensions of program PWSCF are:
     Max number of different atomic species (ntypx) = 10
     Max number of k-points (npk) =  40000
     Max angular momentum in pseudopotentials (lmaxx) =  4
     file C.pbe-n-kjpaw_psl.1.0.0.UPF: wavefunction(s)  2S 2P renormalized

     IMPORTANT: XC functional enforced from input :
     Exchange-correlation= BEEF-VDW
                           (   1   4  43  14   2   0   0)
     Any further DFT definition will be discarded
     Please, verify this is what you really want

     R & G space division:  proc/nbgrp/npool/nimage =     256
     wavefunctions fft division:  task group distribution
                                  #TG    x Z-proc =       8     32
     Subspace diagonalization in iterative solution of the eigenvalue problem:
     a serial algorithm will be used

     Using Pencil Decomposition

     bravais-lattice index     =            1
     lattice parameter (alat)  =      33.7534  a.u.
     unit-cell volume          =   38454.8879 (a.u.)^3
     number of atoms/cell      =          999
     number of atomic types    =            1
     number of electrons       =      3996.00
     number of Kohn-Sham states=         2398
     kinetic-energy cutoff     =      70.0000  Ry
     charge density cutoff     =     350.0000  Ry
     scf convergence threshold =      1.0E-08
     mixing beta               =       0.7000
     number of iterations used =            8  plain     mixing
     energy convergence thresh.=      1.0E-04
     force convergence thresh. =      1.0E-03
     Exchange-correlation= BEEF-VDW
                           (   1   4  43  14   2   0   0)
     nstep                     =           50

     celldm(1)=  33.753373  celldm(2)=   0.000000  celldm(3)=   0.000000
     celldm(4)=   0.000000  celldm(5)=   0.000000  celldm(6)=   0.000000

     crystal axes: (cart. coord. in units of alat)
               a(1) = (   1.000000   0.000000   0.000000 )
               a(2) = (   0.000000   1.000000   0.000000 )
               a(3) = (   0.000000   0.000000   1.000000 )

     reciprocal axes: (cart. coord. in units 2 pi/alat)
               b(1) = (  1.000000  0.000000  0.000000 )
               b(2) = (  0.000000  1.000000  0.000000 )
               b(3) = (  0.000000  0.000000  1.000000 )

     PseudoPot. # 1 for C  read from file:
     //group///packages/espresso/pseudo/psl_1.0.0/pslibrary.1.0.0/pbe/PSEUDOPOTENTIALS/C.pbe-n-kjpaw_psl.1.0.0.UPF
     MD5 check sum: 5459cf7f2c8c37df2f7cde8914797f4d
     Pseudo is Projector augmented-wave + core cor, Zval =  4.0
     Generated using 'atomic' code by A. Dal Corso  v.7.1
     Shape of augmentation charge: PSQ
     Using radial grid of 1073 points,  4 beta functions with:
                l(1) =   0
                l(2) =   0
                l(3) =   1
                l(4) =   1
     Q(r) pseudized with 0 coefficients

     atomic species   valence    mass     pseudopotential
        C              4.00    12.01100     C ( 1.00)

      2 Sym. Ops. (no inversion) found

                                    s                        frac. trans.

      isym =  1     identity

 cryst.   s( 1) = (     1          0          0      )
                  (     0          1          0      )
                  (     0          0          1      )

 cart.    s( 1) = (  1.0000000  0.0000000  0.0000000 )
                  (  0.0000000  1.0000000  0.0000000 )
                  (  0.0000000  0.0000000  1.0000000 )

      isym =  2     inv. 180 deg rotation - cart. axis [-1,0,1]

 cryst.   s( 2) = (     0          0          1      )
                  (     0          1          0      )
                  (     1          0          0      )

 cart.    s( 2) = (  0.0000000  0.0000000  1.0000000 )
                  (  0.0000000  1.0000000  0.0000000 )
                  (  1.0000000  0.0000000  0.0000000 )

     point group C_s (m)
     there are  2 classes
     the character table:

       E     s
A'     1.00  1.00
A''    1.00 -1.00

     the symmetry operations in each class and the name of the first element:

     E        1
          identity
     s        2
          inv. 180 deg rotation - cart. axis [-1,0,1]

   Cartesian axes

     site n.     atom                  positions (alat units)
         1           C   tau(   1) = (   0.0500012   0.1499988   0.2500012  )
         2           C   tau(   2) = (   0.0500012   0.1499988   0.4500012  )
         3           C   tau(   3) = (   0.0500012   0.1499988   0.6500012  )
         4           C   tau(   4) = (   0.0500012   0.1499988   0.8500012  )
         5           C   tau(   5) = (   0.0500012   0.3499988   0.0500012  )
         6           C   tau(   6) = (   0.0500012   0.3499988   0.2500012  )
         7           C   tau(   7) = (   0.0500012   0.3499988   0.4500012  )
         8           C   tau(   8) = (   0.0500012   0.3499988   0.6500012  )
         9           C   tau(   9) = (   0.0500012   0.3499988   0.8500012  )
        10           C   tau(  10) = (   0.0500012   0.5499988   0.0500012  )
        11           C   tau(  11) = (   0.0500012   0.5499988   0.2500012  )
        12           C   tau(  12) = (   0.0500012   0.5499988   0.4500012  )
        13           C   tau(  13) = (   0.0500012   0.5499988   0.6500012  )
        14           C   tau(  14) = (   0.0500012   0.5499988   0.8500012  )
        15           C   tau(  15) = (   0.0500012   0.7499988   0.0500012  )
        16           C   tau(  16) = (   0.0500012   0.7499988   0.2500012  )
        17           C   tau(  17) = (   0.0500012   0.7499988   0.4500012  )
        18           C   tau(  18) = (   0.0500012   0.7499988   0.6500012  )
        19           C   tau(  19) = (   0.0500012   0.7499988   0.8500012  )
        20           C   tau(  20) = (   0.0500012   0.9499988   0.0500012  )
        21           C   tau(  21) = (   0.0500012   0.9499988   0.2500012  )
        22           C   tau(  22) = (   0.0500012   0.9499988   0.4500012  )
        23           C   tau(  23) = (   0.0500012   0.9499988   0.6500012  )
        24           C   tau(  24) = (   0.0500012   0.9499988   0.8500012  )
        25           C   tau(  25) = (   0.2500012   0.1499988   0.0500012  )
        26           C   tau(  26) = (   0.2500012   0.1499988   0.2500012  )
        27           C   tau(  27) = (   0.2500012   0.1499988   0.4500012  )
        28           C   tau(  28) = (   0.2500012   0.1499988   0.6500012  )
        29           C   tau(  29) = (   0.2500012   0.1499988   0.8500012  )
        30           C   tau(  30) = (   0.2500012   0.3499988   0.0500012  )
        31           C   tau(  31) = (   0.2500012   0.3499988   0.2500012  )
        32           C   tau(  32) = (   0.2500012   0.3499988   0.4500012  )
        33           C   tau(  33) = (   0.2500012   0.3499988   0.6500012  )
        34           C   tau(  34) = (   0.2500012   0.3499988   0.8500012  )
        35           C   tau(  35) = (   0.2500012   0.5499988   0.0500012  )
        36           C   tau(  36) = (   0.2500012   0.5499988   0.2500012  )
        37           C   tau(  37) = (   0.2500012   0.5499988   0.4500012  )
        38           C   tau(  38) = (   0.2500012   0.5499988   0.6500012  )
        39           C   tau(  39) = (   0.2500012   0.5499988   0.8500012  )
        40           C   tau(  40) = (   0.2500012   0.7499988   0.0500012  )
        41           C   tau(  41) = (   0.2500012   0.7499988   0.2500012  )
        42           C   tau(  42) = (   0.2500012   0.7499988   0.4500012  )
        43           C   tau(  43) = (   0.2500012   0.7499988   0.6500012  )
        44           C   tau(  44) = (   0.2500012   0.7499988   0.8500012  )
        45           C   tau(  45) = (   0.2500012   0.9499988   0.0500012  )
        46           C   tau(  46) = (   0.2500012   0.9499988   0.2500012  )
        47           C   tau(  47) = (   0.2500012   0.9499988   0.4500012  )
        48           C   tau(  48) = (   0.2500012   0.9499988   0.6500012  )
        49           C   tau(  49) = (   0.2500012   0.9499988   0.8500012  )
        50           C   tau(  50) = (   0.4500012   0.1499988   0.0500012  )
        51           C   tau(  51) = (   0.4500012   0.1499988   0.2500012  )
        52           C   tau(  52) = (   0.4500012   0.1499988   0.4500012  )
        53           C   tau(  53) = (   0.4500012   0.1499988   0.6500012  )
        54           C   tau(  54) = (   0.4500012   0.1499988   0.8500012  )
        55           C   tau(  55) = (   0.4500012   0.3499988   0.0500012  )
        56           C   tau(  56) = (   0.4500012   0.3499988   0.2500012  )
        57           C   tau(  57) = (   0.4500012   0.3499988   0.4500012  )
        58           C   tau(  58) = (   0.4500012   0.3499988   0.6500012  )
        59           C   tau(  59) = (   0.4500012   0.3499988   0.8500012  )
        60           C   tau(  60) = (   0.4500012   0.5499988   0.0500012  )
[...]
       985           C   tau( 985) = (   0.9000000   0.5000000   0.1000000  )
       986           C   tau( 986) = (   0.9000000   0.5000000   0.3000000  )
       987           C   tau( 987) = (   0.9000000   0.5000000   0.5000000  )
       988           C   tau( 988) = (   0.9000000   0.5000000   0.7000000  )
       989           C   tau( 989) = (   0.9000000   0.5000000   0.9000000  )
       990           C   tau( 990) = (   0.9000000   0.7000000   0.1000000  )
       991           C   tau( 991) = (   0.9000000   0.7000000   0.3000000  )
       992           C   tau( 992) = (   0.9000000   0.7000000   0.5000000  )
       993           C   tau( 993) = (   0.9000000   0.7000000   0.7000000  )
       994           C   tau( 994) = (   0.9000000   0.7000000   0.9000000  )
       995           C   tau( 995) = (   0.9000000   0.9000000   0.1000000  )
       996           C   tau( 996) = (   0.9000000   0.9000000   0.3000000  )
       997           C   tau( 997) = (   0.9000000   0.9000000   0.5000000  )
       998           C   tau( 998) = (   0.9000000   0.9000000   0.7000000  )
       999           C   tau( 999) = (   0.9000000   0.9000000   0.9000000  )

   Crystallographic axes

     site n.     atom                  positions (cryst. coord.)
         1           C   tau(   1) = (  0.0500012  0.1499988  0.2500012  )
         2           C   tau(   2) = (  0.0500012  0.1499988  0.4500012  )
         3           C   tau(   3) = (  0.0500012  0.1499988  0.6500012  )
         4           C   tau(   4) = (  0.0500012  0.1499988  0.8500012  )
         5           C   tau(   5) = (  0.0500012  0.3499988  0.0500012  )
         6           C   tau(   6) = (  0.0500012  0.3499988  0.2500012  )
         7           C   tau(   7) = (  0.0500012  0.3499988  0.4500012  )
         8           C   tau(   8) = (  0.0500012  0.3499988  0.6500012  )
         9           C   tau(   9) = (  0.0500012  0.3499988  0.8500012  )
        10           C   tau(  10) = (  0.0500012  0.5499988  0.0500012  )
[...]
     atom   57 type  1   force =     0.00000000    0.00000000    0.00000000
     atom   58 type  1   force =     0.00000000    0.00000000    0.00000000
     atom   59 type  1   force =     0.00000000    0.00000000    0.00000000
     atom   60 type  1   force =     0.00000000    0.00000000    0.00000000
[...]
     atom  985 type  1   force =     0.00000000    0.00000000    0.00000000
     atom  986 type  1   force =     0.00000000    0.00000000    0.00000000
     atom  987 type  1   force =     0.00000000    0.00000000    0.00000000
     atom  988 type  1   force =     0.00000000    0.00000000    0.00000000
     atom  989 type  1   force =     0.00000000    0.00000000    0.00000000
     atom  990 type  1   force =     0.00000000    0.00000000    0.00000000
     atom  991 type  1   force =     0.00000000    0.00000000    0.00000000
     atom  992 type  1   force =     0.00000000    0.00000000    0.00000000
     atom  993 type  1   force =     0.00000000    0.00000000    0.00000000
     atom  994 type  1   force =     0.00000000    0.00000000    0.00000000
     atom  995 type  1   force =     0.00000000    0.00000000    0.00000000
     atom  996 type  1   force =     0.00000000    0.00000000    0.00000000
     atom  997 type  1   force =     0.00000000    0.00000000    0.00000000
     atom  998 type  1   force =     0.00000000    0.00000000    0.00000000
     atom  999 type  1   force =     0.00000000    0.00000000    0.00000000
     The SCF correction term to forces
     atom    1 type  1   force =     0.00000067   -0.00000129    0.00000001
     atom    2 type  1   force =     0.00000016   -0.00000051    0.00000004
     atom    3 type  1   force =     0.00000005   -0.00000049   -0.00000038
     atom    4 type  1   force =    -0.00000066   -0.00000149    0.00000067
     atom    5 type  1   force =     0.00000011    0.00000102    0.00000011
     atom    6 type  1   force =     0.00000053    0.00000049    0.00000048
     atom    7 type  1   force =     0.00000013    0.00000010    0.00000004
     atom    8 type  1   force =    -0.00000002    0.00000014   -0.00000035
     atom    9 type  1   force =    -0.00000036    0.00000052   -0.00000029
     atom   10 type  1   force =     0.00000010    0.00000107    0.00000010
     atom   11 type  1   force =     0.00000019    0.00000085   -0.00000003
     atom   12 type  1   force =    -0.00000016    0.00000016   -0.00000054
     atom   13 type  1   force =     0.00000018    0.00000028    0.00000031
     atom   14 type  1   force =    -0.00000005    0.00000089    0.00000014
     atom   15 type  1   force =     0.00000012    0.00000041    0.00000012
     atom   16 type  1   force =     0.00000013    0.00000033   -0.00000020
     atom   17 type  1   force =     0.00000030    0.00000062   -0.00000068
     atom   18 type  1   force =    -0.00000018    0.00000052    0.00000044
     atom   19 type  1   force =     0.00000009    0.00000024    0.00000033
     atom   20 type  1   force =    -0.00000008    0.00000068   -0.00000008
     atom   21 type  1   force =     0.00000022   -0.00000037   -0.00000055
     atom   22 type  1   force =     0.00000012   -0.00000039   -0.00000023
     atom   23 type  1   force =     0.00000013   -0.00000043   -0.00000014
     atom   24 type  1   force =    -0.00000012   -0.00000014    0.00000101
     atom   25 type  1   force =     0.00000001   -0.00000129    0.00000067
     atom   26 type  1   force =    -0.00000021   -0.00000068   -0.00000021
     atom   27 type  1   force =    -0.00000017   -0.00000045   -0.00000015
     atom   28 type  1   force =    -0.00000011   -0.00000048   -0.00000035
     atom   29 type  1   force =     0.00000025   -0.00000106   -0.00000002
     atom   30 type  1   force =     0.00000048    0.00000049    0.00000053
     atom   31 type  1   force =     0.00000010    0.00000015    0.00000010
     atom   32 type  1   force =    -0.00000044   -0.00000023   -0.00000032
     atom   33 type  1   force =     0.00000028    0.00000046   -0.00000015
     atom   34 type  1   force =     0.00000022    0.00000037    0.00000003
     atom   35 type  1   force =    -0.00000003    0.00000085    0.00000019
     atom   36 type  1   force =    -0.00000037    0.00000048   -0.00000037
     atom   37 type  1   force =    -0.00000044    0.00000046   -0.00000030
     atom   38 type  1   force =     0.00000028   -0.00000002    0.00000060
     atom   39 type  1   force =     0.00000031    0.00000067   -0.00000014
     atom   40 type  1   force =    -0.00000020    0.00000033    0.00000013
     atom   41 type  1   force =     0.00000010    0.00000044    0.00000010
     atom   42 type  1   force =     0.00000012    0.00000088   -0.00000099
     atom   43 type  1   force =    -0.00000046    0.00000021    0.00000017
     atom   44 type  1   force =    -0.00000046    0.00000040    0.00000060
     atom   45 type  1   force =    -0.00000055   -0.00000037    0.00000022
     atom   46 type  1   force =    -0.00000039   -0.00000035   -0.00000039
     atom   47 type  1   force =     0.00000005   -0.00000067   -0.00000044
     atom   48 type  1   force =    -0.00000048   -0.00000012    0.00000010
     atom   49 type  1   force =    -0.00000019   -0.00000061    0.00000042
     atom   50 type  1   force =     0.00000004   -0.00000051    0.00000016
     atom   51 type  1   force =    -0.00000015   -0.00000045   -0.00000017
     atom   52 type  1   force =    -0.00000072   -0.00000059   -0.00000072
     atom   53 type  1   force =    -0.00000062   -0.00000014    0.00000047
     atom   54 type  1   force =     0.00000006   -0.00000045    0.00000028
     atom   55 type  1   force =     0.00000004    0.00000010    0.00000013
     atom   56 type  1   force =    -0.00000032   -0.00000023   -0.00000044
     atom   57 type  1   force =    -0.00000031   -0.00000017   -0.00000031
     atom   58 type  1   force =    -0.00000077    0.00000053    0.00000071
     atom   59 type  1   force =    -0.00000006    0.00000047   -0.00000010
     atom   60 type  1   force =    -0.00000054    0.00000016   -0.00000016
[...]
     atom  985 type  1   force =     0.00000016    0.00000081   -0.00000003
     atom  986 type  1   force =    -0.00000018    0.00000074    0.00000028
     atom  987 type  1   force =    -0.00000010    0.00000010   -0.00000067
     atom  988 type  1   force =     0.00000033    0.00000033    0.00000037
     atom  989 type  1   force =     0.00000001    0.00000073    0.00000001
     atom  990 type  1   force =     0.00000029    0.00000050    0.00000003
     atom  991 type  1   force =     0.00000041    0.00000032   -0.00000052
     atom  992 type  1   force =     0.00000015    0.00000035   -0.00000019
     atom  993 type  1   force =    -0.00000012    0.00000080    0.00000056
     atom  994 type  1   force =     0.00000012    0.00000038    0.00000012
     atom  995 type  1   force =     0.00000064    0.00000018   -0.00000031
     atom  996 type  1   force =     0.00000040   -0.00000037   -0.00000028
     atom  997 type  1   force =     0.00000048    0.00000002   -0.00000013
     atom  998 type  1   force =    -0.00000003   -0.00000065    0.00000011
     atom  999 type  1   force =     0.00000055   -0.00000004    0.00000055

     Total force =     0.024592     Total SCF correction =     0.000026

     Computing stress (Cartesian axis) and pressure

[...]

          total   stress  (Ry/bohr**3)                   (kbar)     P=        0.15
   0.00000113   0.00000007  -0.00000002            0.17        0.01       -0.00
   0.00000007   0.00000089   0.00000007            0.01        0.13        0.01
  -0.00000002   0.00000007   0.00000113           -0.00        0.01        0.17

     kinetic stress (kbar)  18977.21     -0.01      0.00
                               -0.01  18977.18     -0.01
                                0.00     -0.01  18977.21

     local   stress (kbar)  -3507.94     -0.16      0.04
                               -0.16  -3508.02     -0.16
                                0.04     -0.16  -3507.94

     nonloc. stress (kbar)   4319.85      0.01     -0.00
                                0.01   4319.85      0.01
                               -0.00      0.01   4319.85

     hartree stress (kbar)   1276.40      0.02      0.01
                                0.02   1276.43      0.02
                                0.01      0.02   1276.40

     exc-cor stress (kbar)   -413.53      0.00     -0.00
                                0.00   -413.53      0.00
                               -0.00      0.00   -413.53

     corecor stress (kbar)  -4430.61     -0.00      0.00
                               -0.00  -4430.62     -0.00
                                0.00     -0.00  -4430.61

     ewald   stress (kbar) -16246.01      0.15     -0.05
                                0.15 -16245.97      0.15
                               -0.05      0.15 -16246.01

     hubbard stress (kbar)      0.00      0.00      0.00
                                0.00      0.00      0.00
                                0.00      0.00      0.00

     DFT-D   stress (kbar)      0.00      0.00      0.00
                                0.00      0.00      0.00
                                0.00      0.00      0.00

     XDM     stress (kbar)      0.00      0.00      0.00
                                0.00      0.00      0.00
                                0.00      0.00      0.00

     dft-nl  stress (kbar)     24.81     -0.00      0.00
                               -0.00     24.81     -0.00
                                0.00     -0.00     24.81

     TS-vdW  stress (kbar)      0.00      0.00      0.00
                                0.00      0.00      0.00
                                0.00      0.00      0.00

     MDB     stress (kbar)      0.00      0.00      0.00
                                0.00      0.00      0.00
                                0.00      0.00      0.00

     3D-RISM stress (kbar)      0.00      0.00      0.00
                                0.00      0.00      0.00
                                0.00      0.00      0.00

     Energy error            =      2.9E-03 Ry
     Gradient error          =      3.7E-03 Ry/Bohr

     number of scf cycles    =   4
     number of bfgs steps    =   3

     energy             old  =  -18973.3235110684 Ry
     energy             new  =  -18973.3263684381 Ry

     CASE: energy            _new < energy            _old

     new trust radius        =       0.0095199013 bohr
     new conv_thr            =       0.0000000004 Ry

ATOMIC_POSITIONS (angstrom)
C             0.8927111894        2.6794228024        4.4622771731
C             0.8927940796        2.6793688931        8.0378895401
C             0.8929340744        2.6793836614       11.6101933848
C             0.8929595140        2.6793702702       15.1850464549
C             0.8928641378        6.2481104889        0.8928641378
C             0.8932148387        6.2521935759        4.4662283758
C             0.8928051458        6.2512657452        8.0379396400
C             0.8929268255        6.2513381293       11.6101574079
C             0.8923640073        6.2522504698       15.1812495243
C             0.8927225003        9.8234275632        0.8927225003
C             0.8926947668        9.8234473729        4.4652336876
C             0.8927251862        9.8235662184        8.0380747124
C             0.8928054878        9.8236273579       11.6101582989
C             0.8927890256        9.8235539209       15.1821749760
C             0.8926868838       13.3960934068        0.8926868838
C             0.8927103631       13.3961517601        4.4653470382
C             0.8926973778       13.3961915610        8.0381209141
C             0.8926637262       13.3961266262       11.6101315420
C             0.8926805354       13.3961040266       15.1820987373
C             0.8928017984       16.9722047288        0.8928017984
C             0.8921137497       16.9679383157        4.4663843075
C             0.8927158196       16.9688197387        8.0380152723
C             0.8928012908       16.9687476664       11.6101245805
C             0.8933315226       16.9678223956       15.1811379080
C             4.4622771731        2.6794228024        0.8927111894
C             4.4663052645        2.6799400002        4.4663052645
C             4.4652983516        2.6794528180        8.0380643062
C             4.4653281549        2.6794411026       11.6102039665
C             4.4663073018        2.6789527981       15.1811709522
C             4.4662283758        6.2521935759        0.8932148387
C             4.4651903773        6.2511373870        4.4651903773
C             4.4654276151        6.2513270393        8.0380785538
C             4.4653935046        6.2513220784       11.6101717870
C             4.4650028252        6.2509675460       15.1824149309
C             4.4652336876        9.8234473729        0.8926947668
C             4.4653791426        9.8234896136        4.4653791426
C             4.4654866366        9.8234607572        8.0380638235
C             4.4653990047        9.8234296048       11.6102057229
C             4.4653262069        9.8234657902       15.1820676819
C             4.4653470382       13.3961517601        0.8927103631
C             4.4653746392       13.3961176323        4.4653746392
C             4.4653496992       13.3961547282        8.0380181122
C             4.4653757501       13.3961391796       11.6101814870
C             4.4653787148       13.3961371580       15.1820721688
C             4.4663843075       16.9679383157        0.8921137497
C             4.4650146856       16.9691563342        4.4650146856
C             4.4652614926       16.9688272149        8.0380824602
C             4.4653307894       16.9688378060       11.6101887123
C             4.4652426944       16.9690334964       15.1822521521
C             8.0378895401        2.6793688931        0.8927940796
C             8.0380643062        2.6794528180        4.4652983516
C             8.0380103433        2.6794611642        8.0380103433
C             8.0378765400        2.6794136031       11.6100875940
C             8.0378021130        2.6793753985       15.1821610126
C             8.0379396400        6.2512657452        0.8928051458
C             8.0380785538        6.2513270393        4.4654276151
C             8.0379564239        6.2514007495        8.0379564239
C             8.0378004564        6.2513639716       11.6101422907
C             8.0378387487        6.2513685594       15.1821114561
C             8.0380747124        9.8235662184        0.8927251862
[...]
C            16.0756279331        8.9307094717        1.7858597019
C            16.0755370036        8.9308512736        5.3581254448
C            16.0755585689        8.9307667927        8.9307786706
C            16.0755726197        8.9308059430       12.5034586520
C            16.0755757233        8.9307175420       16.0755757233
C            16.0755313693       12.5032116498        1.7859748655
C            16.0755934216       12.5033421528        5.3581872617
C            16.0755766728       12.5034661902        8.9307980777
C            16.0754897573       12.5033149472       12.5033266040
C            16.0755110056       12.5031649426       16.0755110056
C            16.0763213156       16.0765247957        1.7858572137
C            16.0755358675       16.0755790144        5.3582704049
C            16.0755663541       16.0755725696        8.9307669964
C            16.0754739456       16.0754446978       12.5030545476
C            16.0753037578       16.0749630848       16.0753037578

     Writing config-only to output data dir ./diamond.save/
     NEW-OLD atomic charge density approx. for the potential

     Check: negative core charge=   -0.000014

[...]

     Self-consistent Calculation

[...]

     Threshold (ethr) on eigenvalues was too large:
     Diagonalizing with lowered threshold

     Davidson diagonalization with overlap

[...]

     c_bands:  1 eigenvalues not converged
     ethr =  1.44E-12,  avg # of iterations = 20.0

[...]

     ethr =  1.00E-13,  avg # of iterations = 18.0

     Non-local corr. energy    =      34.16087807 Ry

     total energy              =  -18973.32697184 Ry
     estimated scf accuracy    <          4.1E-10 Ry

     iteration # 13     ecut=    70.00 Ry     beta= 0.70
     Davidson diagonalization with overlap

     c_bands:  5 eigenvalues not converged

     Program stopped by user request
     Calculation stopped in k-point loop, point #     1
     Calculation stopped in scf loop at iteration #    12

     Writing config to output data dir ./diamond.save/
     Message from routine punch:
     wavefunctions written to file

     General routines

     Parallel routines

     PAW routines

   This run was terminated on:   7:52:53   6Nov2023

   JOB DONE.