     Program PWSCF v.7.1 starts on 19Feb2024 at 15:45: 7

     Reading input from espresso.pwi
Warning: card &CELL ignored
Warning: card    CELL_DYNAMICS    = 'BFGS' ignored
Warning: card / ignored

     Current dimensions of program PWSCF are:
     Max number of different atomic species (ntypx) = 10
     Max number of k-points (npk) =  40000
     Max angular momentum in pseudopotentials (lmaxx) =  4
     file C.pbe-n-kjpaw_psl.1.0.0.UPF: wavefunction(s)  2S 2P renormalized

     IMPORTANT: XC functional enforced from input :
     Exchange-correlation= BEEF-VDW
                           (   1   4  43  14   2   0   0)
     Any further DFT definition will be discarded
     Please, verify this is what you really want

     Found identity + (  0.0000  0.0000  0.2000) symmetry
     This is a supercell, fractional translations are disabled

     R & G space division:  proc/nbgrp/npool/nimage =     256
     wavefunctions fft division:  task group distribution
                                  #TG    x Z-proc =       8     32
     Subspace diagonalization in iterative solution of the eigenvalue problem:
     a serial algorithm will be used

     Using Pencil Decomposition

     bravais-lattice index     =            1
     lattice parameter (alat)  =      33.7534  a.u.
     unit-cell volume          =   38454.8879 (a.u.)^3
     number of atoms/cell      =         1000
     number of atomic types    =            1
     number of electrons       =      4000.00
     number of Kohn-Sham states=         2400
     kinetic-energy cutoff     =      70.0000  Ry
     charge density cutoff     =     350.0000  Ry
     scf convergence threshold =      1.0E-07
     mixing beta               =       0.7000
     number of iterations used =            8  plain     mixing
     Exchange-correlation= BEEF-VDW
                           (   1   4  43  14   2   0   0)

     celldm(1)=  33.753373  celldm(2)=   0.000000  celldm(3)=   0.000000
     celldm(4)=   0.000000  celldm(5)=   0.000000  celldm(6)=   0.000000

     crystal axes: (cart. coord. in units of alat)
               a(1) = (   1.000000   0.000000   0.000000 )
               a(2) = (   0.000000   1.000000   0.000000 )
               a(3) = (   0.000000   0.000000   1.000000 )

     reciprocal axes: (cart. coord. in units 2 pi/alat)
               b(1) = (  1.000000  0.000000  0.000000 )
               b(2) = (  0.000000  1.000000  0.000000 )
               b(3) = (  0.000000  0.000000  1.000000 )

     PseudoPot. # 1 for C  read from file:
     /trace/group/acmegroup/atimmins/packages/espresso/pseudo/psl_1.0.0/pslibrary.1.0.0/pbe/PSEUDOPOTENTIALS/C.pbe-n-kjpaw_psl.1.0.0.UPF
     MD5 check sum: 5459cf7f2c8c37df2f7cde8914797f4d
     Pseudo is Projector augmented-wave + core cor, Zval =  4.0
     Generated using 'atomic' code by A. Dal Corso  v.7.1
     Shape of augmentation charge: PSQ
     Using radial grid of 1073 points,  4 beta functions with:
                l(1) =   0
                l(2) =   0
                l(3) =   1
                l(4) =   1
     Q(r) pseudized with 0 coefficients

     atomic species   valence    mass     pseudopotential
        C              4.00    12.01100     C ( 1.00)

     24 Sym. Ops. (no inversion) found

                                    s                        frac. trans.

      isym =  1     identity

 cryst.   s( 1) = (     1          0          0      )
                  (     0          1          0      )
                  (     0          0          1      )

 cart.    s( 1) = (  1.0000000  0.0000000  0.0000000 )
                  (  0.0000000  1.0000000  0.0000000 )
                  (  0.0000000  0.0000000  1.0000000 )

      isym =  2     180 deg rotation - cart. axis [0,0,1]

[...]

 cryst.   s( 9) = (     0          1          0      )
                  (     0          0          1      )
                  (     1          0          0      )

 cart.    s( 9) = (  0.0000000  0.0000000  1.0000000 )
                  (  1.0000000  0.0000000  0.0000000 )
                  (  0.0000000  1.0000000  0.0000000 )

[...]

 cryst.   s(10) = (     0         -1          0      )
                  (     0          0         -1      )
                  (     1          0          0      )

 cart.    s(10) = (  0.0000000  0.0000000  1.0000000 )
                  ( -1.0000000  0.0000000  0.0000000 )
                  (  0.0000000 -1.0000000  0.0000000 )

[...]

      isym = 12     120 deg rotation - cart. axis [-1,-1,1]

[...]

      isym = 13     inv. 180 deg rotation - cart. axis [1,1,0]

[...]

      isym = 24     inv.  90 deg rotation - cart. axis [1,0,0]

 cryst.   s(24) = (    -1          0          0      )
                  (     0          0         -1      )
                  (     0          1          0      )

 cart.    s(24) = ( -1.0000000  0.0000000  0.0000000 )
                  (  0.0000000  0.0000000  1.0000000 )
                  (  0.0000000 -1.0000000  0.0000000 )

     point group T_d (-43m)
     there are  5 classes
     the character table:

       E     8C3   3C2   6S4   6s_d
A_1    1.00  1.00  1.00  1.00  1.00
A_2    1.00  1.00  1.00 -1.00 -1.00
E      2.00 -1.00  2.00  0.00  0.00
T_1    3.00  0.00 -1.00  1.00 -1.00
T_2    3.00  0.00 -1.00 -1.00  1.00

     the symmetry operations in each class and the name of the first element:

     E        1
          identity
     8C3      5    7    8    6   12    9   10   11
          120 deg rotation - cart. axis [-1,-1,-1]
     3C2      2    3    4
          180 deg rotation - cart. axis [0,0,1]
     6S4     15   16   20   19   23   24
          inv.  90 deg rotation - cart. axis [0,0,-1]
     6s_d    13   14   17   18   21   22
          inv. 180 deg rotation - cart. axis [1,1,0]

   Cartesian axes

     site n.     atom                  positions (alat units)
         1           C   tau(   1) = (   0.0500012   0.1499988   0.0500012  )
         2           C   tau(   2) = (   0.0500012   0.1499988   0.2500012  )
         3           C   tau(   3) = (   0.0500012   0.1499988   0.4500012  )
         4           C   tau(   4) = (   0.0500012   0.1499988   0.6500012  )
         5           C   tau(   5) = (   0.0500012   0.1499988   0.8500012  )
         6           C   tau(   6) = (   0.0500012   0.3499988   0.0500012  )
         7           C   tau(   7) = (   0.0500012   0.3499988   0.2500012  )
         8           C   tau(   8) = (   0.0500012   0.3499988   0.4500012  )
         9           C   tau(   9) = (   0.0500012   0.3499988   0.6500012  )
        10           C   tau(  10) = (   0.0500012   0.3499988   0.8500012  )
        11           C   tau(  11) = (   0.0500012   0.5499988   0.0500012  )
        12           C   tau(  12) = (   0.0500012   0.5499988   0.2500012  )
        13           C   tau(  13) = (   0.0500012   0.5499988   0.4500012  )
        14           C   tau(  14) = (   0.0500012   0.5499988   0.6500012  )
        15           C   tau(  15) = (   0.0500012   0.5499988   0.8500012  )
        16           C   tau(  16) = (   0.0500012   0.7499988   0.0500012  )
        17           C   tau(  17) = (   0.0500012   0.7499988   0.2500012  )
        18           C   tau(  18) = (   0.0500012   0.7499988   0.4500012  )
        19           C   tau(  19) = (   0.0500012   0.7499988   0.6500012  )
        20           C   tau(  20) = (   0.0500012   0.7499988   0.8500012  )
        21           C   tau(  21) = (   0.0500012   0.9499988   0.0500012  )
        22           C   tau(  22) = (   0.0500012   0.9499988   0.2500012  )
        23           C   tau(  23) = (   0.0500012   0.9499988   0.4500012  )
        24           C   tau(  24) = (   0.0500012   0.9499988   0.6500012  )
        25           C   tau(  25) = (   0.0500012   0.9499988   0.8500012  )
        26           C   tau(  26) = (   0.2500012   0.1499988   0.0500012  )
        27           C   tau(  27) = (   0.2500012   0.1499988   0.2500012  )
        28           C   tau(  28) = (   0.2500012   0.1499988   0.4500012  )
        29           C   tau(  29) = (   0.2500012   0.1499988   0.6500012  )
        30           C   tau(  30) = (   0.2500012   0.1499988   0.8500012  )
        31           C   tau(  31) = (   0.2500012   0.3499988   0.0500012  )
        32           C   tau(  32) = (   0.2500012   0.3499988   0.2500012  )
        33           C   tau(  33) = (   0.2500012   0.3499988   0.4500012  )
        34           C   tau(  34) = (   0.2500012   0.3499988   0.6500012  )
        35           C   tau(  35) = (   0.2500012   0.3499988   0.8500012  )
        36           C   tau(  36) = (   0.2500012   0.5499988   0.0500012  )
        37           C   tau(  37) = (   0.2500012   0.5499988   0.2500012  )
        38           C   tau(  38) = (   0.2500012   0.5499988   0.4500012  )
        39           C   tau(  39) = (   0.2500012   0.5499988   0.6500012  )
        40           C   tau(  40) = (   0.2500012   0.5499988   0.8500012  )
        41           C   tau(  41) = (   0.2500012   0.7499988   0.0500012  )
        42           C   tau(  42) = (   0.2500012   0.7499988   0.2500012  )
        43           C   tau(  43) = (   0.2500012   0.7499988   0.4500012  )
        44           C   tau(  44) = (   0.2500012   0.7499988   0.6500012  )
        45           C   tau(  45) = (   0.2500012   0.7499988   0.8500012  )
        46           C   tau(  46) = (   0.2500012   0.9499988   0.0500012  )
        47           C   tau(  47) = (   0.2500012   0.9499988   0.2500012  )
        48           C   tau(  48) = (   0.2500012   0.9499988   0.4500012  )
        49           C   tau(  49) = (   0.2500012   0.9499988   0.6500012  )
        50           C   tau(  50) = (   0.2500012   0.9499988   0.8500012  )
        51           C   tau(  51) = (   0.4500012   0.1499988   0.0500012  )
        52           C   tau(  52) = (   0.4500012   0.1499988   0.2500012  )
        53           C   tau(  53) = (   0.4500012   0.1499988   0.4500012  )
        54           C   tau(  54) = (   0.4500012   0.1499988   0.6500012  )
        55           C   tau(  55) = (   0.4500012   0.1499988   0.8500012  )
        56           C   tau(  56) = (   0.4500012   0.3499988   0.0500012  )
        57           C   tau(  57) = (   0.4500012   0.3499988   0.2500012  )
        58           C   tau(  58) = (   0.4500012   0.3499988   0.4500012  )
        59           C   tau(  59) = (   0.4500012   0.3499988   0.6500012  )
        60           C   tau(  60) = (   0.4500012   0.3499988   0.8500012  )
[...]
       985           C   tau( 985) = (   0.9000000   0.3000000   0.9000000  )
       986           C   tau( 986) = (   0.9000000   0.5000000   0.1000000  )
       987           C   tau( 987) = (   0.9000000   0.5000000   0.3000000  )
       988           C   tau( 988) = (   0.9000000   0.5000000   0.5000000  )
       989           C   tau( 989) = (   0.9000000   0.5000000   0.7000000  )
       990           C   tau( 990) = (   0.9000000   0.5000000   0.9000000  )
       991           C   tau( 991) = (   0.9000000   0.7000000   0.1000000  )
       992           C   tau( 992) = (   0.9000000   0.7000000   0.3000000  )
       993           C   tau( 993) = (   0.9000000   0.7000000   0.5000000  )
[...]
     atom   25 type  1   force =     0.00000000    0.00000000    0.00000000
     atom   26 type  1   force =     0.00000000    0.00000000    0.00000000
     atom   27 type  1   force =     0.00000000    0.00000000    0.00000000
     atom   28 type  1   force =     0.00000000    0.00000000    0.00000000
     atom   29 type  1   force =     0.00000000    0.00000000    0.00000000
     atom   30 type  1   force =     0.00000000    0.00000000    0.00000000
     atom   31 type  1   force =     0.00000000    0.00000000    0.00000000
     atom   32 type  1   force =     0.00000000    0.00000000    0.00000000
     atom   33 type  1   force =     0.00000000    0.00000000    0.00000000
     atom   34 type  1   force =     0.00000000    0.00000000    0.00000000
     atom   35 type  1   force =     0.00000000    0.00000000    0.00000000
     atom   36 type  1   force =     0.00000000    0.00000000    0.00000000
     atom   37 type  1   force =     0.00000000    0.00000000    0.00000000
     atom   38 type  1   force =     0.00000000    0.00000000    0.00000000
     atom   39 type  1   force =     0.00000000    0.00000000    0.00000000
     atom   40 type  1   force =     0.00000000    0.00000000    0.00000000
     atom   41 type  1   force =     0.00000000    0.00000000    0.00000000
     atom   42 type  1   force =     0.00000000    0.00000000    0.00000000
     atom   43 type  1   force =     0.00000000    0.00000000    0.00000000
     atom   44 type  1   force =     0.00000000    0.00000000    0.00000000
     atom   45 type  1   force =     0.00000000    0.00000000    0.00000000
     atom   46 type  1   force =     0.00000000    0.00000000    0.00000000
     atom   47 type  1   force =     0.00000000    0.00000000    0.00000000
     atom   48 type  1   force =     0.00000000    0.00000000    0.00000000
     atom   49 type  1   force =     0.00000000    0.00000000    0.00000000
     atom   50 type  1   force =     0.00000000    0.00000000    0.00000000
     atom   51 type  1   force =     0.00000000    0.00000000    0.00000000
     atom   52 type  1   force =     0.00000000    0.00000000    0.00000000
     atom   53 type  1   force =     0.00000000    0.00000000    0.00000000
     atom   54 type  1   force =     0.00000000    0.00000000    0.00000000
     atom   55 type  1   force =     0.00000000    0.00000000    0.00000000
     atom   56 type  1   force =     0.00000000    0.00000000    0.00000000
     atom   57 type  1   force =     0.00000000    0.00000000    0.00000000
     atom   58 type  1   force =     0.00000000    0.00000000    0.00000000
     atom   59 type  1   force =     0.00000000    0.00000000    0.00000000
     atom   60 type  1   force =     0.00000000    0.00000000    0.00000000
[...]
     atom  986 type  1   force =     0.00000000    0.00000000    0.00000000
     atom  987 type  1   force =     0.00000000    0.00000000    0.00000000
     atom  988 type  1   force =     0.00000000    0.00000000    0.00000000
     atom  989 type  1   force =     0.00000000    0.00000000    0.00000000
     atom  990 type  1   force =     0.00000000    0.00000000    0.00000000
     atom  991 type  1   force =     0.00000000    0.00000000    0.00000000
     atom  992 type  1   force =     0.00000000    0.00000000    0.00000000
     atom  993 type  1   force =     0.00000000    0.00000000    0.00000000
     atom  994 type  1   force =     0.00000000    0.00000000    0.00000000
     atom  995 type  1   force =     0.00000000    0.00000000    0.00000000
     atom  996 type  1   force =     0.00000000    0.00000000    0.00000000
     atom  997 type  1   force =     0.00000000    0.00000000    0.00000000
     atom  998 type  1   force =     0.00000000    0.00000000    0.00000000
     atom  999 type  1   force =     0.00000000    0.00000000    0.00000000
     atom 1000 type  1   force =     0.00000000    0.00000000    0.00000000
     The SCF correction term to forces
     atom    1 type  1   force =     0.00000786    0.00002287    0.00000786
     atom    2 type  1   force =     0.00000252    0.00000774    0.00000840
     atom    3 type  1   force =    -0.00000197    0.00001061    0.00000060
     atom    4 type  1   force =    -0.00000317    0.00001020   -0.00000297
     atom    5 type  1   force =     0.00000227    0.00001447   -0.00001447
     atom    6 type  1   force =     0.00000408    0.00000110    0.00000408
     atom    7 type  1   force =    -0.00000626    0.00000503    0.00000862
     atom    8 type  1   force =    -0.00001023    0.00000853    0.00000511
     atom    9 type  1   force =    -0.00000594    0.00000746   -0.00000746
     atom   10 type  1   force =    -0.00000317    0.00000297   -0.00001020
     atom   11 type  1   force =     0.00000234   -0.00000198    0.00000234
     atom   12 type  1   force =    -0.00000798   -0.00000323    0.00001306
     atom   13 type  1   force =    -0.00000805   -0.00000420    0.00000420
     atom   14 type  1   force =    -0.00001023   -0.00000511   -0.00000853
     atom   15 type  1   force =    -0.00000197   -0.00000060   -0.00001061
     atom   16 type  1   force =     0.00000126   -0.00001077    0.00000126
     atom   17 type  1   force =    -0.00000073   -0.00000863    0.00000863
     atom   18 type  1   force =    -0.00000798   -0.00001306    0.00000323
     atom   19 type  1   force =    -0.00000626   -0.00000862   -0.00000503
     atom   20 type  1   force =     0.00000252   -0.00000840   -0.00000774
     atom   21 type  1   force =     0.00001109   -0.00001109    0.00001109
     atom   22 type  1   force =     0.00000126   -0.00000126    0.00001077
     atom   23 type  1   force =     0.00000234   -0.00000234    0.00000198
     atom   24 type  1   force =     0.00000408   -0.00000408   -0.00000110
     atom   25 type  1   force =     0.00000786   -0.00000786   -0.00002287
     atom   26 type  1   force =     0.00000840    0.00000774    0.00000252
     atom   27 type  1   force =     0.00000135   -0.00000493    0.00000135
     atom   28 type  1   force =     0.00000708   -0.00000727    0.00000258
     atom   29 type  1   force =     0.00000832    0.00000134    0.00000168
     atom   30 type  1   force =     0.00000521    0.00000902   -0.00000902
     atom   31 type  1   force =     0.00000862    0.00000503   -0.00000626
     atom   32 type  1   force =     0.00000317    0.00000396    0.00000317
     atom   33 type  1   force =     0.00001012    0.00001271    0.00000771
     atom   34 type  1   force =     0.00000796    0.00000279   -0.00000279
     atom   35 type  1   force =     0.00000832   -0.00000168   -0.00000134
     atom   36 type  1   force =     0.00001306   -0.00000323   -0.00000798
     atom   37 type  1   force =     0.00000797    0.00000400    0.00000797
     atom   38 type  1   force =     0.00001307   -0.00000514    0.00000514
     atom   39 type  1   force =     0.00001012   -0.00000771   -0.00001271
     atom   40 type  1   force =     0.00000708   -0.00000258    0.00000727
     atom   41 type  1   force =     0.00000863   -0.00000863   -0.00000073
     atom   42 type  1   force =     0.00000375   -0.00000375    0.00000375
     atom   43 type  1   force =     0.00000797   -0.00000797   -0.00000400
     atom   44 type  1   force =     0.00000317   -0.00000317   -0.00000396
     atom   45 type  1   force =     0.00000135   -0.00000135    0.00000493
     atom   46 type  1   force =     0.00001077   -0.00000126    0.00000126
     atom   47 type  1   force =     0.00000863    0.00000073    0.00000863
     atom   48 type  1   force =     0.00001306    0.00000798    0.00000323
     atom   49 type  1   force =     0.00000862    0.00000626   -0.00000503
     atom   50 type  1   force =     0.00000840   -0.00000252   -0.00000774
     atom   51 type  1   force =     0.00000060    0.00001061   -0.00000197
     atom   52 type  1   force =     0.00000258   -0.00000727    0.00000708
     atom   53 type  1   force =     0.00000687   -0.00000506    0.00000687
     atom   54 type  1   force =     0.00000041   -0.00000546   -0.00000938
     atom   55 type  1   force =     0.00000182    0.00000211   -0.00000211
     atom   56 type  1   force =     0.00000511    0.00000853   -0.00001023
     atom   57 type  1   force =     0.00000771    0.00001271    0.00001012
     atom   58 type  1   force =     0.00001043    0.00002157    0.00001043
     atom   59 type  1   force =     0.00000249    0.00001565   -0.00001565
     atom   60 type  1   force =     0.00000041    0.00000938    0.00000546
[...]
     atom  986 type  1   force =    -0.00000285    0.00000128    0.00000285
     atom  987 type  1   force =     0.00001272   -0.00000108    0.00000986
     atom  988 type  1   force =     0.00000972    0.00000000    0.00000000
     atom  989 type  1   force =     0.00001272    0.00000108   -0.00000986
     atom  990 type  1   force =    -0.00000285   -0.00000128   -0.00000285
     atom  991 type  1   force =    -0.00000342   -0.00000314    0.00000342
     atom  992 type  1   force =     0.00001017   -0.00000454    0.00000454
     atom  993 type  1   force =     0.00001272   -0.00000986    0.00000108
     atom  994 type  1   force =     0.00000211   -0.00000495   -0.00000495
     atom  995 type  1   force =    -0.00000402   -0.00000389   -0.00000402
     atom  996 type  1   force =    -0.00001468   -0.00001468    0.00001468
     atom  997 type  1   force =    -0.00000342   -0.00000342    0.00000314
     atom  998 type  1   force =    -0.00000285   -0.00000285   -0.00000128
     atom  999 type  1   force =    -0.00000402   -0.00000402   -0.00000389
     atom 1000 type  1   force =    -0.00001225   -0.00001225   -0.00001225

     Total force =     0.024633     Total SCF correction =     0.000424

     Computing stress (Cartesian axis) and pressure

[...]

          total   stress  (Ry/bohr**3)                   (kbar)     P=       -0.26
  -0.00000177   0.00000000   0.00000000           -0.26        0.00        0.00
   0.00000000  -0.00000177   0.00000000            0.00       -0.26        0.00
   0.00000000   0.00000000  -0.00000177            0.00        0.00       -0.26

     kinetic stress (kbar)  18998.62      0.00      0.00
                                0.00  18998.62      0.00
                                0.00      0.00  18998.62

     local   stress (kbar)  -3483.75     -0.00     -0.00
                               -0.00  -3483.75     -0.00
                               -0.00     -0.00  -3483.75

     nonloc. stress (kbar)   4322.75      0.00      0.00
                                0.00   4322.75      0.00
                                0.00      0.00   4322.75

     hartree stress (kbar)   1267.01      0.00      0.00
                                0.00   1267.01      0.00
                                0.00      0.00   1267.01

     exc-cor stress (kbar)   -414.45      0.00      0.00
                                0.00   -414.45      0.00
                                0.00      0.00   -414.45

     corecor stress (kbar)  -4435.11     -0.00     -0.00
                               -0.00  -4435.11     -0.00
                               -0.00     -0.00  -4435.11

     ewald   stress (kbar) -16280.15      0.00      0.00
                                0.00 -16280.15      0.00
                                0.00      0.00 -16280.15

     hubbard stress (kbar)      0.00      0.00      0.00
                                0.00      0.00      0.00
                                0.00      0.00      0.00

     DFT-D   stress (kbar)      0.00      0.00      0.00
                                0.00      0.00      0.00
                                0.00      0.00      0.00

     XDM     stress (kbar)      0.00      0.00      0.00
                                0.00      0.00      0.00
                                0.00      0.00      0.00

     dft-nl  stress (kbar)     24.82     -0.00     -0.00
                               -0.00     24.82     -0.00
                               -0.00     -0.00     24.82

     TS-vdW  stress (kbar)      0.00      0.00      0.00
                                0.00      0.00      0.00
                                0.00      0.00      0.00

     MDB     stress (kbar)      0.00      0.00      0.00
                                0.00      0.00      0.00
                                0.00      0.00      0.00

     3D-RISM stress (kbar)      0.00      0.00      0.00
                                0.00      0.00      0.00
                                0.00      0.00      0.00

[...]

     Non-local corr. energy    =      34.18200126 Ry

 BEEFens 2000 ensemble energies
             -0.605073569191381E+02
             -0.421566767661588E+03
             -0.149648356823472E+03
              0.165492788483294E+03
             -0.278819947106538E+03
             -0.390049392532779E+03
              0.230883152614580E+03
             -0.478417654885945E+02
              0.320444735105349E+03
             -0.530406411149443E+01
              0.130289144094604E+03
              0.655445588708653E+01
              0.180214839260360E+02
             -0.379812405831433E+02
              0.216951110005836E+03
             -0.162213078685810E+03
             -0.372201962306587E+03
             -0.103185580121750E+03
              0.840955091513155E+02
              0.905428439942034E+01
              0.445421214082892E+03
              0.403945205581472E+03
             -0.198510192342336E+03
              0.111421353629062E+03
             -0.506075368896223E+03
              0.407575047908979E+03
              0.145862101805767E+03
              0.429079779071575E+03
              0.270698767821363E+03
             -0.169075267064718E+03
              0.105592837054462E+03
             -0.219647112408083E+03
              0.653922871580357E+01
              0.215925490980372E+03
              0.278593173829759E+03
             -0.686429578615828E+02
              0.600596000067250E+03
             -0.210285860262754E+03
             -0.152078380480372E+03
              0.232760882626228E+03
              0.802133362766117E+02
              0.195891762663789E+03
             -0.342243561612721E+03
             -0.140752645505645E+02
              0.362731612016029E+03
              0.442474267346612E+03
             -0.401020090968485E+03
              0.331920320136051E+02
              0.158085694807382E+03
              0.369397314756211E+02
              0.193329297017553E+03
              0.387919278695690E+03
             -0.259903670922951E+03
             -0.273409603806410E+03
             -0.346600592310790E+03
             -0.955078787316384E+02
             -0.289433107729405E+03
              0.154624838928739E+02
             -0.769262194056996E+02
             -0.262506124552077E+03
[...]
              0.340447040663319E+03
              0.139281019745685E+03
              0.237373868808505E+03
             -0.339874758666237E+03
             -0.264900485169469E+03
             -0.107773926743645E+03
             -0.291311517251749E+03
              0.524978227900052E+03
              0.450288147827511E+03
              0.195710042076811E+03
              0.530916543393870E+03
             -0.284802474256369E+03
             -0.136970374749950E+03
             -0.141411407139142E+03
              0.418902600730726E+03

 BEEF-vdW xc energy contributions
            1 :    -4094.416729202014
            2 :     3612.817074526481
            3 :    -2782.281273754098
            4 :     1818.088364250933
            5 :    -940.0705294681866
            6 :     300.0038044209359
            7 :     56.44685349734300
            8 :    -181.5577476445924
            9 :     180.9306689713203
           10 :    -157.1528196855006
           11 :     168.2819847334104
           12 :    -216.8223191733441
           13 :     267.9556790226725
           14 :    -281.9295205730459
           15 :     241.2199720633380
           16 :    -159.2795298941573
           17 :     69.70056674401621
           18 :    -5.351679921812320
           19 :    -19.05860839295019
           20 :     11.60780312277438
           21 :     5.725245496770185
           22 :    -12.33727354432631
           23 :    0.8911497493991192
           24 :     20.62275683533971
           25 :    -36.45683357368307
           26 :     34.43861059227675
           27 :    -13.69910108542899
           28 :    -15.49858983055492
           29 :     38.83586421461951
           30 :    -46.82705175552928
           31 :    -535.6338929421445
           32 :    -388.7119215603343

     Writing all to output data dir ./diamond.save/

     General routines

     Parallel routines

     PAW routines

   This run was terminated on:  21:50:44  19Feb2024

   JOB DONE.