     Program PWSCF v.7.1 starts on 21Mar2024 at 12:35:19

     Reading input from espresso.pwi
Warning: card &CELL ignored
Warning: card    CELL_DYNAMICS    = 'BFGS' ignored
Warning: card / ignored

     Current dimensions of program PWSCF are:
     Max number of different atomic species (ntypx) = 10
     Max number of k-points (npk) =  40000
     Max angular momentum in pseudopotentials (lmaxx) =  4

     File ./GaN.update deleted, as requested

     File ./GaN.bfgs deleted, as requested
     file Ga.pbe-dn-kjpaw_psl.1.0.0.UPF: wavefunction(s)  4S renormalized
     file N.pbe-n-kjpaw_psl.1.0.0.UPF: wavefunction(s)  2S renormalized

     IMPORTANT: XC functional enforced from input :
     Exchange-correlation= BEEF-VDW
                           (   1   4  43  14   2   0   0)
     Any further DFT definition will be discarded
     Please, verify this is what you really want

     K-points division:     npool     =       2
     R & G space division:  proc/nbgrp/npool/nimage =      30
     Subspace diagonalization in iterative solution of the eigenvalue problem:
     a serial algorithm will be used

     Using Slab Decomposition

     bravais-lattice index     =            4
     lattice parameter (alat)  =      18.3939  a.u.
     unit-cell volume          =    5856.2271 (a.u.)^3
     number of atoms/cell      =           72
     number of atomic types    =            2
     number of electrons       =       639.00
     number of Kohn-Sham states=          384
     kinetic-energy cutoff     =      70.0000  Ry
     charge density cutoff     =     350.0000  Ry
     scf convergence threshold =      1.0E-07
     mixing beta               =       0.7000
     number of iterations used =            8  plain     mixing
     energy convergence thresh.=      1.0E-04
     force convergence thresh. =      1.0E-03
     Exchange-correlation= BEEF-VDW
                           (   1   4  43  14   2   0   0)
     nstep                     =           50

     celldm(1)=  18.393924  celldm(2)=   0.000000  celldm(3)=   1.086586
     celldm(4)=   0.000000  celldm(5)=   0.000000  celldm(6)=   0.000000

     crystal axes: (cart. coord. in units of alat)
               a(1) = (   1.000000   0.000000   0.000000 )
               a(2) = (  -0.500000   0.866025   0.000000 )
               a(3) = (   0.000000   0.000000   1.086586 )

     reciprocal axes: (cart. coord. in units 2 pi/alat)
               b(1) = (  1.000000  0.577350 -0.000000 )
               b(2) = (  0.000000  1.154701  0.000000 )
               b(3) = (  0.000000 -0.000000  0.920314 )

     PseudoPot. # 1 for Ga read from file:
     //group///packages/espresso/pseudo/psl_1.0.0/pslibrary.1.0.0/pbe/PSEUDOPOTENTIALS/Ga.pbe-dn-kjpaw_psl.1.0.0.UPF
     MD5 check sum: cd2a01e492f15b435d17032472d8505c
     Pseudo is Projector augmented-wave + core cor, Zval = 13.0
     Generated using 'atomic' code by A. Dal Corso  v.7.1
     Shape of augmentation charge: PSQ
     Using radial grid of 1205 points,  6 beta functions with:
                l(1) =   0
                l(2) =   0
                l(3) =   1
                l(4) =   1
                l(5) =   2
                l(6) =   2
     Q(r) pseudized with 0 coefficients

     PseudoPot. # 2 for N  read from file:
     //group///packages/espresso/pseudo/psl_1.0.0/pslibrary.1.0.0/pbe/PSEUDOPOTENTIALS/N.pbe-n-kjpaw_psl.1.0.0.UPF
     MD5 check sum: f77f775694dac7e2c3fe1c82443d1a16
     Pseudo is Projector augmented-wave + core cor, Zval =  5.0
     Generated using 'atomic' code by A. Dal Corso  v.7.1
     Shape of augmentation charge: PSQ
     Using radial grid of 1085 points,  4 beta functions with:
                l(1) =   0
                l(2) =   0
                l(3) =   1
                l(4) =   1
     Q(r) pseudized with 0 coefficients

     atomic species   valence    mass     pseudopotential
        Ga            13.00    69.72300     Ga( 1.00)
        N              5.00    14.00700     N ( 1.00)

      6 Sym. Ops. (no inversion) found ( 4 have fractional translation)

                                    s                        frac. trans.

      isym =  1     identity

 cryst.   s( 1) = (     1          0          0      )
                  (     0          1          0      )
                  (     0          0          1      )

 cart.    s( 1) = (  1.0000000  0.0000000  0.0000000 )
                  (  0.0000000  1.0000000  0.0000000 )
                  (  0.0000000  0.0000000  1.0000000 )

      isym =  2     120 deg rotation - cryst. axis [0,0,1]

 cryst.   s( 2) = (     0          1          0      )    f =( -0.3333334 )
                  (    -1         -1          0      )       (  0.0000003 )
                  (     0          0          1      )       (  0.0000000 )

 cart.    s( 2) = ( -0.5000000 -0.8660254  0.0000000 )    f =( -0.3333335 )
                  (  0.8660254 -0.5000000  0.0000000 )       (  0.0000002 )
                  (  0.0000000  0.0000000  1.0000000 )       (  0.0000000 )

      isym =  3     120 deg rotation - cryst. axis [0,0,-1]

[...]

      isym =  4     inv. 180 deg rotation - cart. axis [1,0,0]

[...]

      isym =  5     inv. 180 deg rotation - cryst. axis [0,1,0]

 cryst.   s( 5) = (     1          1          0      )
                  (     0         -1          0      )
                  (     0          0          1      )

 cart.    s( 5) = (  0.5000000  0.8660254  0.0000000 )
                  (  0.8660254 -0.5000000  0.0000000 )
                  (  0.0000000  0.0000000  1.0000000 )

      isym =  6     inv. 180 deg rotation - cryst. axis [1,1,0]

 cryst.   s( 6) = (     0         -1          0      )    f =( -0.3333334 )
                  (    -1          0          0      )       ( -0.3333334 )
                  (     0          0          1      )       (  0.0000000 )

 cart.    s( 6) = (  0.5000000 -0.8660254  0.0000000 )    f =( -0.1666667 )
                  ( -0.8660254 -0.5000000  0.0000000 )       ( -0.2886752 )
                  (  0.0000000  0.0000000  1.0000000 )       (  0.0000000 )

     point group C_3v (3m)
     there are  3 classes
     the character table:

       E     2C3   3s_v
A_1    1.00  1.00  1.00
A_2    1.00  1.00 -1.00
E      2.00 -1.00  0.00

     the symmetry operations in each class and the name of the first element:

     E        1
          identity
     2C3      2    3
          120 deg rotation - cryst. axis [0,0,1]
     3s_v     4    5    6
          inv. 180 deg rotation - cart. axis [1,0,0]

   Cartesian axes

     site n.     atom                  positions (alat units)
         1           Ga  tau(   1) = (   0.1666668   0.0962250   0.8144844  )
         2           Ga  tau(   2) = (   0.0000001   0.3849001   0.2711914  )
         3           Ga  tau(   3) = (   0.0000001   0.3849001   0.8144844  )
         4           Ga  tau(   4) = (  -0.1666665   0.6735752   0.2711914  )
         5           Ga  tau(   5) = (  -0.1666665   0.6735752   0.8144844  )
         6           Ga  tau(   6) = (   0.5000001   0.0962250   0.2711914  )
         7           Ga  tau(   7) = (   0.5000001   0.0962250   0.8144844  )
         8           Ga  tau(   8) = (   0.3333335   0.3849001   0.2711914  )
         9           Ga  tau(   9) = (   0.3333335   0.3849001   0.8144844  )
        10           Ga  tau(  10) = (   0.1666668   0.6735752   0.2711914  )
        11           Ga  tau(  11) = (   0.1666668   0.6735752   0.8144844  )
        12           Ga  tau(  12) = (   0.8333335   0.0962250   0.2711914  )
        13           Ga  tau(  13) = (   0.8333335   0.0962250   0.8144844  )
        14           Ga  tau(  14) = (   0.6666668   0.3849001   0.2711914  )
        15           Ga  tau(  15) = (   0.6666668   0.3849001   0.8144844  )
        16           Ga  tau(  16) = (   0.5000001   0.6735752   0.2711914  )
        17           Ga  tau(  17) = (   0.5000001   0.6735752   0.8144844  )
        18           Ga  tau(  18) = (  -0.0000002   0.1924502   0.5428379  )
        19           Ga  tau(  19) = (  -0.0000002   0.1924502   1.0861309  )
        20           Ga  tau(  20) = (  -0.1666669   0.4811254   0.5428379  )
        21           Ga  tau(  21) = (  -0.1666669   0.4811254   1.0861309  )
        22           Ga  tau(  22) = (  -0.3333335   0.7698005   0.5428379  )
        23           Ga  tau(  23) = (  -0.3333335   0.7698005   1.0861309  )
        24           Ga  tau(  24) = (   0.3333331   0.1924502   0.5428379  )
        25           Ga  tau(  25) = (   0.3333331   0.1924502   1.0861309  )
        26           Ga  tau(  26) = (   0.1666665   0.4811254   0.5428379  )
        27           Ga  tau(  27) = (   0.1666665   0.4811254   1.0861309  )
        28           Ga  tau(  28) = (  -0.0000002   0.7698005   0.5428379  )
        29           Ga  tau(  29) = (  -0.0000002   0.7698005   1.0861309  )
        30           Ga  tau(  30) = (   0.6666665   0.1924502   0.5428379  )
        31           Ga  tau(  31) = (   0.6666665   0.1924502   1.0861309  )
        32           Ga  tau(  32) = (   0.4999998   0.4811254   0.5428379  )
        33           Ga  tau(  33) = (   0.4999998   0.4811254   1.0861309  )
        34           Ga  tau(  34) = (   0.3333331   0.7698005   0.5428379  )
        35           Ga  tau(  35) = (   0.3333331   0.7698005   1.0861309  )
        36           N   tau(  36) = (   0.1666668   0.0962250   0.4758365  )
        37           N   tau(  37) = (   0.1666668   0.0962250   1.0191295  )
        38           N   tau(  38) = (   0.0000001   0.3849001   0.4758365  )
        39           N   tau(  39) = (   0.0000001   0.3849001   1.0191295  )
        40           N   tau(  40) = (  -0.1666665   0.6735752   0.4758365  )
        41           N   tau(  41) = (  -0.1666665   0.6735752   1.0191295  )
        42           N   tau(  42) = (   0.5000001   0.0962250   0.4758365  )
        43           N   tau(  43) = (   0.5000001   0.0962250   1.0191295  )
        44           N   tau(  44) = (   0.3333335   0.3849001   0.4758365  )
        45           N   tau(  45) = (   0.3333335   0.3849001   1.0191295  )
        46           N   tau(  46) = (   0.1666668   0.6735752   0.4758365  )
        47           N   tau(  47) = (   0.1666668   0.6735752   1.0191295  )
        48           N   tau(  48) = (   0.8333335   0.0962250   0.4758365  )
        49           N   tau(  49) = (   0.8333335   0.0962250   1.0191295  )
        50           N   tau(  50) = (   0.6666668   0.3849001   0.4758365  )
        51           N   tau(  51) = (   0.6666668   0.3849001   1.0191295  )
        52           N   tau(  52) = (   0.5000001   0.6735752   0.4758365  )
        53           N   tau(  53) = (   0.5000001   0.6735752   1.0191295  )
        54           N   tau(  54) = (  -0.0000002   0.1924502   0.2041900  )
        55           N   tau(  55) = (  -0.0000002   0.1924502   0.7474830  )
        56           N   tau(  56) = (  -0.1666669   0.4811254   0.2041900  )
        57           N   tau(  57) = (  -0.1666669   0.4811254   0.7474830  )
        58           N   tau(  58) = (  -0.3333335   0.7698005   0.2041900  )
        59           N   tau(  59) = (  -0.3333335   0.7698005   0.7474830  )
[...]
     atom   35 type  1   force =     0.00000000    0.00000000    0.00000000
     atom   36 type  2   force =     0.00000000    0.00000000    0.00000000
     atom   37 type  2   force =     0.00000000    0.00000000    0.00000000
     atom   38 type  2   force =     0.00000000    0.00000000    0.00000000
     atom   39 type  2   force =     0.00000000    0.00000000    0.00000000
     atom   40 type  2   force =     0.00000000    0.00000000    0.00000000
     atom   41 type  2   force =     0.00000000    0.00000000    0.00000000
     atom   42 type  2   force =     0.00000000    0.00000000    0.00000000
     atom   43 type  2   force =     0.00000000    0.00000000    0.00000000
     atom   44 type  2   force =     0.00000000    0.00000000    0.00000000
     atom   45 type  2   force =     0.00000000    0.00000000    0.00000000
     atom   46 type  2   force =     0.00000000    0.00000000    0.00000000
     atom   47 type  2   force =     0.00000000    0.00000000    0.00000000
     atom   48 type  2   force =     0.00000000    0.00000000    0.00000000
     atom   49 type  2   force =     0.00000000    0.00000000    0.00000000
     atom   50 type  2   force =     0.00000000    0.00000000    0.00000000
     atom   51 type  2   force =     0.00000000    0.00000000    0.00000000
     atom   52 type  2   force =     0.00000000    0.00000000    0.00000000
     atom   53 type  2   force =     0.00000000    0.00000000    0.00000000
     atom   54 type  2   force =     0.00000000    0.00000000    0.00000000
     atom   55 type  2   force =     0.00000000    0.00000000    0.00000000
     atom   56 type  2   force =     0.00000000    0.00000000    0.00000000
     atom   57 type  2   force =     0.00000000    0.00000000    0.00000000
     atom   58 type  2   force =     0.00000000    0.00000000    0.00000000
     atom   59 type  2   force =     0.00000000    0.00000000    0.00000000
     atom   60 type  2   force =     0.00000000    0.00000000    0.00000000
     atom   61 type  2   force =     0.00000000    0.00000000    0.00000000
     atom   62 type  2   force =     0.00000000    0.00000000    0.00000000
     atom   63 type  2   force =     0.00000000    0.00000000    0.00000000
     atom   64 type  2   force =     0.00000000    0.00000000    0.00000000
     atom   65 type  2   force =     0.00000000    0.00000000    0.00000000
     atom   66 type  2   force =     0.00000000    0.00000000    0.00000000
     atom   67 type  2   force =     0.00000000    0.00000000    0.00000000
     atom   68 type  2   force =     0.00000000    0.00000000    0.00000000
     atom   69 type  2   force =     0.00000000    0.00000000    0.00000000
     atom   70 type  2   force =     0.00000000    0.00000000    0.00000000
     atom   71 type  2   force =     0.00000000    0.00000000    0.00000000
     atom   72 type  2   force =     0.00000000    0.00000000    0.00000000
     The SCF correction term to forces
     atom    1 type  1   force =    -0.00000000    0.00000000    0.00001672
     atom    2 type  1   force =    -0.00001173    0.00002863   -0.00000087
     atom    3 type  1   force =    -0.00000362    0.00000442    0.00001042
     atom    4 type  1   force =     0.00001893   -0.00002447   -0.00000087
     atom    5 type  1   force =     0.00000201   -0.00000535    0.00001042
     atom    6 type  1   force =     0.00003066   -0.00000416   -0.00000087
     atom    7 type  1   force =     0.00000564    0.00000093    0.00001042
     atom    8 type  1   force =     0.00001173    0.00002863   -0.00000087
     atom    9 type  1   force =     0.00000362    0.00000442    0.00001042
     atom   10 type  1   force =     0.00000000    0.00000000   -0.00005017
     atom   11 type  1   force =     0.00000000   -0.00000000    0.00000220
     atom   12 type  1   force =    -0.00003066   -0.00000416   -0.00000087
     atom   13 type  1   force =    -0.00000564    0.00000093    0.00001042
     atom   14 type  1   force =    -0.00000000   -0.00000000   -0.00000112
     atom   15 type  1   force =     0.00000000   -0.00000000    0.00007245
     atom   16 type  1   force =    -0.00001893   -0.00002447   -0.00000087
     atom   17 type  1   force =    -0.00000201   -0.00000535    0.00001042
     atom   18 type  1   force =    -0.00000071    0.00000041   -0.00002243
     atom   19 type  1   force =     0.00000578   -0.00000333    0.00001790
     atom   20 type  1   force =    -0.00000098   -0.00000056    0.00002422
     atom   21 type  1   force =    -0.00000113   -0.00000065    0.00000148
     atom   22 type  1   force =     0.00000000   -0.00000082   -0.00002243
     atom   23 type  1   force =     0.00000000    0.00000667    0.00001790
     atom   24 type  1   force =     0.00000071    0.00000041   -0.00002243
     atom   25 type  1   force =    -0.00000577   -0.00000333    0.00001790
     atom   26 type  1   force =    -0.00000000   -0.00001199    0.00000403
     atom   27 type  1   force =     0.00000000   -0.00000772    0.00001016
     atom   28 type  1   force =    -0.00001038    0.00000599    0.00000403
     atom   29 type  1   force =    -0.00000669    0.00000386    0.00001016
     atom   30 type  1   force =    -0.00000000    0.00000113    0.00002422
     atom   31 type  1   force =     0.00000000    0.00000130    0.00000148
     atom   32 type  1   force =     0.00000098   -0.00000056    0.00002422
     atom   33 type  1   force =     0.00000113   -0.00000065    0.00000148
     atom   34 type  1   force =     0.00001038    0.00000599    0.00000403
     atom   35 type  1   force =     0.00000669    0.00000386    0.00001016
     atom   36 type  2   force =    -0.00000000    0.00000000   -0.00001404
     atom   37 type  2   force =    -0.00000000    0.00000000    0.00000782
     atom   38 type  2   force =     0.00000050   -0.00000092   -0.00000600
     atom   39 type  2   force =    -0.00000209    0.00000313    0.00000566
     atom   40 type  2   force =    -0.00000055    0.00000089   -0.00000600
     atom   41 type  2   force =     0.00000167   -0.00000338    0.00000566
     atom   42 type  2   force =    -0.00000105    0.00000003   -0.00000600
     atom   43 type  2   force =     0.00000376    0.00000024    0.00000566
     atom   44 type  2   force =    -0.00000050   -0.00000092   -0.00000600
     atom   45 type  2   force =     0.00000209    0.00000313    0.00000566
     atom   46 type  2   force =    -0.00000000    0.00000000   -0.00000344
     atom   47 type  2   force =    -0.00000000    0.00000000    0.00000506
     atom   48 type  2   force =     0.00000105    0.00000003   -0.00000600
     atom   49 type  2   force =    -0.00000376    0.00000024    0.00000566
     atom   50 type  2   force =    -0.00000000    0.00000000   -0.00000374
     atom   51 type  2   force =     0.00000000   -0.00000000    0.00000604
     atom   52 type  2   force =     0.00000055    0.00000089   -0.00000600
     atom   53 type  2   force =    -0.00000167   -0.00000338    0.00000566
     atom   54 type  2   force =    -0.00000124    0.00000072   -0.00000096
     atom   55 type  2   force =    -0.00000118    0.00000068   -0.00000187
     atom   56 type  2   force =    -0.00000146   -0.00000084   -0.00000184
     atom   57 type  2   force =    -0.00000103   -0.00000059    0.00000069
     atom   58 type  2   force =    -0.00000000   -0.00000144   -0.00000096
     atom   59 type  2   force =    -0.00000000   -0.00000136   -0.00000187
     atom   60 type  2   force =     0.00000124    0.00000072   -0.00000096
     atom   61 type  2   force =     0.00000117    0.00000068   -0.00000187
     atom   62 type  2   force =    -0.00000000    0.00000275   -0.00000220
     atom   63 type  2   force =    -0.00000000    0.00000322    0.00000168
     atom   64 type  2   force =     0.00000238   -0.00000138   -0.00000220
     atom   65 type  2   force =     0.00000279   -0.00000161    0.00000168
     atom   66 type  2   force =     0.00000000    0.00000168   -0.00000184
     atom   67 type  2   force =     0.00000000    0.00000119    0.00000069
     atom   68 type  2   force =     0.00000146   -0.00000084   -0.00000184
     atom   69 type  2   force =     0.00000103   -0.00000059    0.00000069
     atom   70 type  2   force =    -0.00000238   -0.00000138   -0.00000220
     atom   71 type  2   force =    -0.00000279   -0.00000161    0.00000168
     atom   72 type  2   force =    -0.00000000    0.00000000    0.00000112

     Total force =     0.002323     Total SCF correction =     0.000145

     Computing stress (Cartesian axis) and pressure

     Non-local corr. energy    =      19.21771730 Ry

          total   stress  (Ry/bohr**3)                   (kbar)     P=      -16.93
  -0.00009680   0.00000000   0.00000000          -14.24        0.00        0.00
   0.00000000  -0.00009680   0.00000000            0.00      -14.24        0.00
   0.00000000   0.00000000  -0.00015160            0.00        0.00      -22.30

     kinetic stress (kbar)  18301.99     -0.00      0.00
                                0.00  18301.99      0.00
                                0.00      0.00  18266.54

     local   stress (kbar)   5264.07     -0.07      0.00
                               -0.07   5263.98      0.01
                                0.00      0.01   1695.24

     nonloc. stress (kbar)    105.84     -0.00      0.00
                               -0.00    105.84      0.00
                                0.00      0.00     87.15

     hartree stress (kbar)  19140.20     -0.00     -0.00
                               -0.00  19140.20      0.00
                               -0.00      0.00  20570.15

     exc-cor stress (kbar)   5024.38      0.00     -0.00
                                0.00   5024.38      0.00
                               -0.00      0.00   5032.26

     corecor stress (kbar) -13752.96     -0.00     -0.00
                               -0.00 -13752.96     -0.00
                               -0.00     -0.00 -13753.60

     ewald   stress (kbar) -34256.82      0.09      0.00
                                0.09 -34256.70     -0.00
                                0.00     -0.00 -32076.55

     hubbard stress (kbar)      0.00      0.00      0.00
                                0.00      0.00      0.00
                                0.00      0.00      0.00

     DFT-D   stress (kbar)      0.00      0.00      0.00
                                0.00      0.00      0.00
                                0.00      0.00      0.00

     XDM     stress (kbar)      0.00      0.00      0.00
                                0.00      0.00      0.00
                                0.00      0.00      0.00

     dft-nl  stress (kbar)    159.04     -0.00     -0.00
                               -0.00    159.04     -0.00
                               -0.00     -0.00    156.51

     TS-vdW  stress (kbar)      0.00      0.00      0.00
                                0.00      0.00      0.00
                                0.00      0.00      0.00

     MDB     stress (kbar)      0.00      0.00      0.00
                                0.00      0.00      0.00
                                0.00      0.00      0.00

     3D-RISM stress (kbar)      0.00      0.00      0.00
                                0.00      0.00      0.00
                                0.00      0.00      0.00

     Energy error            =      1.5E-05 Ry
     Gradient error          =      4.6E-04 Ry/Bohr

     bfgs converged in  34 scf cycles and  32 bfgs steps
     (criteria: energy <  1.0E-04 Ry, force <  1.0E-03 Ry/Bohr)

     End of BFGS Geometry Optimization

     Final energy             =  -10988.1954276300 Ry

     File ./GaN.bfgs deleted, as requested
Begin final coordinates

ATOMIC_POSITIONS (angstrom)
Ga            1.6222756606        0.9366198184        7.9269301434
Ga            0.0095743649        3.7473523938        2.6136464201
Ga            0.0040852255        3.7610447351        7.9496501810
Ga           -1.6167317995        6.5641972991        2.6136464201
Ga           -1.6076184538        6.5525973943        7.9496501810
Ga            4.8627921220        0.9278938216        2.6136464201
Ga            4.8773946070        0.9258013851        7.9496501810
Ga            3.2349769563        3.7473523938        2.6136464201
Ga            3.2404660957        3.7610447351        7.9496501810
Ga            1.6222756606        6.5563425246        2.6284112936
Ga            1.6222756606        6.5563425246        7.9452266872
Ga            8.1154044504        0.9278938216        2.6136464201
Ga            8.1008019654        0.9258013851        7.9496501810
Ga            6.4890982862        3.7464811715        2.6148472423
Ga            6.4890982862        3.7464811715        7.9418255398
Ga            4.8612831207        6.5641972991        2.6136464201
Ga            4.8521697750        6.5525973943        7.9496501810
Ga           -0.1830409491        1.9789200533        5.3288975845
Ga            0.0161093423        1.8639405790       10.5985280598
Ga           -1.6268184245        4.6804813297        5.2858400671
Ga           -1.6228142984        4.6827931129       10.5749084821
Ga           -3.2445503819        7.2816099390        5.3288975845
Ga           -3.2445503819        7.5115688877       10.5985280598
Ga            3.4275854366        1.9789200533        5.3288975845
Ga            3.2284351452        1.8639405790       10.5985280598
Ga            1.6222722437        4.6974419091        5.3026101386
Ga            1.6222722437        4.6822575919       10.5699556971
Ga            0.0124152023        7.4857960979        5.3026101386
Ga           -0.0007348022        7.4933882566       10.5699556971
Ga            6.4890948693        1.8784873864        5.2858400671
Ga            6.4890948693        1.8738638198       10.5749084821
Ga            4.8713629120        4.6804813297        5.2858400671
Ga            4.8673587859        4.6827931129       10.5749084821
Ga            3.2321292852        7.4857960979        5.3026101386
Ga            3.2452792897        7.4933882566       10.5699556971
N             1.6222756606        0.9366198184        4.2192372060
N             1.6222756606        0.9366198184        9.9021251871
N             0.0093367297        3.7600818277        4.6214535154
N             0.0015277791        3.7417228738        9.9188102921
N            -1.6058266039        6.5576267840        4.6214535154
N            -1.6256303997        6.5600435114        9.9188102921
N             4.8739349527        0.9217349027        4.6214535154
N             4.8619401075        0.9376771293        9.9188102921
N             3.2352145915        3.7600818277        4.6214535154
N             3.2430235421        3.7417228738        9.9188102921
N             1.6222756606        6.5563425246        4.6287899499
N             1.6222756606        6.5563425246        9.9227714086
N             8.1042616197        0.9217349027        4.6214535154
N             8.1162564649        0.9376771293        9.9188102921
N             6.4890982862        3.7464811715        4.6233430531
N             6.4890982862        3.7464811715        9.9203498690
N             4.8503779251        6.5576267840        4.6214535154
N             4.8701817209        6.5600435114        9.9188102921
N            -0.0989968940        1.9303971955        1.9705880755
N             0.0055536062        1.8700349361        7.2548065122
N            -1.6188919370        4.6850576894        1.9875848884
N            -1.6224337031        4.6830128497        7.2703300795
N            -3.2445503819        7.3786556547        1.9705880755
N            -3.2445503819        7.4993801736        7.2548065122
N             3.3435413815        1.9303971955        1.9705880755
N             3.2389908813        1.8700349361        7.2548065122
N             1.6222722437        4.6892991864        1.9853903064
N             1.6222722437        4.6847646287        7.2789524594
N             0.0053633976        7.4898674593        1.9853903064
N             0.0014363554        7.4921347382        7.2789524594
N             6.4890948693        1.8693346670        1.9875848884
N             6.4890948693        1.8734243462        7.2703300795
N             4.8634364245        4.6850576894        1.9875848884
N             4.8669781906        4.6830128497        7.2703300795
N             3.2391810899        7.4898674593        1.9853903064
N             3.2431081321        7.4921347382        7.2789524594
N             1.6222756606        0.9366198184        3.0225487898
End final coordinates

     Writing all to output data dir ./GaN.save/

     General routines

     Parallel routines

     PAW routines

   This run was terminated on:  16:49:43  21Mar2024

   JOB DONE.