     Program PWSCF v.7.1 starts on  2Oct2023 at 22:17: 7

     Reading input from espresso.pwi
Warning: card &CELL ignored
Warning: card    CELL_DYNAMICS    = 'BFGS' ignored
Warning: card / ignored

     Current dimensions of program PWSCF are:
     Max number of different atomic species (ntypx) = 10
     Max number of k-points (npk) =  40000
     Max angular momentum in pseudopotentials (lmaxx) =  4
     file C.pbe-n-kjpaw_psl.1.0.0.UPF: wavefunction(s)  2S 2P renormalized

     IMPORTANT: XC functional enforced from input :
     Exchange-correlation= BEEF-VDW
                           (   1   4  43  14   2   0   0)
     Any further DFT definition will be discarded
     Please, verify this is what you really want

     K-points division:     npool     =       4
     R & G space division:  proc/nbgrp/npool/nimage =      32
     Subspace diagonalization in iterative solution of the eigenvalue problem:
     a serial algorithm will be used

     Using Slab Decomposition

     bravais-lattice index     =            4
     lattice parameter (alat)  =       4.6584  a.u.
     unit-cell volume          =     264.2291 (a.u.)^3
     number of atoms/cell      =            4
     number of atomic types    =            1
     number of electrons       =        16.00
     number of Kohn-Sham states=           12
     kinetic-energy cutoff     =      70.0000  Ry
     charge density cutoff     =     350.0000  Ry
     scf convergence threshold =      1.0E-08
     mixing beta               =       0.7000
     number of iterations used =            8  plain     mixing
     Exchange-correlation= BEEF-VDW
                           (   1   4  43  14   2   0   0)

     celldm(1)=   4.658402  celldm(2)=   0.000000  celldm(3)=   3.018139
     celldm(4)=   0.000000  celldm(5)=   0.000000  celldm(6)=   0.000000

     crystal axes: (cart. coord. in units of alat)
               a(1) = (   1.000000   0.000000   0.000000 )
               a(2) = (  -0.500000   0.866025   0.000000 )
               a(3) = (   0.000000   0.000000   3.018139 )

     reciprocal axes: (cart. coord. in units 2 pi/alat)
               b(1) = (  1.000000  0.577350 -0.000000 )
               b(2) = (  0.000000  1.154701  0.000000 )
               b(3) = (  0.000000 -0.000000  0.331330 )

     PseudoPot. # 1 for C  read from file:
     //group///packages/espresso/pseudo/psl_1.0.0/pslibrary.1.0.0/pbe/PSEUDOPOTENTIALS/C.pbe-n-kjpaw_psl.1.0.0.UPF
     MD5 check sum: 5459cf7f2c8c37df2f7cde8914797f4d
     Pseudo is Projector augmented-wave + core cor, Zval =  4.0
     Generated using 'atomic' code by A. Dal Corso  v.7.1
     Shape of augmentation charge: PSQ
     Using radial grid of 1073 points,  4 beta functions with:
                l(1) =   0
                l(2) =   0
                l(3) =   1
                l(4) =   1
     Q(r) pseudized with 0 coefficients

     atomic species   valence    mass     pseudopotential
        C              4.00    12.01100     C ( 1.00)

     24 Sym. Ops., with inversion, found (12 have fractional translation)

                                    s                        frac. trans.

      isym =  1     identity

 cryst.   s( 1) = (     1          0          0      )
                  (     0          1          0      )
                  (     0          0          1      )

 cart.    s( 1) = (  1.0000000  0.0000000  0.0000000 )
                  (  0.0000000  1.0000000  0.0000000 )
                  (  0.0000000  0.0000000  1.0000000 )

      isym =  2     180 deg rotation - cart. axis [0,0,1]

 cryst.   s( 2) = (    -1          0          0      )    f =(  0.0000000 )
                  (     0         -1          0      )       (  0.0000000 )
                  (     0          0          1      )       (  0.5000000 )

 cart.    s( 2) = ( -1.0000000  0.0000000  0.0000000 )    f =(  0.0000000 )
                  (  0.0000000 -1.0000000  0.0000000 )       (  0.0000000 )
                  (  0.0000000  0.0000000  1.0000000 )       (  1.5090692 )

[...]

      isym =  4     180 deg rotation - cart. axis [1,0,0]

[...]

      isym =  5      60 deg rotation - cryst. axis [0,0,1]

[...]

 cryst.   s( 8) = (    -1         -1          0      )
                  (     1          0          0      )
                  (     0          0          1      )

 cart.    s( 8) = ( -0.5000000  0.8660254  0.0000000 )
                  ( -0.8660254 -0.5000000  0.0000000 )
                  (  0.0000000  0.0000000  1.0000000 )

[...]

 cryst.   s( 9) = (     0         -1          0      )    f =(  0.0000000 )
                  (    -1          0          0      )       (  0.0000000 )
                  (     0          0         -1      )       ( -0.5000000 )

 cart.    s( 9) = (  0.5000000 -0.8660254  0.0000000 )    f =(  0.0000000 )
                  ( -0.8660254 -0.5000000  0.0000000 )       (  0.0000000 )
                  (  0.0000000  0.0000000 -1.0000000 )       ( -1.5090692 )

[...]

 cryst.   s(10) = (     1          1          0      )    f =(  0.0000000 )
                  (     0         -1          0      )       (  0.0000000 )
                  (     0          0         -1      )       ( -0.5000000 )

 cart.    s(10) = (  0.5000000  0.8660254  0.0000000 )    f =(  0.0000000 )
                  (  0.8660254 -0.5000000  0.0000000 )       (  0.0000000 )
                  (  0.0000000  0.0000000 -1.0000000 )       ( -1.5090692 )

[...]

 cryst.   s(11) = (    -1         -1          0      )
                  (     0          1          0      )
                  (     0          0         -1      )

 cart.    s(11) = ( -0.5000000 -0.8660254  0.0000000 )
                  ( -0.8660254  0.5000000  0.0000000 )
                  (  0.0000000  0.0000000 -1.0000000 )

      isym = 12     180 deg rotation - cryst. axis [1,1,0]

[...]

      isym = 13     inversion

[...]

      isym = 14     inv. 180 deg rotation - cart. axis [0,0,1]

[...]

      isym = 16     inv. 180 deg rotation - cart. axis [1,0,0]

[...]

      isym = 17     inv.  60 deg rotation - cryst. axis [0,0,1]

[...]

 cryst.   s(22) = (    -1         -1          0      )    f =(  0.0000000 )
                  (     0          1          0      )       (  0.0000000 )
                  (     0          0          1      )       (  0.5000000 )

 cart.    s(22) = ( -0.5000000 -0.8660254  0.0000000 )    f =(  0.0000000 )
                  ( -0.8660254  0.5000000  0.0000000 )       (  0.0000000 )
                  (  0.0000000  0.0000000  1.0000000 )       (  1.5090692 )

[...]

      isym = 24     inv. 180 deg rotation - cryst. axis [1,1,0]

 cryst.   s(24) = (     0         -1          0      )
                  (    -1          0          0      )
                  (     0          0          1      )

 cart.    s(24) = (  0.5000000 -0.8660254  0.0000000 )
                  ( -0.8660254 -0.5000000  0.0000000 )
                  (  0.0000000  0.0000000  1.0000000 )

     point group D_6h(6/mmm)
     there are 12 classes
     the character table:

       E     2C6   2C3   C2    3C2'  3C2'' i     2S3   2S6   s_h   3s_d  3s_v
A_1g   1.00  1.00  1.00  1.00  1.00  1.00  1.00  1.00  1.00  1.00  1.00  1.00
A_2g   1.00  1.00  1.00  1.00 -1.00 -1.00  1.00  1.00  1.00  1.00 -1.00 -1.00
B_1g   1.00 -1.00  1.00 -1.00  1.00 -1.00  1.00 -1.00  1.00 -1.00  1.00 -1.00
B_2g   1.00 -1.00  1.00 -1.00 -1.00  1.00  1.00 -1.00  1.00 -1.00 -1.00  1.00
E_1g   2.00  1.00 -1.00 -2.00  0.00  0.00  2.00  1.00 -1.00 -2.00  0.00  0.00
E_2g   2.00 -1.00 -1.00  2.00  0.00  0.00  2.00 -1.00 -1.00  2.00  0.00  0.00
A_1u   1.00  1.00  1.00  1.00  1.00  1.00 -1.00 -1.00 -1.00 -1.00 -1.00 -1.00
A_2u   1.00  1.00  1.00  1.00 -1.00 -1.00 -1.00 -1.00 -1.00 -1.00  1.00  1.00
B_1u   1.00 -1.00  1.00 -1.00  1.00 -1.00 -1.00  1.00 -1.00  1.00 -1.00  1.00
B_2u   1.00 -1.00  1.00 -1.00 -1.00  1.00 -1.00  1.00 -1.00  1.00  1.00 -1.00
E_1u   2.00  1.00 -1.00 -2.00  0.00  0.00 -2.00 -1.00  1.00  2.00  0.00  0.00
E_2u   2.00 -1.00 -1.00  2.00  0.00  0.00 -2.00  1.00  1.00 -2.00  0.00  0.00

     the symmetry operations in each class and the name of the first element:

     E        1
          identity
     2C6      5    6
           60 deg rotation - cryst. axis [0,0,1]
     2C3      7    8
          120 deg rotation - cryst. axis [0,0,1]
     C2       2
          180 deg rotation - cart. axis [0,0,1]
     3C2'     4   12   11
          180 deg rotation - cart. axis [1,0,0]
     3C2''    3    9   10
          180 deg rotation - cart. axis [0,1,0]
     i       13
          inversion
     2S3     17   18
          inv.  60 deg rotation - cryst. axis [0,0,1]
     2S6     19   20
          inv. 120 deg rotation - cryst. axis [0,0,1]
     s_h     14
          inv. 180 deg rotation - cart. axis [0,0,1]
     3s_d    16   24   23
          inv. 180 deg rotation - cart. axis [1,0,0]
     3s_v    15   21   22
          inv. 180 deg rotation - cart. axis [0,1,0]

   Cartesian axes

     site n.     atom                  positions (alat units)
         1           C   tau(   1) = (   0.0000000   0.0000000   0.7545346  )
         2           C   tau(   2) = (   0.0000000   0.0000000   2.2636039  )
         3           C   tau(   3) = (  -0.0000006   0.5773506   0.7545346  )
         4           C   tau(   4) = (   0.5000004   0.2886749   2.2636039  )

   Crystallographic axes

     site n.     atom                  positions (cryst. coord.)
         1           C   tau(   1) = (  0.0000000  0.0000000  0.2500000  )
         2           C   tau(   2) = (  0.0000000  0.0000000  0.7500000  )
         3           C   tau(   3) = (  0.3333329  0.6666671  0.2500000  )
         4           C   tau(   4) = (  0.6666670  0.3333330  0.7500000  )

     number of k points=    84  Gaussian smearing, width (Ry)=  0.0100
                       cart. coord. in units 2pi/alat
        k(    1) = (   0.0000000   0.0000000   0.0000000), wk =   0.0020000
        k(    2) = (   0.0000000   0.0000000   0.0331330), wk =   0.0040000
        k(    3) = (   0.0000000   0.0000000   0.0662660), wk =   0.0040000
        k(    4) = (   0.0000000   0.0000000   0.0993990), wk =   0.0040000
        k(    5) = (   0.0000000   0.0000000   0.1325320), wk =   0.0040000
        k(    6) = (   0.0000000   0.0000000  -0.1656650), wk =   0.0020000
        k(    7) = (   0.0000000   0.1154701   0.0000000), wk =   0.0120000
        k(    8) = (   0.0000000   0.1154701   0.0331330), wk =   0.0240000
        k(    9) = (   0.0000000   0.1154701   0.0662660), wk =   0.0240000
        k(   10) = (   0.0000000   0.1154701   0.0993990), wk =   0.0240000
        k(   11) = (   0.0000000   0.1154701   0.1325320), wk =   0.0240000
        k(   12) = (   0.0000000   0.1154701  -0.1656650), wk =   0.0120000
        k(   13) = (   0.0000000   0.2309401   0.0000000), wk =   0.0120000
        k(   14) = (   0.0000000   0.2309401   0.0331330), wk =   0.0240000
        k(   15) = (   0.0000000   0.2309401   0.0662660), wk =   0.0240000
        k(   16) = (   0.0000000   0.2309401   0.0993990), wk =   0.0240000
        k(   17) = (   0.0000000   0.2309401   0.1325320), wk =   0.0240000
        k(   18) = (   0.0000000   0.2309401  -0.1656650), wk =   0.0120000
[...]
        k(   53) = (   0.1000000   0.3000000   0.4000000), wk =   0.0480000
        k(   54) = (   0.1000000   0.3000000  -0.5000000), wk =   0.0240000
        k(   55) = (   0.1000000   0.4000000   0.0000000), wk =   0.0240000
        k(   56) = (   0.1000000   0.4000000   0.1000000), wk =   0.0480000
        k(   57) = (   0.1000000   0.4000000   0.2000000), wk =   0.0480000
        k(   58) = (   0.1000000   0.4000000   0.3000000), wk =   0.0480000
        k(   59) = (   0.1000000   0.4000000   0.4000000), wk =   0.0480000
        k(   60) = (   0.1000000   0.4000000  -0.5000000), wk =   0.0240000
[...]
        k(   70) = (   0.2000000   0.3000000   0.3000000), wk =   0.0480000
        k(   71) = (   0.2000000   0.3000000   0.4000000), wk =   0.0480000
        k(   72) = (   0.2000000   0.3000000  -0.5000000), wk =   0.0240000
        k(   73) = (   0.2000000   0.4000000   0.0000000), wk =   0.0120000
        k(   74) = (   0.2000000   0.4000000   0.1000000), wk =   0.0240000
        k(   75) = (   0.2000000   0.4000000   0.2000000), wk =   0.0240000
        k(   76) = (   0.2000000   0.4000000   0.3000000), wk =   0.0240000
        k(   77) = (   0.2000000   0.4000000   0.4000000), wk =   0.0240000
        k(   78) = (   0.2000000   0.4000000  -0.5000000), wk =   0.0120000
        k(   79) = (   0.3000000   0.3000000   0.0000000), wk =   0.0120000
        k(   80) = (   0.3000000   0.3000000   0.1000000), wk =   0.0240000
        k(   81) = (   0.3000000   0.3000000   0.2000000), wk =   0.0240000
        k(   82) = (   0.3000000   0.3000000   0.3000000), wk =   0.0240000
        k(   83) = (   0.3000000   0.3000000   0.4000000), wk =   0.0240000
        k(   84) = (   0.3000000   0.3000000  -0.5000000), wk =   0.0120000

     Check: negative core charge=   -0.000012

     Initial potential from superposition of free atoms

     starting charge      15.9998, renormalised to      16.0000

     %%%%%%%%%%%%%%%%%%%%%%%%%%%%%%%%%%%%%%%%%%%%%%%%%%%%%%%%%%%%%%%%%%%%%%%%
     %                                                                      %
     % You are using vdW-DF, which was implemented by the Thonhauser group. %
     % Please cite the following two papers that made this development      %
     % possible and the two reviews that describe the various versions:     %
     %                                                                      %
     %   T. Thonhauser et al., PRL 115, 136402 (2015).                      %
     %   T. Thonhauser et al., PRB 76, 125112 (2007).                       %
     %   K. Berland et al., Rep. Prog. Phys. 78, 066501 (2015).             %
     %   D.C. Langreth et al., J. Phys.: Condens. Matter 21, 084203 (2009). %
     %                                                                      %
     % If you are calculating stress with vdW-DF, please also cite:         %
     %                                                                      %
     %   R. Sabatini et al., J. Phys.: Condens. Matter 24, 424209 (2012).   %
     %                                                                      %
     %%%%%%%%%%%%%%%%%%%%%%%%%%%%%%%%%%%%%%%%%%%%%%%%%%%%%%%%%%%%%%%%%%%%%%%%

     %%%%%%%%%%%%%%%%%%%%%%%%%%%%%%%%%%%%%%%%%%%%%%%%%%%%%%%%%%%%%%%%%%%%%%%%
     %                                                                      %
     %  vdW-DF NEWS:                                                        %
     %                                                                      %
     %  * vdW-DF3 is now available. DOI: 10.1021/acs.jctc.0c00471           %
     %    use with input_dft = 'vdW-DF3-opt1' or 'vdW-DF3-opt2'             %
     %                                                                      %
     %  * Unscreened and range-separated vdW-DF hybrid functionals          %
     %    DOI: 10.1063/1.4986522 and 10.1088/1361-648X/ac2ad2               %
     %    use with input_dft = 'vdW-DF-cx0' (etc) and 'vdW-DF-ahcx'         %
     %                                                                      %
     %%%%%%%%%%%%%%%%%%%%%%%%%%%%%%%%%%%%%%%%%%%%%%%%%%%%%%%%%%%%%%%%%%%%%%%%

     Carrying out vdW-DF run using the following parameters:
     Nqs    =  20  Npoints =  1024  r_max =  100.000
     q_mesh =  0.00001000  0.04494208  0.09755937  0.15916263
               0.23128650  0.31572767  0.41458969  0.53033537
               0.66584808  0.82450364  1.01025438  1.22772762
               1.48234092  1.78043706  2.12944203  2.53805004
               3.01644009  3.57652955  4.23227104  5.00000000

     Non-local corr. energy    =       0.16781651 Ry

     Starting wfcs are   16 randomized atomic wfcs
     Checking if some PAW data can be deallocated...

     Self-consistent Calculation

     iteration #  1     ecut=    70.00 Ry     beta= 0.70
     Davidson diagonalization with overlap

     ethr =  1.00E-02,  avg # of iterations =  3.0

[...]

     total energy              =     -75.95586614 Ry
     estimated scf accuracy    <       0.40050096 Ry

[...]

     c_bands:  3 eigenvalues not converged
     c_bands:  1 eigenvalues not converged
     ethr =  6.88E-09,  avg # of iterations =  9.5

[...]

     c_bands:  1 eigenvalues not converged
     ethr =  1.37E-09,  avg # of iterations =  4.5

[...]

     total energy              =     -76.01259669 Ry
     estimated scf accuracy    <       0.00000003 Ry

     iteration #  7     ecut=    70.00 Ry     beta= 0.70
     Davidson diagonalization with overlap

     ethr =  2.04E-10,  avg # of iterations =  4.5

[...]

     End of self-consistent calculation

          k = 0.0000 0.0000 0.0000 (  2605 PWs)   bands (ev):

   -14.0010 -13.8774  -2.4078  -1.3018   2.5711   2.5712   2.5769   2.5770
     9.4238  14.0734  14.0735  14.0933

     occupation numbers
     1.0000   1.0000   1.0000   1.0000   1.0000   1.0000   1.0000   1.0000
     0.0000   0.0000   0.0000   0.0000

[...]

          k = 0.3000 0.5196-0.1657 (  2612 PWs)   bands (ev):

    -7.9995  -7.9995  -6.3181  -6.3181  -4.4580  -4.4580   4.6852   4.6852
     6.7232   6.7232  16.2852  16.2852

     occupation numbers
     1.0000   1.0000   1.0000   1.0000   1.0000   1.0000   1.0000   1.0000
     0.0000   0.0000   0.0000   0.0000

     the Fermi energy is     5.7679 ev

!    total energy              =     -76.01259670 Ry
     total all-electron energy =      -307.068985 Ry
     estimated scf accuracy    <          7.2E-10 Ry
     smearing contrib. (-TS)   =      -0.00000000 Ry
     internal energy E=F+TS    =     -76.01259670 Ry

     The total energy is F=E-TS. E is the sum of the following terms:
     one-electron contribution =     -18.78586812 Ry
     hartree contribution      =      17.21043426 Ry
     xc contribution           =     -19.32009055 Ry
     ewald contribution        =     -28.93576922 Ry
     one-center paw contrib.   =     -26.18130308 Ry
      -> PAW hartree energy AE =       9.54087941 Ry
      -> PAW hartree energy PS =      -9.53209631 Ry
      -> PAW xc energy AE      =     -11.25677615 Ry
      -> PAW xc energy PS      =       4.70264054 Ry
      -> total E_H with PAW    =      17.21921736 Ry
      -> total E_XC with PAW   =     -25.87422615 Ry

     convergence has been achieved in   7 iterations

[...]

     Forces acting on atoms (cartesian axes, Ry/au):

     atom    1 type  1   force =     0.00000000    0.00000000    0.00000000
     atom    2 type  1   force =     0.00000000   -0.00000000    0.00000000
     atom    3 type  1   force =     0.00000000   -0.00000000    0.00000000
     atom    4 type  1   force =     0.00000000    0.00000000    0.00000000
     The non-local contrib.  to forces
     atom    1 type  1   force =     0.00000000   -0.00000000    0.00000000
     atom    2 type  1   force =     0.00000000    0.00000000    0.00000000
     atom    3 type  1   force =     0.00000000   -0.00000000    0.00000000
     atom    4 type  1   force =     0.00000000    0.00000000    0.00000000
     The ionic contribution  to forces
     atom    1 type  1   force =    -0.00001084    0.00000634   -0.00000009
     atom    2 type  1   force =     0.00000734   -0.00000422    0.00000009
     atom    3 type  1   force =     0.00001085   -0.00000634   -0.00000009
     atom    4 type  1   force =    -0.00000735    0.00000423    0.00000009
     The local contribution  to forces
     atom    1 type  1   force =    -0.00000000   -0.00000000    0.00000020
     atom    2 type  1   force =     0.00000000    0.00000000    0.00000059
     atom    3 type  1   force =     0.00000787   -0.00000460    0.00000020
     atom    4 type  1   force =    -0.00000533    0.00000307    0.00000059
     The core correction contribution to forces
     atom    1 type  1   force =     0.00000000   -0.00000000   -0.00000000
     atom    2 type  1   force =    -0.00000000    0.00000000   -0.00000000
     atom    3 type  1   force =    -0.00000105    0.00000061   -0.00000000
     atom    4 type  1   force =     0.00000071   -0.00000041   -0.00000000
     The Hubbard contrib.    to forces
     atom    1 type  1   force =     0.00000000    0.00000000    0.00000000
     atom    2 type  1   force =     0.00000000    0.00000000    0.00000000
     atom    3 type  1   force =     0.00000000    0.00000000    0.00000000
     atom    4 type  1   force =     0.00000000    0.00000000    0.00000000
     The SCF correction term to forces
     atom    1 type  1   force =    -0.00000000    0.00000000   -0.00000000
     atom    2 type  1   force =     0.00000000   -0.00000000    0.00000000
     atom    3 type  1   force =     0.00000000   -0.00000000   -0.00000000
     atom    4 type  1   force =    -0.00000000    0.00000000    0.00000000

     Total force =     0.000000     Total SCF correction =     0.000000

     Computing stress (Cartesian axis) and pressure

[...]

          total   stress  (Ry/bohr**3)                   (kbar)     P=       -0.08
  -0.00000066  -0.00000000   0.00000000           -0.10       -0.00        0.00
  -0.00000000  -0.00000066   0.00000000           -0.00       -0.10        0.00
  -0.00000000  -0.00000000  -0.00000031           -0.00       -0.00       -0.05

     kinetic stress (kbar)  10460.31      0.00      0.00
                                0.00  10460.31      0.00
                                0.00     -0.00  11899.77

     local   stress (kbar) -24919.66      0.01      0.00
                                0.01 -24919.64     -0.00
                                0.00     -0.00  24142.36

     nonloc. stress (kbar)   2671.24      0.00      0.00
                                0.00   2671.24      0.00
                                0.00      0.00   2436.94

     hartree stress (kbar)   8633.98     -0.00      0.00
                               -0.00   8633.98     -0.00
                                0.00     -0.00  -7686.34

     exc-cor stress (kbar)   -149.50     -0.00     -0.00
                               -0.00   -149.50      0.00
                               -0.00      0.00   -388.66

     corecor stress (kbar)  -2605.51      0.00     -0.00
                                0.00  -2605.51      0.00
                               -0.00      0.00  -2559.55

     ewald   stress (kbar)   5904.63     -0.02     -0.00
                               -0.02   5904.60      0.00
                               -0.00      0.00 -27918.73

     hubbard stress (kbar)      0.00      0.00      0.00
                                0.00      0.00      0.00
                                0.00      0.00      0.00

     DFT-D   stress (kbar)      0.00      0.00      0.00
                                0.00      0.00      0.00
                                0.00      0.00      0.00

     XDM     stress (kbar)      0.00      0.00      0.00
                                0.00      0.00      0.00
                                0.00      0.00      0.00

     dft-nl  stress (kbar)      4.42      0.00      0.00
                                0.00      4.42     -0.00
                                0.00     -0.00     74.17

     TS-vdW  stress (kbar)      0.00      0.00      0.00
                                0.00      0.00      0.00
                                0.00      0.00      0.00

     MDB     stress (kbar)      0.00      0.00      0.00
                                0.00      0.00      0.00
                                0.00      0.00      0.00

     3D-RISM stress (kbar)      0.00      0.00      0.00
                                0.00      0.00      0.00
                                0.00      0.00      0.00

[...]

     Non-local corr. energy    =       0.19727727 Ry

 BEEFens 2000 ensemble energies
             -0.264926026454765E+00
             -0.168639749580305E+01
             -0.599110459876646E+00
              0.687948716248389E+00
             -0.110397281795332E+01
             -0.158394270034913E+01
              0.986045342215991E+00
             -0.231199498794823E+00
              0.125828512068640E+01
             -0.212203446538188E-01
              0.553835059660361E+00
             -0.108584419891766E-02
              0.799275374582384E-01
             -0.191266282290557E+00
              0.860800129399497E+00
             -0.671538438170320E+00
             -0.150996361349266E+01
             -0.438020571243711E+00
              0.321050013941483E+00
              0.410998219745036E-01
              0.179539155794682E+01
              0.162444704337491E+01
             -0.749688770898985E+00
              0.462418802594344E+00
             -0.204135385050775E+01
              0.164596239722190E+01
              0.613772473014254E+00
              0.174620697107140E+01
              0.105940072594616E+01
             -0.697405752886873E+00
              0.438166081680230E+00
             -0.888407919770559E+00
             -0.198112146629659E-02
              0.855098048038525E+00
              0.114996471338652E+01
             -0.270388096777797E+00
              0.240641692472232E+01
             -0.845769827403350E+00
             -0.608018557560818E+00
              0.948794251546337E+00
              0.279718420941530E+00
              0.814744152614909E+00
             -0.138893373960379E+01
             -0.585247982220629E-01
              0.148332912724866E+01
              0.181308360934483E+01
             -0.161615347222360E+01
              0.120972927407171E+00
              0.623636683868259E+00
              0.124665095222428E+00
              0.792100222728964E+00
              0.155787677735569E+01
             -0.106934949625694E+01
             -0.112188013783162E+01
             -0.140895132145666E+01
             -0.403974449081121E+00
             -0.115735582994973E+01
              0.405305520452579E-01
             -0.314528467320550E+00
             -0.106638233516022E+01
[...]
              0.140929869219829E+01
              0.547370716137384E+00
              0.937940738609008E+00
             -0.136323681929020E+01
             -0.101855807488304E+01
             -0.461975833314487E+00
             -0.116204648952705E+01
              0.211567086082568E+01
              0.181920844718092E+01
              0.788176470505465E+00
              0.211952490091481E+01
             -0.113517047546918E+01
             -0.550588985768421E+00
             -0.564120927872523E+00
              0.167828096637005E+01

 BEEF-vdW xc energy contributions
            1 :    -16.17391824619214
            2 :     13.98136799365852
            3 :    -10.35617578158463
            4 :     6.409272806594174
            5 :    -3.084620092729509
            6 :    0.8541999574125114
            7 :    0.2828147293410055
            8 :   -0.6253764832265318
            9 :    0.5756934818695214
           10 :   -0.4831460916253292
           11 :    0.5327285846136931
           12 :   -0.7076355951732687
           13 :    0.8584166425235900
           14 :   -0.8419318741747119
           15 :    0.6293261679152558
           16 :   -0.3112421013019180
           17 :    2.1922696142024023E-002
           18 :    0.1415347211869147
           19 :   -0.1552275402899532
           20 :    6.2850685829921815E-002
           21 :    5.1521186265048868E-002
           22 :   -0.1034411380733928
           23 :    5.1293987815945741E-002
           24 :    8.1380121304885478E-002
           25 :   -0.2238220200107932
           26 :    0.3041242919454028
           27 :   -0.2877281025996652
           28 :    0.1848066991161552
           29 :   -3.3597326441430653E-002
           30 :   -0.1199847431879135
           31 :    -2.120318877794084
           32 :    -1.462313719511556

     Writing all to output data dir ./GaN.save/

     General routines

     Parallel routines

     PAW routines

   This run was terminated on:  22:17:12   2Oct2023

   JOB DONE.