     Program PWSCF v.7.1 starts on 17Feb2024 at 18: 2:16

     Reading input from espresso.pwi
Warning: card &CELL ignored
Warning: card    CELL_DYNAMICS    = 'BFGS' ignored
Warning: card / ignored

     Current dimensions of program PWSCF are:
     Max number of different atomic species (ntypx) = 10
     Max number of k-points (npk) =  40000
     Max angular momentum in pseudopotentials (lmaxx) =  4
     file Ga.pbe-dn-kjpaw_psl.1.0.0.UPF: wavefunction(s)  4S renormalized
     file N.pbe-n-kjpaw_psl.1.0.0.UPF: wavefunction(s)  2S renormalized

     IMPORTANT: XC functional enforced from input :
     Exchange-correlation= BEEF-VDW
                           (   1   4  43  14   2   0   0)
     Any further DFT definition will be discarded
     Please, verify this is what you really want

     Found identity + (  0.0000  0.0000  0.3333) symmetry
     This is a supercell, fractional translations are disabled

     K-points division:     npool     =       4
     R & G space division:  proc/nbgrp/npool/nimage =      64
     Subspace diagonalization in iterative solution of the eigenvalue problem:
     a serial algorithm will be used

     Using Slab Decomposition

     bravais-lattice index     =            4
     lattice parameter (alat)  =      24.5252  a.u.
     unit-cell volume          =   15616.6055 (a.u.)^3
     number of atoms/cell      =          192
     number of atomic types    =            2
     number of electrons       =      1728.00
     number of Kohn-Sham states=         1037
     kinetic-energy cutoff     =      70.0000  Ry
     charge density cutoff     =     350.0000  Ry
     scf convergence threshold =      1.0E-07
     mixing beta               =       0.7000
     number of iterations used =            8  plain     mixing
     energy convergence thresh.=      1.0E-04
     force convergence thresh. =      1.0E-03
     Exchange-correlation= BEEF-VDW
                           (   1   4  43  14   2   0   0)
     nstep                     =           50

     celldm(1)=  24.525232  celldm(2)=   0.000000  celldm(3)=   1.222409
     celldm(4)=   0.000000  celldm(5)=   0.000000  celldm(6)=   0.000000

     crystal axes: (cart. coord. in units of alat)
               a(1) = (   1.000000   0.000000   0.000000 )
               a(2) = (  -0.500000   0.866025   0.000000 )
               a(3) = (   0.000000   0.000000   1.222409 )

     reciprocal axes: (cart. coord. in units 2 pi/alat)
               b(1) = (  1.000000  0.577350 -0.000000 )
               b(2) = (  0.000000  1.154701  0.000000 )
               b(3) = (  0.000000 -0.000000  0.818057 )

     PseudoPot. # 1 for Ga read from file:
     //group///packages/espresso/pseudo/psl_1.0.0/pslibrary.1.0.0/pbe/PSEUDOPOTENTIALS/Ga.pbe-dn-kjpaw_psl.1.0.0.UPF
     MD5 check sum: cd2a01e492f15b435d17032472d8505c
     Pseudo is Projector augmented-wave + core cor, Zval = 13.0
     Generated using 'atomic' code by A. Dal Corso  v.7.1
     Shape of augmentation charge: PSQ
     Using radial grid of 1205 points,  6 beta functions with:
                l(1) =   0
                l(2) =   0
                l(3) =   1
                l(4) =   1
                l(5) =   2
                l(6) =   2
     Q(r) pseudized with 0 coefficients

     PseudoPot. # 2 for N  read from file:
     //group///packages/espresso/pseudo/psl_1.0.0/pslibrary.1.0.0/pbe/PSEUDOPOTENTIALS/N.pbe-n-kjpaw_psl.1.0.0.UPF
     MD5 check sum: f77f775694dac7e2c3fe1c82443d1a16
     Pseudo is Projector augmented-wave + core cor, Zval =  5.0
     Generated using 'atomic' code by A. Dal Corso  v.7.1
     Shape of augmentation charge: PSQ
     Using radial grid of 1085 points,  4 beta functions with:
                l(1) =   0
                l(2) =   0
                l(3) =   1
                l(4) =   1
     Q(r) pseudized with 0 coefficients

     atomic species   valence    mass     pseudopotential
        Ga            13.00    69.72300     Ga( 1.00)
        N              5.00    14.00700     N ( 1.00)

      6 Sym. Ops. (no inversion) found

                                    s                        frac. trans.

      isym =  1     identity

 cryst.   s( 1) = (     1          0          0      )
                  (     0          1          0      )
                  (     0          0          1      )

 cart.    s( 1) = (  1.0000000  0.0000000  0.0000000 )
                  (  0.0000000  1.0000000  0.0000000 )
                  (  0.0000000  0.0000000  1.0000000 )

      isym =  2     120 deg rotation - cryst. axis [0,0,1]

[...]

      isym =  3     120 deg rotation - cryst. axis [0,0,-1]

[...]

      isym =  4     inv. 180 deg rotation - cart. axis [1,0,0]

[...]

      isym =  5     inv. 180 deg rotation - cryst. axis [0,1,0]

[...]

      isym =  6     inv. 180 deg rotation - cryst. axis [1,1,0]

 cryst.   s( 6) = (     0         -1          0      )
                  (    -1          0          0      )
                  (     0          0          1      )

 cart.    s( 6) = (  0.5000000 -0.8660254  0.0000000 )
                  ( -0.8660254 -0.5000000  0.0000000 )
                  (  0.0000000  0.0000000  1.0000000 )

     point group C_3v (3m)
     there are  3 classes
     the character table:

       E     2C3   3s_v
A_1    1.00  1.00  1.00
A_2    1.00  1.00 -1.00
E      2.00 -1.00  0.00

     the symmetry operations in each class and the name of the first element:

     E        1
          identity
     2C3      2    3
          120 deg rotation - cryst. axis [0,0,1]
     3s_v     4    5    6
          inv. 180 deg rotation - cart. axis [1,0,0]

   Cartesian axes

     site n.     atom                  positions (alat units)
         1           Ga  tau(   1) = (   0.1250001   0.0721687   0.2033935  )
         2           Ga  tau(   2) = (   0.1250001   0.0721687   0.6108633  )
         3           Ga  tau(   3) = (   0.1250001   0.0721687   1.0183331  )
         4           Ga  tau(   4) = (   0.0000001   0.2886751   0.2033935  )
         5           Ga  tau(   5) = (   0.0000001   0.2886751   0.6108633  )
         6           Ga  tau(   6) = (   0.0000001   0.2886751   1.0183331  )
         7           Ga  tau(   7) = (  -0.1249999   0.5051814   0.2033935  )
         8           Ga  tau(   8) = (  -0.1249999   0.5051814   0.6108633  )
         9           Ga  tau(   9) = (  -0.1249999   0.5051814   1.0183331  )
        10           Ga  tau(  10) = (  -0.2499999   0.7216878   0.2033935  )
        11           Ga  tau(  11) = (  -0.2499999   0.7216878   0.6108633  )
        12           Ga  tau(  12) = (  -0.2499999   0.7216878   1.0183331  )
        13           Ga  tau(  13) = (   0.3750001   0.0721687   0.2033935  )
        14           Ga  tau(  14) = (   0.3750001   0.0721687   0.6108633  )
        15           Ga  tau(  15) = (   0.3750001   0.0721687   1.0183331  )
        16           Ga  tau(  16) = (   0.2500001   0.2886751   0.2033935  )
        17           Ga  tau(  17) = (   0.2500001   0.2886751   0.6108633  )
        18           Ga  tau(  18) = (   0.2500001   0.2886751   1.0183331  )
        19           Ga  tau(  19) = (   0.1250001   0.5051814   0.2033935  )
        20           Ga  tau(  20) = (   0.1250001   0.5051814   0.6108633  )
        21           Ga  tau(  21) = (   0.1250001   0.5051814   1.0183331  )
        22           Ga  tau(  22) = (   0.0000001   0.7216878   0.2033935  )
        23           Ga  tau(  23) = (   0.0000001   0.7216878   0.6108633  )
        24           Ga  tau(  24) = (   0.0000001   0.7216878   1.0183331  )
        25           Ga  tau(  25) = (   0.6250001   0.0721687   0.2033935  )
        26           Ga  tau(  26) = (   0.6250001   0.0721687   0.6108633  )
        27           Ga  tau(  27) = (   0.6250001   0.0721687   1.0183331  )
        28           Ga  tau(  28) = (   0.5000001   0.2886751   0.2033935  )
        29           Ga  tau(  29) = (   0.5000001   0.2886751   0.6108633  )
        30           Ga  tau(  30) = (   0.5000001   0.2886751   1.0183331  )
        31           Ga  tau(  31) = (   0.3750001   0.5051814   0.2033935  )
        32           Ga  tau(  32) = (   0.3750001   0.5051814   0.6108633  )
        33           Ga  tau(  33) = (   0.3750001   0.5051814   1.0183331  )
        34           Ga  tau(  34) = (   0.2500001   0.7216878   0.2033935  )
        35           Ga  tau(  35) = (   0.2500001   0.7216878   0.6108633  )
        36           Ga  tau(  36) = (   0.2500001   0.7216878   1.0183331  )
        37           Ga  tau(  37) = (   0.8750001   0.0721687   0.2033935  )
        38           Ga  tau(  38) = (   0.8750001   0.0721687   0.6108633  )
        39           Ga  tau(  39) = (   0.8750001   0.0721687   1.0183331  )
        40           Ga  tau(  40) = (   0.7500001   0.2886751   0.2033935  )
        41           Ga  tau(  41) = (   0.7500001   0.2886751   0.6108633  )
        42           Ga  tau(  42) = (   0.7500001   0.2886751   1.0183331  )
        43           Ga  tau(  43) = (   0.6250001   0.5051814   0.2033935  )
        44           Ga  tau(  44) = (   0.6250001   0.5051814   0.6108633  )
        45           Ga  tau(  45) = (   0.6250001   0.5051814   1.0183331  )
        46           Ga  tau(  46) = (   0.5000001   0.7216878   0.2033935  )
        47           Ga  tau(  47) = (   0.5000001   0.7216878   0.6108633  )
        48           Ga  tau(  48) = (   0.5000001   0.7216878   1.0183331  )
        49           Ga  tau(  49) = (  -0.0000002   0.1443377   0.4071284  )
        50           Ga  tau(  50) = (  -0.0000002   0.1443377   0.8145982  )
        51           Ga  tau(  51) = (  -0.0000002   0.1443377   1.2220680  )
        52           Ga  tau(  52) = (  -0.1250002   0.3608440   0.4071284  )
        53           Ga  tau(  53) = (  -0.1250002   0.3608440   0.8145982  )
        54           Ga  tau(  54) = (  -0.1250002   0.3608440   1.2220680  )
        55           Ga  tau(  55) = (  -0.2500002   0.5773504   0.4071284  )
        56           Ga  tau(  56) = (  -0.2500002   0.5773504   0.8145982  )
        57           Ga  tau(  57) = (  -0.2500002   0.5773504   1.2220680  )
        58           Ga  tau(  58) = (  -0.3750001   0.7938567   0.4071284  )
        59           Ga  tau(  59) = (  -0.3750001   0.7938567   0.8145982  )
        60           Ga  tau(  60) = (  -0.3750001   0.7938567   1.2220680  )
[...]
       178           N   tau( 178) = (   0.1249998   0.7938567   0.1531425  )
       179           N   tau( 179) = (   0.1249998   0.7938567   0.5606123  )
       180           N   tau( 180) = (   0.1249998   0.7938567   0.9680820  )
       181           N   tau( 181) = (   0.7499998   0.1443377   0.1531425  )
       182           N   tau( 182) = (   0.7499998   0.1443377   0.5606123  )
       183           N   tau( 183) = (   0.7499998   0.1443377   0.9680820  )
       184           N   tau( 184) = (   0.6249998   0.3608440   0.1531425  )
       185           N   tau( 185) = (   0.6249998   0.3608440   0.5606123  )
       186           N   tau( 186) = (   0.6249998   0.3608440   0.9680820  )
       187           N   tau( 187) = (   0.4999998   0.5773504   0.1531425  )
[...]
     atom   45 type  1   force =     0.00000000    0.00000000    0.00000000
     atom   46 type  1   force =     0.00000000    0.00000000    0.00000000
     atom   47 type  1   force =     0.00000000    0.00000000    0.00000000
     atom   48 type  1   force =     0.00000000    0.00000000    0.00000000
     atom   49 type  1   force =     0.00000000    0.00000000    0.00000000
     atom   50 type  1   force =     0.00000000    0.00000000    0.00000000
     atom   51 type  1   force =     0.00000000    0.00000000    0.00000000
     atom   52 type  1   force =     0.00000000    0.00000000    0.00000000
     atom   53 type  1   force =     0.00000000    0.00000000    0.00000000
     atom   54 type  1   force =     0.00000000    0.00000000    0.00000000
     atom   55 type  1   force =     0.00000000    0.00000000    0.00000000
     atom   56 type  1   force =     0.00000000    0.00000000    0.00000000
     atom   57 type  1   force =     0.00000000    0.00000000    0.00000000
     atom   58 type  1   force =     0.00000000    0.00000000    0.00000000
     atom   59 type  1   force =     0.00000000    0.00000000    0.00000000
     atom   60 type  1   force =     0.00000000    0.00000000    0.00000000
[...]
     atom  178 type  2   force =     0.00000000    0.00000000    0.00000000
     atom  179 type  2   force =     0.00000000    0.00000000    0.00000000
     atom  180 type  2   force =     0.00000000    0.00000000    0.00000000
     atom  181 type  2   force =     0.00000000    0.00000000    0.00000000
     atom  182 type  2   force =     0.00000000    0.00000000    0.00000000
     atom  183 type  2   force =     0.00000000    0.00000000    0.00000000
     atom  184 type  2   force =     0.00000000    0.00000000    0.00000000
     atom  185 type  2   force =     0.00000000    0.00000000    0.00000000
     atom  186 type  2   force =     0.00000000    0.00000000    0.00000000
     atom  187 type  2   force =     0.00000000    0.00000000    0.00000000
     atom  188 type  2   force =     0.00000000    0.00000000    0.00000000
     atom  189 type  2   force =     0.00000000    0.00000000    0.00000000
     atom  190 type  2   force =     0.00000000    0.00000000    0.00000000
     atom  191 type  2   force =     0.00000000    0.00000000    0.00000000
     atom  192 type  2   force =     0.00000000    0.00000000    0.00000000
     The SCF correction term to forces
     atom    1 type  1   force =     0.00000882    0.00000509   -0.00000564
     atom    2 type  1   force =     0.00000798    0.00000461   -0.00002447
     atom    3 type  1   force =     0.00000805    0.00000465    0.00003614
     atom    4 type  1   force =    -0.00000000    0.00002809   -0.00001051
     atom    5 type  1   force =    -0.00000000    0.00002281   -0.00002322
     atom    6 type  1   force =    -0.00000000    0.00002423    0.00003777
     atom    7 type  1   force =     0.00001648    0.00000952   -0.00001590
     atom    8 type  1   force =     0.00001037    0.00000599   -0.00002358
     atom    9 type  1   force =     0.00001444    0.00000834    0.00003720
     atom   10 type  1   force =     0.00002432   -0.00001404   -0.00001051
     atom   11 type  1   force =     0.00001975   -0.00001140   -0.00002322
     atom   12 type  1   force =     0.00002099   -0.00001212    0.00003777
     atom   13 type  1   force =     0.00000871   -0.00001233   -0.00000912
     atom   14 type  1   force =     0.00000848   -0.00000824   -0.00002479
     atom   15 type  1   force =     0.00000906   -0.00000975    0.00003723
     atom   16 type  1   force =    -0.00000632    0.00001371   -0.00000912
     atom   17 type  1   force =    -0.00000290    0.00001146   -0.00002479
     atom   18 type  1   force =    -0.00000391    0.00001272    0.00003723
     atom   19 type  1   force =    -0.00001648    0.00000952   -0.00001590
     atom   20 type  1   force =    -0.00001038    0.00000599   -0.00002358
     atom   21 type  1   force =    -0.00001444    0.00000834    0.00003720
     atom   22 type  1   force =    -0.00000000   -0.00001903   -0.00001590
     atom   23 type  1   force =    -0.00000000   -0.00001198   -0.00002358
     atom   24 type  1   force =    -0.00000000   -0.00001667    0.00003720
     atom   25 type  1   force =    -0.00000871   -0.00001233   -0.00000912
     atom   26 type  1   force =    -0.00000848   -0.00000824   -0.00002479
     atom   27 type  1   force =    -0.00000907   -0.00000975    0.00003723
     atom   28 type  1   force =    -0.00000000    0.00000000   -0.00001064
     atom   29 type  1   force =    -0.00000000    0.00000000   -0.00002739
     atom   30 type  1   force =    -0.00000000    0.00000000    0.00003551
     atom   31 type  1   force =    -0.00001503   -0.00000138   -0.00000912
     atom   32 type  1   force =    -0.00001137   -0.00000322   -0.00002479
     atom   33 type  1   force =    -0.00001297   -0.00000298    0.00003723
     atom   34 type  1   force =    -0.00002432   -0.00001404   -0.00001051
     atom   35 type  1   force =    -0.00001975   -0.00001140   -0.00002322
     atom   36 type  1   force =    -0.00002099   -0.00001212    0.00003777
     atom   37 type  1   force =    -0.00000882    0.00000509   -0.00000564
     atom   38 type  1   force =    -0.00000798    0.00000461   -0.00002447
     atom   39 type  1   force =    -0.00000806    0.00000465    0.00003614
     atom   40 type  1   force =     0.00000632    0.00001371   -0.00000912
     atom   41 type  1   force =     0.00000290    0.00001146   -0.00002479
     atom   42 type  1   force =     0.00000391    0.00001272    0.00003723
     atom   43 type  1   force =     0.00001503   -0.00000138   -0.00000912
     atom   44 type  1   force =     0.00001137   -0.00000322   -0.00002479
     atom   45 type  1   force =     0.00001297   -0.00000298    0.00003723
     atom   46 type  1   force =    -0.00000000   -0.00001019   -0.00000564
     atom   47 type  1   force =    -0.00000000   -0.00000921   -0.00002447
     atom   48 type  1   force =    -0.00000000   -0.00000930    0.00003614
     atom   49 type  1   force =     0.00000000    0.00001175   -0.00003637
     atom   50 type  1   force =     0.00000000    0.00001336    0.00001233
     atom   51 type  1   force =     0.00000000    0.00001664    0.00002400
     atom   52 type  1   force =     0.00000937    0.00001788   -0.00003856
     atom   53 type  1   force =     0.00000992    0.00001934    0.00001012
     atom   54 type  1   force =     0.00001168    0.00002288    0.00002527
     atom   55 type  1   force =     0.00002017   -0.00000082   -0.00003856
     atom   56 type  1   force =     0.00002171   -0.00000108    0.00001012
     atom   57 type  1   force =     0.00002566   -0.00000133    0.00002527
     atom   58 type  1   force =     0.00001018   -0.00000588   -0.00003637
     atom   59 type  1   force =     0.00001157   -0.00000668    0.00001233
     atom   60 type  1   force =     0.00001441   -0.00000832    0.00002400
[...]
     atom  178 type  2   force =    -0.00000646   -0.00000952   -0.00000273
     atom  179 type  2   force =    -0.00000537   -0.00000754   -0.00001306
     atom  180 type  2   force =    -0.00000533   -0.00000739    0.00001585
     atom  181 type  2   force =    -0.00000171    0.00000099   -0.00000252
     atom  182 type  2   force =    -0.00000179    0.00000103   -0.00001380
     atom  183 type  2   force =    -0.00000189    0.00000109    0.00001516
     atom  184 type  2   force =     0.00000454    0.00000262   -0.00000263
     atom  185 type  2   force =     0.00000277    0.00000160   -0.00001422
     atom  186 type  2   force =     0.00000330    0.00000190    0.00001547
     atom  187 type  2   force =    -0.00000000   -0.00000198   -0.00000252
     atom  188 type  2   force =    -0.00000000   -0.00000207   -0.00001380
     atom  189 type  2   force =    -0.00000000   -0.00000218    0.00001516
     atom  190 type  2   force =    -0.00000610   -0.00000352   -0.00000119
     atom  191 type  2   force =    -0.00000519   -0.00000300   -0.00001387
     atom  192 type  2   force =    -0.00000529   -0.00000305    0.00001479

     Total force =     0.001904     Total SCF correction =     0.000330
     SCF correction compared to forces is large: reduce conv_thr to get better values

     Computing stress (Cartesian axis) and pressure

     Non-local corr. energy    =      52.32436059 Ry

          total   stress  (Ry/bohr**3)                   (kbar)     P=        1.07
   0.00000384  -0.00000000   0.00000000            0.56       -0.00        0.00
   0.00000000   0.00000384   0.00000000            0.00        0.56        0.00
   0.00000000  -0.00000000   0.00001415            0.00       -0.00        2.08

     kinetic stress (kbar)  18449.15     -0.00      0.00
                                0.00  18449.15      0.00
                                0.00      0.00  18443.37

     local   stress (kbar)   5446.86     -0.07     -0.00
                               -0.07   5446.77      0.00
                               -0.00      0.00   3812.09

     nonloc. stress (kbar)     61.53     -0.00      0.00
                               -0.00     61.53     -0.00
                                0.00     -0.00     73.56

     hartree stress (kbar)  19596.20     -0.00     -0.00
                               -0.00  19596.20      0.00
                               -0.00      0.00  20346.07

     exc-cor stress (kbar)   5218.04      0.00      0.00
                                0.00   5218.04     -0.00
                                0.00     -0.00   5218.25

     corecor stress (kbar) -14110.27     -0.00     -0.00
                               -0.00 -14110.27      0.00
                               -0.00      0.00 -14109.68

     ewald   stress (kbar) -34823.05      0.10      0.00
                                0.10 -34822.93     -0.00
                                0.00     -0.00 -33942.83

     hubbard stress (kbar)      0.00      0.00      0.00
                                0.00      0.00      0.00
                                0.00      0.00      0.00

     DFT-D   stress (kbar)      0.00      0.00      0.00
                                0.00      0.00      0.00
                                0.00      0.00      0.00

     XDM     stress (kbar)      0.00      0.00      0.00
                                0.00      0.00      0.00
                                0.00      0.00      0.00

     dft-nl  stress (kbar)    162.09     -0.00     -0.00
                               -0.00    162.09      0.00
                               -0.00      0.00    161.24

     TS-vdW  stress (kbar)      0.00      0.00      0.00
                                0.00      0.00      0.00
                                0.00      0.00      0.00

     MDB     stress (kbar)      0.00      0.00      0.00
                                0.00      0.00      0.00
                                0.00      0.00      0.00

     3D-RISM stress (kbar)      0.00      0.00      0.00
                                0.00      0.00      0.00
                                0.00      0.00      0.00

     BFGS Geometry Optimization
     Energy error            =      0.0E+00 Ry
     Gradient error          =      1.6E-04 Ry/Bohr

     bfgs converged in   1 scf cycles and   0 bfgs steps
     (criteria: energy <  1.0E-04 Ry, force <  1.0E-03 Ry/Bohr)

     End of BFGS Geometry Optimization

     Final energy             =  -29979.8672254485 Ry
Begin final coordinates

ATOMIC_POSITIONS (angstrom)
Ga            1.6222756606        0.9366198184        2.6396807677
Ga            1.6222756606        0.9366198184        7.9279023555
Ga            1.6222756606        0.9366198184       13.2161239432
Ga            0.0000014521        3.7464811715        2.6396807677
Ga            0.0000014521        3.7464811715        7.9279023555
Ga            0.0000014521        3.7464811715       13.2161239432
Ga           -1.6222727565        6.5563425246        2.6396807677
Ga           -1.6222727565        6.5563425246        7.9279023555
Ga           -1.6222727565        6.5563425246       13.2161239432
Ga           -3.2445469650        9.3662038776        2.6396807677
Ga           -3.2445469650        9.3662038776        7.9279023555
Ga           -3.2445469650        9.3662038776       13.2161239432
Ga            4.8668240777        0.9366198184        2.6396807677
Ga            4.8668240777        0.9366198184        7.9279023555
Ga            4.8668240777        0.9366198184       13.2161239432
Ga            3.2445498691        3.7464811715        2.6396807677
Ga            3.2445498691        3.7464811715        7.9279023555
Ga            3.2445498691        3.7464811715       13.2161239432
Ga            1.6222756606        6.5563425246        2.6396807677
Ga            1.6222756606        6.5563425246        7.9279023555
Ga            1.6222756606        6.5563425246       13.2161239432
Ga            0.0000014521        9.3662038776        2.6396807677
Ga            0.0000014521        9.3662038776        7.9279023555
Ga            0.0000014521        9.3662038776       13.2161239432
Ga            8.1113724947        0.9366198184        2.6396807677
Ga            8.1113724947        0.9366198184        7.9279023555
Ga            8.1113724947        0.9366198184       13.2161239432
Ga            6.4890982862        3.7464811715        2.6396807677
Ga            6.4890982862        3.7464811715        7.9279023555
Ga            6.4890982862        3.7464811715       13.2161239432
Ga            4.8668240777        6.5563425246        2.6396807677
Ga            4.8668240777        6.5563425246        7.9279023555
Ga            4.8668240777        6.5563425246       13.2161239432
Ga            3.2445498691        9.3662038776        2.6396807677
Ga            3.2445498691        9.3662038776        7.9279023555
Ga            3.2445498691        9.3662038776       13.2161239432
Ga           11.3559209118        0.9366198184        2.6396807677
Ga           11.3559209118        0.9366198184        7.9279023555
Ga           11.3559209118        0.9366198184       13.2161239432
Ga            9.7336467033        3.7464811715        2.6396807677
Ga            9.7336467033        3.7464811715        7.9279023555
Ga            9.7336467033        3.7464811715       13.2161239432
Ga            8.1113724947        6.5563425246        2.6396807677
Ga            8.1113724947        6.5563425246        7.9279023555
Ga            8.1113724947        6.5563425246       13.2161239432
Ga            6.4890982862        9.3662038776        2.6396807677
Ga            6.4890982862        9.3662038776        7.9279023555
Ga            6.4890982862        9.3662038776       13.2161239432
Ga           -0.0000019648        1.8732424465        5.2837915627
Ga           -0.0000019648        1.8732424465       10.5720131505
Ga           -0.0000019648        1.8732424465       15.8602347382
Ga           -1.6222761733        4.6831037996        5.2837915627
Ga           -1.6222761733        4.6831037996       10.5720131505
Ga           -1.6222761733        4.6831037996       15.8602347382
Ga           -3.2445503819        7.4929651527        5.2837915627
Ga           -3.2445503819        7.4929651527       10.5720131505
Ga           -3.2445503819        7.4929651527       15.8602347382
Ga           -4.8668245904       10.3028265057        5.2837915627
Ga           -4.8668245904       10.3028265057       10.5720131505
Ga           -4.8668245904       10.3028265057       15.8602347382
[...]
N             1.6222722437       10.3028265057        1.9875131237
N             1.6222722437       10.3028265057        7.2757347115
N             1.6222722437       10.3028265057       12.5639562992
N             9.7336432864        1.8732424465        1.9875131237
N             9.7336432864        1.8732424465        7.2757347115
N             9.7336432864        1.8732424465       12.5639562992
N             8.1113690779        4.6831037996        1.9875131237
N             8.1113690779        4.6831037996        7.2757347115
N             8.1113690779        4.6831037996       12.5639562992
N             6.4890948693        7.4929651527        1.9875131237
N             6.4890948693        7.4929651527        7.2757347115
N             6.4890948693        7.4929651527       12.5639562992
N             4.8668206608       10.3028265057        1.9875131237
N             4.8668206608       10.3028265057        7.2757347115
N             4.8668206608       10.3028265057       12.5639562992
End final coordinates

     Writing all to output data dir ./GaN.save/

     General routines

     Parallel routines

     PAW routines

   This run was terminated on:  18:24: 3  17Feb2024

   JOB DONE.