     Program PWSCF v.7.1 starts on 21Mar2024 at 12:12:41

     Reading input from espresso.pwi
Warning: card &CELL ignored
Warning: card    CELL_DYNAMICS    = 'BFGS' ignored
Warning: card / ignored

     Current dimensions of program PWSCF are:
     Max number of different atomic species (ntypx) = 10
     Max number of k-points (npk) =  40000
     Max angular momentum in pseudopotentials (lmaxx) =  4
     file Pb.pbe-dn-kjpaw_psl.1.0.0.UPF: wavefunction(s)  6S 6P 5D renormalized
     file I.pbe-dn-kjpaw_psl.1.0.0.UPF: wavefunction(s)  5S 5P renormalized

     IMPORTANT: XC functional enforced from input :
     Exchange-correlation= BEEF-VDW
                           (   1   4  43  14   2   0   0)
     Any further DFT definition will be discarded
     Please, verify this is what you really want

     K-points division:     npool     =       2
     R & G space division:  proc/nbgrp/npool/nimage =      64
     Subspace diagonalization in iterative solution of the eigenvalue problem:
     a serial algorithm will be used

     Using Slab Decomposition

     bravais-lattice index     =            4
     lattice parameter (alat)  =      26.7090  a.u.
     unit-cell volume          =   17226.5091 (a.u.)^3
     number of atoms/cell      =           53
     number of atomic types    =            2
     number of electrons       =       848.00
     number of Kohn-Sham states=          509
     kinetic-energy cutoff     =      70.0000  Ry
     charge density cutoff     =     350.0000  Ry
     scf convergence threshold =      1.0E-07
     mixing beta               =       0.7000
     number of iterations used =            8  plain     mixing
     Exchange-correlation= BEEF-VDW
                           (   1   4  43  14   2   0   0)

     celldm(1)=  26.709025  celldm(2)=   0.000000  celldm(3)=   1.043981
     celldm(4)=   0.000000  celldm(5)=   0.000000  celldm(6)=   0.000000

     crystal axes: (cart. coord. in units of alat)
               a(1) = (   1.000000   0.000000   0.000000 )
               a(2) = (  -0.500000   0.866025   0.000000 )
               a(3) = (   0.000000   0.000000   1.043981 )

     reciprocal axes: (cart. coord. in units 2 pi/alat)
               b(1) = (  1.000000  0.577350 -0.000000 )
               b(2) = (  0.000000  1.154701  0.000000 )
               b(3) = (  0.000000 -0.000000  0.957872 )

     PseudoPot. # 1 for Pb read from file:
     /trace/group/acmegroup/atimmins/packages/espresso/pseudo/psl_1.0.0/pslibrary.1.0.0/pbe/PSEUDOPOTENTIALS/Pb.pbe-dn-kjpaw_psl.1.0.0.UPF
     MD5 check sum: 39ab5b8a6bbd56b7735ad9f188aac93a
     Pseudo is Projector augmented-wave + core cor, Zval = 14.0
     Generated using 'atomic' code by A. Dal Corso  v.7.1
     Shape of augmentation charge: PSQ
     Using radial grid of 1281 points,  6 beta functions with:
                l(1) =   0
                l(2) =   0
                l(3) =   1
                l(4) =   1
                l(5) =   2
                l(6) =   2
     Q(r) pseudized with 0 coefficients

     PseudoPot. # 2 for I  read from file:
     /trace/group/acmegroup/atimmins/packages/espresso/pseudo/psl_1.0.0/pslibrary.1.0.0/pbe/PSEUDOPOTENTIALS/I.pbe-dn-kjpaw_psl.1.0.0.UPF
     MD5 check sum: bfa8781bc1224d19af3f3980e3fab11e
     Pseudo is Projector augmented-wave + core cor, Zval = 17.0
     Generated using 'atomic' code by A. Dal Corso  v.7.1
     Shape of augmentation charge: PSQ
     Using radial grid of 1247 points,  6 beta functions with:
                l(1) =   0
                l(2) =   0
                l(3) =   1
                l(4) =   1
                l(5) =   2
                l(6) =   2
     Q(r) pseudized with 0 coefficients

     atomic species   valence    mass     pseudopotential
        Pb            14.00   207.20000     Pb( 1.00)
        I             17.00   126.90447     I ( 1.00)

     No symmetry found

                                    s                        frac. trans.

      isym =  1     identity

 cryst.   s( 1) = (     1          0          0      )
                  (     0          1          0      )
                  (     0          0          1      )

 cart.    s( 1) = (  1.0000000  0.0000000  0.0000000 )
                  (  0.0000000  1.0000000  0.0000000 )
                  (  0.0000000  0.0000000  1.0000000 )

     point group C_1 (1)
     there are  1 classes
     the character table:

       E
A      1.00

     the symmetry operations in each class and the name of the first element:

     E        1
          identity

   Cartesian axes

     site n.     atom                  positions (alat units)
         1           Pb  tau(   1) = (   0.1666780   0.2886497   1.0439767  )
         2           Pb  tau(   2) = (   0.1666712   0.2886557   0.5219862  )
         3           Pb  tau(   3) = (   0.0000102   0.5773235   1.0439712  )
         4           Pb  tau(   4) = (   0.0000034   0.5773295   0.5219807  )
         5           Pb  tau(   5) = (  -0.1666576   0.8659973   1.0439657  )
         6           Pb  tau(   6) = (  -0.1666644   0.8660033   0.5219752  )
         7           Pb  tau(   7) = (   0.5000113   0.2886484   1.0439810  )
         8           Pb  tau(   8) = (   0.5000045   0.2886544   0.5219905  )
         9           Pb  tau(   9) = (   0.3333436   0.5773222   1.0439755  )
        10           Pb  tau(  10) = (   0.3333367   0.5773282   0.5219850  )
        11           Pb  tau(  11) = (   0.1666758   0.8659960   1.0439700  )
        12           Pb  tau(  12) = (   0.1666690   0.8660020   0.5219795  )
        13           Pb  tau(  13) = (   0.8333447   0.2886471   1.0439853  )
        14           Pb  tau(  14) = (   0.8333379   0.2886531   0.5219949  )
        15           Pb  tau(  15) = (   0.6666769   0.5773209   1.0439798  )
        16           Pb  tau(  16) = (   0.6666701   0.5773269   0.5219894  )
        17           Pb  tau(  17) = (   0.5000091   0.8659947   1.0439743  )
        18           Pb  tau(  18) = (   0.5000023   0.8660007   0.5219839  )
        19           I   tau(  19) = (   0.1666806   0.0962006   0.9099004  )
        20           I   tau(  20) = (   0.0000060   0.3848804   0.3879044  )
        21           I   tau(  21) = (   0.0000129   0.3848744   0.9098949  )
        22           I   tau(  22) = (  -0.1666617   0.6735542   0.3878990  )
        23           I   tau(  23) = (  -0.1666549   0.6735482   0.9098894  )
        24           I   tau(  24) = (   0.5000071   0.0962053   0.3879143  )
        25           I   tau(  25) = (   0.5000140   0.0961993   0.9099047  )
        26           I   tau(  26) = (   0.3333394   0.3848792   0.3879088  )
        27           I   tau(  27) = (   0.3333462   0.3848731   0.9098993  )
        28           I   tau(  28) = (   0.1666716   0.6735530   0.3879033  )
        29           I   tau(  29) = (   0.1666784   0.6735469   0.9098938  )
        30           I   tau(  30) = (   0.8333405   0.0962041   0.3879186  )
        31           I   tau(  31) = (   0.8333473   0.0961980   0.9099091  )
        32           I   tau(  32) = (   0.6666727   0.3848779   0.3879131  )
        33           I   tau(  33) = (   0.6666795   0.3848718   0.9099036  )
        34           I   tau(  34) = (   0.5000049   0.6735517   0.3879076  )
        35           I   tau(  35) = (   0.5000117   0.6735457   0.9098981  )
        36           I   tau(  36) = (  -0.0000023   0.1924396   0.1340740  )
        37           I   tau(  37) = (   0.0000045   0.1924336   0.6560644  )
        38           I   tau(  38) = (  -0.1666701   0.4811134   0.1340685  )
        39           I   tau(  39) = (  -0.1666632   0.4811074   0.6560589  )
        40           I   tau(  40) = (  -0.3333378   0.7697873   0.1340630  )
        41           I   tau(  41) = (  -0.3333310   0.7697812   0.6560534  )
        42           I   tau(  42) = (   0.3333311   0.1924384   0.1340783  )
        43           I   tau(  43) = (   0.3333379   0.1924323   0.6560688  )
        44           I   tau(  44) = (   0.1666633   0.4811122   0.1340728  )
        45           I   tau(  45) = (   0.1666701   0.4811061   0.6560633  )
        46           I   tau(  46) = (  -0.0000045   0.7697860   0.1340673  )
        47           I   tau(  47) = (   0.0000023   0.7697799   0.6560578  )
        48           I   tau(  48) = (   0.6666644   0.1924371   0.1340827  )
        49           I   tau(  49) = (   0.6666712   0.1924310   0.6560731  )
        50           I   tau(  50) = (   0.4999966   0.4811109   0.1340772  )
        51           I   tau(  51) = (   0.5000034   0.4811049   0.6560676  )
        52           I   tau(  52) = (   0.3333288   0.7697847   0.1340717  )
        53           I   tau(  53) = (   0.3333356   0.7697787   0.6560621  )

   Crystallographic axes

     site n.     atom                  positions (cryst. coord.)
         1           Pb  tau(   1) = (  0.3333300  0.3333039  0.9999959  )
         2           Pb  tau(   2) = (  0.3333266  0.3333109  0.4999959  )
         3           Pb  tau(   3) = (  0.3333281  0.6666357  0.9999906  )
         4           Pb  tau(   4) = (  0.3333248  0.6666427  0.4999906  )
         5           Pb  tau(   5) = (  0.3333262  0.9999675  0.9999854  )
         6           Pb  tau(   6) = (  0.3333229  0.9999745  0.4999854  )
         7           Pb  tau(   7) = (  0.6666626  0.3333025  1.0000001  )
         8           Pb  tau(   8) = (  0.6666592  0.3333094  0.5000001  )
         9           Pb  tau(   9) = (  0.6666607  0.6666343  0.9999948  )
        10           Pb  tau(  10) = (  0.6666573  0.6666412  0.4999948  )
        11           Pb  tau(  11) = (  0.6666588  0.9999661  0.9999895  )
        12           Pb  tau(  12) = (  0.6666555  0.9999730  0.4999895  )
        13           Pb  tau(  13) = (  0.9999951  0.3333010  1.0000042  )
        14           Pb  tau(  14) = (  0.9999918  0.3333079  0.5000042  )
        15           Pb  tau(  15) = (  0.9999933  0.6666328  0.9999990  )
        16           Pb  tau(  16) = (  0.9999899  0.6666397  0.4999990  )
        17           Pb  tau(  17) = (  0.9999914  0.9999646  0.9999937  )
        18           Pb  tau(  18) = (  0.9999881  0.9999715  0.4999937  )
        19           I   tau(  19) = (  0.2222221  0.1110829  0.8715680  )
        20           I   tau(  20) = (  0.2222169  0.4444217  0.3715628  )
        21           I   tau(  21) = (  0.2222202  0.4444147  0.8715628  )
        22           I   tau(  22) = (  0.2222150  0.7777534  0.3715575  )
        23           I   tau(  23) = (  0.2222183  0.7777465  0.8715575  )
        24           I   tau(  24) = (  0.5555513  0.1110884  0.3715722  )
        25           I   tau(  25) = (  0.5555547  0.1110814  0.8715722  )
        26           I   tau(  26) = (  0.5555495  0.4444202  0.3715669  )
        27           I   tau(  27) = (  0.5555528  0.4444132  0.8715669  )
        28           I   tau(  28) = (  0.5555476  0.7777520  0.3715617  )
        29           I   tau(  29) = (  0.5555509  0.7777450  0.8715617  )
        30           I   tau(  30) = (  0.8888839  0.1110869  0.3715764  )
        31           I   tau(  31) = (  0.8888873  0.1110799  0.8715764  )
[...]
     atom   34 type  2   force =    -0.00120622    0.00029848   -0.00414834
     atom   35 type  2   force =    -0.00006026   -0.00018307   -0.00532475
     atom   36 type  2   force =    -0.00001208   -0.00008285    0.00545267
     atom   37 type  2   force =    -0.00064166    0.00023294    0.00539328
     atom   38 type  2   force =     0.00015550    0.00009363    0.00541065
     atom   39 type  2   force =    -0.00030079   -0.00017126    0.00460468
     atom   40 type  2   force =    -0.00007564    0.00002687    0.00545139
     atom   41 type  2   force =    -0.00012123   -0.00066931    0.00539384
     atom   42 type  2   force =     0.00014154    0.00007430    0.00545943
     atom   43 type  2   force =     0.00048638    0.00028221    0.00539320
     atom   44 type  2   force =    -0.00011849    0.00007598    0.00536570
     atom   45 type  2   force =     0.00010666   -0.00213204    0.00412262
     atom   46 type  2   force =     0.00000283   -0.00013668    0.00536338
     atom   47 type  2   force =    -0.00179126    0.00116033    0.00412232
     atom   48 type  2   force =     0.00001369   -0.00010448    0.00547492
     atom   49 type  2   force =    -0.00008571    0.00012927    0.00463943
     atom   50 type  2   force =    -0.00007325    0.00006696    0.00547694
     atom   51 type  2   force =     0.00007066   -0.00013483    0.00464013
     atom   52 type  2   force =    -0.00014407   -0.00008219    0.00536872
     atom   53 type  2   force =     0.00208393    0.00120573    0.00410834
     The Hubbard contrib.    to forces
     atom    1 type  1   force =     0.00000000    0.00000000    0.00000000
     atom    2 type  1   force =     0.00000000    0.00000000    0.00000000
     atom    3 type  1   force =     0.00000000    0.00000000    0.00000000
     atom    4 type  1   force =     0.00000000    0.00000000    0.00000000
     atom    5 type  1   force =     0.00000000    0.00000000    0.00000000
     atom    6 type  1   force =     0.00000000    0.00000000    0.00000000
     atom    7 type  1   force =     0.00000000    0.00000000    0.00000000
     atom    8 type  1   force =     0.00000000    0.00000000    0.00000000
     atom    9 type  1   force =     0.00000000    0.00000000    0.00000000
     atom   10 type  1   force =     0.00000000    0.00000000    0.00000000
     atom   11 type  1   force =     0.00000000    0.00000000    0.00000000
     atom   12 type  1   force =     0.00000000    0.00000000    0.00000000
     atom   13 type  1   force =     0.00000000    0.00000000    0.00000000
     atom   14 type  1   force =     0.00000000    0.00000000    0.00000000
     atom   15 type  1   force =     0.00000000    0.00000000    0.00000000
     atom   16 type  1   force =     0.00000000    0.00000000    0.00000000
     atom   17 type  1   force =     0.00000000    0.00000000    0.00000000
     atom   18 type  1   force =     0.00000000    0.00000000    0.00000000
     atom   19 type  2   force =     0.00000000    0.00000000    0.00000000
     atom   20 type  2   force =     0.00000000    0.00000000    0.00000000
     atom   21 type  2   force =     0.00000000    0.00000000    0.00000000
     atom   22 type  2   force =     0.00000000    0.00000000    0.00000000
     atom   23 type  2   force =     0.00000000    0.00000000    0.00000000
     atom   24 type  2   force =     0.00000000    0.00000000    0.00000000
     atom   25 type  2   force =     0.00000000    0.00000000    0.00000000
     atom   26 type  2   force =     0.00000000    0.00000000    0.00000000
     atom   27 type  2   force =     0.00000000    0.00000000    0.00000000
     atom   28 type  2   force =     0.00000000    0.00000000    0.00000000
     atom   29 type  2   force =     0.00000000    0.00000000    0.00000000
     atom   30 type  2   force =     0.00000000    0.00000000    0.00000000
     atom   31 type  2   force =     0.00000000    0.00000000    0.00000000
     atom   32 type  2   force =     0.00000000    0.00000000    0.00000000
     atom   33 type  2   force =     0.00000000    0.00000000    0.00000000
     atom   34 type  2   force =     0.00000000    0.00000000    0.00000000
     atom   35 type  2   force =     0.00000000    0.00000000    0.00000000
     atom   36 type  2   force =     0.00000000    0.00000000    0.00000000
     atom   37 type  2   force =     0.00000000    0.00000000    0.00000000
     atom   38 type  2   force =     0.00000000    0.00000000    0.00000000
     atom   39 type  2   force =     0.00000000    0.00000000    0.00000000
     atom   40 type  2   force =     0.00000000    0.00000000    0.00000000
     atom   41 type  2   force =     0.00000000    0.00000000    0.00000000
     atom   42 type  2   force =     0.00000000    0.00000000    0.00000000
     atom   43 type  2   force =     0.00000000    0.00000000    0.00000000
     atom   44 type  2   force =     0.00000000    0.00000000    0.00000000
     atom   45 type  2   force =     0.00000000    0.00000000    0.00000000
     atom   46 type  2   force =     0.00000000    0.00000000    0.00000000
     atom   47 type  2   force =     0.00000000    0.00000000    0.00000000
     atom   48 type  2   force =     0.00000000    0.00000000    0.00000000
     atom   49 type  2   force =     0.00000000    0.00000000    0.00000000
     atom   50 type  2   force =     0.00000000    0.00000000    0.00000000
     atom   51 type  2   force =     0.00000000    0.00000000    0.00000000
     atom   52 type  2   force =     0.00000000    0.00000000    0.00000000
     atom   53 type  2   force =     0.00000000    0.00000000    0.00000000
     The SCF correction term to forces
     atom    1 type  1   force =    -0.00000086    0.00001556   -0.00000441
     atom    2 type  1   force =     0.00002433    0.00000213    0.00001050
     atom    3 type  1   force =    -0.00002406   -0.00001424    0.00001052
     atom    4 type  1   force =    -0.00000101   -0.00000130   -0.00000417
     atom    5 type  1   force =     0.00001291   -0.00000826   -0.00000441
     atom    6 type  1   force =     0.00001353    0.00002080    0.00001042
     atom    7 type  1   force =     0.00002260    0.00001319   -0.00001167
     atom    8 type  1   force =    -0.00000206   -0.00000082   -0.00000087
     atom    9 type  1   force =     0.00000906   -0.00002092    0.00001271
     atom   10 type  1   force =    -0.00001904   -0.00002458   -0.00000821
     atom   11 type  1   force =    -0.00001327    0.00001835    0.00001272
     atom   12 type  1   force =    -0.00003029   -0.00000427   -0.00000821
     atom   13 type  1   force =    -0.00002247    0.00003007   -0.00001116
     atom   14 type  1   force =    -0.00001257    0.00003109    0.00000003
     atom   15 type  1   force =     0.00001464   -0.00003482   -0.00001119
     atom   16 type  1   force =     0.00002025   -0.00002697    0.00000020
     atom   17 type  1   force =     0.00000016    0.00000027   -0.00000023
     atom   18 type  1   force =     0.00004052    0.00002389    0.00000164
     atom   19 type  2   force =     0.00001527    0.00000923   -0.00002908
     atom   20 type  2   force =     0.00000771    0.00001422    0.00000323
     atom   21 type  2   force =    -0.00003687    0.00000756   -0.00000221
     atom   22 type  2   force =     0.00001613   -0.00000110    0.00000288
     atom   23 type  2   force =    -0.00001177   -0.00003601   -0.00000215
     atom   24 type  2   force =    -0.00002283    0.00000555    0.00000966
     atom   25 type  2   force =     0.00000312    0.00003315   -0.00000594
     atom   26 type  2   force =    -0.00000734   -0.00002214    0.00000991
     atom   27 type  2   force =     0.00002991   -0.00001364   -0.00000607
     atom   28 type  2   force =    -0.00002632   -0.00001587   -0.00001541
     atom   29 type  2   force =    -0.00002092   -0.00001240    0.00000035
     atom   30 type  2   force =    -0.00002001    0.00002580   -0.00002211
     atom   31 type  2   force =    -0.00001883    0.00004923    0.00000254
     atom   32 type  2   force =    -0.00000018   -0.00000022    0.00000053
     atom   33 type  2   force =     0.00000701    0.00000405    0.00001453
     atom   34 type  2   force =     0.00001170   -0.00003068   -0.00002214
     atom   35 type  2   force =     0.00003280   -0.00004105    0.00000239
     atom   36 type  2   force =    -0.00001953    0.00003396    0.00000585
     atom   37 type  2   force =     0.00003007    0.00003664    0.00000535
     atom   38 type  2   force =    -0.00001234   -0.00000748   -0.00002103
     atom   39 type  2   force =    -0.00000782   -0.00000488    0.00001073
     atom   40 type  2   force =     0.00001937   -0.00003371    0.00000581
     atom   41 type  2   force =     0.00004601    0.00000769    0.00000582
     atom   42 type  2   force =     0.00002633    0.00001564    0.00001533
     atom   43 type  2   force =    -0.00001177   -0.00000588   -0.00002578
     atom   44 type  2   force =    -0.00001283    0.00000642    0.00002023
     atom   45 type  2   force =    -0.00001481   -0.00002469   -0.00001637
     atom   46 type  2   force =    -0.00000055   -0.00001446    0.00002017
     atom   47 type  2   force =    -0.00002812   -0.00000093   -0.00001591
     atom   48 type  2   force =    -0.00000610    0.00003296   -0.00001242
     atom   49 type  2   force =    -0.00002038    0.00003726    0.00001228
     atom   50 type  2   force =     0.00002518   -0.00002178   -0.00001232
     atom   51 type  2   force =     0.00002178   -0.00003611    0.00001221
     atom   52 type  2   force =    -0.00001848   -0.00001073    0.00001903
     atom   53 type  2   force =    -0.00002002   -0.00001188    0.00000554

     Total force =     0.003325     Total SCF correction =     0.000235

     Computing stress (Cartesian axis) and pressure

[...]

          total   stress  (Ry/bohr**3)                   (kbar)     P=        6.67
   0.00004228   0.00000005  -0.00000015            6.22        0.01       -0.02
   0.00000005   0.00004223  -0.00000008            0.01        6.21       -0.01
  -0.00000015  -0.00000008   0.00005160           -0.02       -0.01        7.59

     kinetic stress (kbar)  14758.99     -0.03     -0.01
                               -0.03  14759.02     -0.00
                               -0.01     -0.00  14770.32

     local   stress (kbar)  -7942.91     -2.89      2.90
                               -2.89  -7939.70      1.61
                                2.90      1.61   1674.12

     nonloc. stress (kbar)  -1114.12     -0.00     -0.01
                               -0.00  -1114.11     -0.00
                               -0.01     -0.00  -1119.26

     hartree stress (kbar)  12043.27      0.96     -1.11
                                0.96  12042.22     -0.61
                               -1.11     -0.61   7702.58

     exc-cor stress (kbar)   6795.00      0.01     -0.00
                                0.01   6795.00     -0.00
                               -0.00     -0.00   6793.54

     corecor stress (kbar) -11070.10     -0.00      0.00
                               -0.00 -11070.09      0.00
                                0.00      0.00 -11069.99

     ewald   stress (kbar) -13545.33      1.96     -1.79
                                1.96 -13547.52     -1.00
                               -1.79     -1.00 -18826.61

     hubbard stress (kbar)      0.00      0.00      0.00
                                0.00      0.00      0.00
                                0.00      0.00      0.00

     DFT-D   stress (kbar)      0.00      0.00      0.00
                                0.00      0.00      0.00
                                0.00      0.00      0.00

     XDM     stress (kbar)      0.00      0.00      0.00
                                0.00      0.00      0.00
                                0.00      0.00      0.00

     dft-nl  stress (kbar)     81.41     -0.00      0.00
                               -0.00     81.41      0.00
                                0.00      0.00     82.91

     TS-vdW  stress (kbar)      0.00      0.00      0.00
                                0.00      0.00      0.00
                                0.00      0.00      0.00

     MDB     stress (kbar)      0.00      0.00      0.00
                                0.00      0.00      0.00
                                0.00      0.00      0.00

     3D-RISM stress (kbar)      0.00      0.00      0.00
                                0.00      0.00      0.00
                                0.00      0.00      0.00

[...]

     Non-local corr. energy    =      25.32876288 Ry

 BEEFens 2000 ensemble energies
             -0.213129097752677E+02
             -0.214348916767780E+03
             -0.975214611769999E+02
              0.748814760611994E+02
             -0.163841361934946E+03
             -0.200595446209748E+03
              0.102980791467450E+03
              0.406929703142282E+00
              0.173491401908826E+03
             -0.109776160769520E+02
              0.888521610781752E+02
              0.905249121490243E+01
             -0.682021672158510E+01
             -0.553825142993333E+01
              0.110692909170602E+03
             -0.834309927921847E+02
             -0.163739202000746E+03
             -0.528283085805144E+02
              0.473246095385930E+02
             -0.102530401513377E+01
              0.241360381113918E+03
              0.201458359785387E+03
             -0.124074103131603E+03
              0.429123723907469E+02
             -0.258552840919503E+03
              0.212229788142933E+03
              0.726042284339861E+02
              0.191626395112572E+03
              0.129145398147104E+03
             -0.599785792019952E+02
              0.472704035714801E+02
             -0.844744874538694E+02
              0.352610505990626E+02
              0.128474789468287E+03
              0.138308520684631E+03
             -0.600766394464550E+02
              0.305010795245090E+03
             -0.122775413528458E+03
             -0.817366695571139E+02
              0.121986878655521E+03
              0.537865770972741E+02
              0.927347432371710E+02
             -0.179066987188774E+03
             -0.116595509542108E+02
              0.171806442748416E+03
              0.224551090423173E+03
             -0.227993884011157E+03
              0.146159863255136E+02
              0.790688935867976E+02
              0.510467264717668E+02
              0.891331198602194E+02
              0.195760928269857E+03
             -0.127186397821982E+03
             -0.123418516293390E+03
             -0.171889851223973E+03
             -0.249343715618447E+02
             -0.146611444943927E+03
              0.189236186656780E+02
             -0.211546538509879E+02
             -0.116349589230815E+03
[...]
              0.145304215891805E+03
              0.930340740261402E+02
              0.948624636155996E+02
             -0.175575568083007E+03
             -0.181285664702272E+03
             -0.408909667774264E+02
             -0.162051536443820E+03
              0.257315613911204E+03
              0.216728914486290E+03
              0.102225592771858E+03
              0.281766970478134E+03
             -0.140771917752421E+03
             -0.606801235963025E+02
             -0.874372461781610E+02
              0.243783011674630E+03

 BEEF-vdW xc energy contributions
            1 :    -2203.690302052517
            2 :     2019.189868558955
            3 :    -1704.654026504377
            4 :     1343.982872746966
            5 :    -1016.133611924846
            6 :     769.6815023397821
            7 :    -614.9005633554711
            8 :     531.0672208639091
            9 :    -482.1422703260355
           10 :     434.0935701320650
           11 :    -367.8874613529520
           12 :     283.6314707793581
           13 :    -195.2110858463520
           14 :     119.6408779612007
           15 :    -67.53660022449822
           16 :     39.10549644344155
           17 :    -26.07566346474505
           18 :     17.12422082918238
           19 :    -3.645305661663770
           20 :    -16.67813807526090
           21 :     39.84494681530850
           22 :    -58.78392289503518
           23 :     67.95918252681304
           24 :    -66.69429462208973
           25 :     59.44983944212527
           26 :    -53.18546645314109
           27 :     53.52796348288484
           28 :    -61.86683346134987
           29 :     74.78414411801259
           30 :    -85.98021045477253
           31 :    -189.9516790201719
           32 :    -136.6831562170132

     Writing all to output data dir ./PbI2.save/

     General routines

     Parallel routines

     PAW routines

   This run was terminated on:  12:16:26  21Mar2024

   JOB DONE.