     Program PWSCF v.7.1 starts on 20Mar2024 at 20:40:22

     Reading input from espresso.pwi
Warning: card &CELL ignored
Warning: card    CELL_DYNAMICS    = 'BFGS' ignored
Warning: card / ignored

     Current dimensions of program PWSCF are:
     Max number of different atomic species (ntypx) = 10
     Max number of k-points (npk) =  40000
     Max angular momentum in pseudopotentials (lmaxx) =  4
     file Pb.pbe-dn-kjpaw_psl.1.0.0.UPF: wavefunction(s)  6S 6P 5D renormalized
     file I.pbe-dn-kjpaw_psl.1.0.0.UPF: wavefunction(s)  5S 5P renormalized

     IMPORTANT: XC functional enforced from input :
     Exchange-correlation= BEEF-VDW
                           (   1   4  43  14   2   0   0)
     Any further DFT definition will be discarded
     Please, verify this is what you really want

     K-points division:     npool     =       2
     R & G space division:  proc/nbgrp/npool/nimage =      64
     Subspace diagonalization in iterative solution of the eigenvalue problem:
     a serial algorithm will be used

     Using Slab Decomposition

     bravais-lattice index     =            4
     lattice parameter (alat)  =      26.7090  a.u.
     unit-cell volume          =   17226.5091 (a.u.)^3
     number of atoms/cell      =           53
     number of atomic types    =            2
     number of electrons       =       848.00
     number of Kohn-Sham states=          509
     kinetic-energy cutoff     =      70.0000  Ry
     charge density cutoff     =     350.0000  Ry
     scf convergence threshold =      1.0E-07
     mixing beta               =       0.7000
     number of iterations used =            8  plain     mixing
     energy convergence thresh.=      1.0E-04
     force convergence thresh. =      1.0E-03
     Exchange-correlation= BEEF-VDW
                           (   1   4  43  14   2   0   0)
     nstep                     =           50

     celldm(1)=  26.709025  celldm(2)=   0.000000  celldm(3)=   1.043981
     celldm(4)=   0.000000  celldm(5)=   0.000000  celldm(6)=   0.000000

     crystal axes: (cart. coord. in units of alat)
               a(1) = (   1.000000   0.000000   0.000000 )
               a(2) = (  -0.500000   0.866025   0.000000 )
               a(3) = (   0.000000   0.000000   1.043981 )

     reciprocal axes: (cart. coord. in units 2 pi/alat)
               b(1) = (  1.000000  0.577350 -0.000000 )
               b(2) = (  0.000000  1.154701  0.000000 )
               b(3) = (  0.000000 -0.000000  0.957872 )

     PseudoPot. # 1 for Pb read from file:
     /trace/group/acmegroup/atimmins/packages/espresso/pseudo/psl_1.0.0/pslibrary.1.0.0/pbe/PSEUDOPOTENTIALS/Pb.pbe-dn-kjpaw_psl.1.0.0.UPF
     MD5 check sum: 39ab5b8a6bbd56b7735ad9f188aac93a
     Pseudo is Projector augmented-wave + core cor, Zval = 14.0
     Generated using 'atomic' code by A. Dal Corso  v.7.1
     Shape of augmentation charge: PSQ
     Using radial grid of 1281 points,  6 beta functions with:
                l(1) =   0
                l(2) =   0
                l(3) =   1
                l(4) =   1
                l(5) =   2
                l(6) =   2
     Q(r) pseudized with 0 coefficients

     PseudoPot. # 2 for I  read from file:
     /trace/group/acmegroup/atimmins/packages/espresso/pseudo/psl_1.0.0/pslibrary.1.0.0/pbe/PSEUDOPOTENTIALS/I.pbe-dn-kjpaw_psl.1.0.0.UPF
     MD5 check sum: bfa8781bc1224d19af3f3980e3fab11e
     Pseudo is Projector augmented-wave + core cor, Zval = 17.0
     Generated using 'atomic' code by A. Dal Corso  v.7.1
     Shape of augmentation charge: PSQ
     Using radial grid of 1247 points,  6 beta functions with:
                l(1) =   0
                l(2) =   0
                l(3) =   1
                l(4) =   1
                l(5) =   2
                l(6) =   2
     Q(r) pseudized with 0 coefficients

     atomic species   valence    mass     pseudopotential
        Pb            14.00   207.20000     Pb( 1.00)
        I             17.00   126.90447     I ( 1.00)

     No symmetry found

                                    s                        frac. trans.

      isym =  1     identity

 cryst.   s( 1) = (     1          0          0      )
                  (     0          1          0      )
                  (     0          0          1      )

 cart.    s( 1) = (  1.0000000  0.0000000  0.0000000 )
                  (  0.0000000  1.0000000  0.0000000 )
                  (  0.0000000  0.0000000  1.0000000 )

     point group C_1 (1)
     there are  1 classes
     the character table:

       E
A      1.00

     the symmetry operations in each class and the name of the first element:

     E        1
          identity

   Cartesian axes

     site n.     atom                  positions (alat units)
         1           Pb  tau(   1) = (   0.1666780   0.2886497   1.0439767  )
         2           Pb  tau(   2) = (   0.1666712   0.2886557   0.5219862  )
         3           Pb  tau(   3) = (   0.0000102   0.5773235   1.0439712  )
         4           Pb  tau(   4) = (   0.0000034   0.5773295   0.5219807  )
         5           Pb  tau(   5) = (  -0.1666576   0.8659973   1.0439657  )
         6           Pb  tau(   6) = (  -0.1666644   0.8660033   0.5219752  )
         7           Pb  tau(   7) = (   0.5000113   0.2886484   1.0439810  )
         8           Pb  tau(   8) = (   0.5000045   0.2886544   0.5219905  )
         9           Pb  tau(   9) = (   0.3333436   0.5773222   1.0439755  )
        10           Pb  tau(  10) = (   0.3333367   0.5773282   0.5219850  )
        11           Pb  tau(  11) = (   0.1666758   0.8659960   1.0439700  )
        12           Pb  tau(  12) = (   0.1666690   0.8660020   0.5219795  )
        13           Pb  tau(  13) = (   0.8333447   0.2886471   1.0439853  )
        14           Pb  tau(  14) = (   0.8333379   0.2886531   0.5219949  )
        15           Pb  tau(  15) = (   0.6666769   0.5773209   1.0439798  )
        16           Pb  tau(  16) = (   0.6666701   0.5773269   0.5219894  )
        17           Pb  tau(  17) = (   0.5000091   0.8659947   1.0439743  )
        18           Pb  tau(  18) = (   0.5000023   0.8660007   0.5219839  )
        19           I   tau(  19) = (   0.1666806   0.0962006   0.9099004  )
        20           I   tau(  20) = (   0.0000060   0.3848804   0.3879044  )
        21           I   tau(  21) = (   0.0000129   0.3848744   0.9098949  )
        22           I   tau(  22) = (  -0.1666617   0.6735542   0.3878990  )
        23           I   tau(  23) = (  -0.1666549   0.6735482   0.9098894  )
        24           I   tau(  24) = (   0.5000071   0.0962053   0.3879143  )
        25           I   tau(  25) = (   0.5000140   0.0961993   0.9099047  )
        26           I   tau(  26) = (   0.3333394   0.3848792   0.3879088  )
        27           I   tau(  27) = (   0.3333462   0.3848731   0.9098993  )
        28           I   tau(  28) = (   0.1666716   0.6735530   0.3879033  )
        29           I   tau(  29) = (   0.1666784   0.6735469   0.9098938  )
        30           I   tau(  30) = (   0.8333405   0.0962041   0.3879186  )
        31           I   tau(  31) = (   0.8333473   0.0961980   0.9099091  )
        32           I   tau(  32) = (   0.6666727   0.3848779   0.3879131  )
        33           I   tau(  33) = (   0.6666795   0.3848718   0.9099036  )
        34           I   tau(  34) = (   0.5000049   0.6735517   0.3879076  )
        35           I   tau(  35) = (   0.5000117   0.6735457   0.9098981  )
        36           I   tau(  36) = (  -0.0000023   0.1924396   0.1340740  )
        37           I   tau(  37) = (   0.0000045   0.1924336   0.6560644  )
        38           I   tau(  38) = (  -0.1666701   0.4811134   0.1340685  )
        39           I   tau(  39) = (  -0.1666632   0.4811074   0.6560589  )
        40           I   tau(  40) = (  -0.3333378   0.7697873   0.1340630  )
        41           I   tau(  41) = (  -0.3333310   0.7697812   0.6560534  )
        42           I   tau(  42) = (   0.3333311   0.1924384   0.1340783  )
        43           I   tau(  43) = (   0.3333379   0.1924323   0.6560688  )
        44           I   tau(  44) = (   0.1666633   0.4811122   0.1340728  )
        45           I   tau(  45) = (   0.1666701   0.4811061   0.6560633  )
        46           I   tau(  46) = (  -0.0000045   0.7697860   0.1340673  )
        47           I   tau(  47) = (   0.0000023   0.7697799   0.6560578  )
        48           I   tau(  48) = (   0.6666644   0.1924371   0.1340827  )
        49           I   tau(  49) = (   0.6666712   0.1924310   0.6560731  )
        50           I   tau(  50) = (   0.4999966   0.4811109   0.1340772  )
        51           I   tau(  51) = (   0.5000034   0.4811049   0.6560676  )
        52           I   tau(  52) = (   0.3333288   0.7697847   0.1340717  )
        53           I   tau(  53) = (   0.3333356   0.7697787   0.6560621  )

   Crystallographic axes

     site n.     atom                  positions (cryst. coord.)
         1           Pb  tau(   1) = (  0.3333300  0.3333039  0.9999959  )
         2           Pb  tau(   2) = (  0.3333266  0.3333109  0.4999959  )
         3           Pb  tau(   3) = (  0.3333281  0.6666357  0.9999906  )
         4           Pb  tau(   4) = (  0.3333248  0.6666427  0.4999906  )
         5           Pb  tau(   5) = (  0.3333262  0.9999675  0.9999854  )
         6           Pb  tau(   6) = (  0.3333229  0.9999745  0.4999854  )
         7           Pb  tau(   7) = (  0.6666626  0.3333025  1.0000001  )
         8           Pb  tau(   8) = (  0.6666592  0.3333094  0.5000001  )
         9           Pb  tau(   9) = (  0.6666607  0.6666343  0.9999948  )
        10           Pb  tau(  10) = (  0.6666573  0.6666412  0.4999948  )
        11           Pb  tau(  11) = (  0.6666588  0.9999661  0.9999895  )
        12           Pb  tau(  12) = (  0.6666555  0.9999730  0.4999895  )
        13           Pb  tau(  13) = (  0.9999951  0.3333010  1.0000042  )
        14           Pb  tau(  14) = (  0.9999918  0.3333079  0.5000042  )
        15           Pb  tau(  15) = (  0.9999933  0.6666328  0.9999990  )
        16           Pb  tau(  16) = (  0.9999899  0.6666397  0.4999990  )
        17           Pb  tau(  17) = (  0.9999914  0.9999646  0.9999937  )
        18           Pb  tau(  18) = (  0.9999881  0.9999715  0.4999937  )
        19           I   tau(  19) = (  0.2222221  0.1110829  0.8715680  )
        20           I   tau(  20) = (  0.2222169  0.4444217  0.3715628  )
        21           I   tau(  21) = (  0.2222202  0.4444147  0.8715628  )
        22           I   tau(  22) = (  0.2222150  0.7777534  0.3715575  )
        23           I   tau(  23) = (  0.2222183  0.7777465  0.8715575  )
        24           I   tau(  24) = (  0.5555513  0.1110884  0.3715722  )
        25           I   tau(  25) = (  0.5555547  0.1110814  0.8715722  )
        26           I   tau(  26) = (  0.5555495  0.4444202  0.3715669  )
        27           I   tau(  27) = (  0.5555528  0.4444132  0.8715669  )
        28           I   tau(  28) = (  0.5555476  0.7777520  0.3715617  )
        29           I   tau(  29) = (  0.5555509  0.7777450  0.8715617  )
[...]
     atom   34 type  2   force =    -0.00120617    0.00029837   -0.00414853
     atom   35 type  2   force =    -0.00006008   -0.00018329   -0.00532477
     atom   36 type  2   force =    -0.00001221   -0.00008269    0.00545276
     atom   37 type  2   force =    -0.00064150    0.00023292    0.00539327
     atom   38 type  2   force =     0.00015541    0.00009358    0.00541045
     atom   39 type  2   force =    -0.00030093   -0.00017134    0.00460470
     atom   40 type  2   force =    -0.00007555    0.00002668    0.00545149
     atom   41 type  2   force =    -0.00012117   -0.00066916    0.00539384
     atom   42 type  2   force =     0.00014171    0.00007440    0.00545959
     atom   43 type  2   force =     0.00048623    0.00028213    0.00539308
     atom   44 type  2   force =    -0.00011855    0.00007604    0.00536584
     atom   45 type  2   force =     0.00010661   -0.00213212    0.00412249
     atom   46 type  2   force =     0.00000285   -0.00013677    0.00536352
     atom   47 type  2   force =    -0.00179133    0.00116033    0.00412219
     atom   48 type  2   force =     0.00001367   -0.00010429    0.00547481
     atom   49 type  2   force =    -0.00008575    0.00012955    0.00463953
     atom   50 type  2   force =    -0.00007310    0.00006685    0.00547683
     atom   51 type  2   force =     0.00007088   -0.00013500    0.00464023
     atom   52 type  2   force =    -0.00014416   -0.00008224    0.00536890
     atom   53 type  2   force =     0.00208381    0.00120566    0.00410842
     The Hubbard contrib.    to forces
     atom    1 type  1   force =     0.00000000    0.00000000    0.00000000
     atom    2 type  1   force =     0.00000000    0.00000000    0.00000000
     atom    3 type  1   force =     0.00000000    0.00000000    0.00000000
     atom    4 type  1   force =     0.00000000    0.00000000    0.00000000
     atom    5 type  1   force =     0.00000000    0.00000000    0.00000000
     atom    6 type  1   force =     0.00000000    0.00000000    0.00000000
     atom    7 type  1   force =     0.00000000    0.00000000    0.00000000
     atom    8 type  1   force =     0.00000000    0.00000000    0.00000000
     atom    9 type  1   force =     0.00000000    0.00000000    0.00000000
     atom   10 type  1   force =     0.00000000    0.00000000    0.00000000
     atom   11 type  1   force =     0.00000000    0.00000000    0.00000000
     atom   12 type  1   force =     0.00000000    0.00000000    0.00000000
     atom   13 type  1   force =     0.00000000    0.00000000    0.00000000
     atom   14 type  1   force =     0.00000000    0.00000000    0.00000000
     atom   15 type  1   force =     0.00000000    0.00000000    0.00000000
     atom   16 type  1   force =     0.00000000    0.00000000    0.00000000
     atom   17 type  1   force =     0.00000000    0.00000000    0.00000000
     atom   18 type  1   force =     0.00000000    0.00000000    0.00000000
     atom   19 type  2   force =     0.00000000    0.00000000    0.00000000
     atom   20 type  2   force =     0.00000000    0.00000000    0.00000000
     atom   21 type  2   force =     0.00000000    0.00000000    0.00000000
     atom   22 type  2   force =     0.00000000    0.00000000    0.00000000
     atom   23 type  2   force =     0.00000000    0.00000000    0.00000000
     atom   24 type  2   force =     0.00000000    0.00000000    0.00000000
     atom   25 type  2   force =     0.00000000    0.00000000    0.00000000
     atom   26 type  2   force =     0.00000000    0.00000000    0.00000000
     atom   27 type  2   force =     0.00000000    0.00000000    0.00000000
     atom   28 type  2   force =     0.00000000    0.00000000    0.00000000
     atom   29 type  2   force =     0.00000000    0.00000000    0.00000000
     atom   30 type  2   force =     0.00000000    0.00000000    0.00000000
     atom   31 type  2   force =     0.00000000    0.00000000    0.00000000
     atom   32 type  2   force =     0.00000000    0.00000000    0.00000000
     atom   33 type  2   force =     0.00000000    0.00000000    0.00000000
     atom   34 type  2   force =     0.00000000    0.00000000    0.00000000
     atom   35 type  2   force =     0.00000000    0.00000000    0.00000000
     atom   36 type  2   force =     0.00000000    0.00000000    0.00000000
     atom   37 type  2   force =     0.00000000    0.00000000    0.00000000
     atom   38 type  2   force =     0.00000000    0.00000000    0.00000000
     atom   39 type  2   force =     0.00000000    0.00000000    0.00000000
     atom   40 type  2   force =     0.00000000    0.00000000    0.00000000
     atom   41 type  2   force =     0.00000000    0.00000000    0.00000000
     atom   42 type  2   force =     0.00000000    0.00000000    0.00000000
     atom   43 type  2   force =     0.00000000    0.00000000    0.00000000
     atom   44 type  2   force =     0.00000000    0.00000000    0.00000000
     atom   45 type  2   force =     0.00000000    0.00000000    0.00000000
     atom   46 type  2   force =     0.00000000    0.00000000    0.00000000
     atom   47 type  2   force =     0.00000000    0.00000000    0.00000000
     atom   48 type  2   force =     0.00000000    0.00000000    0.00000000
     atom   49 type  2   force =     0.00000000    0.00000000    0.00000000
     atom   50 type  2   force =     0.00000000    0.00000000    0.00000000
     atom   51 type  2   force =     0.00000000    0.00000000    0.00000000
     atom   52 type  2   force =     0.00000000    0.00000000    0.00000000
     atom   53 type  2   force =     0.00000000    0.00000000    0.00000000
     The SCF correction term to forces
     atom    1 type  1   force =     0.00000072   -0.00000377    0.00000130
     atom    2 type  1   force =    -0.00000530    0.00000347   -0.00000387
     atom    3 type  1   force =     0.00000677    0.00000399   -0.00000386
     atom    4 type  1   force =    -0.00000226   -0.00000113    0.00000093
     atom    5 type  1   force =    -0.00000289    0.00000245    0.00000129
     atom    6 type  1   force =     0.00000046   -0.00000652   -0.00000384
     atom    7 type  1   force =    -0.00000632   -0.00000367    0.00000456
     atom    8 type  1   force =    -0.00000253   -0.00000154    0.00000166
     atom    9 type  1   force =    -0.00000291    0.00000494   -0.00000449
     atom   10 type  1   force =     0.00000626    0.00000273    0.00000148
     atom   11 type  1   force =     0.00000274   -0.00000502   -0.00000450
     atom   12 type  1   force =     0.00000539    0.00000406    0.00000147
     atom   13 type  1   force =     0.00000623   -0.00000792    0.00000464
     atom   14 type  1   force =     0.00000567   -0.00000865    0.00000168
     atom   15 type  1   force =    -0.00000370    0.00000946    0.00000467
     atom   16 type  1   force =    -0.00000455    0.00000936    0.00000162
     atom   17 type  1   force =     0.00000038    0.00000017   -0.00000052
     atom   18 type  1   force =    -0.00001156   -0.00000679   -0.00000229
     atom   19 type  2   force =    -0.00000286   -0.00000173    0.00000896
     atom   20 type  2   force =    -0.00000119   -0.00000261    0.00000057
     atom   21 type  2   force =     0.00001354   -0.00000056   -0.00000050
     atom   22 type  2   force =    -0.00000280    0.00000030    0.00000063
     atom   23 type  2   force =     0.00000628    0.00001206   -0.00000057
     atom   24 type  2   force =     0.00000622   -0.00000152   -0.00000144
     atom   25 type  2   force =    -0.00000220   -0.00001224    0.00000121
     atom   26 type  2   force =     0.00000192    0.00000593   -0.00000134
     atom   27 type  2   force =    -0.00001165    0.00000415    0.00000125
     atom   28 type  2   force =     0.00000553    0.00000338    0.00000555
     atom   29 type  2   force =     0.00000427    0.00000255    0.00000062
     atom   30 type  2   force =     0.00000343   -0.00000588    0.00000666
     atom   31 type  2   force =     0.00000558   -0.00001584   -0.00000062
     atom   32 type  2   force =    -0.00000004    0.00000003   -0.00000284
     atom   33 type  2   force =    -0.00000194   -0.00000113   -0.00000465
     atom   34 type  2   force =    -0.00000325    0.00000620    0.00000673
     atom   35 type  2   force =    -0.00001085    0.00001284   -0.00000061
     atom   36 type  2   force =     0.00000746   -0.00000877   -0.00000255
     atom   37 type  2   force =    -0.00000966   -0.00000537   -0.00000029
     atom   38 type  2   force =     0.00000460    0.00000275    0.00000671
     atom   39 type  2   force =     0.00000455    0.00000267   -0.00000434
     atom   40 type  2   force =    -0.00000394    0.00001077   -0.00000256
     atom   41 type  2   force =    -0.00000927   -0.00000568   -0.00000040
     atom   42 type  2   force =    -0.00000840   -0.00000497   -0.00000489
     atom   43 type  2   force =     0.00000710    0.00000384    0.00000692
     atom   44 type  2   force =     0.00000370   -0.00000383   -0.00000801
     atom   45 type  2   force =     0.00000380    0.00000540    0.00000622
     atom   46 type  2   force =    -0.00000155    0.00000510   -0.00000802
     atom   47 type  2   force =     0.00000637    0.00000063    0.00000613
     atom   48 type  2   force =     0.00000049   -0.00000975    0.00000380
     atom   49 type  2   force =     0.00000400   -0.00001188   -0.00000475
     atom   50 type  2   force =    -0.00000818    0.00000523    0.00000377
     atom   51 type  2   force =    -0.00000835    0.00000924   -0.00000476
     atom   52 type  2   force =     0.00000546    0.00000317   -0.00000801
     atom   53 type  2   force =     0.00000326    0.00000198    0.00000159

     Total force =     0.003308     Total SCF correction =     0.000070

     Computing stress (Cartesian axis) and pressure

     Non-local corr. energy    =      25.32876352 Ry

          total   stress  (Ry/bohr**3)                   (kbar)     P=        6.67
   0.00004228   0.00000005  -0.00000015            6.22        0.01       -0.02
   0.00000005   0.00004222  -0.00000008            0.01        6.21       -0.01
  -0.00000015  -0.00000008   0.00005160           -0.02       -0.01        7.59

     kinetic stress (kbar)  14758.99     -0.03     -0.01
                               -0.03  14759.02     -0.00
                               -0.01     -0.00  14770.32

     local   stress (kbar)  -7942.91     -2.89      2.90
                               -2.89  -7939.70      1.61
                                2.90      1.61   1674.12

     nonloc. stress (kbar)  -1114.12     -0.00     -0.01
                               -0.00  -1114.12     -0.00
                               -0.01     -0.00  -1119.26

     hartree stress (kbar)  12043.27      0.96     -1.11
                                0.96  12042.22     -0.61
                               -1.11     -0.61   7702.58

     exc-cor stress (kbar)   6795.00      0.01     -0.00
                                0.01   6795.00     -0.00
                               -0.00     -0.00   6793.54

     corecor stress (kbar) -11070.10     -0.00      0.00
                               -0.00 -11070.09      0.00
                                0.00      0.00 -11069.99

     ewald   stress (kbar) -13545.33      1.96     -1.79
                                1.96 -13547.52     -1.00
                               -1.79     -1.00 -18826.61

     hubbard stress (kbar)      0.00      0.00      0.00
                                0.00      0.00      0.00
                                0.00      0.00      0.00

     DFT-D   stress (kbar)      0.00      0.00      0.00
                                0.00      0.00      0.00
                                0.00      0.00      0.00

     XDM     stress (kbar)      0.00      0.00      0.00
                                0.00      0.00      0.00
                                0.00      0.00      0.00

     dft-nl  stress (kbar)     81.41     -0.00      0.00
                               -0.00     81.41      0.00
                                0.00      0.00     82.91

     TS-vdW  stress (kbar)      0.00      0.00      0.00
                                0.00      0.00      0.00
                                0.00      0.00      0.00

     MDB     stress (kbar)      0.00      0.00      0.00
                                0.00      0.00      0.00
                                0.00      0.00      0.00

     3D-RISM stress (kbar)      0.00      0.00      0.00
                                0.00      0.00      0.00
                                0.00      0.00      0.00

     Energy error            =      3.9E-05 Ry
     Gradient error          =      8.9E-04 Ry/Bohr

     bfgs converged in  26 scf cycles and  25 bfgs steps
     (criteria: energy <  1.0E-04 Ry, force <  1.0E-03 Ry/Bohr)

     End of BFGS Geometry Optimization

     Final energy             =  -35861.2788318609 Ry

     File ./PbI2.bfgs deleted, as requested
Begin final coordinates

ATOMIC_POSITIONS (angstrom)
Pb            2.3578461206        4.0816349377       14.7630410800
Pb            2.3548603972        3.5413144958        7.2299987050
Pb            0.0049187071        8.1626634568       14.7470086989
Pb            0.0452824950        8.1859980862        7.4452242153
Pb           -2.3528979229       12.2406814498       14.7627287264
Pb           -2.8223124829       12.5085043719        7.2298601686
Pb            7.0628021402        4.0773640847       14.7812270869
Pb            7.0356413072        4.0617366072        7.3332171051
Pb            4.7078655675        8.1607377306       14.7550081163
Pb            4.6705170135        8.1862630792        7.4463525217
Pb            2.3547319714       12.2363159972       14.7547120320
Pb            2.3581611235       12.1913024216        7.4461910105
Pb           11.7845925082        4.0780919159       14.7745268889
Pb           11.8075013948        4.0619251811        7.3322451320
Pb            9.4243411038        8.1661165974       14.7743987113
Pb            9.4217403398        8.1942907786        7.3321571364
Pb            7.0662758707       12.2393774795       14.7584222531
Pb            7.5328480256       12.5089836766        7.2290759900
I             2.3621706493        1.3635494733       12.8859474056
I             0.0081389649        5.3440497944        5.5129220730
I             0.0004450274        5.4308735728       12.8753072364
I            -2.4345262527        9.5750284721        5.5128541969
I            -2.3632159172        9.5243537121       12.8750277223
I             6.9730026711        1.3932663988        5.5146334220
I             7.0643896793        1.3708475200       12.8806265424
I             4.6933278500        5.3417910675        5.5146551114
I             4.7196196931        5.4321623555       12.8807879425
I             2.3592967874        9.5215492613        5.4693884084
I             2.3608511544        9.5223921052       12.8844709246
I            11.8649986668        1.3958764434        5.5136206176
I            11.7754610123        1.3683593669       12.8789986123
I             9.4170839275        5.4367481158        5.4908529253
I             9.4189241991        5.4376054799       12.9059954118
I             7.1415533360        9.5771722205        5.5136237461
I             7.0729069282        9.5129103199       12.8789324977
I             0.0300568512        2.6982916783        1.9004759988
I             0.0429487751        2.6876501738        9.3017972149
I            -2.3457350483        6.8055826391        1.8846898366
I            -2.3359741244        6.8113375908        9.2644889123
I            -4.7145405592       10.9161640688        1.9003759596
I            -4.7176113805       10.9333519543        9.3017518650
I             4.6859560294        2.7047077351        1.9054926446
I             4.6599842407        2.6901635609        9.3020328268
I             2.3498559153        6.8030595088        1.8798543166
I             2.3585568740        6.8601135152        9.2377036366
I            -0.0000970421       10.8734014060        1.8796826346
I             0.0536583810       10.8524221149        9.2375771868
I             9.4274854111        2.7163927693        1.8898085222
I             9.4201174352        2.6972015526        9.2667098462
I             7.0669388601        6.8056678568        1.8900112094
I             7.0466206985        6.8090332270        9.2668098598
I             4.7099083924       10.8792015660        1.8784540772
I             4.6682386293       10.8551545903        9.2378554983
End final coordinates

     Writing all to output data dir ./PbI2.save/

     General routines

     Parallel routines

     PAW routines

   This run was terminated on:   6: 4:48  21Mar2024

   JOB DONE.