     Program PWSCF v.7.1 starts on 18Feb2024 at 11:58:31

     Reading input from espresso.pwi
Warning: card &CELL ignored
Warning: card    CELL_DYNAMICS    = 'BFGS' ignored
Warning: card / ignored

     Current dimensions of program PWSCF are:
     Max number of different atomic species (ntypx) = 10
     Max number of k-points (npk) =  40000
     Max angular momentum in pseudopotentials (lmaxx) =  4
     file Pb.pbe-dn-kjpaw_psl.1.0.0.UPF: wavefunction(s)  6S 6P 5D renormalized
     file I.pbe-dn-kjpaw_psl.1.0.0.UPF: wavefunction(s)  5S 5P renormalized

     IMPORTANT: XC functional enforced from input :
     Exchange-correlation= BEEF-VDW
                           (   1   4  43  14   2   0   0)
     Any further DFT definition will be discarded
     Please, verify this is what you really want

     K-points division:     npool     =       2
     R & G space division:  proc/nbgrp/npool/nimage =      64
     Subspace diagonalization in iterative solution of the eigenvalue problem:
     a serial algorithm will be used

     Using Slab Decomposition

     bravais-lattice index     =            4
     lattice parameter (alat)  =      26.7090  a.u.
     unit-cell volume          =   17226.5091 (a.u.)^3
     number of atoms/cell      =           54
     number of atomic types    =            2
     number of electrons       =       867.00
     number of Kohn-Sham states=          521
     kinetic-energy cutoff     =      70.0000  Ry
     charge density cutoff     =     350.0000  Ry
     scf convergence threshold =      1.0E-07
     mixing beta               =       0.7000
     number of iterations used =            8  plain     mixing
     Exchange-correlation= BEEF-VDW
                           (   1   4  43  14   2   0   0)

     celldm(1)=  26.709025  celldm(2)=   0.000000  celldm(3)=   1.043981
     celldm(4)=   0.000000  celldm(5)=   0.000000  celldm(6)=   0.000000

     crystal axes: (cart. coord. in units of alat)
               a(1) = (   1.000000   0.000000   0.000000 )
               a(2) = (  -0.500000   0.866025   0.000000 )
               a(3) = (   0.000000   0.000000   1.043981 )

     reciprocal axes: (cart. coord. in units 2 pi/alat)
               b(1) = (  1.000000  0.577350 -0.000000 )
               b(2) = (  0.000000  1.154701  0.000000 )
               b(3) = (  0.000000 -0.000000  0.957872 )

     PseudoPot. # 1 for Pb read from file:
     /trace/group/acmegroup/atimmins/packages/espresso/pseudo/psl_1.0.0/pslibrary.1.0.0/pbe/PSEUDOPOTENTIALS/Pb.pbe-dn-kjpaw_psl.1.0.0.UPF
     MD5 check sum: 39ab5b8a6bbd56b7735ad9f188aac93a
     Pseudo is Projector augmented-wave + core cor, Zval = 14.0
     Generated using 'atomic' code by A. Dal Corso  v.7.1
     Shape of augmentation charge: PSQ
     Using radial grid of 1281 points,  6 beta functions with:
                l(1) =   0
                l(2) =   0
                l(3) =   1
                l(4) =   1
                l(5) =   2
                l(6) =   2
     Q(r) pseudized with 0 coefficients

     PseudoPot. # 2 for I  read from file:
     /trace/group/acmegroup/atimmins/packages/espresso/pseudo/psl_1.0.0/pslibrary.1.0.0/pbe/PSEUDOPOTENTIALS/I.pbe-dn-kjpaw_psl.1.0.0.UPF
     MD5 check sum: bfa8781bc1224d19af3f3980e3fab11e
     Pseudo is Projector augmented-wave + core cor, Zval = 17.0
     Generated using 'atomic' code by A. Dal Corso  v.7.1
     Shape of augmentation charge: PSQ
     Using radial grid of 1247 points,  6 beta functions with:
                l(1) =   0
                l(2) =   0
                l(3) =   1
                l(4) =   1
                l(5) =   2
                l(6) =   2
     Q(r) pseudized with 0 coefficients

     atomic species   valence    mass     pseudopotential
        Pb            14.00   207.20000     Pb( 1.00)
        I             17.00   126.90447     I ( 1.00)

     No symmetry found

                                    s                        frac. trans.

      isym =  1     identity

 cryst.   s( 1) = (     1          0          0      )
                  (     0          1          0      )
                  (     0          0          1      )

 cart.    s( 1) = (  1.0000000  0.0000000  0.0000000 )
                  (  0.0000000  1.0000000  0.0000000 )
                  (  0.0000000  0.0000000  1.0000000 )

     point group C_1 (1)
     there are  1 classes
     the character table:

       E
A      1.00

     the symmetry operations in each class and the name of the first element:

     E        1
          identity

   Cartesian axes

     site n.     atom                  positions (alat units)
         1           Pb  tau(   1) = (   0.1666712   0.2886557   0.5219862  )
         2           Pb  tau(   2) = (   0.0000102   0.5773235   1.0439712  )
         3           Pb  tau(   3) = (   0.0000034   0.5773295   0.5219807  )
         4           Pb  tau(   4) = (  -0.1666576   0.8659973   1.0439657  )
         5           Pb  tau(   5) = (  -0.1666644   0.8660033   0.5219752  )
         6           Pb  tau(   6) = (   0.5000113   0.2886484   1.0439810  )
         7           Pb  tau(   7) = (   0.5000045   0.2886544   0.5219905  )
         8           Pb  tau(   8) = (   0.3333436   0.5773222   1.0439755  )
         9           Pb  tau(   9) = (   0.3333367   0.5773282   0.5219850  )
        10           Pb  tau(  10) = (   0.1666758   0.8659960   1.0439700  )
        11           Pb  tau(  11) = (   0.1666690   0.8660020   0.5219795  )
        12           Pb  tau(  12) = (   0.8333447   0.2886471   1.0439853  )
        13           Pb  tau(  13) = (   0.8333379   0.2886531   0.5219949  )
        14           Pb  tau(  14) = (   0.6666769   0.5773209   1.0439798  )
        15           Pb  tau(  15) = (   0.6666701   0.5773269   0.5219894  )
        16           Pb  tau(  16) = (   0.5000091   0.8659947   1.0439743  )
        17           Pb  tau(  17) = (   0.5000023   0.8660007   0.5219839  )
        18           I   tau(  18) = (   0.1666738   0.0962066   0.3879099  )
        19           I   tau(  19) = (   0.1666806   0.0962006   0.9099004  )
        20           I   tau(  20) = (   0.0000060   0.3848804   0.3879044  )
        21           I   tau(  21) = (   0.0000129   0.3848744   0.9098949  )
        22           I   tau(  22) = (  -0.1666617   0.6735542   0.3878990  )
        23           I   tau(  23) = (  -0.1666549   0.6735482   0.9098894  )
        24           I   tau(  24) = (   0.5000071   0.0962053   0.3879143  )
        25           I   tau(  25) = (   0.5000140   0.0961993   0.9099047  )
        26           I   tau(  26) = (   0.3333394   0.3848792   0.3879088  )
        27           I   tau(  27) = (   0.3333462   0.3848731   0.9098993  )
        28           I   tau(  28) = (   0.1666716   0.6735530   0.3879033  )
        29           I   tau(  29) = (   0.1666784   0.6735469   0.9098938  )
        30           I   tau(  30) = (   0.8333405   0.0962041   0.3879186  )
        31           I   tau(  31) = (   0.8333473   0.0961980   0.9099091  )
        32           I   tau(  32) = (   0.6666727   0.3848779   0.3879131  )
        33           I   tau(  33) = (   0.6666795   0.3848718   0.9099036  )
        34           I   tau(  34) = (   0.5000049   0.6735517   0.3879076  )
        35           I   tau(  35) = (   0.5000117   0.6735457   0.9098981  )
        36           I   tau(  36) = (  -0.0000023   0.1924396   0.1340740  )
        37           I   tau(  37) = (   0.0000045   0.1924336   0.6560644  )
        38           I   tau(  38) = (  -0.1666701   0.4811134   0.1340685  )
        39           I   tau(  39) = (  -0.1666632   0.4811074   0.6560589  )
        40           I   tau(  40) = (  -0.3333378   0.7697873   0.1340630  )
        41           I   tau(  41) = (  -0.3333310   0.7697812   0.6560534  )
        42           I   tau(  42) = (   0.3333311   0.1924384   0.1340783  )
        43           I   tau(  43) = (   0.3333379   0.1924323   0.6560688  )
        44           I   tau(  44) = (   0.1666633   0.4811122   0.1340728  )
        45           I   tau(  45) = (   0.1666701   0.4811061   0.6560633  )
        46           I   tau(  46) = (  -0.0000045   0.7697860   0.1340673  )
        47           I   tau(  47) = (   0.0000023   0.7697799   0.6560578  )
        48           I   tau(  48) = (   0.6666644   0.1924371   0.1340827  )
        49           I   tau(  49) = (   0.6666712   0.1924310   0.6560731  )
        50           I   tau(  50) = (   0.4999966   0.4811109   0.1340772  )
        51           I   tau(  51) = (   0.5000034   0.4811049   0.6560676  )
        52           I   tau(  52) = (   0.3333288   0.7697847   0.1340717  )
        53           I   tau(  53) = (   0.3333356   0.7697787   0.6560621  )
        54           I   tau(  54) = (   0.1666780   0.2886497   1.0439767  )

   Crystallographic axes

     site n.     atom                  positions (cryst. coord.)
         1           Pb  tau(   1) = (  0.3333266  0.3333109  0.4999959  )
         2           Pb  tau(   2) = (  0.3333281  0.6666357  0.9999906  )
         3           Pb  tau(   3) = (  0.3333248  0.6666427  0.4999906  )
         4           Pb  tau(   4) = (  0.3333262  0.9999675  0.9999854  )
         5           Pb  tau(   5) = (  0.3333229  0.9999745  0.4999854  )
         6           Pb  tau(   6) = (  0.6666626  0.3333025  1.0000001  )
         7           Pb  tau(   7) = (  0.6666592  0.3333094  0.5000001  )
         8           Pb  tau(   8) = (  0.6666607  0.6666343  0.9999948  )
         9           Pb  tau(   9) = (  0.6666573  0.6666412  0.4999948  )
        10           Pb  tau(  10) = (  0.6666588  0.9999661  0.9999895  )
        11           Pb  tau(  11) = (  0.6666555  0.9999730  0.4999895  )
        12           Pb  tau(  12) = (  0.9999951  0.3333010  1.0000042  )
        13           Pb  tau(  13) = (  0.9999918  0.3333079  0.5000042  )
        14           Pb  tau(  14) = (  0.9999933  0.6666328  0.9999990  )
        15           Pb  tau(  15) = (  0.9999899  0.6666397  0.4999990  )
        16           Pb  tau(  16) = (  0.9999914  0.9999646  0.9999937  )
        17           Pb  tau(  17) = (  0.9999881  0.9999715  0.4999937  )
        18           I   tau(  18) = (  0.2222187  0.1110899  0.3715680  )
        19           I   tau(  19) = (  0.2222221  0.1110829  0.8715680  )
        20           I   tau(  20) = (  0.2222169  0.4444217  0.3715628  )
        21           I   tau(  21) = (  0.2222202  0.4444147  0.8715628  )
        22           I   tau(  22) = (  0.2222150  0.7777534  0.3715575  )
        23           I   tau(  23) = (  0.2222183  0.7777465  0.8715575  )
        24           I   tau(  24) = (  0.5555513  0.1110884  0.3715722  )
        25           I   tau(  25) = (  0.5555547  0.1110814  0.8715722  )
        26           I   tau(  26) = (  0.5555495  0.4444202  0.3715669  )
        27           I   tau(  27) = (  0.5555528  0.4444132  0.8715669  )
        28           I   tau(  28) = (  0.5555476  0.7777520  0.3715617  )
        29           I   tau(  29) = (  0.5555509  0.7777450  0.8715617  )
        30           I   tau(  30) = (  0.8888839  0.1110869  0.3715764  )
[...]
     atom   38 type  2   force =     0.00013254    0.00006612    0.00514057
     atom   39 type  2   force =     0.00010361    0.00008087    0.00521606
     atom   40 type  2   force =     0.00017009   -0.00008599    0.00515001
     atom   41 type  2   force =     0.00016175   -0.00011652    0.00522209
     atom   42 type  2   force =    -0.00123352    0.00051998    0.00449203
     atom   43 type  2   force =    -0.00002134   -0.00001010    0.00520004
     atom   44 type  2   force =    -0.00007110   -0.00145534    0.00448806
     atom   45 type  2   force =    -0.00012988    0.00005518    0.00518644
     atom   46 type  2   force =    -0.00000576   -0.00015282    0.00502714
     atom   47 type  2   force =    -0.00003472   -0.00016580    0.00513971
     atom   48 type  2   force =     0.00003860    0.00003523    0.00504384
     atom   49 type  2   force =     0.00000478   -0.00000727    0.00515772
     atom   50 type  2   force =     0.00001775    0.00001549    0.00515216
     atom   51 type  2   force =     0.00002209    0.00003010    0.00522610
     atom   52 type  2   force =    -0.00012796   -0.00009428    0.00503901
     atom   53 type  2   force =    -0.00014738   -0.00010934    0.00515416
     atom   54 type  2   force =    -0.00008892   -0.00015175    0.00000003
     The Hubbard contrib.    to forces
     atom    1 type  1   force =     0.00000000    0.00000000    0.00000000
     atom    2 type  1   force =     0.00000000    0.00000000    0.00000000
     atom    3 type  1   force =     0.00000000    0.00000000    0.00000000
     atom    4 type  1   force =     0.00000000    0.00000000    0.00000000
     atom    5 type  1   force =     0.00000000    0.00000000    0.00000000
     atom    6 type  1   force =     0.00000000    0.00000000    0.00000000
     atom    7 type  1   force =     0.00000000    0.00000000    0.00000000
     atom    8 type  1   force =     0.00000000    0.00000000    0.00000000
     atom    9 type  1   force =     0.00000000    0.00000000    0.00000000
     atom   10 type  1   force =     0.00000000    0.00000000    0.00000000
     atom   11 type  1   force =     0.00000000    0.00000000    0.00000000
     atom   12 type  1   force =     0.00000000    0.00000000    0.00000000
     atom   13 type  1   force =     0.00000000    0.00000000    0.00000000
     atom   14 type  1   force =     0.00000000    0.00000000    0.00000000
     atom   15 type  1   force =     0.00000000    0.00000000    0.00000000
     atom   16 type  1   force =     0.00000000    0.00000000    0.00000000
     atom   17 type  1   force =     0.00000000    0.00000000    0.00000000
     atom   18 type  2   force =     0.00000000    0.00000000    0.00000000
     atom   19 type  2   force =     0.00000000    0.00000000    0.00000000
     atom   20 type  2   force =     0.00000000    0.00000000    0.00000000
     atom   21 type  2   force =     0.00000000    0.00000000    0.00000000
     atom   22 type  2   force =     0.00000000    0.00000000    0.00000000
     atom   23 type  2   force =     0.00000000    0.00000000    0.00000000
     atom   24 type  2   force =     0.00000000    0.00000000    0.00000000
     atom   25 type  2   force =     0.00000000    0.00000000    0.00000000
     atom   26 type  2   force =     0.00000000    0.00000000    0.00000000
     atom   27 type  2   force =     0.00000000    0.00000000    0.00000000
     atom   28 type  2   force =     0.00000000    0.00000000    0.00000000
     atom   29 type  2   force =     0.00000000    0.00000000    0.00000000
     atom   30 type  2   force =     0.00000000    0.00000000    0.00000000
     atom   31 type  2   force =     0.00000000    0.00000000    0.00000000
     atom   32 type  2   force =     0.00000000    0.00000000    0.00000000
     atom   33 type  2   force =     0.00000000    0.00000000    0.00000000
     atom   34 type  2   force =     0.00000000    0.00000000    0.00000000
     atom   35 type  2   force =     0.00000000    0.00000000    0.00000000
     atom   36 type  2   force =     0.00000000    0.00000000    0.00000000
     atom   37 type  2   force =     0.00000000    0.00000000    0.00000000
     atom   38 type  2   force =     0.00000000    0.00000000    0.00000000
     atom   39 type  2   force =     0.00000000    0.00000000    0.00000000
     atom   40 type  2   force =     0.00000000    0.00000000    0.00000000
     atom   41 type  2   force =     0.00000000    0.00000000    0.00000000
     atom   42 type  2   force =     0.00000000    0.00000000    0.00000000
     atom   43 type  2   force =     0.00000000    0.00000000    0.00000000
     atom   44 type  2   force =     0.00000000    0.00000000    0.00000000
     atom   45 type  2   force =     0.00000000    0.00000000    0.00000000
     atom   46 type  2   force =     0.00000000    0.00000000    0.00000000
     atom   47 type  2   force =     0.00000000    0.00000000    0.00000000
     atom   48 type  2   force =     0.00000000    0.00000000    0.00000000
     atom   49 type  2   force =     0.00000000    0.00000000    0.00000000
     atom   50 type  2   force =     0.00000000    0.00000000    0.00000000
     atom   51 type  2   force =     0.00000000    0.00000000    0.00000000
     atom   52 type  2   force =     0.00000000    0.00000000    0.00000000
     atom   53 type  2   force =     0.00000000    0.00000000    0.00000000
     atom   54 type  2   force =     0.00000000    0.00000000    0.00000000
     The SCF correction term to forces
     atom    1 type  1   force =     0.00001162    0.00003122    0.00004971
     atom    2 type  1   force =    -0.00001723    0.00006304   -0.00003770
     atom    3 type  1   force =    -0.00000629    0.00002049    0.00004032
     atom    4 type  1   force =     0.00006912   -0.00009453   -0.00004961
     atom    5 type  1   force =     0.00002611   -0.00003482    0.00004339
     atom    6 type  1   force =     0.00007244    0.00004437   -0.00007956
     atom    7 type  1   force =     0.00002566    0.00002441    0.00005304
     atom    8 type  1   force =     0.00002726    0.00003104   -0.00005839
     atom    9 type  1   force =     0.00000950    0.00000712    0.00004674
     atom   10 type  1   force =    -0.00000984   -0.00002455   -0.00003239
     atom   11 type  1   force =    -0.00001025   -0.00001682    0.00003551
     atom   12 type  1   force =    -0.00010296    0.00003590   -0.00005888
     atom   13 type  1   force =    -0.00003519    0.00002342    0.00004594
     atom   14 type  1   force =    -0.00000990   -0.00002646   -0.00006236
     atom   15 type  1   force =    -0.00000336   -0.00001786    0.00005343
     atom   16 type  1   force =    -0.00005923   -0.00010895   -0.00004838
     atom   17 type  1   force =    -0.00001806   -0.00004180    0.00004453
     atom   18 type  2   force =     0.00000825   -0.00004392    0.00030700
     atom   19 type  2   force =     0.00001069   -0.00013436    0.00006058
     atom   20 type  2   force =    -0.00002359    0.00006294    0.00029411
     atom   21 type  2   force =    -0.00010718    0.00011679    0.00008402
     atom   22 type  2   force =     0.00000266   -0.00002183    0.00027552
     atom   23 type  2   force =     0.00000039   -0.00003740    0.00017892
     atom   24 type  2   force =     0.00003638   -0.00002016    0.00027277
     atom   25 type  2   force =     0.00006643   -0.00001351    0.00017200
     atom   26 type  2   force =     0.00003889    0.00005650    0.00030360
     atom   27 type  2   force =     0.00013622    0.00010903    0.00008083
     atom   28 type  2   force =    -0.00000201    0.00000641    0.00025289
     atom   29 type  2   force =     0.00000539    0.00002715    0.00018947
     atom   30 type  2   force =    -0.00004501   -0.00001445    0.00026761
     atom   31 type  2   force =    -0.00008714   -0.00003697    0.00016043
     atom   32 type  2   force =    -0.00000976    0.00002026    0.00029007
     atom   33 type  2   force =    -0.00003648    0.00003785    0.00016983
     atom   34 type  2   force =    -0.00000414   -0.00003262    0.00027458
     atom   35 type  2   force =    -0.00002197   -0.00007165    0.00016903
     atom   36 type  2   force =    -0.00012351   -0.00003996   -0.00014156
     atom   37 type  2   force =    -0.00003764    0.00000646   -0.00022657
     atom   38 type  2   force =    -0.00004464    0.00004549   -0.00025399
     atom   39 type  2   force =    -0.00003797    0.00002549   -0.00020603
     atom   40 type  2   force =    -0.00000024   -0.00011296   -0.00022897
     atom   41 type  2   force =     0.00000517   -0.00006147   -0.00018948
     atom   42 type  2   force =     0.00014506   -0.00003035   -0.00015424
     atom   43 type  2   force =     0.00004825    0.00002152   -0.00021239
     atom   44 type  2   force =     0.00001499    0.00016177   -0.00016164
     atom   45 type  2   force =     0.00002442    0.00004728   -0.00021226
     atom   46 type  2   force =     0.00003824   -0.00002628   -0.00024784
     atom   47 type  2   force =     0.00000828   -0.00001338   -0.00021472
     atom   48 type  2   force =    -0.00001577   -0.00000743   -0.00025144
     atom   49 type  2   force =    -0.00001294    0.00001712   -0.00019284
     atom   50 type  2   force =     0.00003858    0.00002963   -0.00026227
     atom   51 type  2   force =     0.00000828    0.00000656   -0.00016547
     atom   52 type  2   force =    -0.00003801   -0.00004467   -0.00025130
     atom   53 type  2   force =    -0.00000844   -0.00003442   -0.00020433
     atom   54 type  2   force =     0.00003399    0.00009995   -0.00007482

     Total force =     0.003039     Total SCF correction =     0.001441
     SCF correction compared to forces is large: reduce conv_thr to get better values

     Computing stress (Cartesian axis) and pressure

[...]

          total   stress  (Ry/bohr**3)                   (kbar)     P=        2.18
   0.00001403   0.00000006  -0.00000020            2.06        0.01       -0.03
   0.00000006   0.00001411   0.00000012            0.01        2.08        0.02
  -0.00000020   0.00000012   0.00001634           -0.03        0.02        2.40

     kinetic stress (kbar)  14860.65     -0.00     -0.02
                               -0.00  14860.65      0.02
                               -0.02      0.02  14872.16

     local   stress (kbar)  -7430.42     -3.23      2.25
                               -3.23  -7433.98     -1.24
                                2.25     -1.24   1316.80

     nonloc. stress (kbar)   -881.96      0.01     -0.02
                                0.01   -881.95      0.01
                               -0.02      0.01   -885.54

     hartree stress (kbar)  12104.36      1.28     -0.87
                                1.28  12105.78      0.48
                               -0.87      0.48   8149.56

     exc-cor stress (kbar)   7011.98      0.01     -0.00
                                0.01   7011.99      0.00
                               -0.00      0.00   7011.15

     corecor stress (kbar) -11401.94     -0.00      0.00
                               -0.00 -11401.94     -0.00
                                0.00     -0.00 -11401.94

     ewald   stress (kbar) -14344.94      1.95     -1.36
                                1.95 -14342.80      0.75
                               -1.36      0.75 -19145.32

     hubbard stress (kbar)      0.00      0.00      0.00
                                0.00      0.00      0.00
                                0.00      0.00      0.00

     DFT-D   stress (kbar)      0.00      0.00      0.00
                                0.00      0.00      0.00
                                0.00      0.00      0.00

     XDM     stress (kbar)      0.00      0.00      0.00
                                0.00      0.00      0.00
                                0.00      0.00      0.00

     dft-nl  stress (kbar)     84.33     -0.00      0.00
                               -0.00     84.33     -0.00
                                0.00     -0.00     85.54

     TS-vdW  stress (kbar)      0.00      0.00      0.00
                                0.00      0.00      0.00
                                0.00      0.00      0.00

     MDB     stress (kbar)      0.00      0.00      0.00
                                0.00      0.00      0.00
                                0.00      0.00      0.00

     3D-RISM stress (kbar)      0.00      0.00      0.00
                                0.00      0.00      0.00
                                0.00      0.00      0.00

[...]

     Non-local corr. energy    =      26.19099245 Ry

 BEEFens 2000 ensemble energies
             -0.219213814368314E+02
             -0.220737510004631E+03
             -0.100415473290827E+03
              0.770652244190792E+02
             -0.168704477690988E+03
             -0.206612790094177E+03
              0.106031434000010E+03
              0.482411978388200E+00
              0.178703934393245E+03
             -0.113264879117377E+02
              0.914752956390418E+02
              0.939925367790096E+01
             -0.702691221799137E+01
             -0.567365557011306E+01
              0.114129486355193E+03
             -0.857972935809570E+02
             -0.168616665768968E+03
             -0.543995739864025E+02
              0.488137901722730E+02
             -0.980624441486725E+00
              0.248583800631664E+03
              0.207488092512763E+03
             -0.127858397631438E+03
              0.441800969357945E+02
             -0.266308512680129E+03
              0.218602391299050E+03
              0.747109118462172E+02
              0.197412876556664E+03
              0.133062913835473E+03
             -0.617960814088253E+02
              0.486829841433156E+02
             -0.870861041768094E+02
              0.363407362811744E+02
              0.132328053896090E+03
              0.142339598425757E+03
             -0.618830449712805E+02
              0.314187859819631E+03
             -0.126389577244890E+03
             -0.842472917154385E+02
              0.125658365958879E+03
              0.553879897905158E+02
              0.954573564328804E+02
             -0.184364518096162E+03
             -0.119496503454725E+02
              0.176925686568496E+03
              0.231213054177255E+03
             -0.234702774133161E+03
              0.150911072156970E+02
              0.814226000461286E+02
              0.525733006964153E+02
              0.918259545515201E+02
              0.201574153338994E+03
             -0.130925143706854E+03
             -0.127079974885856E+03
             -0.177070383156894E+03
             -0.257490532170950E+02
             -0.151061370333719E+03
              0.195288222616934E+02
             -0.217725726716117E+02
             -0.119782834841855E+03
[...]
              0.149560521548622E+03
              0.958331121683645E+02
              0.977368944207012E+02
             -0.180799347925056E+03
             -0.186755860037582E+03
             -0.421084199507461E+02
             -0.166918318487801E+03
              0.265025119032698E+03
              0.223240607192455E+03
              0.105235553657424E+03
              0.290243041128358E+03
             -0.145102897731010E+03
             -0.624494850112779E+02
             -0.899884313217335E+02
              0.251042803117857E+03

 BEEF-vdW xc energy contributions
            1 :    -2269.464633841866
            2 :     2079.739461030179
            3 :    -1756.083257461344
            4 :     1384.587001956075
            5 :    -1046.487758162956
            6 :     791.9863520296071
            7 :    -631.9523520110356
            8 :     545.3055377459141
            9 :    -495.0531091445996
           10 :     446.0421309361659
           11 :    -378.3583597527740
           12 :     291.7727854919958
           13 :    -200.4509072371875
           14 :     122.0847767664259
           15 :    -67.97157237056399
           16 :     38.66080620960474
           17 :    -25.75923623989229
           18 :     17.47691719635986
           19 :    -4.658505018764117
           20 :    -15.38370737004198
           21 :     38.70885286911289
           22 :    -58.04442588690563
           23 :     67.57104052680643
           24 :    -66.43838529296227
           25 :     59.13316171152474
           26 :    -52.78839078188958
           27 :     53.20375546477135
           28 :    -61.79801661792590
           29 :     74.98987870333394
           30 :    -86.20281932550142
           31 :    -194.7671289186542
           32 :    -140.0576377154043

     Writing all to output data dir ./PbI2.save/

     General routines

     Parallel routines

     PAW routines

   This run was terminated on:  12: 4:32  18Feb2024

   JOB DONE.