     Program PWSCF v.7.1 starts on  9Feb2024 at 10:54:17

     Reading input from espresso.pwi
Warning: card &CELL ignored
Warning: card    CELL_DYNAMICS    = 'BFGS' ignored
Warning: card / ignored

     Current dimensions of program PWSCF are:
     Max number of different atomic species (ntypx) = 10
     Max number of k-points (npk) =  40000
     Max angular momentum in pseudopotentials (lmaxx) =  4
     file Pb.pbe-dn-kjpaw_psl.1.0.0.UPF: wavefunction(s)  6S 6P 5D renormalized
     file I.pbe-dn-kjpaw_psl.1.0.0.UPF: wavefunction(s)  5S 5P renormalized

     IMPORTANT: XC functional enforced from input :
     Exchange-correlation= BEEF-VDW
                           (   1   4  43  14   2   0   0)
     Any further DFT definition will be discarded
     Please, verify this is what you really want

     K-points division:     npool     =       2
     R & G space division:  proc/nbgrp/npool/nimage =      64
     Subspace diagonalization in iterative solution of the eigenvalue problem:
     a serial algorithm will be used

     Using Slab Decomposition

     bravais-lattice index     =            4
     lattice parameter (alat)  =      26.7090  a.u.
     unit-cell volume          =   17226.5091 (a.u.)^3
     number of atoms/cell      =           54
     number of atomic types    =            2
     number of electrons       =       867.00
     number of Kohn-Sham states=          521
     kinetic-energy cutoff     =      70.0000  Ry
     charge density cutoff     =     350.0000  Ry
     scf convergence threshold =      1.0E-09
     mixing beta               =       0.7000
     number of iterations used =            8  plain     mixing
     energy convergence thresh.=      1.0E-04
     force convergence thresh. =      1.0E-03
     Exchange-correlation= BEEF-VDW
                           (   1   4  43  14   2   0   0)
     nstep                     =           50

     celldm(1)=  26.709025  celldm(2)=   0.000000  celldm(3)=   1.043981
     celldm(4)=   0.000000  celldm(5)=   0.000000  celldm(6)=   0.000000

     crystal axes: (cart. coord. in units of alat)
               a(1) = (   1.000000   0.000000   0.000000 )
               a(2) = (  -0.500000   0.866025   0.000000 )
               a(3) = (   0.000000   0.000000   1.043981 )

     reciprocal axes: (cart. coord. in units 2 pi/alat)
               b(1) = (  1.000000  0.577350 -0.000000 )
               b(2) = (  0.000000  1.154701  0.000000 )
               b(3) = (  0.000000 -0.000000  0.957872 )

     PseudoPot. # 1 for Pb read from file:
     /trace/group/acmegroup/atimmins/packages/espresso/pseudo/psl_1.0.0/pslibrary.1.0.0/pbe/PSEUDOPOTENTIALS/Pb.pbe-dn-kjpaw_psl.1.0.0.UPF
     MD5 check sum: 39ab5b8a6bbd56b7735ad9f188aac93a
     Pseudo is Projector augmented-wave + core cor, Zval = 14.0
     Generated using 'atomic' code by A. Dal Corso  v.7.1
     Shape of augmentation charge: PSQ
     Using radial grid of 1281 points,  6 beta functions with:
                l(1) =   0
                l(2) =   0
                l(3) =   1
                l(4) =   1
                l(5) =   2
                l(6) =   2
     Q(r) pseudized with 0 coefficients

     PseudoPot. # 2 for I  read from file:
     /trace/group/acmegroup/atimmins/packages/espresso/pseudo/psl_1.0.0/pslibrary.1.0.0/pbe/PSEUDOPOTENTIALS/I.pbe-dn-kjpaw_psl.1.0.0.UPF
     MD5 check sum: bfa8781bc1224d19af3f3980e3fab11e
     Pseudo is Projector augmented-wave + core cor, Zval = 17.0
     Generated using 'atomic' code by A. Dal Corso  v.7.1
     Shape of augmentation charge: PSQ
     Using radial grid of 1247 points,  6 beta functions with:
                l(1) =   0
                l(2) =   0
                l(3) =   1
                l(4) =   1
                l(5) =   2
                l(6) =   2
     Q(r) pseudized with 0 coefficients

     atomic species   valence    mass     pseudopotential
        Pb            14.00   207.20000     Pb( 1.00)
        I             17.00   126.90447     I ( 1.00)

     No symmetry found

                                    s                        frac. trans.

      isym =  1     identity

 cryst.   s( 1) = (     1          0          0      )
                  (     0          1          0      )
                  (     0          0          1      )

 cart.    s( 1) = (  1.0000000  0.0000000  0.0000000 )
                  (  0.0000000  1.0000000  0.0000000 )
                  (  0.0000000  0.0000000  1.0000000 )

     point group C_1 (1)
     there are  1 classes
     the character table:

       E
A      1.00

     the symmetry operations in each class and the name of the first element:

     E        1
          identity

   Cartesian axes

     site n.     atom                  positions (alat units)
         1           Pb  tau(   1) = (   0.1666712   0.2886557   0.5219862  )
         2           Pb  tau(   2) = (   0.0000102   0.5773235   1.0439712  )
         3           Pb  tau(   3) = (   0.0000034   0.5773295   0.5219807  )
         4           Pb  tau(   4) = (  -0.1666576   0.8659973   1.0439657  )
         5           Pb  tau(   5) = (  -0.1666644   0.8660033   0.5219752  )
         6           Pb  tau(   6) = (   0.5000113   0.2886484   1.0439810  )
         7           Pb  tau(   7) = (   0.5000045   0.2886544   0.5219905  )
         8           Pb  tau(   8) = (   0.3333436   0.5773222   1.0439755  )
         9           Pb  tau(   9) = (   0.3333367   0.5773282   0.5219850  )
        10           Pb  tau(  10) = (   0.1666758   0.8659960   1.0439700  )
        11           Pb  tau(  11) = (   0.1666690   0.8660020   0.5219795  )
        12           Pb  tau(  12) = (   0.8333447   0.2886471   1.0439853  )
        13           Pb  tau(  13) = (   0.8333379   0.2886531   0.5219949  )
        14           Pb  tau(  14) = (   0.6666769   0.5773209   1.0439798  )
        15           Pb  tau(  15) = (   0.6666701   0.5773269   0.5219894  )
        16           Pb  tau(  16) = (   0.5000091   0.8659947   1.0439743  )
        17           Pb  tau(  17) = (   0.5000023   0.8660007   0.5219839  )
        18           I   tau(  18) = (   0.1666738   0.0962066   0.3879099  )
        19           I   tau(  19) = (   0.1666806   0.0962006   0.9099004  )
        20           I   tau(  20) = (   0.0000060   0.3848804   0.3879044  )
        21           I   tau(  21) = (   0.0000129   0.3848744   0.9098949  )
        22           I   tau(  22) = (  -0.1666617   0.6735542   0.3878990  )
        23           I   tau(  23) = (  -0.1666549   0.6735482   0.9098894  )
        24           I   tau(  24) = (   0.5000071   0.0962053   0.3879143  )
        25           I   tau(  25) = (   0.5000140   0.0961993   0.9099047  )
        26           I   tau(  26) = (   0.3333394   0.3848792   0.3879088  )
        27           I   tau(  27) = (   0.3333462   0.3848731   0.9098993  )
        28           I   tau(  28) = (   0.1666716   0.6735530   0.3879033  )
        29           I   tau(  29) = (   0.1666784   0.6735469   0.9098938  )
        30           I   tau(  30) = (   0.8333405   0.0962041   0.3879186  )
        31           I   tau(  31) = (   0.8333473   0.0961980   0.9099091  )
        32           I   tau(  32) = (   0.6666727   0.3848779   0.3879131  )
        33           I   tau(  33) = (   0.6666795   0.3848718   0.9099036  )
        34           I   tau(  34) = (   0.5000049   0.6735517   0.3879076  )
        35           I   tau(  35) = (   0.5000117   0.6735457   0.9098981  )
        36           I   tau(  36) = (  -0.0000023   0.1924396   0.1340740  )
        37           I   tau(  37) = (   0.0000045   0.1924336   0.6560644  )
        38           I   tau(  38) = (  -0.1666701   0.4811134   0.1340685  )
        39           I   tau(  39) = (  -0.1666632   0.4811074   0.6560589  )
        40           I   tau(  40) = (  -0.3333378   0.7697873   0.1340630  )
        41           I   tau(  41) = (  -0.3333310   0.7697812   0.6560534  )
        42           I   tau(  42) = (   0.3333311   0.1924384   0.1340783  )
        43           I   tau(  43) = (   0.3333379   0.1924323   0.6560688  )
        44           I   tau(  44) = (   0.1666633   0.4811122   0.1340728  )
        45           I   tau(  45) = (   0.1666701   0.4811061   0.6560633  )
        46           I   tau(  46) = (  -0.0000045   0.7697860   0.1340673  )
        47           I   tau(  47) = (   0.0000023   0.7697799   0.6560578  )
        48           I   tau(  48) = (   0.6666644   0.1924371   0.1340827  )
        49           I   tau(  49) = (   0.6666712   0.1924310   0.6560731  )
        50           I   tau(  50) = (   0.4999966   0.4811109   0.1340772  )
        51           I   tau(  51) = (   0.5000034   0.4811049   0.6560676  )
        52           I   tau(  52) = (   0.3333288   0.7697847   0.1340717  )
        53           I   tau(  53) = (   0.3333356   0.7697787   0.6560621  )
        54           I   tau(  54) = (   0.1666780   0.2886497   1.0439767  )

   Crystallographic axes

     site n.     atom                  positions (cryst. coord.)
         1           Pb  tau(   1) = (  0.3333266  0.3333109  0.4999959  )
         2           Pb  tau(   2) = (  0.3333281  0.6666357  0.9999906  )
         3           Pb  tau(   3) = (  0.3333248  0.6666427  0.4999906  )
         4           Pb  tau(   4) = (  0.3333262  0.9999675  0.9999854  )
         5           Pb  tau(   5) = (  0.3333229  0.9999745  0.4999854  )
         6           Pb  tau(   6) = (  0.6666626  0.3333025  1.0000001  )
         7           Pb  tau(   7) = (  0.6666592  0.3333094  0.5000001  )
         8           Pb  tau(   8) = (  0.6666607  0.6666343  0.9999948  )
         9           Pb  tau(   9) = (  0.6666573  0.6666412  0.4999948  )
        10           Pb  tau(  10) = (  0.6666588  0.9999661  0.9999895  )
        11           Pb  tau(  11) = (  0.6666555  0.9999730  0.4999895  )
        12           Pb  tau(  12) = (  0.9999951  0.3333010  1.0000042  )
        13           Pb  tau(  13) = (  0.9999918  0.3333079  0.5000042  )
        14           Pb  tau(  14) = (  0.9999933  0.6666328  0.9999990  )
        15           Pb  tau(  15) = (  0.9999899  0.6666397  0.4999990  )
        16           Pb  tau(  16) = (  0.9999914  0.9999646  0.9999937  )
        17           Pb  tau(  17) = (  0.9999881  0.9999715  0.4999937  )
        18           I   tau(  18) = (  0.2222187  0.1110899  0.3715680  )
        19           I   tau(  19) = (  0.2222221  0.1110829  0.8715680  )
        20           I   tau(  20) = (  0.2222169  0.4444217  0.3715628  )
        21           I   tau(  21) = (  0.2222202  0.4444147  0.8715628  )
        22           I   tau(  22) = (  0.2222150  0.7777534  0.3715575  )
        23           I   tau(  23) = (  0.2222183  0.7777465  0.8715575  )
        24           I   tau(  24) = (  0.5555513  0.1110884  0.3715722  )
        25           I   tau(  25) = (  0.5555547  0.1110814  0.8715722  )
        26           I   tau(  26) = (  0.5555495  0.4444202  0.3715669  )
        27           I   tau(  27) = (  0.5555528  0.4444132  0.8715669  )
        28           I   tau(  28) = (  0.5555476  0.7777520  0.3715617  )
[...]
     atom   38 type  2   force =     0.00013239    0.00006624    0.00513781
     atom   39 type  2   force =     0.00010344    0.00008098    0.00521321
     atom   40 type  2   force =     0.00017006   -0.00008647    0.00514754
     atom   41 type  2   force =     0.00016181   -0.00011665    0.00521966
     atom   42 type  2   force =    -0.00123238    0.00051956    0.00449068
     atom   43 type  2   force =    -0.00002122   -0.00000998    0.00519725
     atom   44 type  2   force =    -0.00007104   -0.00145432    0.00448637
     atom   45 type  2   force =    -0.00012976    0.00005535    0.00518359
     atom   46 type  2   force =    -0.00000570   -0.00015284    0.00502435
     atom   47 type  2   force =    -0.00003475   -0.00016579    0.00513681
     atom   48 type  2   force =     0.00003854    0.00003520    0.00504114
     atom   49 type  2   force =     0.00000480   -0.00000721    0.00515511
     atom   50 type  2   force =     0.00001804    0.00001550    0.00514955
     atom   51 type  2   force =     0.00002204    0.00003009    0.00522364
     atom   52 type  2   force =    -0.00012799   -0.00009443    0.00503620
     atom   53 type  2   force =    -0.00014732   -0.00010945    0.00515136
     atom   54 type  2   force =    -0.00008868   -0.00015097   -0.00000032
     The Hubbard contrib.    to forces
     atom    1 type  1   force =     0.00000000    0.00000000    0.00000000
     atom    2 type  1   force =     0.00000000    0.00000000    0.00000000
     atom    3 type  1   force =     0.00000000    0.00000000    0.00000000
     atom    4 type  1   force =     0.00000000    0.00000000    0.00000000
     atom    5 type  1   force =     0.00000000    0.00000000    0.00000000
     atom    6 type  1   force =     0.00000000    0.00000000    0.00000000
     atom    7 type  1   force =     0.00000000    0.00000000    0.00000000
     atom    8 type  1   force =     0.00000000    0.00000000    0.00000000
     atom    9 type  1   force =     0.00000000    0.00000000    0.00000000
     atom   10 type  1   force =     0.00000000    0.00000000    0.00000000
     atom   11 type  1   force =     0.00000000    0.00000000    0.00000000
     atom   12 type  1   force =     0.00000000    0.00000000    0.00000000
     atom   13 type  1   force =     0.00000000    0.00000000    0.00000000
     atom   14 type  1   force =     0.00000000    0.00000000    0.00000000
     atom   15 type  1   force =     0.00000000    0.00000000    0.00000000
     atom   16 type  1   force =     0.00000000    0.00000000    0.00000000
     atom   17 type  1   force =     0.00000000    0.00000000    0.00000000
     atom   18 type  2   force =     0.00000000    0.00000000    0.00000000
     atom   19 type  2   force =     0.00000000    0.00000000    0.00000000
     atom   20 type  2   force =     0.00000000    0.00000000    0.00000000
     atom   21 type  2   force =     0.00000000    0.00000000    0.00000000
     atom   22 type  2   force =     0.00000000    0.00000000    0.00000000
     atom   23 type  2   force =     0.00000000    0.00000000    0.00000000
     atom   24 type  2   force =     0.00000000    0.00000000    0.00000000
     atom   25 type  2   force =     0.00000000    0.00000000    0.00000000
     atom   26 type  2   force =     0.00000000    0.00000000    0.00000000
     atom   27 type  2   force =     0.00000000    0.00000000    0.00000000
     atom   28 type  2   force =     0.00000000    0.00000000    0.00000000
     atom   29 type  2   force =     0.00000000    0.00000000    0.00000000
     atom   30 type  2   force =     0.00000000    0.00000000    0.00000000
     atom   31 type  2   force =     0.00000000    0.00000000    0.00000000
     atom   32 type  2   force =     0.00000000    0.00000000    0.00000000
     atom   33 type  2   force =     0.00000000    0.00000000    0.00000000
     atom   34 type  2   force =     0.00000000    0.00000000    0.00000000
     atom   35 type  2   force =     0.00000000    0.00000000    0.00000000
     atom   36 type  2   force =     0.00000000    0.00000000    0.00000000
     atom   37 type  2   force =     0.00000000    0.00000000    0.00000000
     atom   38 type  2   force =     0.00000000    0.00000000    0.00000000
     atom   39 type  2   force =     0.00000000    0.00000000    0.00000000
     atom   40 type  2   force =     0.00000000    0.00000000    0.00000000
     atom   41 type  2   force =     0.00000000    0.00000000    0.00000000
     atom   42 type  2   force =     0.00000000    0.00000000    0.00000000
     atom   43 type  2   force =     0.00000000    0.00000000    0.00000000
     atom   44 type  2   force =     0.00000000    0.00000000    0.00000000
     atom   45 type  2   force =     0.00000000    0.00000000    0.00000000
     atom   46 type  2   force =     0.00000000    0.00000000    0.00000000
     atom   47 type  2   force =     0.00000000    0.00000000    0.00000000
     atom   48 type  2   force =     0.00000000    0.00000000    0.00000000
     atom   49 type  2   force =     0.00000000    0.00000000    0.00000000
     atom   50 type  2   force =     0.00000000    0.00000000    0.00000000
     atom   51 type  2   force =     0.00000000    0.00000000    0.00000000
     atom   52 type  2   force =     0.00000000    0.00000000    0.00000000
     atom   53 type  2   force =     0.00000000    0.00000000    0.00000000
     atom   54 type  2   force =     0.00000000    0.00000000    0.00000000
     The SCF correction term to forces
     atom    1 type  1   force =    -0.00000031   -0.00000060   -0.00000010
     atom    2 type  1   force =     0.00000054   -0.00000098    0.00000040
     atom    3 type  1   force =     0.00000040   -0.00000064   -0.00000002
     atom    4 type  1   force =    -0.00000233    0.00000111   -0.00000086
     atom    5 type  1   force =    -0.00000110    0.00000067    0.00000020
     atom    6 type  1   force =    -0.00000124    0.00000017   -0.00000038
     atom    7 type  1   force =    -0.00000073    0.00000008   -0.00000012
     atom    8 type  1   force =    -0.00000022   -0.00000076   -0.00000008
     atom    9 type  1   force =    -0.00000005   -0.00000024   -0.00000005
     atom   10 type  1   force =     0.00000104    0.00000040   -0.00000068
     atom   11 type  1   force =     0.00000064    0.00000014   -0.00000094
     atom   12 type  1   force =     0.00000218   -0.00000163    0.00000129
     atom   13 type  1   force =     0.00000104   -0.00000072   -0.00000042
     atom   14 type  1   force =    -0.00000028    0.00000096    0.00000089
     atom   15 type  1   force =    -0.00000029    0.00000049    0.00000075
     atom   16 type  1   force =     0.00000118    0.00000237    0.00000031
     atom   17 type  1   force =     0.00000042    0.00000089   -0.00000014
     atom   18 type  2   force =    -0.00000085    0.00000174   -0.00000070
     atom   19 type  2   force =    -0.00000077    0.00000167    0.00000290
     atom   20 type  2   force =     0.00000152   -0.00000199   -0.00000093
     atom   21 type  2   force =     0.00000193   -0.00000242    0.00000240
     atom   22 type  2   force =    -0.00000055    0.00000021   -0.00000021
     atom   23 type  2   force =    -0.00000067    0.00000150    0.00000106
     atom   24 type  2   force =     0.00000030    0.00000001   -0.00000016
     atom   25 type  2   force =    -0.00000134    0.00000024    0.00000092
     atom   26 type  2   force =    -0.00000165   -0.00000074   -0.00000029
     atom   27 type  2   force =    -0.00000234   -0.00000159    0.00000198
     atom   28 type  2   force =     0.00000052    0.00000017   -0.00000033
     atom   29 type  2   force =     0.00000085   -0.00000045    0.00000095
     atom   30 type  2   force =     0.00000069    0.00000027   -0.00000131
     atom   31 type  2   force =     0.00000215    0.00000019    0.00000215
     atom   32 type  2   force =     0.00000017   -0.00000020   -0.00000061
     atom   33 type  2   force =    -0.00000005   -0.00000056    0.00000122
     atom   34 type  2   force =    -0.00000009    0.00000046   -0.00000051
     atom   35 type  2   force =    -0.00000004    0.00000164    0.00000127
     atom   36 type  2   force =     0.00000175    0.00000016   -0.00000261
     atom   37 type  2   force =     0.00000171    0.00000014    0.00000025
     atom   38 type  2   force =     0.00000076   -0.00000135   -0.00000060
     atom   39 type  2   force =    -0.00000027    0.00000014   -0.00000011
     atom   40 type  2   force =    -0.00000102    0.00000203   -0.00000188
     atom   41 type  2   force =    -0.00000017    0.00000056    0.00000092
     atom   42 type  2   force =    -0.00000301    0.00000056   -0.00000210
     atom   43 type  2   force =    -0.00000222    0.00000057    0.00000056
     atom   44 type  2   force =    -0.00000010   -0.00000295   -0.00000165
     atom   45 type  2   force =     0.00000039   -0.00000189    0.00000008
     atom   46 type  2   force =    -0.00000050   -0.00000007   -0.00000099
     atom   47 type  2   force =    -0.00000022    0.00000015    0.00000038
     atom   48 type  2   force =     0.00000175    0.00000023   -0.00000080
     atom   49 type  2   force =     0.00000042   -0.00000027   -0.00000002
     atom   50 type  2   force =    -0.00000073    0.00000027   -0.00000074
     atom   51 type  2   force =    -0.00000019    0.00000039    0.00000024
     atom   52 type  2   force =     0.00000160    0.00000112   -0.00000105
     atom   53 type  2   force =     0.00000045    0.00000019    0.00000032
     atom   54 type  2   force =    -0.00000104   -0.00000190    0.00000028

     Total force =     0.003397     Total SCF correction =     0.000014

     Computing stress (Cartesian axis) and pressure

     Non-local corr. energy    =      26.19094797 Ry

          total   stress  (Ry/bohr**3)                   (kbar)     P=        2.20
   0.00001413   0.00000006  -0.00000020            2.08        0.01       -0.03
   0.00000006   0.00001421   0.00000012            0.01        2.09        0.02
  -0.00000020   0.00000012   0.00001649           -0.03        0.02        2.43

     kinetic stress (kbar)  14860.61     -0.00     -0.02
                               -0.00  14860.62      0.02
                               -0.02      0.02  14872.13

     local   stress (kbar)  -7430.45     -3.23      2.25
                               -3.23  -7434.01     -1.24
                                2.25     -1.24   1316.83

     nonloc. stress (kbar)   -881.89      0.01     -0.02
                                0.01   -881.87      0.01
                               -0.02      0.01   -885.46

     hartree stress (kbar)  12104.37      1.28     -0.88
                                1.28  12105.78      0.48
                               -0.88      0.48   8149.51

     exc-cor stress (kbar)   7011.98      0.01     -0.00
                                0.01   7011.99      0.00
                               -0.00      0.00   7011.15

     corecor stress (kbar) -11401.94     -0.00      0.00
                               -0.00 -11401.94     -0.00
                                0.00     -0.00 -11401.94

     ewald   stress (kbar) -14344.94      1.95     -1.36
                                1.95 -14342.80      0.75
                               -1.36      0.75 -19145.32

     hubbard stress (kbar)      0.00      0.00      0.00
                                0.00      0.00      0.00
                                0.00      0.00      0.00

     DFT-D   stress (kbar)      0.00      0.00      0.00
                                0.00      0.00      0.00
                                0.00      0.00      0.00

     XDM     stress (kbar)      0.00      0.00      0.00
                                0.00      0.00      0.00
                                0.00      0.00      0.00

     dft-nl  stress (kbar)     84.33     -0.00      0.00
                               -0.00     84.33     -0.00
                                0.00     -0.00     85.54

     TS-vdW  stress (kbar)      0.00      0.00      0.00
                                0.00      0.00      0.00
                                0.00      0.00      0.00

     MDB     stress (kbar)      0.00      0.00      0.00
                                0.00      0.00      0.00
                                0.00      0.00      0.00

     3D-RISM stress (kbar)      0.00      0.00      0.00
                                0.00      0.00      0.00
                                0.00      0.00      0.00

     Energy error            =      5.3E-05 Ry
     Gradient error          =      7.4E-04 Ry/Bohr

     bfgs converged in  11 scf cycles and  10 bfgs steps
     (criteria: energy <  1.0E-04 Ry, force <  1.0E-03 Ry/Bohr)

     End of BFGS Geometry Optimization

     Final energy             =  -36092.3940654684 Ry

     File ./PbI2.bfgs deleted, as requested
Begin final coordinates

ATOMIC_POSITIONS (angstrom)
Pb            2.3565807770        4.0812959371        7.3776743621
Pb            0.0050702205        8.1526864462       14.7546591002
Pb            0.0013499561        8.1588355787        7.3765626023
Pb           -2.3587047271       12.2475386282       14.7550079287
Pb           -2.3551306620       12.2421227642        7.3775898197
Pb            7.0583262093        4.0804638453       14.7561051116
Pb            7.0654241955        4.0803848944        7.3787369259
Pb            4.7067099753        8.1517707564       14.7553862181
Pb            4.7101944981        8.1578797047        7.3776473463
Pb            2.3552426939       12.2404172400       14.7534255261
Pb            2.3549831620       12.2404738379        7.3825578797
Pb           11.7864361923        4.0808370004       14.7557110717
Pb           11.7799107743        4.0812656134        7.3777149416
Pb            9.4233369262        8.1596741797       14.7572811607
Pb            9.4234266312        8.1595250871        7.3727185365
Pb            7.0711515375       12.2470332795       14.7553441912
Pb            7.0682325790       12.2421034652        7.3776519829
I             2.3594996876        1.3619518772        5.4996739102
I             2.3548396708        1.1678769235       12.7724247549
I            -0.0000156566        5.4387053669        5.4986990906
I            -0.1658346975        5.5319754181       12.7725734377
I            -2.3586337759        9.5201479930        5.4993657026
I            -2.3549416004        9.5217420363       12.8773930276
I             7.0672529767        1.3656004235        5.4961449295
I             7.0679791745        1.3651951437       12.8739146827
I             4.7165501577        5.4379364975        5.4991070752
I             4.8751759253        5.5317684917       12.7728998576
I             2.3577264853        9.5209412296        5.4958794887
I             2.3574403799        9.5225252119       12.8736776534
I            11.7751614731        1.3623482817        5.4969832648
I            11.7738586684        1.3619008588       12.8745206860
I             9.4184074585        5.4395206531        5.4998146703
I             9.4182996114        5.4357969797       12.8778830915
I             7.0688961677        9.5153456277        5.5003124916
I             7.0657819837        9.5164270225       12.8780696430
I            -0.1655289155        2.6231636401        1.9828169364
I             0.0000200335        2.7241018714        9.2556045592
I            -2.3513546419        6.8034604644        1.8813626212
I            -2.3506983303        6.8030770611        9.2591295373
I            -4.7069861886       10.8771248396        1.8807622093
I            -4.7073286607       10.8785200014        9.2583037282
I             4.8741820426        2.6221118813        1.9827513311
I             4.7104956704        2.7189705522        9.2566027099
I             2.3534193078        6.9878559905        1.9824727970
I             2.3513906429        6.8034806436        9.2561832323
I            -0.0012793781       10.8741848726        1.8773850459
I             0.0018491482       10.8761876665        9.2554519577
I             9.4239391687        2.7211658980        1.8778700646
I             9.4243440800        2.7172017116        9.2558909406
I             7.0686102974        6.8026282633        1.8816072309
I             7.0670088994        6.8021311794        9.2594180290
I             4.7089707287       10.8771947914        1.8771917165
I             4.7064115507       10.8793944612        9.2549482277
I             2.3537975067        4.0765314486       14.7553917451
End final coordinates

     Writing all to output data dir ./PbI2.save/

     General routines

     Parallel routines

     PAW routines

   This run was terminated on:  15:53:39   9Feb2024

   JOB DONE.