     Program PWSCF v.7.1 starts on  1Mar2024 at 10:27:16

     Reading input from espresso.pwi
Warning: card &CELL ignored
Warning: card    CELL_DYNAMICS    = 'BFGS' ignored
Warning: card / ignored

     Current dimensions of program PWSCF are:
     Max number of different atomic species (ntypx) = 10
     Max number of k-points (npk) =  40000
     Max angular momentum in pseudopotentials (lmaxx) =  4
     file Ga.pbe-dn-kjpaw_psl.1.0.0.UPF: wavefunction(s)  4S renormalized
     file N.pbe-n-kjpaw_psl.1.0.0.UPF: wavefunction(s)  2S renormalized

     IMPORTANT: XC functional enforced from input :
     Exchange-correlation= BEEF-VDW
                           (   1   4  43  14   2   0   0)
     Any further DFT definition will be discarded
     Please, verify this is what you really want

     K-points division:     npool     =       4
     R & G space division:  proc/nbgrp/npool/nimage =      64
     Subspace diagonalization in iterative solution of the eigenvalue problem:
     a serial algorithm will be used

     Using Slab Decomposition

     bravais-lattice index     =            4
     lattice parameter (alat)  =      30.6565  a.u.
     unit-cell volume          =   24400.9461 (a.u.)^3
     number of atoms/cell      =          300
     number of atomic types    =            2
     number of electrons       =      2705.00
     number of Kohn-Sham states=         1624
     kinetic-energy cutoff     =      70.0000  Ry
     charge density cutoff     =     350.0000  Ry
     scf convergence threshold =      1.0E-07
     mixing beta               =       0.7000
     number of iterations used =            8  plain     mixing
     energy convergence thresh.=      1.0E-04
     force convergence thresh. =      1.0E-03
     Exchange-correlation= BEEF-VDW
                           (   1   4  43  14   2   0   0)
     nstep                     =           50

     celldm(1)=  30.656540  celldm(2)=   0.000000  celldm(3)=   0.977927
     celldm(4)=   0.000000  celldm(5)=   0.000000  celldm(6)=   0.000000

     crystal axes: (cart. coord. in units of alat)
               a(1) = (   1.000000   0.000000   0.000000 )
               a(2) = (  -0.500000   0.866025   0.000000 )
               a(3) = (   0.000000   0.000000   0.977927 )

     reciprocal axes: (cart. coord. in units 2 pi/alat)
               b(1) = (  1.000000  0.577350 -0.000000 )
               b(2) = (  0.000000  1.154701  0.000000 )
               b(3) = (  0.000000 -0.000000  1.022571 )

     PseudoPot. # 1 for Ga read from file:
     /trace/group/acmegroup/atimmins/packages/espresso/pseudo/psl_1.0.0/pslibrary.1.0.0/pbe/PSEUDOPOTENTIALS/Ga.pbe-dn-kjpaw_psl.1.0.0.UPF
     MD5 check sum: cd2a01e492f15b435d17032472d8505c
     Pseudo is Projector augmented-wave + core cor, Zval = 13.0
     Generated using 'atomic' code by A. Dal Corso  v.7.1
     Shape of augmentation charge: PSQ
     Using radial grid of 1205 points,  6 beta functions with:
                l(1) =   0
                l(2) =   0
                l(3) =   1
                l(4) =   1
                l(5) =   2
                l(6) =   2
     Q(r) pseudized with 0 coefficients

     PseudoPot. # 2 for N  read from file:
     /trace/group/acmegroup/atimmins/packages/espresso/pseudo/psl_1.0.0/pslibrary.1.0.0/pbe/PSEUDOPOTENTIALS/N.pbe-n-kjpaw_psl.1.0.0.UPF
     MD5 check sum: f77f775694dac7e2c3fe1c82443d1a16
     Pseudo is Projector augmented-wave + core cor, Zval =  5.0
     Generated using 'atomic' code by A. Dal Corso  v.7.1
     Shape of augmentation charge: PSQ
     Using radial grid of 1085 points,  4 beta functions with:
                l(1) =   0
                l(2) =   0
                l(3) =   1
                l(4) =   1
     Q(r) pseudized with 0 coefficients

     atomic species   valence    mass     pseudopotential
        Ga            13.00    69.72300     Ga( 1.00)
        N              5.00    14.00700     N ( 1.00)

      2 Sym. Ops. (no inversion) found

                                    s                        frac. trans.

      isym =  1     identity

 cryst.   s( 1) = (     1          0          0      )
                  (     0          1          0      )
                  (     0          0          1      )

 cart.    s( 1) = (  1.0000000  0.0000000  0.0000000 )
                  (  0.0000000  1.0000000  0.0000000 )
                  (  0.0000000  0.0000000  1.0000000 )

      isym =  2     inv. 180 deg rotation - cryst. axis [0,1,0]

 cryst.   s( 2) = (     1          1          0      )
                  (     0         -1          0      )
                  (     0          0          1      )

 cart.    s( 2) = (  0.5000000  0.8660254  0.0000000 )
                  (  0.8660254 -0.5000000  0.0000000 )
                  (  0.0000000  0.0000000  1.0000000 )

     point group C_s (m)
     there are  2 classes
     the character table:

       E     s
A'     1.00  1.00
A''    1.00 -1.00

     the symmetry operations in each class and the name of the first element:

     E        1
          identity
     s        2
          inv. 180 deg rotation - cryst. axis [0,1,0]

   Cartesian axes

     site n.     atom                  positions (alat units)
         1           Ga  tau(   1) = (   0.1000001   0.0577350   0.1627148  )
         2           Ga  tau(   2) = (   0.1000001   0.0577350   0.4886906  )
         3           Ga  tau(   3) = (   0.1000001   0.0577350   0.8146665  )
         4           Ga  tau(   4) = (   0.0000001   0.2309401   0.1627148  )
         5           Ga  tau(   5) = (   0.0000001   0.2309401   0.4886906  )
         6           Ga  tau(   6) = (   0.0000001   0.2309401   0.8146665  )
         7           Ga  tau(   7) = (  -0.0999999   0.4041451   0.1627148  )
         8           Ga  tau(   8) = (  -0.0999999   0.4041451   0.4886906  )
         9           Ga  tau(   9) = (  -0.0999999   0.4041451   0.8146665  )
        10           Ga  tau(  10) = (  -0.1999999   0.5773502   0.1627148  )
        11           Ga  tau(  11) = (  -0.1999999   0.5773502   0.4886906  )
        12           Ga  tau(  12) = (  -0.1999999   0.5773502   0.8146665  )
        13           Ga  tau(  13) = (  -0.2999999   0.7505553   0.1627148  )
        14           Ga  tau(  14) = (  -0.2999999   0.7505553   0.4886906  )
        15           Ga  tau(  15) = (  -0.2999999   0.7505553   0.8146665  )
        16           Ga  tau(  16) = (   0.3000001   0.0577350   0.1627148  )
        17           Ga  tau(  17) = (   0.3000001   0.0577350   0.4886906  )
        18           Ga  tau(  18) = (   0.3000001   0.0577350   0.8146665  )
        19           Ga  tau(  19) = (   0.2000001   0.2309401   0.1627148  )
        20           Ga  tau(  20) = (   0.2000001   0.2309401   0.4886906  )
        21           Ga  tau(  21) = (   0.2000001   0.2309401   0.8146665  )
        22           Ga  tau(  22) = (   0.1000001   0.4041451   0.1627148  )
        23           Ga  tau(  23) = (   0.1000001   0.4041451   0.4886906  )
        24           Ga  tau(  24) = (   0.1000001   0.4041451   0.8146665  )
        25           Ga  tau(  25) = (   0.0000001   0.5773502   0.1627148  )
        26           Ga  tau(  26) = (   0.0000001   0.5773502   0.4886906  )
        27           Ga  tau(  27) = (   0.0000001   0.5773502   0.8146665  )
        28           Ga  tau(  28) = (  -0.0999999   0.7505553   0.1627148  )
        29           Ga  tau(  29) = (  -0.0999999   0.7505553   0.4886906  )
        30           Ga  tau(  30) = (  -0.0999999   0.7505553   0.8146665  )
        31           Ga  tau(  31) = (   0.5000001   0.0577350   0.1627148  )
        32           Ga  tau(  32) = (   0.5000001   0.0577350   0.4886906  )
        33           Ga  tau(  33) = (   0.5000001   0.0577350   0.8146665  )
        34           Ga  tau(  34) = (   0.4000001   0.2309401   0.1627148  )
        35           Ga  tau(  35) = (   0.4000001   0.2309401   0.4886906  )
        36           Ga  tau(  36) = (   0.4000001   0.2309401   0.8146665  )
        37           Ga  tau(  37) = (   0.3000001   0.4041451   0.1627148  )
        38           Ga  tau(  38) = (   0.3000001   0.4041451   0.4886906  )
        39           Ga  tau(  39) = (   0.3000001   0.4041451   0.8146665  )
        40           Ga  tau(  40) = (   0.2000001   0.5773502   0.1627148  )
        41           Ga  tau(  41) = (   0.2000001   0.5773502   0.4886906  )
        42           Ga  tau(  42) = (   0.2000001   0.5773502   0.8146665  )
        43           Ga  tau(  43) = (   0.1000001   0.7505553   0.1627148  )
        44           Ga  tau(  44) = (   0.1000001   0.7505553   0.4886906  )
        45           Ga  tau(  45) = (   0.1000001   0.7505553   0.8146665  )
        46           Ga  tau(  46) = (   0.7000001   0.0577350   0.1627148  )
        47           Ga  tau(  47) = (   0.7000001   0.0577350   0.4886906  )
        48           Ga  tau(  48) = (   0.7000001   0.0577350   0.8146665  )
        49           Ga  tau(  49) = (   0.6000001   0.2309401   0.1627148  )
        50           Ga  tau(  50) = (   0.6000001   0.2309401   0.4886906  )
        51           Ga  tau(  51) = (   0.6000001   0.2309401   0.8146665  )
        52           Ga  tau(  52) = (   0.5000001   0.4041451   0.1627148  )
        53           Ga  tau(  53) = (   0.5000001   0.4041451   0.4886906  )
        54           Ga  tau(  54) = (   0.5000001   0.4041451   0.8146665  )
        55           Ga  tau(  55) = (   0.4000001   0.5773502   0.1627148  )
        56           Ga  tau(  56) = (   0.4000001   0.5773502   0.4886906  )
        57           Ga  tau(  57) = (   0.4000001   0.5773502   0.8146665  )
        58           Ga  tau(  58) = (   0.3000001   0.7505553   0.1627148  )
        59           Ga  tau(  59) = (   0.3000001   0.7505553   0.4886906  )
        60           Ga  tau(  60) = (   0.3000001   0.7505553   0.8146665  )
[...]
       286           N   tau( 286) = (   0.7999999   0.1154701   0.4484898  )
       287           N   tau( 287) = (   0.7999999   0.1154701   0.7744656  )
       288           N   tau( 288) = (   0.6999999   0.2886752   0.1225140  )
       289           N   tau( 289) = (   0.6999999   0.2886752   0.4484898  )
       290           N   tau( 290) = (   0.6999999   0.2886752   0.7744656  )
       291           N   tau( 291) = (   0.5999999   0.4618803   0.1225140  )
       292           N   tau( 292) = (   0.5999999   0.4618803   0.4484898  )
       293           N   tau( 293) = (   0.5999999   0.4618803   0.7744656  )
       294           N   tau( 294) = (   0.4999999   0.6350854   0.1225140  )
       295           N   tau( 295) = (   0.4999999   0.6350854   0.4484898  )
       296           N   tau( 296) = (   0.4999999   0.6350854   0.7744656  )
       297           N   tau( 297) = (   0.3999999   0.8082905   0.1225140  )
       298           N   tau( 298) = (   0.3999999   0.8082905   0.4484898  )
       299           N   tau( 299) = (   0.3999999   0.8082905   0.7744656  )
       300           Ga  tau( 300) = (   0.1000001   0.0577350   0.2855019  )

   Crystallographic axes

     site n.     atom                  positions (cryst. coord.)
[...]
     atom   53 type  1   force =     0.00000000    0.00000000    0.00000000
     atom   54 type  1   force =     0.00000000    0.00000000    0.00000000
     atom   55 type  1   force =     0.00000000    0.00000000    0.00000000
     atom   56 type  1   force =     0.00000000    0.00000000    0.00000000
     atom   57 type  1   force =     0.00000000    0.00000000    0.00000000
     atom   58 type  1   force =     0.00000000    0.00000000    0.00000000
     atom   59 type  1   force =     0.00000000    0.00000000    0.00000000
     atom   60 type  1   force =     0.00000000    0.00000000    0.00000000
[...]
     atom  286 type  2   force =     0.00000000    0.00000000    0.00000000
     atom  287 type  2   force =     0.00000000    0.00000000    0.00000000
     atom  288 type  2   force =     0.00000000    0.00000000    0.00000000
     atom  289 type  2   force =     0.00000000    0.00000000    0.00000000
     atom  290 type  2   force =     0.00000000    0.00000000    0.00000000
     atom  291 type  2   force =     0.00000000    0.00000000    0.00000000
     atom  292 type  2   force =     0.00000000    0.00000000    0.00000000
     atom  293 type  2   force =     0.00000000    0.00000000    0.00000000
     atom  294 type  2   force =     0.00000000    0.00000000    0.00000000
     atom  295 type  2   force =     0.00000000    0.00000000    0.00000000
     atom  296 type  2   force =     0.00000000    0.00000000    0.00000000
     atom  297 type  2   force =     0.00000000    0.00000000    0.00000000
     atom  298 type  2   force =     0.00000000    0.00000000    0.00000000
     atom  299 type  2   force =     0.00000000    0.00000000    0.00000000
     atom  300 type  1   force =     0.00000000    0.00000000    0.00000000
     The SCF correction term to forces
     atom    1 type  1   force =     0.00000191    0.00000110   -0.00005076
     atom    2 type  1   force =     0.00001937    0.00001118    0.00001552
     atom    3 type  1   force =     0.00000313    0.00000181    0.00001833
     atom    4 type  1   force =     0.00000658   -0.00000076   -0.00001317
     atom    5 type  1   force =     0.00000051    0.00001081    0.00000049
     atom    6 type  1   force =     0.00000775   -0.00001176    0.00000989
     atom    7 type  1   force =    -0.00000818   -0.00000344   -0.00000218
     atom    8 type  1   force =    -0.00001282    0.00000103   -0.00000190
     atom    9 type  1   force =    -0.00000277   -0.00000702    0.00000272
     atom   10 type  1   force =    -0.00000707   -0.00000536   -0.00000218
     atom   11 type  1   force =    -0.00000552   -0.00001162   -0.00000190
     atom   12 type  1   force =    -0.00000746    0.00000111    0.00000272
     atom   13 type  1   force =     0.00000263    0.00000608   -0.00001317
     atom   14 type  1   force =     0.00000962   -0.00000496    0.00000049
     atom   15 type  1   force =    -0.00000631    0.00001259    0.00000989
     atom   16 type  1   force =     0.00000005    0.00000300   -0.00000381
     atom   17 type  1   force =     0.00000686    0.00001504   -0.00000531
     atom   18 type  1   force =    -0.00001261    0.00000344    0.00000617
     atom   19 type  1   force =     0.00000263   -0.00000146   -0.00000381
     atom   20 type  1   force =     0.00001645   -0.00000157   -0.00000531
     atom   21 type  1   force =    -0.00000333   -0.00001264    0.00000617
     atom   22 type  1   force =     0.00000251   -0.00000996   -0.00000232
     atom   23 type  1   force =     0.00000471    0.00000112   -0.00000503
     atom   24 type  1   force =     0.00000139   -0.00001339    0.00000275
     atom   25 type  1   force =    -0.00000159   -0.00000092    0.00000689
     atom   26 type  1   force =     0.00000117    0.00000067   -0.00000369
     atom   27 type  1   force =    -0.00000662   -0.00000382    0.00000130
     atom   28 type  1   force =    -0.00000738    0.00000715   -0.00000232
     atom   29 type  1   force =     0.00000333    0.00000351   -0.00000503
     atom   30 type  1   force =    -0.00001090    0.00000790    0.00000275
     atom   31 type  1   force =    -0.00000538    0.00001294    0.00000063
     atom   32 type  1   force =    -0.00000135    0.00001727   -0.00000347
     atom   33 type  1   force =    -0.00000712    0.00000825    0.00000033
     atom   34 type  1   force =     0.00000687    0.00000397    0.00000496
     atom   35 type  1   force =     0.00001377    0.00000795   -0.00000997
     atom   36 type  1   force =    -0.00000388   -0.00000224   -0.00000086
     atom   37 type  1   force =     0.00000852   -0.00001113    0.00000063
     atom   38 type  1   force =     0.00001428   -0.00000980   -0.00000347
     atom   39 type  1   force =     0.00000359   -0.00001029    0.00000033
     atom   40 type  1   force =    -0.00000231   -0.00000551    0.00000560
     atom   41 type  1   force =    -0.00000384   -0.00000479   -0.00000263
     atom   42 type  1   force =     0.00000553   -0.00000612    0.00000140
     atom   43 type  1   force =    -0.00000592    0.00000076    0.00000560
     atom   44 type  1   force =    -0.00000607   -0.00000093   -0.00000263
     atom   45 type  1   force =    -0.00000253    0.00000785    0.00000140
     atom   46 type  1   force =    -0.00000806    0.00001331   -0.00000568
     atom   47 type  1   force =    -0.00001587    0.00001595    0.00000082
     atom   48 type  1   force =     0.00000172    0.00000804    0.00000295
     atom   49 type  1   force =    -0.00000568    0.00001263    0.00000600
     atom   50 type  1   force =    -0.00000817    0.00001359   -0.00001086
     atom   51 type  1   force =    -0.00000287    0.00000213   -0.00000029
     atom   52 type  1   force =     0.00000809   -0.00001123    0.00000600
     atom   53 type  1   force =     0.00000768   -0.00001387   -0.00001086
     atom   54 type  1   force =     0.00000041   -0.00000355   -0.00000029
     atom   55 type  1   force =     0.00000750   -0.00001363   -0.00000568
     atom   56 type  1   force =     0.00000588   -0.00002172    0.00000082
     atom   57 type  1   force =     0.00000782   -0.00000253    0.00000295
     atom   58 type  1   force =     0.00000135    0.00000078   -0.00000989
     atom   59 type  1   force =    -0.00000987   -0.00000570    0.00000006
     atom   60 type  1   force =     0.00000894    0.00000516    0.00000548
[...]
     atom  286 type  2   force =    -0.00001005    0.00000853   -0.00000003
     atom  287 type  2   force =     0.00000083    0.00000300    0.00000412
     atom  288 type  2   force =    -0.00000433    0.00000275    0.00000244
     atom  289 type  2   force =    -0.00000833    0.00000441   -0.00000383
     atom  290 type  2   force =    -0.00000114    0.00000043   -0.00000004
     atom  291 type  2   force =     0.00000022   -0.00000513    0.00000244
     atom  292 type  2   force =    -0.00000034   -0.00000942   -0.00000383
     atom  293 type  2   force =    -0.00000020   -0.00000120   -0.00000004
     atom  294 type  2   force =     0.00000396   -0.00000274   -0.00000412
     atom  295 type  2   force =     0.00000236   -0.00001296   -0.00000003
     atom  296 type  2   force =     0.00000301   -0.00000078    0.00000412
     atom  297 type  2   force =     0.00000482    0.00000278   -0.00000802
     atom  298 type  2   force =    -0.00000608   -0.00000351   -0.00000019
     atom  299 type  2   force =     0.00000496    0.00000286    0.00000744
     atom  300 type  1   force =     0.00002305    0.00001331   -0.00005791

     Total force =     0.013862     Total SCF correction =     0.000229

     Computing stress (Cartesian axis) and pressure

[...]

          total   stress  (Ry/bohr**3)                   (kbar)     P=       -9.21
  -0.00007588  -0.00000007   0.00000014          -11.16       -0.01        0.02
  -0.00000007  -0.00007579   0.00000008           -0.01      -11.15        0.01
   0.00000014   0.00000008  -0.00003609            0.02        0.01       -5.31

     kinetic stress (kbar)  18444.30      0.03      0.05
                                0.03  18444.27      0.03
                                0.05      0.03  18450.36

     local   stress (kbar)   5595.27      0.55     -0.31
                                0.55   5594.46     -0.18
                               -0.31     -0.18   3734.86

     nonloc. stress (kbar)     85.54     -0.01      0.00
                               -0.01     85.56      0.00
                                0.00      0.00     92.69

     hartree stress (kbar)  19674.75     -0.22      0.11
                               -0.22  19675.01      0.06
                                0.11      0.06  20505.39

     exc-cor stress (kbar)   5270.48     -0.00      0.00
                               -0.00   5270.48      0.00
                                0.00      0.00   5271.42

     corecor stress (kbar) -14195.80      0.00     -0.00
                                0.00 -14195.81     -0.00
                               -0.00     -0.00 -14195.51

     ewald   stress (kbar) -35048.67     -0.33      0.16
                               -0.33 -35048.06      0.09
                                0.16      0.09 -34026.43

     hubbard stress (kbar)      0.00      0.00      0.00
                                0.00      0.00      0.00
                                0.00      0.00      0.00

     DFT-D   stress (kbar)      0.00      0.00      0.00
                                0.00      0.00      0.00
                                0.00      0.00      0.00

     XDM     stress (kbar)      0.00      0.00      0.00
                                0.00      0.00      0.00
                                0.00      0.00      0.00

     dft-nl  stress (kbar)    162.96     -0.00     -0.00
                               -0.00    162.96     -0.00
                               -0.00     -0.00    161.90

     TS-vdW  stress (kbar)      0.00      0.00      0.00
                                0.00      0.00      0.00
                                0.00      0.00      0.00

     MDB     stress (kbar)      0.00      0.00      0.00
                                0.00      0.00      0.00
                                0.00      0.00      0.00

     3D-RISM stress (kbar)      0.00      0.00      0.00
                                0.00      0.00      0.00
                                0.00      0.00      0.00

     Energy error            =      8.2E-04 Ry
     Gradient error          =      6.2E-03 Ry/Bohr

     number of scf cycles    =   5
     number of bfgs steps    =   4

     energy             old  =  -47099.6742434890 Ry
     energy             new  =  -47099.6750672520 Ry

     CASE: energy            _new < energy            _old

     new trust radius        =       0.0170433862 bohr
     new conv_thr            =       0.0000000062 Ry

ATOMIC_POSITIONS (angstrom)
Ga            1.6197932717        0.9351866105        2.1132408629
Ga            1.6215916465        0.9362249027        7.9549307363
Ga            1.6215085053        0.9361769011       13.1841698868
Ga           -0.0061870158        3.7546481725        2.6007715293
Ga           -0.0024189464        3.8081354574        7.9968632822
Ga           -0.0047373917        3.7638401076       13.1910693520
Ga           -1.6221295817        6.5637447590        2.6233713589
Ga           -1.6249965364        6.5713143579        7.9394547902
Ga           -1.6236076913        6.5632566866       13.2190885666
Ga           -3.2380648545        9.3626267534        2.6233713589
Ga           -3.2329428670        9.3563590984        7.9394547902
Ga           -3.2392265925        9.3615907091       13.2190885666
Ga           -4.8628425771       12.1666223598        2.6007715293
Ga           -4.8146371949       12.1431419611        7.9968632822
Ga           -4.8541573158       12.1632818035       13.1910693520
Ga            4.8765728151        0.9382879725        2.6016013391
Ga            4.9207129948        0.9088332662        7.9970604790
Ga            4.8845387105        0.9319789535       13.1914480758
Ga            3.2508689016        3.7540897487        2.6016013391
Ga            3.2474304675        3.8070436188        7.9970604790
Ga            3.2493880786        3.7641429260       13.1914480758
Ga            1.6226702780        6.5592388277        2.6322448957
Ga            1.6230979983        6.5802209523        7.9398627052
Ga            1.6229354968        6.5687138255       13.2221474286
Ga            0.0034163281        9.3681754572        2.6339015094
Ga            0.0038538060        9.3684280352        7.9337868864
Ga            0.0023149423        9.3675395718       13.2179288310
Ga           -1.6195671757       12.1749588279        2.6322448957
Ga           -1.6011822627       12.1648381821        7.9398627052
Ga           -1.6112289775       12.1704510151       13.2221474286
Ga            8.1171816355        0.9325527910        2.6236362633
Ga            8.1249108296        0.9309482310        7.9395141194
Ga            8.1178483840        0.9341346068       13.2194604052
Ga            6.4955250687        3.7501916761        2.6257566417
Ga            6.4988535828        3.7521133946        7.9435993444
Ga            6.4967395501        3.7508928573       13.2201953042
Ga            4.8662064991        6.5634069018        2.6236362633
Ga            4.8686815064        6.5709028603        7.9395141194
Ga            4.8679097659        6.5631934150       13.2194604052
Ga            3.2419435126        9.3680207486        2.6340130571
Ga            3.2414464996        9.3683864800        7.9340080028
Ga            3.2429938753        9.3673275076       13.2182354481
Ga            1.6225459388       12.1728996243        2.6340130571
Ga            1.6226141650       12.1722863327        7.9340080028
Ga            1.6224707558       12.1741558855       13.2182354481
Ga           11.3487121029        0.9321529197        2.6232577891
Ga           11.3405444116        0.9307277683        7.9396781419
Ga           11.3484045284        0.9338707842       13.2192865189
Ga            9.7333169599        3.7470046019        2.6323038047
Ga            9.7331541062        3.7481381545        7.9357245650
Ga            9.7333314303        3.7476178062       13.2168788372
Ga            8.1116609270        6.5557952432        2.6323038047
Ga            8.1125611855        6.5550874315        7.9357245650
Ga            8.1121992127        6.5555011728       13.2168788372
Ga            6.4816254340        9.3621943154        2.6232577891
Ga            6.4763073711        9.3558334628        7.9396781419
Ga            6.4829593610        9.3610690158       13.2192865189
Ga            4.8643285433       12.1746244332        2.6326422098
Ga            4.8466346928       12.1644088839        7.9398735439
Ga            4.8556777106       12.1696298726       13.2225002503
[...]
N            12.9738427347        1.8729572587        7.2770671836
N            12.9674598129        1.8786311196       12.5675940714
N            11.3549067601        4.6838876479        1.9852215736
N            11.3554453533        4.6834902465        7.2736551966
N            11.3540244124        4.6844240482       12.5646238964
N             9.7338167516        7.4916979066        1.9852215736
N             9.7337418885        7.4923630426        7.2736551966
N             9.7338401140        7.4906655709       12.5646238964
N             8.1104896909       10.2994370677        1.9839889023
N             8.1089476136       10.2992027822        7.2770671836
N             8.1106698604       10.2908380793       12.5675940714
N             6.4956822604       13.1164910908        1.9847834746
N             6.4861424812       13.1109832968        7.2926743078
N             6.4783503869       13.1064845290       12.5683222896
Ga            1.6202198672        0.9354329055        4.4822969601

     Writing config-only to output data dir ./GaN.save/
     NEW-OLD atomic charge density approx. for the potential

     Check: negative core charge=   -0.000003

[...]

     Self-consistent Calculation

[...]

     ethr =  5.44E-07,  avg # of iterations =  9.8

     Non-local corr. energy    =      82.13431077 Ry

     total energy              =  -47099.67461187 Ry
     estimated scf accuracy    <       0.00368741 Ry

     iteration #  3     ecut=    70.00 Ry     beta= 0.70
     Davidson diagonalization with overlap

     max_seconds     =  154800.00
     Calculation stopped in k-point loop, point #     1
     Calculation stopped in scf loop at iteration #     2

     Writing config to output data dir ./GaN.save/

     General routines

     Parallel routines

     PAW routines

   This run was terminated on:   5:36:13   3Mar2024

   JOB DONE.