     Program PWSCF v.7.1 starts on  5Mar2024 at 21: 8: 6

     Reading input from espresso.pwi
Warning: card &CELL ignored
Warning: card    CELL_DYNAMICS    = 'BFGS' ignored
Warning: card / ignored

     Current dimensions of program PWSCF are:
     Max number of different atomic species (ntypx) = 10
     Max number of k-points (npk) =  40000
     Max angular momentum in pseudopotentials (lmaxx) =  4
     file Ga.pbe-dn-kjpaw_psl.1.0.0.UPF: wavefunction(s)  4S renormalized
     file N.pbe-n-kjpaw_psl.1.0.0.UPF: wavefunction(s)  2S renormalized

     IMPORTANT: XC functional enforced from input :
     Exchange-correlation= BEEF-VDW
                           (   1   4  43  14   2   0   0)
     Any further DFT definition will be discarded
     Please, verify this is what you really want

     K-points division:     npool     =       4
     R & G space division:  proc/nbgrp/npool/nimage =      64
     Subspace diagonalization in iterative solution of the eigenvalue problem:
     a serial algorithm will be used

     Using Slab Decomposition

     bravais-lattice index     =            4
     lattice parameter (alat)  =      30.6565  a.u.
     unit-cell volume          =   24400.9461 (a.u.)^3
     number of atoms/cell      =          300
     number of atomic types    =            2
     number of electrons       =      2705.00
     number of Kohn-Sham states=         1624
     kinetic-energy cutoff     =      70.0000  Ry
     charge density cutoff     =     350.0000  Ry
     scf convergence threshold =      1.0E-07
     mixing beta               =       0.7000
     number of iterations used =            8  plain     mixing
     energy convergence thresh.=      1.0E-04
     force convergence thresh. =      1.0E-03
     Exchange-correlation= BEEF-VDW
                           (   1   4  43  14   2   0   0)
     nstep                     =           50

     celldm(1)=  30.656540  celldm(2)=   0.000000  celldm(3)=   0.977927
     celldm(4)=   0.000000  celldm(5)=   0.000000  celldm(6)=   0.000000

     crystal axes: (cart. coord. in units of alat)
               a(1) = (   1.000000   0.000000   0.000000 )
               a(2) = (  -0.500000   0.866025   0.000000 )
               a(3) = (   0.000000   0.000000   0.977927 )

     reciprocal axes: (cart. coord. in units 2 pi/alat)
               b(1) = (  1.000000  0.577350 -0.000000 )
               b(2) = (  0.000000  1.154701  0.000000 )
               b(3) = (  0.000000 -0.000000  1.022571 )

     PseudoPot. # 1 for Ga read from file:
     /trace/group/acmegroup/atimmins/packages/espresso/pseudo/psl_1.0.0/pslibrary.1.0.0/pbe/PSEUDOPOTENTIALS/Ga.pbe-dn-kjpaw_psl.1.0.0.UPF
     MD5 check sum: cd2a01e492f15b435d17032472d8505c
     Pseudo is Projector augmented-wave + core cor, Zval = 13.0
     Generated using 'atomic' code by A. Dal Corso  v.7.1
     Shape of augmentation charge: PSQ
     Using radial grid of 1205 points,  6 beta functions with:
                l(1) =   0
                l(2) =   0
                l(3) =   1
                l(4) =   1
                l(5) =   2
                l(6) =   2
     Q(r) pseudized with 0 coefficients

     PseudoPot. # 2 for N  read from file:
     /trace/group/acmegroup/atimmins/packages/espresso/pseudo/psl_1.0.0/pslibrary.1.0.0/pbe/PSEUDOPOTENTIALS/N.pbe-n-kjpaw_psl.1.0.0.UPF
     MD5 check sum: f77f775694dac7e2c3fe1c82443d1a16
     Pseudo is Projector augmented-wave + core cor, Zval =  5.0
     Generated using 'atomic' code by A. Dal Corso  v.7.1
     Shape of augmentation charge: PSQ
     Using radial grid of 1085 points,  4 beta functions with:
                l(1) =   0
                l(2) =   0
                l(3) =   1
                l(4) =   1
     Q(r) pseudized with 0 coefficients

     atomic species   valence    mass     pseudopotential
        Ga            13.00    69.72300     Ga( 1.00)
        N              5.00    14.00700     N ( 1.00)

      2 Sym. Ops. (no inversion) found

                                    s                        frac. trans.

      isym =  1     identity

 cryst.   s( 1) = (     1          0          0      )
                  (     0          1          0      )
                  (     0          0          1      )

 cart.    s( 1) = (  1.0000000  0.0000000  0.0000000 )
                  (  0.0000000  1.0000000  0.0000000 )
                  (  0.0000000  0.0000000  1.0000000 )

      isym =  2     inv. 180 deg rotation - cryst. axis [0,1,0]

 cryst.   s( 2) = (     1          1          0      )
                  (     0         -1          0      )
                  (     0          0          1      )

 cart.    s( 2) = (  0.5000000  0.8660254  0.0000000 )
                  (  0.8660254 -0.5000000  0.0000000 )
                  (  0.0000000  0.0000000  1.0000000 )

     point group C_s (m)
     there are  2 classes
     the character table:

       E     s
A'     1.00  1.00
A''    1.00 -1.00

     the symmetry operations in each class and the name of the first element:

     E        1
          identity
     s        2
          inv. 180 deg rotation - cryst. axis [0,1,0]

   Cartesian axes

     site n.     atom                  positions (alat units)
         1           Ga  tau(   1) = (   0.1000001   0.0577350   0.1627148  )
         2           Ga  tau(   2) = (   0.1000001   0.0577350   0.4886906  )
         3           Ga  tau(   3) = (   0.1000001   0.0577350   0.8146665  )
         4           Ga  tau(   4) = (   0.0000001   0.2309401   0.1627148  )
         5           Ga  tau(   5) = (   0.0000001   0.2309401   0.4886906  )
         6           Ga  tau(   6) = (   0.0000001   0.2309401   0.8146665  )
         7           Ga  tau(   7) = (  -0.0999999   0.4041451   0.1627148  )
         8           Ga  tau(   8) = (  -0.0999999   0.4041451   0.4886906  )
         9           Ga  tau(   9) = (  -0.0999999   0.4041451   0.8146665  )
        10           Ga  tau(  10) = (  -0.1999999   0.5773502   0.1627148  )
        11           Ga  tau(  11) = (  -0.1999999   0.5773502   0.4886906  )
        12           Ga  tau(  12) = (  -0.1999999   0.5773502   0.8146665  )
        13           Ga  tau(  13) = (  -0.2999999   0.7505553   0.1627148  )
        14           Ga  tau(  14) = (  -0.2999999   0.7505553   0.4886906  )
        15           Ga  tau(  15) = (  -0.2999999   0.7505553   0.8146665  )
        16           Ga  tau(  16) = (   0.3000001   0.0577350   0.1627148  )
        17           Ga  tau(  17) = (   0.3000001   0.0577350   0.4886906  )
        18           Ga  tau(  18) = (   0.3000001   0.0577350   0.8146665  )
        19           Ga  tau(  19) = (   0.2000001   0.2309401   0.1627148  )
        20           Ga  tau(  20) = (   0.2000001   0.2309401   0.4886906  )
        21           Ga  tau(  21) = (   0.2000001   0.2309401   0.8146665  )
        22           Ga  tau(  22) = (   0.1000001   0.4041451   0.1627148  )
        23           Ga  tau(  23) = (   0.1000001   0.4041451   0.4886906  )
        24           Ga  tau(  24) = (   0.1000001   0.4041451   0.8146665  )
        25           Ga  tau(  25) = (   0.0000001   0.5773502   0.1627148  )
        26           Ga  tau(  26) = (   0.0000001   0.5773502   0.4886906  )
        27           Ga  tau(  27) = (   0.0000001   0.5773502   0.8146665  )
        28           Ga  tau(  28) = (  -0.0999999   0.7505553   0.1627148  )
        29           Ga  tau(  29) = (  -0.0999999   0.7505553   0.4886906  )
        30           Ga  tau(  30) = (  -0.0999999   0.7505553   0.8146665  )
        31           Ga  tau(  31) = (   0.5000001   0.0577350   0.1627148  )
        32           Ga  tau(  32) = (   0.5000001   0.0577350   0.4886906  )
        33           Ga  tau(  33) = (   0.5000001   0.0577350   0.8146665  )
        34           Ga  tau(  34) = (   0.4000001   0.2309401   0.1627148  )
        35           Ga  tau(  35) = (   0.4000001   0.2309401   0.4886906  )
        36           Ga  tau(  36) = (   0.4000001   0.2309401   0.8146665  )
        37           Ga  tau(  37) = (   0.3000001   0.4041451   0.1627148  )
        38           Ga  tau(  38) = (   0.3000001   0.4041451   0.4886906  )
        39           Ga  tau(  39) = (   0.3000001   0.4041451   0.8146665  )
        40           Ga  tau(  40) = (   0.2000001   0.5773502   0.1627148  )
        41           Ga  tau(  41) = (   0.2000001   0.5773502   0.4886906  )
        42           Ga  tau(  42) = (   0.2000001   0.5773502   0.8146665  )
        43           Ga  tau(  43) = (   0.1000001   0.7505553   0.1627148  )
        44           Ga  tau(  44) = (   0.1000001   0.7505553   0.4886906  )
        45           Ga  tau(  45) = (   0.1000001   0.7505553   0.8146665  )
        46           Ga  tau(  46) = (   0.7000001   0.0577350   0.1627148  )
        47           Ga  tau(  47) = (   0.7000001   0.0577350   0.4886906  )
        48           Ga  tau(  48) = (   0.7000001   0.0577350   0.8146665  )
        49           Ga  tau(  49) = (   0.6000001   0.2309401   0.1627148  )
        50           Ga  tau(  50) = (   0.6000001   0.2309401   0.4886906  )
        51           Ga  tau(  51) = (   0.6000001   0.2309401   0.8146665  )
        52           Ga  tau(  52) = (   0.5000001   0.4041451   0.1627148  )
        53           Ga  tau(  53) = (   0.5000001   0.4041451   0.4886906  )
        54           Ga  tau(  54) = (   0.5000001   0.4041451   0.8146665  )
        55           Ga  tau(  55) = (   0.4000001   0.5773502   0.1627148  )
        56           Ga  tau(  56) = (   0.4000001   0.5773502   0.4886906  )
        57           Ga  tau(  57) = (   0.4000001   0.5773502   0.8146665  )
        58           Ga  tau(  58) = (   0.3000001   0.7505553   0.1627148  )
        59           Ga  tau(  59) = (   0.3000001   0.7505553   0.4886906  )
        60           Ga  tau(  60) = (   0.3000001   0.7505553   0.8146665  )
[...]
       286           N   tau( 286) = (   0.7999999   0.1154701   0.4484898  )
       287           N   tau( 287) = (   0.7999999   0.1154701   0.7744656  )
       288           N   tau( 288) = (   0.6999999   0.2886752   0.1225140  )
       289           N   tau( 289) = (   0.6999999   0.2886752   0.4484898  )
       290           N   tau( 290) = (   0.6999999   0.2886752   0.7744656  )
       291           N   tau( 291) = (   0.5999999   0.4618803   0.1225140  )
       292           N   tau( 292) = (   0.5999999   0.4618803   0.4484898  )
       293           N   tau( 293) = (   0.5999999   0.4618803   0.7744656  )
       294           N   tau( 294) = (   0.4999999   0.6350854   0.1225140  )
       295           N   tau( 295) = (   0.4999999   0.6350854   0.4484898  )
       296           N   tau( 296) = (   0.4999999   0.6350854   0.7744656  )
       297           N   tau( 297) = (   0.3999999   0.8082905   0.1225140  )
       298           N   tau( 298) = (   0.3999999   0.8082905   0.4484898  )
       299           N   tau( 299) = (   0.3999999   0.8082905   0.7744656  )
       300           Ga  tau( 300) = (   0.1000001   0.0577350   0.2855019  )

   Crystallographic axes

     site n.     atom                  positions (cryst. coord.)
[...]
     atom   44 type  1   force =     0.00000000    0.00000000    0.00000000
     atom   45 type  1   force =     0.00000000    0.00000000    0.00000000
     atom   46 type  1   force =     0.00000000    0.00000000    0.00000000
     atom   47 type  1   force =     0.00000000    0.00000000    0.00000000
     atom   48 type  1   force =     0.00000000    0.00000000    0.00000000
     atom   49 type  1   force =     0.00000000    0.00000000    0.00000000
     atom   50 type  1   force =     0.00000000    0.00000000    0.00000000
     atom   51 type  1   force =     0.00000000    0.00000000    0.00000000
     atom   52 type  1   force =     0.00000000    0.00000000    0.00000000
     atom   53 type  1   force =     0.00000000    0.00000000    0.00000000
     atom   54 type  1   force =     0.00000000    0.00000000    0.00000000
     atom   55 type  1   force =     0.00000000    0.00000000    0.00000000
     atom   56 type  1   force =     0.00000000    0.00000000    0.00000000
     atom   57 type  1   force =     0.00000000    0.00000000    0.00000000
     atom   58 type  1   force =     0.00000000    0.00000000    0.00000000
     atom   59 type  1   force =     0.00000000    0.00000000    0.00000000
     atom   60 type  1   force =     0.00000000    0.00000000    0.00000000
[...]
     atom  286 type  2   force =     0.00000000    0.00000000    0.00000000
     atom  287 type  2   force =     0.00000000    0.00000000    0.00000000
     atom  288 type  2   force =     0.00000000    0.00000000    0.00000000
     atom  289 type  2   force =     0.00000000    0.00000000    0.00000000
     atom  290 type  2   force =     0.00000000    0.00000000    0.00000000
     atom  291 type  2   force =     0.00000000    0.00000000    0.00000000
     atom  292 type  2   force =     0.00000000    0.00000000    0.00000000
     atom  293 type  2   force =     0.00000000    0.00000000    0.00000000
     atom  294 type  2   force =     0.00000000    0.00000000    0.00000000
     atom  295 type  2   force =     0.00000000    0.00000000    0.00000000
     atom  296 type  2   force =     0.00000000    0.00000000    0.00000000
     atom  297 type  2   force =     0.00000000    0.00000000    0.00000000
     atom  298 type  2   force =     0.00000000    0.00000000    0.00000000
     atom  299 type  2   force =     0.00000000    0.00000000    0.00000000
     atom  300 type  1   force =     0.00000000    0.00000000    0.00000000
     The SCF correction term to forces
     atom    1 type  1   force =    -0.00000037   -0.00000021    0.00001033
     atom    2 type  1   force =     0.00000401    0.00000232    0.00000295
     atom    3 type  1   force =     0.00000031    0.00000018   -0.00000865
     atom    4 type  1   force =     0.00000163   -0.00000404   -0.00000084
     atom    5 type  1   force =     0.00000300   -0.00000145    0.00000198
     atom    6 type  1   force =     0.00000144   -0.00000220   -0.00000283
     atom    7 type  1   force =     0.00000179    0.00000124    0.00000233
     atom    8 type  1   force =     0.00000198    0.00000096   -0.00000072
     atom    9 type  1   force =     0.00000280   -0.00000089    0.00000009
     atom   10 type  1   force =     0.00000197    0.00000093    0.00000233
     atom   11 type  1   force =     0.00000182    0.00000123   -0.00000072
     atom   12 type  1   force =     0.00000063    0.00000287    0.00000009
     atom   13 type  1   force =    -0.00000269    0.00000343   -0.00000084
     atom   14 type  1   force =     0.00000024    0.00000333    0.00000198
     atom   15 type  1   force =    -0.00000119    0.00000235   -0.00000283
     atom   16 type  1   force =    -0.00000305    0.00000176    0.00000193
     atom   17 type  1   force =    -0.00000319    0.00000255    0.00000054
     atom   18 type  1   force =    -0.00000246    0.00000033   -0.00000373
     atom   19 type  1   force =    -0.00000001   -0.00000352    0.00000193
     atom   20 type  1   force =     0.00000062   -0.00000404    0.00000054
     atom   21 type  1   force =    -0.00000094   -0.00000229   -0.00000373
     atom   22 type  1   force =     0.00000048    0.00000023    0.00000267
     atom   23 type  1   force =     0.00000107   -0.00000137   -0.00000116
     atom   24 type  1   force =     0.00000015   -0.00000172   -0.00000047
     atom   25 type  1   force =    -0.00000029   -0.00000017    0.00000267
     atom   26 type  1   force =     0.00000037    0.00000021   -0.00000223
     atom   27 type  1   force =     0.00000039    0.00000022   -0.00000028
     atom   28 type  1   force =     0.00000044    0.00000031    0.00000267
     atom   29 type  1   force =    -0.00000065    0.00000161   -0.00000116
     atom   30 type  1   force =    -0.00000141    0.00000099   -0.00000047
     atom   31 type  1   force =    -0.00000112   -0.00000140    0.00000322
     atom   32 type  1   force =    -0.00000184   -0.00000105   -0.00000114
     atom   33 type  1   force =    -0.00000228   -0.00000177   -0.00000053
     atom   34 type  1   force =    -0.00000217   -0.00000125    0.00000238
     atom   35 type  1   force =    -0.00000327   -0.00000189   -0.00000098
     atom   36 type  1   force =    -0.00000399   -0.00000230   -0.00000087
     atom   37 type  1   force =    -0.00000177   -0.00000027    0.00000322
     atom   38 type  1   force =    -0.00000183   -0.00000107   -0.00000114
     atom   39 type  1   force =    -0.00000267   -0.00000109   -0.00000053
     atom   40 type  1   force =    -0.00000041   -0.00000108    0.00000246
     atom   41 type  1   force =    -0.00000067   -0.00000105   -0.00000199
     atom   42 type  1   force =    -0.00000044   -0.00000001   -0.00000035
     atom   43 type  1   force =    -0.00000114    0.00000018    0.00000246
     atom   44 type  1   force =    -0.00000124   -0.00000005   -0.00000199
     atom   45 type  1   force =    -0.00000023   -0.00000038   -0.00000035
     atom   46 type  1   force =    -0.00000146   -0.00000128    0.00000174
     atom   47 type  1   force =    -0.00000158   -0.00000121   -0.00000017
     atom   48 type  1   force =     0.00000185   -0.00000174    0.00000008
     atom   49 type  1   force =    -0.00000095   -0.00000016    0.00000310
     atom   50 type  1   force =    -0.00000155    0.00000116   -0.00000145
     atom   51 type  1   force =    -0.00000021   -0.00000161   -0.00000004
     atom   52 type  1   force =    -0.00000061   -0.00000074    0.00000310
     atom   53 type  1   force =     0.00000023   -0.00000192   -0.00000145
     atom   54 type  1   force =    -0.00000149    0.00000062   -0.00000004
     atom   55 type  1   force =    -0.00000183   -0.00000062    0.00000174
     atom   56 type  1   force =    -0.00000184   -0.00000077   -0.00000017
     atom   57 type  1   force =    -0.00000058    0.00000248    0.00000008
     atom   58 type  1   force =    -0.00000152   -0.00000088    0.00000089
     atom   59 type  1   force =    -0.00000087   -0.00000050    0.00000012
     atom   60 type  1   force =     0.00000124    0.00000072   -0.00000008
[...]
     atom  286 type  2   force =     0.00000010    0.00000004    0.00000048
     atom  287 type  2   force =     0.00000178   -0.00000072   -0.00000020
     atom  288 type  2   force =     0.00000044   -0.00000025    0.00000132
     atom  289 type  2   force =    -0.00000091    0.00000044   -0.00000063
     atom  290 type  2   force =     0.00000075   -0.00000047   -0.00000013
     atom  291 type  2   force =     0.00000000    0.00000050    0.00000132
     atom  292 type  2   force =    -0.00000007   -0.00000100   -0.00000063
     atom  293 type  2   force =    -0.00000003    0.00000088   -0.00000013
     atom  294 type  2   force =     0.00000056    0.00000065   -0.00000032
     atom  295 type  2   force =     0.00000008    0.00000007    0.00000048
     atom  296 type  2   force =     0.00000026    0.00000190   -0.00000020
     atom  297 type  2   force =     0.00000116    0.00000067   -0.00000073
     atom  298 type  2   force =     0.00000046    0.00000027    0.00000114
     atom  299 type  2   force =     0.00000133    0.00000077   -0.00000062
     atom  300 type  1   force =     0.00000424    0.00000245   -0.00000881

     Total force =     0.001842     Total SCF correction =     0.000046

     Computing stress (Cartesian axis) and pressure

     Non-local corr. energy    =      82.13487194 Ry

          total   stress  (Ry/bohr**3)                   (kbar)     P=       -9.20
  -0.00007512  -0.00000005   0.00000005          -11.05       -0.01        0.01
  -0.00000005  -0.00007506   0.00000003           -0.01      -11.04        0.00
   0.00000005   0.00000003  -0.00003746            0.01        0.00       -5.51

     kinetic stress (kbar)  18444.71      0.01      0.02
                                0.01  18444.70      0.01
                                0.02      0.01  18450.28

     local   stress (kbar)   5596.82      1.03     -0.07
                                1.03   5595.45     -0.04
                               -0.07     -0.04   3727.37

     nonloc. stress (kbar)     85.23      0.00     -0.00
                                0.00     85.23     -0.00
                               -0.00     -0.00     92.39

     hartree stress (kbar)  19674.28     -0.42      0.01
                               -0.42  19674.76      0.01
                                0.01      0.01  20508.92

     exc-cor stress (kbar)   5270.47     -0.00      0.00
                               -0.00   5270.48      0.00
                                0.00      0.00   5271.41

     corecor stress (kbar) -14195.80      0.00     -0.00
                                0.00 -14195.81     -0.00
                               -0.00     -0.00 -14195.49

     ewald   stress (kbar) -35049.74     -0.62      0.05
                               -0.62 -35048.79      0.03
                                0.05      0.03 -34022.27

     hubbard stress (kbar)      0.00      0.00      0.00
                                0.00      0.00      0.00
                                0.00      0.00      0.00

     DFT-D   stress (kbar)      0.00      0.00      0.00
                                0.00      0.00      0.00
                                0.00      0.00      0.00

     XDM     stress (kbar)      0.00      0.00      0.00
                                0.00      0.00      0.00
                                0.00      0.00      0.00

     dft-nl  stress (kbar)    162.96      0.00     -0.00
                                0.00    162.96     -0.00
                               -0.00     -0.00    161.90

     TS-vdW  stress (kbar)      0.00      0.00      0.00
                                0.00      0.00      0.00
                                0.00      0.00      0.00

     MDB     stress (kbar)      0.00      0.00      0.00
                                0.00      0.00      0.00
                                0.00      0.00      0.00

     3D-RISM stress (kbar)      0.00      0.00      0.00
                                0.00      0.00      0.00
                                0.00      0.00      0.00

     Energy error            =      1.9E-05 Ry
     Gradient error          =      9.5E-04 Ry/Bohr

     bfgs converged in  15 scf cycles and  14 bfgs steps
     (criteria: energy <  1.0E-04 Ry, force <  1.0E-03 Ry/Bohr)

     End of BFGS Geometry Optimization

     Final energy             =  -47099.6761127884 Ry

     File ./GaN.bfgs deleted, as requested
Begin final coordinates

ATOMIC_POSITIONS (angstrom)
Ga            1.6210480506        0.9359110574        2.0801548029
Ga            1.6214007938        0.9361147138        7.9460592385
Ga            1.6214781473        0.9361593739       13.1996786123
Ga           -0.0079720794        3.7603738264        2.6032995101
Ga           -0.0028139091        3.8051285693        7.9959466892
Ga           -0.0049912113        3.7648701590       13.1938284049
Ga           -1.6230582286        6.5656885855        2.6226421719
Ga           -1.6246897963        6.5711750320        7.9404383122
Ga           -1.6239022002        6.5634079987       13.2180600458
Ga           -3.2368457749        9.3608506083        2.6226421719
Ga           -3.2329101567        9.3566944060        7.9404383122
Ga           -3.2392428067        9.3612600009       13.2180600458
Ga           -4.8587765472       12.1622136224        2.6032995101
Ga           -4.8174387177       12.1443033574        7.9959466892
Ga           -4.8533921748       12.1625469636       13.1938284049
Ga            4.8829912743        0.9364911085        2.6035800802
Ga            4.9184861376        0.9106509854        7.9960622038
Ga            4.8856465532        0.9315089637       13.1940627565
Ga            3.2525220014        3.7605467294        2.6035800802
Ga            3.2478912299        3.8042062443        7.9960622038
Ga            3.2495349769        3.7653373408       13.1940627565
Ga            1.6227078298        6.5628257411        2.6335745039
Ga            1.6231982615        6.5811428120        7.9425945881
Ga            1.6228936035        6.5690184472       13.2212390745
Ga            0.0037734205        9.3683816246        2.6331199859
Ga            0.0040050998        9.3685153847        7.9337798136
Ga            0.0025059607        9.3676498563       13.2171086580
Ga           -1.6164420417       12.1731978920        2.6335745039
Ga           -1.6003337772       12.1644640828        7.9425945881
Ga           -1.6109861140       12.1702624237       13.2212390745
Ga            8.1194643787        0.9323096494        2.6229699409
Ga            8.1247887390        0.9308441879        7.9404995824
Ga            8.1181378173        0.9342008327       13.2183931191
Ga            6.4964353013        3.7507171992        2.6268242753
Ga            6.4990210773        3.7522100976        7.9440954554
Ga            6.4969100556        3.7509912987       13.2190750628
Ga            4.8671373039        6.5655053862        2.6229699409
Ga            4.8685303571        6.5708491482        7.9404995824
Ga            4.8681118359        6.5634109587       13.2183931191
Ga            3.2416552543        9.3682549384        2.6332825474
Ga            3.2416907419        9.3686291056        7.9340242062
Ga            3.2427947272        9.3674764710       13.2174135610
Ga            1.6226046240       12.1725328903        2.6332825474
Ga            1.6229464060       12.1723765399        7.9340242062
Ga            1.6225001878       12.1739089365       13.2174135610
Ga           11.3465880248        0.9320182132        2.6225852289
Ga           11.3410355477        0.9307360466        7.9406257196
Ga           11.3480747952        0.9339435372       13.2182748598
Ga            9.7333167563        3.7473737118        2.6312300483
Ga            9.7332225151        3.7480835231        7.9346362599
Ga            9.7332942396        3.7477110429       13.2154302443
Ga            8.1119804838        6.5556105120        2.6312300483
Ga            8.1125480778        6.5551739910        7.9346362599
Ga            8.1122613627        6.5554223464       13.2154302443
Ga            6.4804467357        9.3604221629        2.6225852289
Ga            6.4765601083        9.3562546601        7.9406257196
Ga            6.4828575004        9.3607470819       13.2182748598
Ga            4.8609786329       12.1726903616        2.6338812503
Ga            4.8463851315       12.1642647996        7.9426985879
Ga            4.8553872423       12.1694621707       13.2216196462
[...]
N            12.9736373236        1.8729818794        7.2782215992
N            12.9678047696        1.8783109655       12.5679309873
N            11.3546525446        4.6840054049        1.9840990646
N            11.3555721672        4.6834758720        7.2731151701
N            11.3539122729        4.6844337727       12.5636170806
N             9.7337916244        7.4914188709        1.9840990646
N             9.7337928468        7.4924800540        7.2731151701
N             9.7337924659        7.4905635930       12.5636170806
N             8.1095332284       10.2969888878        1.9841312627
N             8.1088662302       10.2990125805        7.2782215992
N             8.1105650772       10.2912968976       12.5679309873
N             6.4932512519       13.1150875474        1.9859078742
N             6.4863634806       13.1111108908        7.2954646995
N             6.4787521338       13.1067164777       12.5697986840
Ga            1.6192964902        0.9348997936        4.4501064022
End final coordinates

     Writing all to output data dir ./GaN.save/

     General routines

     Parallel routines

     PAW routines

   This run was terminated on:  20:24:49   6Mar2024

   JOB DONE.