     Program PWSCF v.7.1 starts on  7Mar2024 at 11:28:15

     Reading input from espresso.pwi
Warning: card &CELL ignored
Warning: card    CELL_DYNAMICS    = 'BFGS' ignored
Warning: card / ignored

     Current dimensions of program PWSCF are:
     Max number of different atomic species (ntypx) = 10
     Max number of k-points (npk) =  40000
     Max angular momentum in pseudopotentials (lmaxx) =  4
     file Ga.pbe-dn-kjpaw_psl.1.0.0.UPF: wavefunction(s)  4S renormalized
     file N.pbe-n-kjpaw_psl.1.0.0.UPF: wavefunction(s)  2S renormalized

     IMPORTANT: XC functional enforced from input :
     Exchange-correlation= BEEF-VDW
                           (   1   4  43  14   2   0   0)
     Any further DFT definition will be discarded
     Please, verify this is what you really want

     K-points division:     npool     =       4
     R & G space division:  proc/nbgrp/npool/nimage =      64
     Subspace diagonalization in iterative solution of the eigenvalue problem:
     a serial algorithm will be used

     Using Slab Decomposition

     bravais-lattice index     =            4
     lattice parameter (alat)  =      30.6565  a.u.
     unit-cell volume          =   24400.9461 (a.u.)^3
     number of atoms/cell      =          300
     number of atomic types    =            2
     number of electrons       =      2705.00
     number of Kohn-Sham states=         1624
     kinetic-energy cutoff     =      70.0000  Ry
     charge density cutoff     =     350.0000  Ry
     scf convergence threshold =      1.0E-07
     mixing beta               =       0.7000
     number of iterations used =            8  plain     mixing
     Exchange-correlation= BEEF-VDW
                           (   1   4  43  14   2   0   0)

     celldm(1)=  30.656540  celldm(2)=   0.000000  celldm(3)=   0.977927
     celldm(4)=   0.000000  celldm(5)=   0.000000  celldm(6)=   0.000000

     crystal axes: (cart. coord. in units of alat)
               a(1) = (   1.000000   0.000000   0.000000 )
               a(2) = (  -0.500000   0.866025   0.000000 )
               a(3) = (   0.000000   0.000000   0.977927 )

     reciprocal axes: (cart. coord. in units 2 pi/alat)
               b(1) = (  1.000000  0.577350 -0.000000 )
               b(2) = (  0.000000  1.154701  0.000000 )
               b(3) = (  0.000000 -0.000000  1.022571 )

     PseudoPot. # 1 for Ga read from file:
     /trace/group/acmegroup/atimmins/packages/espresso/pseudo/psl_1.0.0/pslibrary.1.0.0/pbe/PSEUDOPOTENTIALS/Ga.pbe-dn-kjpaw_psl.1.0.0.UPF
     MD5 check sum: cd2a01e492f15b435d17032472d8505c
     Pseudo is Projector augmented-wave + core cor, Zval = 13.0
     Generated using 'atomic' code by A. Dal Corso  v.7.1
     Shape of augmentation charge: PSQ
     Using radial grid of 1205 points,  6 beta functions with:
                l(1) =   0
                l(2) =   0
                l(3) =   1
                l(4) =   1
                l(5) =   2
                l(6) =   2
     Q(r) pseudized with 0 coefficients

     PseudoPot. # 2 for N  read from file:
     /trace/group/acmegroup/atimmins/packages/espresso/pseudo/psl_1.0.0/pslibrary.1.0.0/pbe/PSEUDOPOTENTIALS/N.pbe-n-kjpaw_psl.1.0.0.UPF
     MD5 check sum: f77f775694dac7e2c3fe1c82443d1a16
     Pseudo is Projector augmented-wave + core cor, Zval =  5.0
     Generated using 'atomic' code by A. Dal Corso  v.7.1
     Shape of augmentation charge: PSQ
     Using radial grid of 1085 points,  4 beta functions with:
                l(1) =   0
                l(2) =   0
                l(3) =   1
                l(4) =   1
     Q(r) pseudized with 0 coefficients

     atomic species   valence    mass     pseudopotential
        Ga            13.00    69.72300     Ga( 1.00)
        N              5.00    14.00700     N ( 1.00)

      2 Sym. Ops. (no inversion) found

                                    s                        frac. trans.

      isym =  1     identity

 cryst.   s( 1) = (     1          0          0      )
                  (     0          1          0      )
                  (     0          0          1      )

 cart.    s( 1) = (  1.0000000  0.0000000  0.0000000 )
                  (  0.0000000  1.0000000  0.0000000 )
                  (  0.0000000  0.0000000  1.0000000 )

      isym =  2     inv. 180 deg rotation - cryst. axis [0,1,0]

 cryst.   s( 2) = (     1          1          0      )
                  (     0         -1          0      )
                  (     0          0          1      )

 cart.    s( 2) = (  0.5000000  0.8660254  0.0000000 )
                  (  0.8660254 -0.5000000  0.0000000 )
                  (  0.0000000  0.0000000  1.0000000 )

     point group C_s (m)
     there are  2 classes
     the character table:

       E     s
A'     1.00  1.00
A''    1.00 -1.00

     the symmetry operations in each class and the name of the first element:

     E        1
          identity
     s        2
          inv. 180 deg rotation - cryst. axis [0,1,0]

   Cartesian axes

     site n.     atom                  positions (alat units)
         1           Ga  tau(   1) = (   0.1000001   0.0577350   0.1627148  )
         2           Ga  tau(   2) = (   0.1000001   0.0577350   0.4886906  )
         3           Ga  tau(   3) = (   0.1000001   0.0577350   0.8146665  )
         4           Ga  tau(   4) = (   0.0000001   0.2309401   0.1627148  )
         5           Ga  tau(   5) = (   0.0000001   0.2309401   0.4886906  )
         6           Ga  tau(   6) = (   0.0000001   0.2309401   0.8146665  )
         7           Ga  tau(   7) = (  -0.0999999   0.4041451   0.1627148  )
         8           Ga  tau(   8) = (  -0.0999999   0.4041451   0.4886906  )
         9           Ga  tau(   9) = (  -0.0999999   0.4041451   0.8146665  )
        10           Ga  tau(  10) = (  -0.1999999   0.5773502   0.1627148  )
        11           Ga  tau(  11) = (  -0.1999999   0.5773502   0.4886906  )
        12           Ga  tau(  12) = (  -0.1999999   0.5773502   0.8146665  )
        13           Ga  tau(  13) = (  -0.2999999   0.7505553   0.1627148  )
        14           Ga  tau(  14) = (  -0.2999999   0.7505553   0.4886906  )
        15           Ga  tau(  15) = (  -0.2999999   0.7505553   0.8146665  )
        16           Ga  tau(  16) = (   0.3000001   0.0577350   0.1627148  )
        17           Ga  tau(  17) = (   0.3000001   0.0577350   0.4886906  )
        18           Ga  tau(  18) = (   0.3000001   0.0577350   0.8146665  )
        19           Ga  tau(  19) = (   0.2000001   0.2309401   0.1627148  )
        20           Ga  tau(  20) = (   0.2000001   0.2309401   0.4886906  )
        21           Ga  tau(  21) = (   0.2000001   0.2309401   0.8146665  )
        22           Ga  tau(  22) = (   0.1000001   0.4041451   0.1627148  )
        23           Ga  tau(  23) = (   0.1000001   0.4041451   0.4886906  )
        24           Ga  tau(  24) = (   0.1000001   0.4041451   0.8146665  )
        25           Ga  tau(  25) = (   0.0000001   0.5773502   0.1627148  )
        26           Ga  tau(  26) = (   0.0000001   0.5773502   0.4886906  )
        27           Ga  tau(  27) = (   0.0000001   0.5773502   0.8146665  )
        28           Ga  tau(  28) = (  -0.0999999   0.7505553   0.1627148  )
        29           Ga  tau(  29) = (  -0.0999999   0.7505553   0.4886906  )
        30           Ga  tau(  30) = (  -0.0999999   0.7505553   0.8146665  )
        31           Ga  tau(  31) = (   0.5000001   0.0577350   0.1627148  )
        32           Ga  tau(  32) = (   0.5000001   0.0577350   0.4886906  )
        33           Ga  tau(  33) = (   0.5000001   0.0577350   0.8146665  )
        34           Ga  tau(  34) = (   0.4000001   0.2309401   0.1627148  )
        35           Ga  tau(  35) = (   0.4000001   0.2309401   0.4886906  )
        36           Ga  tau(  36) = (   0.4000001   0.2309401   0.8146665  )
        37           Ga  tau(  37) = (   0.3000001   0.4041451   0.1627148  )
        38           Ga  tau(  38) = (   0.3000001   0.4041451   0.4886906  )
        39           Ga  tau(  39) = (   0.3000001   0.4041451   0.8146665  )
        40           Ga  tau(  40) = (   0.2000001   0.5773502   0.1627148  )
        41           Ga  tau(  41) = (   0.2000001   0.5773502   0.4886906  )
        42           Ga  tau(  42) = (   0.2000001   0.5773502   0.8146665  )
        43           Ga  tau(  43) = (   0.1000001   0.7505553   0.1627148  )
        44           Ga  tau(  44) = (   0.1000001   0.7505553   0.4886906  )
        45           Ga  tau(  45) = (   0.1000001   0.7505553   0.8146665  )
        46           Ga  tau(  46) = (   0.7000001   0.0577350   0.1627148  )
        47           Ga  tau(  47) = (   0.7000001   0.0577350   0.4886906  )
        48           Ga  tau(  48) = (   0.7000001   0.0577350   0.8146665  )
        49           Ga  tau(  49) = (   0.6000001   0.2309401   0.1627148  )
        50           Ga  tau(  50) = (   0.6000001   0.2309401   0.4886906  )
        51           Ga  tau(  51) = (   0.6000001   0.2309401   0.8146665  )
        52           Ga  tau(  52) = (   0.5000001   0.4041451   0.1627148  )
        53           Ga  tau(  53) = (   0.5000001   0.4041451   0.4886906  )
        54           Ga  tau(  54) = (   0.5000001   0.4041451   0.8146665  )
        55           Ga  tau(  55) = (   0.4000001   0.5773502   0.1627148  )
        56           Ga  tau(  56) = (   0.4000001   0.5773502   0.4886906  )
        57           Ga  tau(  57) = (   0.4000001   0.5773502   0.8146665  )
        58           Ga  tau(  58) = (   0.3000001   0.7505553   0.1627148  )
        59           Ga  tau(  59) = (   0.3000001   0.7505553   0.4886906  )
        60           Ga  tau(  60) = (   0.3000001   0.7505553   0.8146665  )
[...]
       286           N   tau( 286) = (   0.7999999   0.1154701   0.4484898  )
       287           N   tau( 287) = (   0.7999999   0.1154701   0.7744656  )
       288           N   tau( 288) = (   0.6999999   0.2886752   0.1225140  )
       289           N   tau( 289) = (   0.6999999   0.2886752   0.4484898  )
       290           N   tau( 290) = (   0.6999999   0.2886752   0.7744656  )
       291           N   tau( 291) = (   0.5999999   0.4618803   0.1225140  )
       292           N   tau( 292) = (   0.5999999   0.4618803   0.4484898  )
       293           N   tau( 293) = (   0.5999999   0.4618803   0.7744656  )
       294           N   tau( 294) = (   0.4999999   0.6350854   0.1225140  )
       295           N   tau( 295) = (   0.4999999   0.6350854   0.4484898  )
       296           N   tau( 296) = (   0.4999999   0.6350854   0.7744656  )
       297           N   tau( 297) = (   0.3999999   0.8082905   0.1225140  )
       298           N   tau( 298) = (   0.3999999   0.8082905   0.4484898  )
       299           N   tau( 299) = (   0.3999999   0.8082905   0.7744656  )
       300           Ga  tau( 300) = (   0.1000001   0.0577350   0.2855019  )

   Crystallographic axes

     site n.     atom                  positions (cryst. coord.)
         1           Ga  tau(   1) = (  0.1333334  0.0666666  0.1663874  )
         2           Ga  tau(   2) = (  0.1333334  0.0666666  0.4997208  )
[...]
     atom   25 type  1   force =     0.00000000    0.00000000    0.00000000
     atom   26 type  1   force =     0.00000000    0.00000000    0.00000000
     atom   27 type  1   force =     0.00000000    0.00000000    0.00000000
     atom   28 type  1   force =     0.00000000    0.00000000    0.00000000
     atom   29 type  1   force =     0.00000000    0.00000000    0.00000000
     atom   30 type  1   force =     0.00000000    0.00000000    0.00000000
     atom   31 type  1   force =     0.00000000    0.00000000    0.00000000
     atom   32 type  1   force =     0.00000000    0.00000000    0.00000000
     atom   33 type  1   force =     0.00000000    0.00000000    0.00000000
     atom   34 type  1   force =     0.00000000    0.00000000    0.00000000
     atom   35 type  1   force =     0.00000000    0.00000000    0.00000000
     atom   36 type  1   force =     0.00000000    0.00000000    0.00000000
     atom   37 type  1   force =     0.00000000    0.00000000    0.00000000
     atom   38 type  1   force =     0.00000000    0.00000000    0.00000000
     atom   39 type  1   force =     0.00000000    0.00000000    0.00000000
     atom   40 type  1   force =     0.00000000    0.00000000    0.00000000
     atom   41 type  1   force =     0.00000000    0.00000000    0.00000000
     atom   42 type  1   force =     0.00000000    0.00000000    0.00000000
     atom   43 type  1   force =     0.00000000    0.00000000    0.00000000
     atom   44 type  1   force =     0.00000000    0.00000000    0.00000000
     atom   45 type  1   force =     0.00000000    0.00000000    0.00000000
     atom   46 type  1   force =     0.00000000    0.00000000    0.00000000
     atom   47 type  1   force =     0.00000000    0.00000000    0.00000000
     atom   48 type  1   force =     0.00000000    0.00000000    0.00000000
     atom   49 type  1   force =     0.00000000    0.00000000    0.00000000
     atom   50 type  1   force =     0.00000000    0.00000000    0.00000000
     atom   51 type  1   force =     0.00000000    0.00000000    0.00000000
     atom   52 type  1   force =     0.00000000    0.00000000    0.00000000
     atom   53 type  1   force =     0.00000000    0.00000000    0.00000000
     atom   54 type  1   force =     0.00000000    0.00000000    0.00000000
     atom   55 type  1   force =     0.00000000    0.00000000    0.00000000
     atom   56 type  1   force =     0.00000000    0.00000000    0.00000000
     atom   57 type  1   force =     0.00000000    0.00000000    0.00000000
     atom   58 type  1   force =     0.00000000    0.00000000    0.00000000
     atom   59 type  1   force =     0.00000000    0.00000000    0.00000000
     atom   60 type  1   force =     0.00000000    0.00000000    0.00000000
[...]
     atom  286 type  2   force =     0.00000000    0.00000000    0.00000000
     atom  287 type  2   force =     0.00000000    0.00000000    0.00000000
     atom  288 type  2   force =     0.00000000    0.00000000    0.00000000
     atom  289 type  2   force =     0.00000000    0.00000000    0.00000000
     atom  290 type  2   force =     0.00000000    0.00000000    0.00000000
     atom  291 type  2   force =     0.00000000    0.00000000    0.00000000
     atom  292 type  2   force =     0.00000000    0.00000000    0.00000000
     atom  293 type  2   force =     0.00000000    0.00000000    0.00000000
     atom  294 type  2   force =     0.00000000    0.00000000    0.00000000
     atom  295 type  2   force =     0.00000000    0.00000000    0.00000000
     atom  296 type  2   force =     0.00000000    0.00000000    0.00000000
     atom  297 type  2   force =     0.00000000    0.00000000    0.00000000
     atom  298 type  2   force =     0.00000000    0.00000000    0.00000000
     atom  299 type  2   force =     0.00000000    0.00000000    0.00000000
     atom  300 type  1   force =     0.00000000    0.00000000    0.00000000
     The SCF correction term to forces
     atom    1 type  1   force =     0.00000166    0.00000096   -0.00002121
     atom    2 type  1   force =    -0.00002001   -0.00001155   -0.00000899
     atom    3 type  1   force =    -0.00000157   -0.00000090    0.00002429
     atom    4 type  1   force =    -0.00000907    0.00001162    0.00000317
     atom    5 type  1   force =    -0.00001617    0.00000514   -0.00000814
     atom    6 type  1   force =    -0.00000711    0.00000975    0.00000710
     atom    7 type  1   force =    -0.00000665   -0.00000268   -0.00000707
     atom    8 type  1   force =    -0.00000870    0.00000005    0.00000446
     atom    9 type  1   force =    -0.00001136    0.00000449    0.00000020
     atom   10 type  1   force =    -0.00000565   -0.00000442   -0.00000707
     atom   11 type  1   force =    -0.00000431   -0.00000756    0.00000446
     atom   12 type  1   force =    -0.00000179   -0.00001208    0.00000020
     atom   13 type  1   force =     0.00000553   -0.00001367    0.00000317
     atom   14 type  1   force =    -0.00000363   -0.00001657   -0.00000814
     atom   15 type  1   force =     0.00000489   -0.00001103    0.00000710
     atom   16 type  1   force =     0.00000906   -0.00000456   -0.00000971
     atom   17 type  1   force =     0.00001470   -0.00001008   -0.00000055
     atom   18 type  1   force =     0.00001114   -0.00000094    0.00001132
     atom   19 type  1   force =     0.00000057    0.00001012   -0.00000971
     atom   20 type  1   force =    -0.00000138    0.00001777   -0.00000055
     atom   21 type  1   force =     0.00000475    0.00001012    0.00001132
     atom   22 type  1   force =    -0.00000250   -0.00000034   -0.00000946
     atom   23 type  1   force =    -0.00000521    0.00000628    0.00000424
     atom   24 type  1   force =    -0.00000081    0.00000785    0.00000337
     atom   25 type  1   force =    -0.00000049   -0.00000028   -0.00000894
     atom   26 type  1   force =    -0.00000185   -0.00000107    0.00000969
     atom   27 type  1   force =    -0.00000159   -0.00000092    0.00000120
     atom   28 type  1   force =    -0.00000155   -0.00000200   -0.00000946
     atom   29 type  1   force =     0.00000283   -0.00000766    0.00000424
     atom   30 type  1   force =     0.00000640   -0.00000463    0.00000337
     atom   31 type  1   force =     0.00000675    0.00000326   -0.00001118
     atom   32 type  1   force =     0.00001235    0.00000197    0.00000653
     atom   33 type  1   force =     0.00001051    0.00000651    0.00000261
     atom   34 type  1   force =     0.00000982    0.00000567   -0.00001127
     atom   35 type  1   force =     0.00001528    0.00000882    0.00000589
     atom   36 type  1   force =     0.00001686    0.00000973    0.00000526
     atom   37 type  1   force =     0.00000620    0.00000421   -0.00001118
     atom   38 type  1   force =     0.00000788    0.00000971    0.00000653
     atom   39 type  1   force =     0.00001089    0.00000585    0.00000261
     atom   40 type  1   force =     0.00000362    0.00000393   -0.00000813
     atom   41 type  1   force =     0.00000328    0.00000446    0.00000855
     atom   42 type  1   force =     0.00000196    0.00000029    0.00000141
     atom   43 type  1   force =     0.00000521    0.00000117   -0.00000813
     atom   44 type  1   force =     0.00000550    0.00000061    0.00000855
     atom   45 type  1   force =     0.00000124    0.00000155    0.00000141
     atom   46 type  1   force =     0.00000557    0.00000280   -0.00000390
     atom   47 type  1   force =     0.00000399    0.00000305    0.00000176
     atom   48 type  1   force =    -0.00000781    0.00000643    0.00000022
     atom   49 type  1   force =     0.00000485    0.00000244   -0.00001108
     atom   50 type  1   force =     0.00000752    0.00000048    0.00000701
     atom   51 type  1   force =     0.00000140    0.00000734   -0.00000009
     atom   52 type  1   force =     0.00000454    0.00000298   -0.00001108
     atom   53 type  1   force =     0.00000417    0.00000628    0.00000701
     atom   54 type  1   force =     0.00000705   -0.00000245   -0.00000009
     atom   55 type  1   force =     0.00000521    0.00000342   -0.00000390
     atom   56 type  1   force =     0.00000464    0.00000193    0.00000176
     atom   57 type  1   force =     0.00000167   -0.00000998    0.00000022
     atom   58 type  1   force =     0.00000682    0.00000394   -0.00000121
     atom   59 type  1   force =     0.00000304    0.00000175   -0.00000210
     atom   60 type  1   force =    -0.00000551   -0.00000318    0.00000130
[...]
     atom  286 type  2   force =    -0.00000026   -0.00000082   -0.00000210
     atom  287 type  2   force =    -0.00000713    0.00000237    0.00000078
     atom  288 type  2   force =    -0.00000162    0.00000084   -0.00000423
     atom  289 type  2   force =     0.00000188   -0.00000066    0.00000243
     atom  290 type  2   force =    -0.00000320    0.00000201    0.00000099
     atom  291 type  2   force =    -0.00000008   -0.00000182   -0.00000423
     atom  292 type  2   force =     0.00000036    0.00000196    0.00000243
     atom  293 type  2   force =     0.00000014   -0.00000378    0.00000099
     atom  294 type  2   force =    -0.00000227   -0.00000262    0.00000120
     atom  295 type  2   force =    -0.00000084    0.00000018   -0.00000210
     atom  296 type  2   force =    -0.00000151   -0.00000736    0.00000078
     atom  297 type  2   force =    -0.00000512   -0.00000295    0.00000322
     atom  298 type  2   force =    -0.00000202   -0.00000117   -0.00000483
     atom  299 type  2   force =    -0.00000547   -0.00000316    0.00000180
     atom  300 type  1   force =    -0.00002415   -0.00001394    0.00002178

     Total force =     0.001830     Total SCF correction =     0.000175

     Computing stress (Cartesian axis) and pressure

[...]

          total   stress  (Ry/bohr**3)                   (kbar)     P=       -9.20
  -0.00007512  -0.00000005   0.00000005          -11.05       -0.01        0.01
  -0.00000005  -0.00007506   0.00000003           -0.01      -11.04        0.00
   0.00000005   0.00000003  -0.00003746            0.01        0.00       -5.51

     kinetic stress (kbar)  18444.71      0.01      0.02
                                0.01  18444.70      0.01
                                0.02      0.01  18450.28

     local   stress (kbar)   5596.82      1.03     -0.07
                                1.03   5595.45     -0.04
                               -0.07     -0.04   3727.37

     nonloc. stress (kbar)     85.23      0.00     -0.00
                                0.00     85.23     -0.00
                               -0.00     -0.00     92.39

     hartree stress (kbar)  19674.28     -0.42      0.01
                               -0.42  19674.76      0.01
                                0.01      0.01  20508.92

     exc-cor stress (kbar)   5270.47     -0.00      0.00
                               -0.00   5270.48      0.00
                                0.00      0.00   5271.41

     corecor stress (kbar) -14195.80      0.00     -0.00
                                0.00 -14195.81     -0.00
                               -0.00     -0.00 -14195.49

     ewald   stress (kbar) -35049.74     -0.62      0.05
                               -0.62 -35048.79      0.03
                                0.05      0.03 -34022.27

     hubbard stress (kbar)      0.00      0.00      0.00
                                0.00      0.00      0.00
                                0.00      0.00      0.00

     DFT-D   stress (kbar)      0.00      0.00      0.00
                                0.00      0.00      0.00
                                0.00      0.00      0.00

     XDM     stress (kbar)      0.00      0.00      0.00
                                0.00      0.00      0.00
                                0.00      0.00      0.00

     dft-nl  stress (kbar)    162.96      0.00     -0.00
                                0.00    162.96     -0.00
                               -0.00     -0.00    161.90

     TS-vdW  stress (kbar)      0.00      0.00      0.00
                                0.00      0.00      0.00
                                0.00      0.00      0.00

     MDB     stress (kbar)      0.00      0.00      0.00
                                0.00      0.00      0.00
                                0.00      0.00      0.00

     3D-RISM stress (kbar)      0.00      0.00      0.00
                                0.00      0.00      0.00
                                0.00      0.00      0.00

[...]

     Non-local corr. energy    =      82.13487176 Ry

 BEEFens 2000 ensemble energies
             -0.663846208583395E+02
             -0.598288524515592E+03
             -0.257490007252391E+03
              0.210524747072714E+03
             -0.430360376990671E+03
             -0.553400374119608E+03
              0.284218484877663E+03
             -0.299152951736614E+02
              0.473995499369283E+03
             -0.204966497363971E+02
              0.232717545355102E+03
              0.966437802783275E+01
              0.941986115111490E+01
             -0.203162443488159E+02
              0.310164686435637E+03
             -0.225859150171125E+03
             -0.465314881398176E+03
             -0.152068063067078E+03
              0.113682547307705E+03
             -0.102642881692873E+02
              0.679609580246830E+03
              0.578178119866107E+03
             -0.331165900968203E+03
              0.119775657123174E+03
             -0.725800001812802E+03
              0.581990784465241E+03
              0.190062990731891E+03
              0.565578936925593E+03
              0.371652649813222E+03
             -0.180737209866142E+03
              0.136934977295520E+03
             -0.267192920474463E+03
              0.749521142382454E+02
              0.363885066226816E+03
              0.385719223854702E+03
             -0.139414018671073E+03
              0.856774648268025E+03
             -0.325320172005204E+03
             -0.234108464322421E+03
              0.343439774875729E+03
              0.153622851457877E+03
              0.256986643260858E+03
             -0.489934929714746E+03
             -0.137166711910322E+02
              0.480825461974565E+03
              0.624742426324950E+03
             -0.622010337860258E+03
              0.442823521716958E+02
              0.234441030659852E+03
              0.114418628177755E+03
              0.260009113490923E+03
              0.550766363406759E+03
             -0.332884069793257E+03
             -0.365035716759079E+03
             -0.474589157993766E+03
             -0.733006986984133E+02
             -0.432943018212088E+03
              0.424513462317295E+02
             -0.799919920076991E+02
             -0.337273257204124E+03
[...]
              0.420923948044426E+03
              0.232710885601550E+03
              0.295376506075932E+03
             -0.477615946091591E+03
             -0.457547058121976E+03
             -0.115549424596380E+03
             -0.448284756804703E+03
              0.717463570288744E+03
              0.614915004683750E+03
              0.293899378124136E+03
              0.795916964197412E+03
             -0.414174717066479E+03
             -0.168689668819479E+03
             -0.234888048498653E+03
              0.658469324154129E+03

 BEEF-vdW xc energy contributions
            1 :    -6032.700232804090
            2 :     5433.958786968506
            3 :    -4430.955491124564
            4 :     3317.424920235878
            5 :    -2351.738592857851
            6 :     1658.585006754729
            7 :    -1215.083270190436
            8 :     914.7373321038476
            9 :    -657.7332054240660
           10 :     408.8590556359304
           11 :    -195.2747889803395
           12 :     60.43158928550474
           13 :    -16.49185484315149
           14 :     30.46001484600947
           15 :    -48.61749242578298
           16 :     34.77719597718442
           17 :     8.915872083607610
           18 :    -52.43030697933318
           19 :     67.69637757480632
           20 :    -52.50662982979338
           21 :     30.60334076457457
           22 :    -30.53111533031642
           23 :     62.14383208341042
           24 :    -109.6376565607497
           25 :     145.2367500084229
           26 :    -151.0569062580507
           27 :     131.3530678950719
           28 :    -106.4789594042149
           29 :     95.02952822104726
           30 :    -99.37109136284289
           31 :    -516.3587181335724
           32 :    -353.8248811872782

     Writing all to output data dir ./GaN.save/

     General routines

     Parallel routines

     PAW routines

   This run was terminated on:  12:50:29   7Mar2024

   JOB DONE.