     Program PWSCF v.7.1 starts on 22Apr2024 at  9:20:31

     Reading input from espresso.pwi
Warning: card &CELL ignored
Warning: card    CELL_DYNAMICS    = 'BFGS' ignored
Warning: card / ignored

     Current dimensions of program PWSCF are:
     Max number of different atomic species (ntypx) = 10
     Max number of k-points (npk) =  40000
     Max angular momentum in pseudopotentials (lmaxx) =  4
     file Ga.pbe-dn-kjpaw_psl.1.0.0.UPF: wavefunction(s)  4S renormalized
     file N.pbe-n-kjpaw_psl.1.0.0.UPF: wavefunction(s)  2S renormalized

     IMPORTANT: XC functional enforced from input :
     Exchange-correlation= BEEF-VDW
                           (   1   4  43  14   2   0   0)
     Any further DFT definition will be discarded
     Please, verify this is what you really want

     K-points division:     npool     =       4
     R & G space division:  proc/nbgrp/npool/nimage =      64
     Subspace diagonalization in iterative solution of the eigenvalue problem:
     a serial algorithm will be used

     Using Slab Decomposition

     bravais-lattice index     =            4
     lattice parameter (alat)  =      30.6565  a.u.
     unit-cell volume          =   24400.9461 (a.u.)^3
     number of atoms/cell      =          300
     number of atomic types    =            2
     number of electrons       =      2690.00
     number of Kohn-Sham states=         1614
     kinetic-energy cutoff     =      70.0000  Ry
     charge density cutoff     =     350.0000  Ry
     scf convergence threshold =      1.0E-07
     mixing beta               =       0.7000
     number of iterations used =            8  plain     mixing
     energy convergence thresh.=      1.0E-04
     force convergence thresh. =      1.0E-03
     Exchange-correlation= BEEF-VDW
                           (   1   4  43  14   2   0   0)
     nstep                     =           50

     celldm(1)=  30.656540  celldm(2)=   0.000000  celldm(3)=   0.977927
     celldm(4)=   0.000000  celldm(5)=   0.000000  celldm(6)=   0.000000

     crystal axes: (cart. coord. in units of alat)
               a(1) = (   1.000000   0.000000   0.000000 )
               a(2) = (  -0.500000   0.866025   0.000000 )
               a(3) = (   0.000000   0.000000   0.977927 )

     reciprocal axes: (cart. coord. in units 2 pi/alat)
               b(1) = (  1.000000  0.577350 -0.000000 )
               b(2) = (  0.000000  1.154701  0.000000 )
               b(3) = (  0.000000 -0.000000  1.022571 )

     PseudoPot. # 1 for Ga read from file:
     //group///packages/espresso/pseudo/psl_1.0.0/pslibrary.1.0.0/pbe/PSEUDOPOTENTIALS/Ga.pbe-dn-kjpaw_psl.1.0.0.UPF
     MD5 check sum: cd2a01e492f15b435d17032472d8505c
     Pseudo is Projector augmented-wave + core cor, Zval = 13.0
     Generated using 'atomic' code by A. Dal Corso  v.7.1
     Shape of augmentation charge: PSQ
     Using radial grid of 1205 points,  6 beta functions with:
                l(1) =   0
                l(2) =   0
                l(3) =   1
                l(4) =   1
                l(5) =   2
                l(6) =   2
     Q(r) pseudized with 0 coefficients

     PseudoPot. # 2 for N  read from file:
     //group///packages/espresso/pseudo/psl_1.0.0/pslibrary.1.0.0/pbe/PSEUDOPOTENTIALS/N.pbe-n-kjpaw_psl.1.0.0.UPF
     MD5 check sum: f77f775694dac7e2c3fe1c82443d1a16
     Pseudo is Projector augmented-wave + core cor, Zval =  5.0
     Generated using 'atomic' code by A. Dal Corso  v.7.1
     Shape of augmentation charge: PSQ
     Using radial grid of 1085 points,  4 beta functions with:
                l(1) =   0
                l(2) =   0
                l(3) =   1
                l(4) =   1
     Q(r) pseudized with 0 coefficients

     atomic species   valence    mass     pseudopotential
        Ga            13.00    69.72300     Ga( 1.00)
        N              5.00    14.00700     N ( 1.00)

      2 Sym. Ops. (no inversion) found

                                    s                        frac. trans.

      isym =  1     identity

 cryst.   s( 1) = (     1          0          0      )
                  (     0          1          0      )
                  (     0          0          1      )

 cart.    s( 1) = (  1.0000000  0.0000000  0.0000000 )
                  (  0.0000000  1.0000000  0.0000000 )
                  (  0.0000000  0.0000000  1.0000000 )

      isym =  2     inv. 180 deg rotation - cryst. axis [0,1,0]

 cryst.   s( 2) = (     1          1          0      )
                  (     0         -1          0      )
                  (     0          0          1      )

 cart.    s( 2) = (  0.5000000  0.8660254  0.0000000 )
                  (  0.8660254 -0.5000000  0.0000000 )
                  (  0.0000000  0.0000000  1.0000000 )

     point group C_s (m)
     there are  2 classes
     the character table:

       E     s
A'     1.00  1.00
A''    1.00 -1.00

     the symmetry operations in each class and the name of the first element:

     E        1
          identity
     s        2
          inv. 180 deg rotation - cryst. axis [0,1,0]

   Cartesian axes

     site n.     atom                  positions (alat units)
         1           Ga  tau(   1) = (   0.1000001   0.0577350   0.4886906  )
         2           Ga  tau(   2) = (   0.1000001   0.0577350   0.8146665  )
         3           Ga  tau(   3) = (   0.0000001   0.2309401   0.1627148  )
         4           Ga  tau(   4) = (   0.0000001   0.2309401   0.4886906  )
         5           Ga  tau(   5) = (   0.0000001   0.2309401   0.8146665  )
         6           Ga  tau(   6) = (  -0.0999999   0.4041451   0.1627148  )
         7           Ga  tau(   7) = (  -0.0999999   0.4041451   0.4886906  )
         8           Ga  tau(   8) = (  -0.0999999   0.4041451   0.8146665  )
         9           Ga  tau(   9) = (  -0.1999999   0.5773502   0.1627148  )
        10           Ga  tau(  10) = (  -0.1999999   0.5773502   0.4886906  )
        11           Ga  tau(  11) = (  -0.1999999   0.5773502   0.8146665  )
        12           Ga  tau(  12) = (  -0.2999999   0.7505553   0.1627148  )
        13           Ga  tau(  13) = (  -0.2999999   0.7505553   0.4886906  )
        14           Ga  tau(  14) = (  -0.2999999   0.7505553   0.8146665  )
        15           Ga  tau(  15) = (   0.3000001   0.0577350   0.1627148  )
        16           Ga  tau(  16) = (   0.3000001   0.0577350   0.4886906  )
        17           Ga  tau(  17) = (   0.3000001   0.0577350   0.8146665  )
        18           Ga  tau(  18) = (   0.2000001   0.2309401   0.1627148  )
        19           Ga  tau(  19) = (   0.2000001   0.2309401   0.4886906  )
        20           Ga  tau(  20) = (   0.2000001   0.2309401   0.8146665  )
        21           Ga  tau(  21) = (   0.1000001   0.4041451   0.1627148  )
        22           Ga  tau(  22) = (   0.1000001   0.4041451   0.4886906  )
        23           Ga  tau(  23) = (   0.1000001   0.4041451   0.8146665  )
        24           Ga  tau(  24) = (   0.0000001   0.5773502   0.1627148  )
        25           Ga  tau(  25) = (   0.0000001   0.5773502   0.4886906  )
        26           Ga  tau(  26) = (   0.0000001   0.5773502   0.8146665  )
        27           Ga  tau(  27) = (  -0.0999999   0.7505553   0.1627148  )
        28           Ga  tau(  28) = (  -0.0999999   0.7505553   0.4886906  )
        29           Ga  tau(  29) = (  -0.0999999   0.7505553   0.8146665  )
        30           Ga  tau(  30) = (   0.5000001   0.0577350   0.1627148  )
        31           Ga  tau(  31) = (   0.5000001   0.0577350   0.4886906  )
        32           Ga  tau(  32) = (   0.5000001   0.0577350   0.8146665  )
        33           Ga  tau(  33) = (   0.4000001   0.2309401   0.1627148  )
        34           Ga  tau(  34) = (   0.4000001   0.2309401   0.4886906  )
        35           Ga  tau(  35) = (   0.4000001   0.2309401   0.8146665  )
        36           Ga  tau(  36) = (   0.3000001   0.4041451   0.1627148  )
        37           Ga  tau(  37) = (   0.3000001   0.4041451   0.4886906  )
        38           Ga  tau(  38) = (   0.3000001   0.4041451   0.8146665  )
        39           Ga  tau(  39) = (   0.2000001   0.5773502   0.1627148  )
        40           Ga  tau(  40) = (   0.2000001   0.5773502   0.4886906  )
        41           Ga  tau(  41) = (   0.2000001   0.5773502   0.8146665  )
        42           Ga  tau(  42) = (   0.1000001   0.7505553   0.1627148  )
        43           Ga  tau(  43) = (   0.1000001   0.7505553   0.4886906  )
        44           Ga  tau(  44) = (   0.1000001   0.7505553   0.8146665  )
        45           Ga  tau(  45) = (   0.7000001   0.0577350   0.1627148  )
        46           Ga  tau(  46) = (   0.7000001   0.0577350   0.4886906  )
        47           Ga  tau(  47) = (   0.7000001   0.0577350   0.8146665  )
        48           Ga  tau(  48) = (   0.6000001   0.2309401   0.1627148  )
        49           Ga  tau(  49) = (   0.6000001   0.2309401   0.4886906  )
        50           Ga  tau(  50) = (   0.6000001   0.2309401   0.8146665  )
        51           Ga  tau(  51) = (   0.5000001   0.4041451   0.1627148  )
        52           Ga  tau(  52) = (   0.5000001   0.4041451   0.4886906  )
        53           Ga  tau(  53) = (   0.5000001   0.4041451   0.8146665  )
        54           Ga  tau(  54) = (   0.4000001   0.5773502   0.1627148  )
        55           Ga  tau(  55) = (   0.4000001   0.5773502   0.4886906  )
        56           Ga  tau(  56) = (   0.4000001   0.5773502   0.8146665  )
        57           Ga  tau(  57) = (   0.3000001   0.7505553   0.1627148  )
        58           Ga  tau(  58) = (   0.3000001   0.7505553   0.4886906  )
        59           Ga  tau(  59) = (   0.3000001   0.7505553   0.8146665  )
        60           Ga  tau(  60) = (   0.9000001   0.0577350   0.1627148  )
[...]
       286           N   tau( 286) = (   0.7999999   0.1154701   0.4484898  )
       287           N   tau( 287) = (   0.7999999   0.1154701   0.7744656  )
       288           N   tau( 288) = (   0.6999999   0.2886752   0.1225140  )
       289           N   tau( 289) = (   0.6999999   0.2886752   0.4484898  )
       290           N   tau( 290) = (   0.6999999   0.2886752   0.7744656  )
       291           N   tau( 291) = (   0.5999999   0.4618803   0.1225140  )
       292           N   tau( 292) = (   0.5999999   0.4618803   0.4484898  )
       293           N   tau( 293) = (   0.5999999   0.4618803   0.7744656  )
       294           N   tau( 294) = (   0.4999999   0.6350854   0.1225140  )
       295           N   tau( 295) = (   0.4999999   0.6350854   0.4484898  )
       296           N   tau( 296) = (   0.4999999   0.6350854   0.7744656  )
       297           N   tau( 297) = (   0.3999999   0.8082905   0.1225140  )
       298           N   tau( 298) = (   0.3999999   0.8082905   0.4484898  )
       299           N   tau( 299) = (   0.3999999   0.8082905   0.7744656  )
       300           N   tau( 300) = (   0.1000001   0.0577350   0.1627148  )

   Crystallographic axes

     site n.     atom                  positions (cryst. coord.)
         1           Ga  tau(   1) = (  0.1333334  0.0666666  0.4997208  )
[...]
     atom   53 type  1   force =     0.00000000    0.00000000    0.00000000
     atom   54 type  1   force =     0.00000000    0.00000000    0.00000000
     atom   55 type  1   force =     0.00000000    0.00000000    0.00000000
     atom   56 type  1   force =     0.00000000    0.00000000    0.00000000
     atom   57 type  1   force =     0.00000000    0.00000000    0.00000000
     atom   58 type  1   force =     0.00000000    0.00000000    0.00000000
     atom   59 type  1   force =     0.00000000    0.00000000    0.00000000
     atom   60 type  1   force =     0.00000000    0.00000000    0.00000000
[...]
     atom  286 type  2   force =     0.00000000    0.00000000    0.00000000
     atom  287 type  2   force =     0.00000000    0.00000000    0.00000000
     atom  288 type  2   force =     0.00000000    0.00000000    0.00000000
     atom  289 type  2   force =     0.00000000    0.00000000    0.00000000
     atom  290 type  2   force =     0.00000000    0.00000000    0.00000000
     atom  291 type  2   force =     0.00000000    0.00000000    0.00000000
     atom  292 type  2   force =     0.00000000    0.00000000    0.00000000
     atom  293 type  2   force =     0.00000000    0.00000000    0.00000000
     atom  294 type  2   force =     0.00000000    0.00000000    0.00000000
     atom  295 type  2   force =     0.00000000    0.00000000    0.00000000
     atom  296 type  2   force =     0.00000000    0.00000000    0.00000000
     atom  297 type  2   force =     0.00000000    0.00000000    0.00000000
     atom  298 type  2   force =     0.00000000    0.00000000    0.00000000
     atom  299 type  2   force =     0.00000000    0.00000000    0.00000000
     atom  300 type  2   force =     0.00000000    0.00000000    0.00000000
     The SCF correction term to forces
     atom    1 type  1   force =     0.00000024    0.00000014    0.00005650
     atom    2 type  1   force =     0.00000030    0.00000017    0.00001678
     atom    3 type  1   force =    -0.00001432    0.00002245   -0.00002325
     atom    4 type  1   force =    -0.00001585    0.00003120    0.00001885
     atom    5 type  1   force =     0.00000329   -0.00000022    0.00000310
     atom    6 type  1   force =    -0.00001920    0.00001835    0.00000023
     atom    7 type  1   force =    -0.00001102    0.00001866   -0.00000468
     atom    8 type  1   force =     0.00000328    0.00000521   -0.00000400
     atom    9 type  1   force =     0.00000629   -0.00002581    0.00000023
     atom   10 type  1   force =     0.00001065   -0.00001887   -0.00000468
     atom   11 type  1   force =     0.00000615    0.00000024   -0.00000400
     atom   12 type  1   force =     0.00001228   -0.00002363   -0.00002325
     atom   13 type  1   force =     0.00001909   -0.00002933    0.00001885
     atom   14 type  1   force =     0.00000145    0.00000296    0.00000310
     atom   15 type  1   force =     0.00002594    0.00000114   -0.00002363
     atom   16 type  1   force =     0.00003476   -0.00000194    0.00001903
     atom   17 type  1   force =    -0.00000199   -0.00000259    0.00000325
     atom   18 type  1   force =     0.00001395    0.00002190   -0.00002363
     atom   19 type  1   force =     0.00001570    0.00003107    0.00001903
     atom   20 type  1   force =    -0.00000324   -0.00000043    0.00000325
     atom   21 type  1   force =     0.00000001    0.00003796   -0.00000460
     atom   22 type  1   force =    -0.00000005    0.00003406   -0.00000072
     atom   23 type  1   force =     0.00000007    0.00000774   -0.00000308
     atom   24 type  1   force =     0.00001078    0.00000622    0.00001065
     atom   25 type  1   force =     0.00000978    0.00000565   -0.00001303
     atom   26 type  1   force =     0.00000578    0.00000333   -0.00000562
     atom   27 type  1   force =     0.00003288   -0.00001897   -0.00000460
     atom   28 type  1   force =     0.00002947   -0.00001707   -0.00000072
     atom   29 type  1   force =     0.00000673   -0.00000381   -0.00000308
     atom   30 type  1   force =     0.00002582    0.00000718   -0.00000008
     atom   31 type  1   force =     0.00002178   -0.00000002   -0.00000442
     atom   32 type  1   force =     0.00000300   -0.00000547   -0.00000400
     atom   33 type  1   force =     0.00003969    0.00002292   -0.00000237
     atom   34 type  1   force =     0.00002823    0.00001630   -0.00000112
     atom   35 type  1   force =     0.00000261    0.00000151    0.00000107
     atom   36 type  1   force =     0.00001913    0.00001877   -0.00000008
     atom   37 type  1   force =     0.00001087    0.00001887   -0.00000442
     atom   38 type  1   force =    -0.00000324    0.00000533   -0.00000400
     atom   39 type  1   force =    -0.00001072    0.00000621    0.00001056
     atom   40 type  1   force =    -0.00000982    0.00000563   -0.00001300
     atom   41 type  1   force =    -0.00000560    0.00000334   -0.00000564
     atom   42 type  1   force =     0.00000002   -0.00001239    0.00001056
     atom   43 type  1   force =    -0.00000003   -0.00001132   -0.00001300
     atom   44 type  1   force =     0.00000009   -0.00000652   -0.00000564
     atom   45 type  1   force =    -0.00002556    0.00000740   -0.00000011
     atom   46 type  1   force =    -0.00002167    0.00000018   -0.00000448
     atom   47 type  1   force =    -0.00000293   -0.00000551   -0.00000396
     atom   48 type  1   force =     0.00000046    0.00001496    0.00001132
     atom   49 type  1   force =     0.00000023    0.00001020   -0.00001684
     atom   50 type  1   force =     0.00000006   -0.00000047   -0.00000072
     atom   51 type  1   force =     0.00001319   -0.00000708    0.00001132
     atom   52 type  1   force =     0.00000895   -0.00000490   -0.00001684
     atom   53 type  1   force =    -0.00000038    0.00000029   -0.00000072
     atom   54 type  1   force =    -0.00000637   -0.00002584   -0.00000011
     atom   55 type  1   force =    -0.00001068   -0.00001886   -0.00000448
     atom   56 type  1   force =    -0.00000623    0.00000022   -0.00000396
     atom   57 type  1   force =    -0.00003296   -0.00001903   -0.00000484
     atom   58 type  1   force =    -0.00002953   -0.00001705   -0.00000055
     atom   59 type  1   force =    -0.00000677   -0.00000391   -0.00000306
     atom   60 type  1   force =    -0.00002727    0.00000133   -0.00002373
[...]
     atom  286 type  2   force =    -0.00001521    0.00000378    0.00000093
     atom  287 type  2   force =    -0.00000107   -0.00000167    0.00000008
     atom  288 type  2   force =    -0.00000675    0.00000384    0.00000528
     atom  289 type  2   force =    -0.00000715    0.00000413   -0.00000642
     atom  290 type  2   force =    -0.00000019    0.00000003   -0.00000070
     atom  291 type  2   force =    -0.00000005   -0.00000777    0.00000528
     atom  292 type  2   force =     0.00000000   -0.00000826   -0.00000642
     atom  293 type  2   force =    -0.00000007   -0.00000018   -0.00000070
     atom  294 type  2   force =    -0.00000593   -0.00001921   -0.00000429
     atom  295 type  2   force =    -0.00000433   -0.00001506    0.00000093
     atom  296 type  2   force =    -0.00000198   -0.00000009    0.00000008
     atom  297 type  2   force =    -0.00001527   -0.00000882   -0.00001071
     atom  298 type  2   force =    -0.00001482   -0.00000856    0.00000491
     atom  299 type  2   force =    -0.00000173   -0.00000100    0.00000179
     atom  300 type  2   force =     0.00000050    0.00000029   -0.00002532

     Total force =     0.034827     Total SCF correction =     0.000381

     Computing stress (Cartesian axis) and pressure

[...]

          total   stress  (Ry/bohr**3)                   (kbar)     P=      -14.19
  -0.00011401   0.00000003  -0.00000004          -16.77        0.00       -0.01
   0.00000003  -0.00011405  -0.00000002            0.00      -16.78       -0.00
  -0.00000004  -0.00000002  -0.00006139           -0.01       -0.00       -9.03

     kinetic stress (kbar)  18378.24      0.02     -0.00
                                0.02  18378.22     -0.00
                               -0.00     -0.00  18388.79

     local   stress (kbar)   5155.98      0.17     -0.09
                                0.17   5155.61     -0.05
                               -0.09     -0.05   3893.23

     nonloc. stress (kbar)     90.50     -0.01      0.00
                               -0.01     90.50      0.00
                                0.00      0.00    103.94

     hartree stress (kbar)  19567.95     -0.09      0.06
                               -0.09  19568.06      0.03
                                0.06      0.03  20176.59

     exc-cor stress (kbar)   5174.95     -0.00     -0.00
                               -0.00   5174.95     -0.00
                               -0.00     -0.00   5173.83

     corecor stress (kbar) -14024.53      0.00      0.00
                                0.00 -14024.53      0.00
                                0.00      0.00 -14024.07

     ewald   stress (kbar) -34520.95     -0.07      0.03
                               -0.07 -34520.64      0.01
                                0.03      0.01 -33881.93

     hubbard stress (kbar)      0.00      0.00      0.00
                                0.00      0.00      0.00
                                0.00      0.00      0.00

     DFT-D   stress (kbar)      0.00      0.00      0.00
                                0.00      0.00      0.00
                                0.00      0.00      0.00

     XDM     stress (kbar)      0.00      0.00      0.00
                                0.00      0.00      0.00
                                0.00      0.00      0.00

     dft-nl  stress (kbar)    161.07      0.00      0.00
                                0.00    161.07      0.00
                                0.00      0.00    160.58

     TS-vdW  stress (kbar)      0.00      0.00      0.00
                                0.00      0.00      0.00
                                0.00      0.00      0.00

     MDB     stress (kbar)      0.00      0.00      0.00
                                0.00      0.00      0.00
                                0.00      0.00      0.00

     3D-RISM stress (kbar)      0.00      0.00      0.00
                                0.00      0.00      0.00
                                0.00      0.00      0.00

     Energy error            =      2.8E-03 Ry
     Gradient error          =      1.3E-02 Ry/Bohr

     number of scf cycles    =   4
     number of bfgs steps    =   3

     energy             old  =  -46589.9846830809 Ry
     energy             new  =  -46589.9875127975 Ry

     CASE: energy            _new < energy            _old

     new trust radius        =       0.0120808837 bohr
     new conv_thr            =       0.0000000129 Ry

ATOMIC_POSITIONS (angstrom)
Ga            1.6214412583        0.9361380760        7.9318761406
Ga            1.6217230896        0.9363007914       13.1054040449
Ga            0.0758639841        3.7367975370        2.6803511771
Ga           -0.0049911883        3.7564561179        7.9447425839
Ga           -0.0026224934        3.7486027376       13.1955727107
Ga           -1.6090475085        6.5419169298        2.6401381870
Ga           -1.6246699772        6.5588766609        7.9267720333
Ga           -1.6234769972        6.5577610781       13.2205037777
Ga           -3.2504272725        9.3848700757        2.6401381870
Ga           -3.2435509489        9.3628607553        7.9267720333
Ga           -3.2439205819        9.3644516977       13.2205037777
Ga           -4.8372761810       12.2466059278        2.6803511771
Ga           -4.8606789367       12.1667540040        7.9447425839
Ga           -4.8662958161       12.1727320441       13.1955727107
Ga            4.8201038337        0.8772145033        2.6801428269
Ga            4.8783770802        0.9355470178        7.9446403696
Ga            4.8699552067        0.9374283936       13.1956169644
Ga            3.1697432351        3.7357229109        2.6801428269
Ga            3.2493972978        3.7570227654        7.9446403696
Ga            3.2468156803        3.7487885211       13.1956169644
Ga            1.6231747319        6.5681590457        2.6480815457
Ga            1.6224611532        6.5621687717        7.9321559879
Ga            1.6225595937        6.5627712196       13.2128022736
Ga           -0.0009107797        9.3656772003        2.6410293421
Ga            0.0005915749        9.3665445851        7.9275656608
Ga            0.0006919943        9.3666025623       13.2138198253
Ga           -1.6115898134       12.1709355887        2.6480815457
Ga           -1.6171343321       12.1733127484        7.9321559879
Ga           -1.6165633767       12.1730967764       13.2128022736
Ga            8.0933655133        0.9324181973        2.6402408031
Ga            8.1144322175        0.9366535302        7.9268173156
Ga            8.1130553661        0.9362854929       13.2205434719
Ga            6.4726642863        3.7369929972        2.6487841808
Ga            6.4903258691        3.7471899168        7.9269316468
Ga            6.4931211966        3.7488037999       13.2172881197
Ga            4.8541818764        6.5428488318        2.6402408031
Ga            4.8683831344        6.5589754664        7.9268173156
Ga            4.8673759790        6.5579670968       13.2205434719
Ga            3.2462380301        9.3657979569        2.6411860581
Ga            3.2440921735        9.3664635726        7.9277059189
Ga            3.2441012999        9.3666278443       13.2140455246
Ga            1.6227682035       12.1777301813        2.6411860581
Ga            1.6222717153       12.1755390072        7.9277059189
Ga            1.6224185420       12.1754647749       13.2140455246
Ga           11.3760069031        0.9325000155        2.6400760506
Ga           11.3516395068        0.9364271669        7.9268460904
Ga           11.3534431906        0.9359697186       13.2200568913
Ga            9.7333214939        3.7466318576        2.6417207190
Ga            9.7330254624        3.7458379337        7.9256569959
Ga            9.7329528078        3.7475076107       13.2158026754
Ga            8.1113403880        6.5559855420        2.6417207190
Ga            8.1105048140        6.5561261331        7.9256569959
Ga            8.1119144693        6.5552283739       13.2158026754
Ga            6.4955734279        9.3856587578        2.6400760506
Ga            6.4867907426        9.3625923978        7.9268460904
Ga            6.4872964226        9.3643831580       13.2200568913
Ga            4.8565266640       12.1701200161        2.6478067346
Ga            4.8610774240       12.1727473986        7.9323086869
Ga            4.8610531566       12.1727333878       13.2129824871
Ga           14.6466984478        0.8767587575        2.6799327089
[...]
N            12.9779788214        1.8710894963        7.2717549219
N            12.9775877682        1.8737229510       12.5715250639
N            11.3708608009        4.6745392036        1.9889106651
N            11.3564780870        4.6825309506        7.2724105512
N            11.3559094789        4.6828270683       12.5641231876
N             9.7336977817        7.5101887333        1.9889106651
N             9.7334274807        7.4937370641        7.2724105512
N             9.7333996220        7.4930965763       12.5641231876
N             8.1441686325       10.3853499414        1.9912248335
N             8.1093981273       10.3037186195        7.2717549219
N             8.1114832393       10.3020632301       12.5715250639
N             6.4916519881       13.1141642120        1.9764219759
N             6.4891311531       13.1127088073        7.2839666402
N             6.4896820434       13.1130268639       12.5733705018
N             1.6223946360        0.9366885089        2.2539112620

     Writing config-only to output data dir ./GaN.save/
     NEW-OLD atomic charge density approx. for the potential

     Check: negative core charge=   -0.000003

[...]

     Self-consistent Calculation

[...]

     ethr =  2.90E-07,  avg # of iterations = 16.3

     Non-local corr. energy    =      81.33509942 Ry

     total energy              =  -46589.98608366 Ry
     estimated scf accuracy    <       0.03320140 Ry

     iteration #  4     ecut=    70.00 Ry     beta= 0.70
     Davidson diagonalization with overlap

     max_seconds     =  154800.00
     Calculation stopped in k-point loop, point #     1
     Calculation stopped in scf loop at iteration #     3

     Writing config to output data dir ./GaN.save/

     General routines

     Parallel routines

     PAW routines

   This run was terminated on:   4:35:13  24Apr2024

   JOB DONE.