     Program PWSCF v.7.1 starts on 11Mar2024 at 10:51:14

     Reading input from espresso.pwi
Warning: card &CELL ignored
Warning: card    CELL_DYNAMICS    = 'BFGS' ignored
Warning: card / ignored

     Current dimensions of program PWSCF are:
     Max number of different atomic species (ntypx) = 10
     Max number of k-points (npk) =  40000
     Max angular momentum in pseudopotentials (lmaxx) =  4
     file Ga.pbe-dn-kjpaw_psl.1.0.0.UPF: wavefunction(s)  4S renormalized
     file N.pbe-n-kjpaw_psl.1.0.0.UPF: wavefunction(s)  2S renormalized

     IMPORTANT: XC functional enforced from input :
     Exchange-correlation= BEEF-VDW
                           (   1   4  43  14   2   0   0)
     Any further DFT definition will be discarded
     Please, verify this is what you really want

     K-points division:     npool     =       4
     R & G space division:  proc/nbgrp/npool/nimage =      64
     Subspace diagonalization in iterative solution of the eigenvalue problem:
     a serial algorithm will be used

     Using Slab Decomposition

     bravais-lattice index     =            4
     lattice parameter (alat)  =      30.6565  a.u.
     unit-cell volume          =   24400.9461 (a.u.)^3
     number of atoms/cell      =          300
     number of atomic types    =            2
     number of electrons       =      2692.00
     number of Kohn-Sham states=         1615
     kinetic-energy cutoff     =      70.0000  Ry
     charge density cutoff     =     350.0000  Ry
     scf convergence threshold =      1.0E-07
     mixing beta               =       0.7000
     number of iterations used =            8  plain     mixing
     energy convergence thresh.=      1.0E-04
     force convergence thresh. =      1.0E-03
     Exchange-correlation= BEEF-VDW
                           (   1   4  43  14   2   0   0)
     nstep                     =           50

     celldm(1)=  30.656540  celldm(2)=   0.000000  celldm(3)=   0.977927
     celldm(4)=   0.000000  celldm(5)=   0.000000  celldm(6)=   0.000000

     crystal axes: (cart. coord. in units of alat)
               a(1) = (   1.000000   0.000000   0.000000 )
               a(2) = (  -0.500000   0.866025   0.000000 )
               a(3) = (   0.000000   0.000000   0.977927 )

     reciprocal axes: (cart. coord. in units 2 pi/alat)
               b(1) = (  1.000000  0.577350 -0.000000 )
               b(2) = (  0.000000  1.154701  0.000000 )
               b(3) = (  0.000000 -0.000000  1.022571 )

     PseudoPot. # 1 for Ga read from file:
     //group///packages/espresso/pseudo/psl_1.0.0/pslibrary.1.0.0/pbe/PSEUDOPOTENTIALS/Ga.pbe-dn-kjpaw_psl.1.0.0.UPF
     MD5 check sum: cd2a01e492f15b435d17032472d8505c
     Pseudo is Projector augmented-wave + core cor, Zval = 13.0
     Generated using 'atomic' code by A. Dal Corso  v.7.1
     Shape of augmentation charge: PSQ
     Using radial grid of 1205 points,  6 beta functions with:
                l(1) =   0
                l(2) =   0
                l(3) =   1
                l(4) =   1
                l(5) =   2
                l(6) =   2
     Q(r) pseudized with 0 coefficients

     PseudoPot. # 2 for N  read from file:
     //group///packages/espresso/pseudo/psl_1.0.0/pslibrary.1.0.0/pbe/PSEUDOPOTENTIALS/N.pbe-n-kjpaw_psl.1.0.0.UPF
     MD5 check sum: f77f775694dac7e2c3fe1c82443d1a16
     Pseudo is Projector augmented-wave + core cor, Zval =  5.0
     Generated using 'atomic' code by A. Dal Corso  v.7.1
     Shape of augmentation charge: PSQ
     Using radial grid of 1085 points,  4 beta functions with:
                l(1) =   0
                l(2) =   0
                l(3) =   1
                l(4) =   1
     Q(r) pseudized with 0 coefficients

     atomic species   valence    mass     pseudopotential
        Ga            13.00    69.72300     Ga( 1.00)
        N              5.00    14.00700     N ( 1.00)

      2 Sym. Ops. (no inversion) found

                                    s                        frac. trans.

      isym =  1     identity

 cryst.   s( 1) = (     1          0          0      )
                  (     0          1          0      )
                  (     0          0          1      )

 cart.    s( 1) = (  1.0000000  0.0000000  0.0000000 )
                  (  0.0000000  1.0000000  0.0000000 )
                  (  0.0000000  0.0000000  1.0000000 )

      isym =  2     inv. 180 deg rotation - cryst. axis [0,1,0]

 cryst.   s( 2) = (     1          1          0      )
                  (     0         -1          0      )
                  (     0          0          1      )

 cart.    s( 2) = (  0.5000000  0.8660254  0.0000000 )
                  (  0.8660254 -0.5000000  0.0000000 )
                  (  0.0000000  0.0000000  1.0000000 )

     point group C_s (m)
     there are  2 classes
     the character table:

       E     s
A'     1.00  1.00
A''    1.00 -1.00

     the symmetry operations in each class and the name of the first element:

     E        1
          identity
     s        2
          inv. 180 deg rotation - cryst. axis [0,1,0]

   Cartesian axes

     site n.     atom                  positions (alat units)
         1           Ga  tau(   1) = (   0.1000001   0.0577350   0.4886906  )
         2           Ga  tau(   2) = (   0.1000001   0.0577350   0.8146665  )
         3           Ga  tau(   3) = (   0.0000001   0.2309401   0.1627148  )
         4           Ga  tau(   4) = (   0.0000001   0.2309401   0.4886906  )
         5           Ga  tau(   5) = (   0.0000001   0.2309401   0.8146665  )
         6           Ga  tau(   6) = (  -0.0999999   0.4041451   0.1627148  )
         7           Ga  tau(   7) = (  -0.0999999   0.4041451   0.4886906  )
         8           Ga  tau(   8) = (  -0.0999999   0.4041451   0.8146665  )
         9           Ga  tau(   9) = (  -0.1999999   0.5773502   0.1627148  )
        10           Ga  tau(  10) = (  -0.1999999   0.5773502   0.4886906  )
        11           Ga  tau(  11) = (  -0.1999999   0.5773502   0.8146665  )
        12           Ga  tau(  12) = (  -0.2999999   0.7505553   0.1627148  )
        13           Ga  tau(  13) = (  -0.2999999   0.7505553   0.4886906  )
        14           Ga  tau(  14) = (  -0.2999999   0.7505553   0.8146665  )
        15           Ga  tau(  15) = (   0.3000001   0.0577350   0.1627148  )
        16           Ga  tau(  16) = (   0.3000001   0.0577350   0.4886906  )
        17           Ga  tau(  17) = (   0.3000001   0.0577350   0.8146665  )
        18           Ga  tau(  18) = (   0.2000001   0.2309401   0.1627148  )
        19           Ga  tau(  19) = (   0.2000001   0.2309401   0.4886906  )
        20           Ga  tau(  20) = (   0.2000001   0.2309401   0.8146665  )
        21           Ga  tau(  21) = (   0.1000001   0.4041451   0.1627148  )
        22           Ga  tau(  22) = (   0.1000001   0.4041451   0.4886906  )
        23           Ga  tau(  23) = (   0.1000001   0.4041451   0.8146665  )
        24           Ga  tau(  24) = (   0.0000001   0.5773502   0.1627148  )
        25           Ga  tau(  25) = (   0.0000001   0.5773502   0.4886906  )
        26           Ga  tau(  26) = (   0.0000001   0.5773502   0.8146665  )
        27           Ga  tau(  27) = (  -0.0999999   0.7505553   0.1627148  )
        28           Ga  tau(  28) = (  -0.0999999   0.7505553   0.4886906  )
        29           Ga  tau(  29) = (  -0.0999999   0.7505553   0.8146665  )
        30           Ga  tau(  30) = (   0.5000001   0.0577350   0.1627148  )
        31           Ga  tau(  31) = (   0.5000001   0.0577350   0.4886906  )
        32           Ga  tau(  32) = (   0.5000001   0.0577350   0.8146665  )
        33           Ga  tau(  33) = (   0.4000001   0.2309401   0.1627148  )
        34           Ga  tau(  34) = (   0.4000001   0.2309401   0.4886906  )
        35           Ga  tau(  35) = (   0.4000001   0.2309401   0.8146665  )
        36           Ga  tau(  36) = (   0.3000001   0.4041451   0.1627148  )
        37           Ga  tau(  37) = (   0.3000001   0.4041451   0.4886906  )
        38           Ga  tau(  38) = (   0.3000001   0.4041451   0.8146665  )
        39           Ga  tau(  39) = (   0.2000001   0.5773502   0.1627148  )
        40           Ga  tau(  40) = (   0.2000001   0.5773502   0.4886906  )
        41           Ga  tau(  41) = (   0.2000001   0.5773502   0.8146665  )
        42           Ga  tau(  42) = (   0.1000001   0.7505553   0.1627148  )
        43           Ga  tau(  43) = (   0.1000001   0.7505553   0.4886906  )
        44           Ga  tau(  44) = (   0.1000001   0.7505553   0.8146665  )
        45           Ga  tau(  45) = (   0.7000001   0.0577350   0.1627148  )
        46           Ga  tau(  46) = (   0.7000001   0.0577350   0.4886906  )
        47           Ga  tau(  47) = (   0.7000001   0.0577350   0.8146665  )
        48           Ga  tau(  48) = (   0.6000001   0.2309401   0.1627148  )
        49           Ga  tau(  49) = (   0.6000001   0.2309401   0.4886906  )
        50           Ga  tau(  50) = (   0.6000001   0.2309401   0.8146665  )
        51           Ga  tau(  51) = (   0.5000001   0.4041451   0.1627148  )
        52           Ga  tau(  52) = (   0.5000001   0.4041451   0.4886906  )
        53           Ga  tau(  53) = (   0.5000001   0.4041451   0.8146665  )
        54           Ga  tau(  54) = (   0.4000001   0.5773502   0.1627148  )
        55           Ga  tau(  55) = (   0.4000001   0.5773502   0.4886906  )
        56           Ga  tau(  56) = (   0.4000001   0.5773502   0.8146665  )
        57           Ga  tau(  57) = (   0.3000001   0.7505553   0.1627148  )
        58           Ga  tau(  58) = (   0.3000001   0.7505553   0.4886906  )
        59           Ga  tau(  59) = (   0.3000001   0.7505553   0.8146665  )
        60           Ga  tau(  60) = (   0.9000001   0.0577350   0.1627148  )
[...]
       286           N   tau( 286) = (   0.7999999   0.1154701   0.4484898  )
       287           N   tau( 287) = (   0.7999999   0.1154701   0.7744656  )
       288           N   tau( 288) = (   0.6999999   0.2886752   0.1225140  )
       289           N   tau( 289) = (   0.6999999   0.2886752   0.4484898  )
       290           N   tau( 290) = (   0.6999999   0.2886752   0.7744656  )
       291           N   tau( 291) = (   0.5999999   0.4618803   0.1225140  )
       292           N   tau( 292) = (   0.5999999   0.4618803   0.4484898  )
       293           N   tau( 293) = (   0.5999999   0.4618803   0.7744656  )
       294           N   tau( 294) = (   0.4999999   0.6350854   0.1225140  )
       295           N   tau( 295) = (   0.4999999   0.6350854   0.4484898  )
       296           N   tau( 296) = (   0.4999999   0.6350854   0.7744656  )
       297           N   tau( 297) = (   0.3999999   0.8082905   0.1225140  )
       298           N   tau( 298) = (   0.3999999   0.8082905   0.4484898  )
       299           N   tau( 299) = (   0.3999999   0.8082905   0.7744656  )
       300           N   tau( 300) = (   0.1000001   0.0577350   0.1627148  )

   Crystallographic axes

     site n.     atom                  positions (cryst. coord.)
         1           Ga  tau(   1) = (  0.1333334  0.0666666  0.4997208  )
[...]
     atom   52 type  1   force =     0.00000000    0.00000000    0.00000000
     atom   53 type  1   force =     0.00000000    0.00000000    0.00000000
     atom   54 type  1   force =     0.00000000    0.00000000    0.00000000
     atom   55 type  1   force =     0.00000000    0.00000000    0.00000000
     atom   56 type  1   force =     0.00000000    0.00000000    0.00000000
     atom   57 type  1   force =     0.00000000    0.00000000    0.00000000
     atom   58 type  1   force =     0.00000000    0.00000000    0.00000000
     atom   59 type  1   force =     0.00000000    0.00000000    0.00000000
     atom   60 type  1   force =     0.00000000    0.00000000    0.00000000
[...]
     atom  286 type  2   force =     0.00000000    0.00000000    0.00000000
     atom  287 type  2   force =     0.00000000    0.00000000    0.00000000
     atom  288 type  2   force =     0.00000000    0.00000000    0.00000000
     atom  289 type  2   force =     0.00000000    0.00000000    0.00000000
     atom  290 type  2   force =     0.00000000    0.00000000    0.00000000
     atom  291 type  2   force =     0.00000000    0.00000000    0.00000000
     atom  292 type  2   force =     0.00000000    0.00000000    0.00000000
     atom  293 type  2   force =     0.00000000    0.00000000    0.00000000
     atom  294 type  2   force =     0.00000000    0.00000000    0.00000000
     atom  295 type  2   force =     0.00000000    0.00000000    0.00000000
     atom  296 type  2   force =     0.00000000    0.00000000    0.00000000
     atom  297 type  2   force =     0.00000000    0.00000000    0.00000000
     atom  298 type  2   force =     0.00000000    0.00000000    0.00000000
     atom  299 type  2   force =     0.00000000    0.00000000    0.00000000
     atom  300 type  2   force =     0.00000000    0.00000000    0.00000000
     The SCF correction term to forces
     atom    1 type  1   force =    -0.00000062   -0.00000036    0.00003039
     atom    2 type  1   force =    -0.00000118   -0.00000068    0.00000252
     atom    3 type  1   force =     0.00000044   -0.00000624   -0.00000698
     atom    4 type  1   force =     0.00000309    0.00000437    0.00001733
     atom    5 type  1   force =     0.00000438   -0.00000497   -0.00000983
     atom    6 type  1   force =     0.00000347   -0.00000019    0.00000527
     atom    7 type  1   force =     0.00000189    0.00000202    0.00000622
     atom    8 type  1   force =     0.00000474    0.00000220   -0.00001324
     atom    9 type  1   force =     0.00000157    0.00000310    0.00000527
     atom   10 type  1   force =     0.00000269    0.00000062    0.00000622
     atom   11 type  1   force =     0.00000428    0.00000301   -0.00001324
     atom   12 type  1   force =    -0.00000519    0.00000350   -0.00000698
     atom   13 type  1   force =     0.00000533    0.00000049    0.00001733
     atom   14 type  1   force =    -0.00000211    0.00000628   -0.00000983
     atom   15 type  1   force =    -0.00000006   -0.00000535   -0.00000411
     atom   16 type  1   force =     0.00000224   -0.00000584    0.00001670
     atom   17 type  1   force =    -0.00000599   -0.00000298   -0.00001266
     atom   18 type  1   force =    -0.00000466    0.00000263   -0.00000411
     atom   19 type  1   force =    -0.00000394    0.00000486    0.00001670
     atom   20 type  1   force =    -0.00000557   -0.00000370   -0.00001266
     atom   21 type  1   force =    -0.00000152   -0.00000187    0.00000146
     atom   22 type  1   force =    -0.00000043    0.00000023    0.00000199
     atom   23 type  1   force =    -0.00000044   -0.00000306   -0.00000376
     atom   24 type  1   force =     0.00000408    0.00000236    0.00000842
     atom   25 type  1   force =     0.00000293    0.00000169    0.00000693
     atom   26 type  1   force =    -0.00000033   -0.00000019   -0.00000909
     atom   27 type  1   force =    -0.00000237   -0.00000038    0.00000146
     atom   28 type  1   force =    -0.00000001   -0.00000049    0.00000199
     atom   29 type  1   force =    -0.00000287    0.00000114   -0.00000376
     atom   30 type  1   force =    -0.00000055   -0.00000499    0.00000550
     atom   31 type  1   force =     0.00000139   -0.00000324    0.00000663
     atom   32 type  1   force =     0.00000020   -0.00000612   -0.00001368
     atom   33 type  1   force =     0.00000510    0.00000295   -0.00000019
     atom   34 type  1   force =     0.00000156    0.00000090    0.00000716
     atom   35 type  1   force =    -0.00000482   -0.00000278   -0.00001358
     atom   36 type  1   force =    -0.00000460    0.00000202    0.00000550
     atom   37 type  1   force =    -0.00000211    0.00000282    0.00000663
     atom   38 type  1   force =    -0.00000520    0.00000323   -0.00001368
     atom   39 type  1   force =    -0.00000378    0.00000340    0.00000952
     atom   40 type  1   force =    -0.00000275    0.00000232    0.00000773
     atom   41 type  1   force =     0.00000047    0.00000058   -0.00000812
     atom   42 type  1   force =     0.00000106   -0.00000498    0.00000952
     atom   43 type  1   force =     0.00000063   -0.00000354    0.00000773
     atom   44 type  1   force =     0.00000074    0.00000012   -0.00000812
     atom   45 type  1   force =     0.00000229   -0.00000436    0.00000439
     atom   46 type  1   force =    -0.00000041   -0.00000332    0.00000553
     atom   47 type  1   force =     0.00000076   -0.00000595   -0.00001351
     atom   48 type  1   force =     0.00000151   -0.00000086    0.00000962
     atom   49 type  1   force =     0.00000038   -0.00000112    0.00000659
     atom   50 type  1   force =     0.00000062   -0.00000285   -0.00000645
     atom   51 type  1   force =     0.00000001    0.00000174    0.00000962
     atom   52 type  1   force =    -0.00000078    0.00000089    0.00000659
     atom   53 type  1   force =    -0.00000216    0.00000196   -0.00000645
     atom   54 type  1   force =    -0.00000263    0.00000416    0.00000439
     atom   55 type  1   force =    -0.00000308    0.00000131    0.00000553
     atom   56 type  1   force =    -0.00000478    0.00000363   -0.00001351
     atom   57 type  1   force =     0.00000358    0.00000206    0.00000176
     atom   58 type  1   force =    -0.00000006   -0.00000003    0.00000210
     atom   59 type  1   force =     0.00000283    0.00000164   -0.00000282
     atom   60 type  1   force =     0.00000816    0.00000005   -0.00000747
[...]
     atom  286 type  2   force =    -0.00000055   -0.00000154    0.00000221
     atom  287 type  2   force =     0.00000404   -0.00000132   -0.00000309
     atom  288 type  2   force =     0.00000175   -0.00000103    0.00000148
     atom  289 type  2   force =     0.00000079   -0.00000049    0.00000268
     atom  290 type  2   force =     0.00000237   -0.00000146   -0.00000305
     atom  291 type  2   force =    -0.00000002    0.00000203    0.00000148
     atom  292 type  2   force =    -0.00000003    0.00000093    0.00000268
     atom  293 type  2   force =    -0.00000008    0.00000278   -0.00000305
     atom  294 type  2   force =     0.00000031    0.00000540   -0.00000005
     atom  295 type  2   force =    -0.00000161    0.00000029    0.00000221
     atom  296 type  2   force =     0.00000087    0.00000416   -0.00000309
     atom  297 type  2   force =     0.00000517    0.00000299    0.00000059
     atom  298 type  2   force =    -0.00000121   -0.00000070    0.00000226
     atom  299 type  2   force =     0.00000404    0.00000233   -0.00000110
     atom  300 type  2   force =    -0.00000719   -0.00000415    0.00000017

     Total force =     0.008105     Total SCF correction =     0.000144

     Computing stress (Cartesian axis) and pressure

[...]

          total   stress  (Ry/bohr**3)                   (kbar)     P=       -0.73
  -0.00001085  -0.00000004   0.00000004           -1.60       -0.01        0.01
  -0.00000004  -0.00001080   0.00000002           -0.01       -1.59        0.00
   0.00000004   0.00000002   0.00000684            0.01        0.00        1.01

     kinetic stress (kbar)  18407.29     -0.01      0.01
                               -0.01  18407.31      0.01
                                0.01      0.01  18404.45

     local   stress (kbar)   5301.16     -0.10      0.03
                               -0.10   5301.10      0.02
                                0.03      0.02   3667.20

     nonloc. stress (kbar)     75.05      0.00     -0.00
                                0.00     75.05     -0.00
                               -0.00     -0.00     86.16

     hartree stress (kbar)  19517.48      0.03     -0.00
                                0.03  19517.45     -0.00
                               -0.00     -0.00  20264.88

     exc-cor stress (kbar)   5171.60     -0.00     -0.00
                               -0.00   5171.60     -0.00
                               -0.00     -0.00   5171.84

     corecor stress (kbar) -14024.58      0.00     -0.00
                                0.00 -14024.59     -0.00
                               -0.00     -0.00 -14024.06

     ewald   stress (kbar) -34610.81      0.09     -0.03
                                0.09 -34610.69     -0.02
                               -0.03     -0.02 -33729.79

     hubbard stress (kbar)      0.00      0.00      0.00
                                0.00      0.00      0.00
                                0.00      0.00      0.00

     DFT-D   stress (kbar)      0.00      0.00      0.00
                                0.00      0.00      0.00
                                0.00      0.00      0.00

     XDM     stress (kbar)      0.00      0.00      0.00
                                0.00      0.00      0.00
                                0.00      0.00      0.00

     dft-nl  stress (kbar)    161.19     -0.00      0.00
                               -0.00    161.19      0.00
                                0.00      0.00    160.34

     TS-vdW  stress (kbar)      0.00      0.00      0.00
                                0.00      0.00      0.00
                                0.00      0.00      0.00

     MDB     stress (kbar)      0.00      0.00      0.00
                                0.00      0.00      0.00
                                0.00      0.00      0.00

     3D-RISM stress (kbar)      0.00      0.00      0.00
                                0.00      0.00      0.00
                                0.00      0.00      0.00

     Energy error            =      8.9E-05 Ry
     Gradient error          =      4.1E-03 Ry/Bohr

     number of scf cycles    =  11
     number of bfgs steps    =  10

     energy             old  =  -46588.5414448083 Ry
     energy             new  =  -46588.5415336171 Ry

     CASE: energy            _new < energy            _old

     new trust radius        =       0.0205973949 bohr
     new conv_thr            =       0.0000000010 Ry

ATOMIC_POSITIONS (angstrom)
Ga            1.6218473743        0.9363725472        7.9102258874
Ga            1.6217670753        0.9363261865       13.2013326166
Ga            0.0283146845        3.7310710482        2.6522175149
Ga           -0.0000451334        3.7423271793        7.9195139407
Ga            0.0011306334        3.7421859211       13.2223851400
Ga           -1.6184137529        6.5496612774        2.6387133595
Ga           -1.6221225626        6.5553729196        7.9281003379
Ga           -1.6219862437        6.5540679498       13.2181483520
Ga           -3.2484035930        9.3728864964        2.6387133595
Ga           -3.2453115706        9.3668187518        7.9281003379
Ga           -3.2463735482        9.3675892924       13.2181483520
Ga           -4.8660101155       12.2082902709        2.6522175149
Ga           -4.8704419290       12.1781018826        7.9195139407
Ga           -4.8699763788       12.1791907556       13.2223851400
Ga            4.8381905419        0.9186089324        2.6518255987
Ga            4.8632172542        0.9383819624        7.9193271407
Ga            4.8624341639        0.9374380535       13.2225645201
Ga            3.2146352164        3.7306892451        2.6518255987
Ga            3.2442725188        3.7424764987        7.9193271407
Ga            3.2430635246        3.7422702771       13.2225645201
Ga            1.6226727742        6.5575356733        2.6413114964
Ga            1.6225023025        6.5567166721        7.9302611879
Ga            1.6224572542        6.5548551587       13.2152205802
Ga           -0.0012121452        9.3655032069        2.6394015578
Ga           -0.0000609474        9.3661678512        7.9278401250
Ga           -0.0001579916        9.3661118227       13.2155656947
Ga           -1.6210409027       12.1758125668        2.6413114964
Ga           -1.6218354143       12.1760744346        7.9302611879
Ga           -1.6234700563       12.1769661783       13.2152205802
Ga            8.1040552157        0.9366793492        2.6385877593
Ga            8.1105342685        0.9367025354        7.9279278995
Ga            8.1093695413        0.9372554584       13.2180643577
Ga            6.4799847700        3.7412194804        2.6406636564
Ga            6.4890884520        3.7464754937        7.9277356160
Ga            6.4880290348        3.7458638389       13.2182605994
Ga            4.8632169934        6.5499758098        2.6385877593
Ga            4.8664765996        6.5555752409        7.9279278995
Ga            4.8663730814        6.5542900961       13.2180643577
Ga            3.2460118178        9.3654333623        2.6394752220
Ga            3.2449230491        9.3661204625        7.9279130657
Ga            3.2450259173        9.3660700228       13.2156301182
Ga            1.6223393492       12.1777165731        2.6394752220
Ga            1.6223900110       12.1764301217        7.9279130657
Ga            1.6223977630       12.1765444279       13.2156301182
Ga           11.3638135547        0.9363238504        2.6387206201
Ga           11.3565198088        0.9363856519        7.9280362883
Ga           11.3577547780        0.9369332671       13.2179959437
Ga            9.7333236641        3.7460984950        2.6389747583
Ga            9.7333227528        3.7464475202        7.9275523860
Ga            9.7333263434        3.7466522285       13.2161486562
Ga            8.1108795675        6.5562541027        2.6389747583
Ga            8.1111813765        6.5560788009        7.9275523860
Ga            8.1113604544        6.5559795563       13.2161486562
Ga            6.4927882919        9.3731870909        2.6387206201
Ga            6.4891949406        9.3668396208        7.9280362883
Ga            6.4902866738        9.3676353280       13.2179959437
Ga            4.8652857833       12.1751770960        2.6414361115
Ga            4.8662697902       12.1757452127        7.9303484009
Ga            4.8679715799       12.1767277414       13.2153978514
Ga           14.6281162078        0.9190603616        2.6516819638
[...]
N            12.9787621812        1.8735218041        7.2740051481
N            12.9815593981        1.8717927792       12.5658389962
N            11.3620804531        4.6795314630        1.9884044221
N            11.3561877186        4.6829730412        7.2751135940
N            11.3567276934        4.6826602014       12.5640222443
N             9.7336310312        7.5000885993        1.9884044221
N             9.7336651582        7.4932645525        7.2751135940
N             9.7336642183        7.4938886042       12.5640222443
N             8.1176327174       10.3248392845        1.9913450741
N             8.1118962476       10.3031808751        7.2740051481
N             8.1117974765       10.3064678484       12.5658389962
N             6.4857059542       13.1107312677        1.9862148500
N             6.4883887754       13.1122801953        7.2780242501
N             6.4919195680       13.1143186994       12.5660998352
N             1.6226721020        0.9368487039        2.6191027526

     Writing config-only to output data dir ./GaN.save/
     NEW-OLD atomic charge density approx. for the potential

     Check: negative core charge=   -0.000003

[...]

     Self-consistent Calculation

[...]

     iteration #  4     ecut=    70.00 Ry     beta= 0.70
     Davidson diagonalization with overlap

     ethr =  1.18E-07,  avg # of iterations = 16.5

     Non-local corr. energy    =      81.34186398 Ry

     total energy              =  -46588.54158740 Ry
     estimated scf accuracy    <       0.00024817 Ry

     max_seconds     =  154800.00
     Calculation stopped in scf loop at iteration #     4

     Writing config to output data dir ./GaN.save/

     General routines

     Parallel routines

     PAW routines

   This run was terminated on:   6: 4:39  13Mar2024

   JOB DONE.