     Program PWSCF v.7.1 starts on 24Apr2024 at  7: 1:16

     Reading input from espresso.pwi
Warning: card &CELL ignored
Warning: card    CELL_DYNAMICS    = 'BFGS' ignored
Warning: card / ignored

     Current dimensions of program PWSCF are:
     Max number of different atomic species (ntypx) = 10
     Max number of k-points (npk) =  40000
     Max angular momentum in pseudopotentials (lmaxx) =  4
     file Ga.pbe-dn-kjpaw_psl.1.0.0.UPF: wavefunction(s)  4S renormalized
     file N.pbe-n-kjpaw_psl.1.0.0.UPF: wavefunction(s)  2S renormalized

     IMPORTANT: XC functional enforced from input :
     Exchange-correlation= BEEF-VDW
                           (   1   4  43  14   2   0   0)
     Any further DFT definition will be discarded
     Please, verify this is what you really want

     K-points division:     npool     =       4
     R & G space division:  proc/nbgrp/npool/nimage =      64
     Subspace diagonalization in iterative solution of the eigenvalue problem:
     a serial algorithm will be used

     Using Slab Decomposition

     bravais-lattice index     =            4
     lattice parameter (alat)  =      30.6565  a.u.
     unit-cell volume          =   24400.9461 (a.u.)^3
     number of atoms/cell      =          300
     number of atomic types    =            2
     number of electrons       =      2690.00
     number of Kohn-Sham states=         1614
     kinetic-energy cutoff     =      70.0000  Ry
     charge density cutoff     =     350.0000  Ry
     scf convergence threshold =      1.0E-07
     mixing beta               =       0.7000
     number of iterations used =            8  plain     mixing
     energy convergence thresh.=      1.0E-04
     force convergence thresh. =      1.0E-03
     Exchange-correlation= BEEF-VDW
                           (   1   4  43  14   2   0   0)
     nstep                     =           50

     celldm(1)=  30.656540  celldm(2)=   0.000000  celldm(3)=   0.977927
     celldm(4)=   0.000000  celldm(5)=   0.000000  celldm(6)=   0.000000

     crystal axes: (cart. coord. in units of alat)
               a(1) = (   1.000000   0.000000   0.000000 )
               a(2) = (  -0.500000   0.866025   0.000000 )
               a(3) = (   0.000000   0.000000   0.977927 )

     reciprocal axes: (cart. coord. in units 2 pi/alat)
               b(1) = (  1.000000  0.577350 -0.000000 )
               b(2) = (  0.000000  1.154701  0.000000 )
               b(3) = (  0.000000 -0.000000  1.022571 )

     PseudoPot. # 1 for Ga read from file:
     //group///packages/espresso/pseudo/psl_1.0.0/pslibrary.1.0.0/pbe/PSEUDOPOTENTIALS/Ga.pbe-dn-kjpaw_psl.1.0.0.UPF
     MD5 check sum: cd2a01e492f15b435d17032472d8505c
     Pseudo is Projector augmented-wave + core cor, Zval = 13.0
     Generated using 'atomic' code by A. Dal Corso  v.7.1
     Shape of augmentation charge: PSQ
     Using radial grid of 1205 points,  6 beta functions with:
                l(1) =   0
                l(2) =   0
                l(3) =   1
                l(4) =   1
                l(5) =   2
                l(6) =   2
     Q(r) pseudized with 0 coefficients

     PseudoPot. # 2 for N  read from file:
     //group///packages/espresso/pseudo/psl_1.0.0/pslibrary.1.0.0/pbe/PSEUDOPOTENTIALS/N.pbe-n-kjpaw_psl.1.0.0.UPF
     MD5 check sum: f77f775694dac7e2c3fe1c82443d1a16
     Pseudo is Projector augmented-wave + core cor, Zval =  5.0
     Generated using 'atomic' code by A. Dal Corso  v.7.1
     Shape of augmentation charge: PSQ
     Using radial grid of 1085 points,  4 beta functions with:
                l(1) =   0
                l(2) =   0
                l(3) =   1
                l(4) =   1
     Q(r) pseudized with 0 coefficients

     atomic species   valence    mass     pseudopotential
        Ga            13.00    69.72300     Ga( 1.00)
        N              5.00    14.00700     N ( 1.00)

      2 Sym. Ops. (no inversion) found

                                    s                        frac. trans.

      isym =  1     identity

 cryst.   s( 1) = (     1          0          0      )
                  (     0          1          0      )
                  (     0          0          1      )

 cart.    s( 1) = (  1.0000000  0.0000000  0.0000000 )
                  (  0.0000000  1.0000000  0.0000000 )
                  (  0.0000000  0.0000000  1.0000000 )

      isym =  2     inv. 180 deg rotation - cryst. axis [0,1,0]

 cryst.   s( 2) = (     1          1          0      )
                  (     0         -1          0      )
                  (     0          0          1      )

 cart.    s( 2) = (  0.5000000  0.8660254  0.0000000 )
                  (  0.8660254 -0.5000000  0.0000000 )
                  (  0.0000000  0.0000000  1.0000000 )

     point group C_s (m)
     there are  2 classes
     the character table:

       E     s
A'     1.00  1.00
A''    1.00 -1.00

     the symmetry operations in each class and the name of the first element:

     E        1
          identity
     s        2
          inv. 180 deg rotation - cryst. axis [0,1,0]

   Cartesian axes

     site n.     atom                  positions (alat units)
         1           Ga  tau(   1) = (   0.1000001   0.0577350   0.4886906  )
         2           Ga  tau(   2) = (   0.1000001   0.0577350   0.8146665  )
         3           Ga  tau(   3) = (   0.0000001   0.2309401   0.1627148  )
         4           Ga  tau(   4) = (   0.0000001   0.2309401   0.4886906  )
         5           Ga  tau(   5) = (   0.0000001   0.2309401   0.8146665  )
         6           Ga  tau(   6) = (  -0.0999999   0.4041451   0.1627148  )
         7           Ga  tau(   7) = (  -0.0999999   0.4041451   0.4886906  )
         8           Ga  tau(   8) = (  -0.0999999   0.4041451   0.8146665  )
         9           Ga  tau(   9) = (  -0.1999999   0.5773502   0.1627148  )
        10           Ga  tau(  10) = (  -0.1999999   0.5773502   0.4886906  )
        11           Ga  tau(  11) = (  -0.1999999   0.5773502   0.8146665  )
        12           Ga  tau(  12) = (  -0.2999999   0.7505553   0.1627148  )
        13           Ga  tau(  13) = (  -0.2999999   0.7505553   0.4886906  )
        14           Ga  tau(  14) = (  -0.2999999   0.7505553   0.8146665  )
        15           Ga  tau(  15) = (   0.3000001   0.0577350   0.1627148  )
        16           Ga  tau(  16) = (   0.3000001   0.0577350   0.4886906  )
        17           Ga  tau(  17) = (   0.3000001   0.0577350   0.8146665  )
        18           Ga  tau(  18) = (   0.2000001   0.2309401   0.1627148  )
        19           Ga  tau(  19) = (   0.2000001   0.2309401   0.4886906  )
        20           Ga  tau(  20) = (   0.2000001   0.2309401   0.8146665  )
        21           Ga  tau(  21) = (   0.1000001   0.4041451   0.1627148  )
        22           Ga  tau(  22) = (   0.1000001   0.4041451   0.4886906  )
        23           Ga  tau(  23) = (   0.1000001   0.4041451   0.8146665  )
        24           Ga  tau(  24) = (   0.0000001   0.5773502   0.1627148  )
        25           Ga  tau(  25) = (   0.0000001   0.5773502   0.4886906  )
        26           Ga  tau(  26) = (   0.0000001   0.5773502   0.8146665  )
        27           Ga  tau(  27) = (  -0.0999999   0.7505553   0.1627148  )
        28           Ga  tau(  28) = (  -0.0999999   0.7505553   0.4886906  )
        29           Ga  tau(  29) = (  -0.0999999   0.7505553   0.8146665  )
        30           Ga  tau(  30) = (   0.5000001   0.0577350   0.1627148  )
        31           Ga  tau(  31) = (   0.5000001   0.0577350   0.4886906  )
        32           Ga  tau(  32) = (   0.5000001   0.0577350   0.8146665  )
        33           Ga  tau(  33) = (   0.4000001   0.2309401   0.1627148  )
        34           Ga  tau(  34) = (   0.4000001   0.2309401   0.4886906  )
        35           Ga  tau(  35) = (   0.4000001   0.2309401   0.8146665  )
        36           Ga  tau(  36) = (   0.3000001   0.4041451   0.1627148  )
        37           Ga  tau(  37) = (   0.3000001   0.4041451   0.4886906  )
        38           Ga  tau(  38) = (   0.3000001   0.4041451   0.8146665  )
        39           Ga  tau(  39) = (   0.2000001   0.5773502   0.1627148  )
        40           Ga  tau(  40) = (   0.2000001   0.5773502   0.4886906  )
        41           Ga  tau(  41) = (   0.2000001   0.5773502   0.8146665  )
        42           Ga  tau(  42) = (   0.1000001   0.7505553   0.1627148  )
        43           Ga  tau(  43) = (   0.1000001   0.7505553   0.4886906  )
        44           Ga  tau(  44) = (   0.1000001   0.7505553   0.8146665  )
        45           Ga  tau(  45) = (   0.7000001   0.0577350   0.1627148  )
        46           Ga  tau(  46) = (   0.7000001   0.0577350   0.4886906  )
        47           Ga  tau(  47) = (   0.7000001   0.0577350   0.8146665  )
        48           Ga  tau(  48) = (   0.6000001   0.2309401   0.1627148  )
        49           Ga  tau(  49) = (   0.6000001   0.2309401   0.4886906  )
        50           Ga  tau(  50) = (   0.6000001   0.2309401   0.8146665  )
        51           Ga  tau(  51) = (   0.5000001   0.4041451   0.1627148  )
        52           Ga  tau(  52) = (   0.5000001   0.4041451   0.4886906  )
        53           Ga  tau(  53) = (   0.5000001   0.4041451   0.8146665  )
        54           Ga  tau(  54) = (   0.4000001   0.5773502   0.1627148  )
        55           Ga  tau(  55) = (   0.4000001   0.5773502   0.4886906  )
        56           Ga  tau(  56) = (   0.4000001   0.5773502   0.8146665  )
        57           Ga  tau(  57) = (   0.3000001   0.7505553   0.1627148  )
        58           Ga  tau(  58) = (   0.3000001   0.7505553   0.4886906  )
        59           Ga  tau(  59) = (   0.3000001   0.7505553   0.8146665  )
        60           Ga  tau(  60) = (   0.9000001   0.0577350   0.1627148  )
[...]
       286           N   tau( 286) = (   0.7999999   0.1154701   0.4484898  )
       287           N   tau( 287) = (   0.7999999   0.1154701   0.7744656  )
       288           N   tau( 288) = (   0.6999999   0.2886752   0.1225140  )
       289           N   tau( 289) = (   0.6999999   0.2886752   0.4484898  )
       290           N   tau( 290) = (   0.6999999   0.2886752   0.7744656  )
       291           N   tau( 291) = (   0.5999999   0.4618803   0.1225140  )
       292           N   tau( 292) = (   0.5999999   0.4618803   0.4484898  )
       293           N   tau( 293) = (   0.5999999   0.4618803   0.7744656  )
       294           N   tau( 294) = (   0.4999999   0.6350854   0.1225140  )
       295           N   tau( 295) = (   0.4999999   0.6350854   0.4484898  )
       296           N   tau( 296) = (   0.4999999   0.6350854   0.7744656  )
       297           N   tau( 297) = (   0.3999999   0.8082905   0.1225140  )
       298           N   tau( 298) = (   0.3999999   0.8082905   0.4484898  )
       299           N   tau( 299) = (   0.3999999   0.8082905   0.7744656  )
       300           N   tau( 300) = (   0.1000001   0.0577350   0.1627148  )

   Crystallographic axes

     site n.     atom                  positions (cryst. coord.)
         1           Ga  tau(   1) = (  0.1333334  0.0666666  0.4997208  )
[...]
     atom   53 type  1   force =     0.00000000    0.00000000    0.00000000
     atom   54 type  1   force =     0.00000000    0.00000000    0.00000000
     atom   55 type  1   force =     0.00000000    0.00000000    0.00000000
     atom   56 type  1   force =     0.00000000    0.00000000    0.00000000
     atom   57 type  1   force =     0.00000000    0.00000000    0.00000000
     atom   58 type  1   force =     0.00000000    0.00000000    0.00000000
     atom   59 type  1   force =     0.00000000    0.00000000    0.00000000
     atom   60 type  1   force =     0.00000000    0.00000000    0.00000000
[...]
     atom  286 type  2   force =     0.00000000    0.00000000    0.00000000
     atom  287 type  2   force =     0.00000000    0.00000000    0.00000000
     atom  288 type  2   force =     0.00000000    0.00000000    0.00000000
     atom  289 type  2   force =     0.00000000    0.00000000    0.00000000
     atom  290 type  2   force =     0.00000000    0.00000000    0.00000000
     atom  291 type  2   force =     0.00000000    0.00000000    0.00000000
     atom  292 type  2   force =     0.00000000    0.00000000    0.00000000
     atom  293 type  2   force =     0.00000000    0.00000000    0.00000000
     atom  294 type  2   force =     0.00000000    0.00000000    0.00000000
     atom  295 type  2   force =     0.00000000    0.00000000    0.00000000
     atom  296 type  2   force =     0.00000000    0.00000000    0.00000000
     atom  297 type  2   force =     0.00000000    0.00000000    0.00000000
     atom  298 type  2   force =     0.00000000    0.00000000    0.00000000
     atom  299 type  2   force =     0.00000000    0.00000000    0.00000000
     atom  300 type  2   force =     0.00000000    0.00000000    0.00000000
     The SCF correction term to forces
     atom    1 type  1   force =    -0.00000070   -0.00000041    0.00001863
     atom    2 type  1   force =    -0.00000016   -0.00000009   -0.00000761
     atom    3 type  1   force =    -0.00000546    0.00001213   -0.00001285
     atom    4 type  1   force =    -0.00000002   -0.00000226    0.00000401
     atom    5 type  1   force =    -0.00000099    0.00000310    0.00000386
     atom    6 type  1   force =    -0.00000435    0.00000057   -0.00001080
     atom    7 type  1   force =    -0.00000073   -0.00000923   -0.00000883
     atom    8 type  1   force =    -0.00000187   -0.00000310    0.00001874
     atom    9 type  1   force =    -0.00000168   -0.00000405   -0.00001080
     atom   10 type  1   force =    -0.00000835    0.00000398   -0.00000883
     atom   11 type  1   force =    -0.00000362   -0.00000007    0.00001874
     atom   12 type  1   force =     0.00000778   -0.00001080   -0.00001285
     atom   13 type  1   force =    -0.00000196    0.00000111    0.00000401
     atom   14 type  1   force =     0.00000219   -0.00000241    0.00000386
     atom   15 type  1   force =     0.00001651   -0.00000177   -0.00001246
     atom   16 type  1   force =    -0.00000165   -0.00000035    0.00000335
     atom   17 type  1   force =     0.00000400   -0.00000040    0.00000524
     atom   18 type  1   force =     0.00000672    0.00001518   -0.00001246
     atom   19 type  1   force =    -0.00000113   -0.00000126    0.00000335
     atom   20 type  1   force =     0.00000166    0.00000366    0.00000524
     atom   21 type  1   force =     0.00000177   -0.00000336   -0.00000967
     atom   22 type  1   force =     0.00000019   -0.00001272   -0.00000750
     atom   23 type  1   force =     0.00000071   -0.00000723    0.00001489
     atom   24 type  1   force =    -0.00000138   -0.00000080   -0.00001106
     atom   25 type  1   force =    -0.00000365   -0.00000211   -0.00001004
     atom   26 type  1   force =    -0.00000437   -0.00000252    0.00002068
     atom   27 type  1   force =    -0.00000203    0.00000322   -0.00000967
     atom   28 type  1   force =    -0.00001092    0.00000653   -0.00000750
     atom   29 type  1   force =    -0.00000591    0.00000423    0.00001489
     atom   30 type  1   force =     0.00000170    0.00000401   -0.00001099
     atom   31 type  1   force =    -0.00000634    0.00000417   -0.00000959
     atom   32 type  1   force =    -0.00000198    0.00000283    0.00001946
     atom   33 type  1   force =     0.00000940    0.00000543   -0.00001143
     atom   34 type  1   force =    -0.00000457   -0.00000264   -0.00000788
     atom   35 type  1   force =    -0.00000006   -0.00000003    0.00001583
     atom   36 type  1   force =     0.00000432   -0.00000053   -0.00001099
     atom   37 type  1   force =     0.00000044   -0.00000758   -0.00000959
     atom   38 type  1   force =     0.00000146   -0.00000312    0.00001946
     atom   39 type  1   force =     0.00000179   -0.00000268   -0.00001061
     atom   40 type  1   force =     0.00000488   -0.00000175   -0.00000993
     atom   41 type  1   force =     0.00000500   -0.00000271    0.00002008
     atom   42 type  1   force =    -0.00000143    0.00000289   -0.00001061
     atom   43 type  1   force =     0.00000093    0.00000510   -0.00000993
     atom   44 type  1   force =     0.00000016    0.00000569    0.00002008
     atom   45 type  1   force =    -0.00000537    0.00000454   -0.00001059
     atom   46 type  1   force =     0.00000764    0.00000430   -0.00000831
     atom   47 type  1   force =     0.00000137    0.00000263    0.00001793
     atom   48 type  1   force =    -0.00000089    0.00000099   -0.00001150
     atom   49 type  1   force =     0.00000088   -0.00000095   -0.00001289
     atom   50 type  1   force =    -0.00000013   -0.00000069    0.00002312
     atom   51 type  1   force =     0.00000041   -0.00000127   -0.00001150
     atom   52 type  1   force =    -0.00000039    0.00000124   -0.00001289
     atom   53 type  1   force =    -0.00000066    0.00000023    0.00002312
     atom   54 type  1   force =     0.00000124   -0.00000692   -0.00001059
     atom   55 type  1   force =     0.00000754    0.00000446   -0.00000831
     atom   56 type  1   force =     0.00000296   -0.00000013    0.00001793
     atom   57 type  1   force =     0.00000064    0.00000037   -0.00000901
     atom   58 type  1   force =     0.00001083    0.00000625   -0.00000549
     atom   59 type  1   force =     0.00000582    0.00000336    0.00001289
     atom   60 type  1   force =    -0.00001189    0.00000142   -0.00001421
[...]
     atom  286 type  2   force =     0.00000115    0.00000092   -0.00000223
     atom  287 type  2   force =     0.00000137   -0.00000036    0.00000514
     atom  288 type  2   force =    -0.00000176    0.00000075   -0.00000445
     atom  289 type  2   force =     0.00000114   -0.00000076   -0.00000634
     atom  290 type  2   force =     0.00000064   -0.00000039    0.00000926
     atom  291 type  2   force =    -0.00000023   -0.00000190   -0.00000445
     atom  292 type  2   force =    -0.00000009    0.00000137   -0.00000634
     atom  293 type  2   force =    -0.00000002    0.00000075    0.00000926
     atom  294 type  2   force =    -0.00000113   -0.00000472   -0.00000374
     atom  295 type  2   force =     0.00000137    0.00000053   -0.00000223
     atom  296 type  2   force =     0.00000037    0.00000137    0.00000514
     atom  297 type  2   force =    -0.00000314   -0.00000181   -0.00000314
     atom  298 type  2   force =     0.00000063    0.00000036    0.00000031
     atom  299 type  2   force =     0.00000097    0.00000056    0.00000252
     atom  300 type  2   force =    -0.00000264   -0.00000153   -0.00001403

     Total force =     0.010085     Total SCF correction =     0.000205

     Computing stress (Cartesian axis) and pressure

[...]

          total   stress  (Ry/bohr**3)                   (kbar)     P=      -13.95
  -0.00011211   0.00000005  -0.00000004          -16.49        0.01       -0.01
   0.00000005  -0.00011218  -0.00000003            0.01      -16.50       -0.00
  -0.00000004  -0.00000003  -0.00006021           -0.01       -0.00       -8.86

     kinetic stress (kbar)  18378.69      0.01     -0.01
                                0.01  18378.67     -0.01
                               -0.01     -0.01  18389.83

     local   stress (kbar)   5137.58     -1.64      0.72
                               -1.64   5139.31      0.42
                                0.72      0.42   3913.74

     nonloc. stress (kbar)     89.83     -0.03      0.02
                               -0.03     89.86      0.01
                                0.02      0.01    103.85

     hartree stress (kbar)  19575.34      0.60     -0.25
                                0.60  19574.64     -0.15
                               -0.25     -0.15  20169.87

     exc-cor stress (kbar)   5174.94      0.00     -0.00
                                0.00   5174.93     -0.00
                               -0.00     -0.00   5173.72

     corecor stress (kbar) -14024.54      0.00      0.00
                                0.00 -14024.54      0.00
                                0.00      0.00 -14024.07

     ewald   stress (kbar) -34509.41      1.08     -0.48
                                1.08 -34510.42     -0.28
                               -0.48     -0.28 -33896.40

     hubbard stress (kbar)      0.00      0.00      0.00
                                0.00      0.00      0.00
                                0.00      0.00      0.00

     DFT-D   stress (kbar)      0.00      0.00      0.00
                                0.00      0.00      0.00
                                0.00      0.00      0.00

     XDM     stress (kbar)      0.00      0.00      0.00
                                0.00      0.00      0.00
                                0.00      0.00      0.00

     dft-nl  stress (kbar)    161.06     -0.00      0.00
                               -0.00    161.07      0.00
                                0.00      0.00    160.59

     TS-vdW  stress (kbar)      0.00      0.00      0.00
                                0.00      0.00      0.00
                                0.00      0.00      0.00

     MDB     stress (kbar)      0.00      0.00      0.00
                                0.00      0.00      0.00
                                0.00      0.00      0.00

     3D-RISM stress (kbar)      0.00      0.00      0.00
                                0.00      0.00      0.00
                                0.00      0.00      0.00

     Energy error            =      1.7E-04 Ry
     Gradient error          =      3.1E-03 Ry/Bohr

     number of scf cycles    =   9
     number of bfgs steps    =   8

     energy             old  =  -46589.9898797721 Ry
     energy             new  =  -46589.9900473180 Ry

     CASE: energy            _new < energy            _old

     new trust radius        =       0.0170345616 bohr
     new conv_thr            =       0.0000000017 Ry

ATOMIC_POSITIONS (angstrom)
Ga            1.6214798799        0.9361603742        7.9306343922
Ga            1.6218258483        0.9363601191       13.1049235458
Ga            0.0763487737        3.7539817710        2.6861596082
Ga           -0.0047360441        3.7516680338        7.9415077850
Ga           -0.0027712134        3.7523906294       13.1957027770
Ga           -1.6113688694        6.5451484240        2.6417298994
Ga           -1.6244298387        6.5582356526        7.9273931376
Ga           -1.6237481586        6.5581213730       13.2197523224
Ga           -3.2487893969        9.3812439711        2.6417298994
Ga           -3.2439860092        9.3633892255        7.9273931376
Ga           -3.2437441382        9.3640367176       13.2197523224
Ga           -4.8221518029       12.2384336509        2.6861596082
Ga           -4.8646979671       12.1693690074        7.9415077850
Ga           -4.8630897656       12.1707093029       13.1957027770
Ga            4.8364565445        0.8677159381        2.6861761281
Ga            4.8739803383        0.9376724339        7.9413547540
Ga            4.8734493287        0.9357836107       13.1957429634
Ga            3.1696935918        3.7546340564        2.6861761281
Ga            3.2490395912        3.7521523673        7.9413547540
Ga            3.2471383175        3.7526369110       13.1957429634
Ga            1.6233328037        6.5795530057        2.6503679144
Ga            1.6224007671        6.5615113170        7.9333028214
Ga            1.6225728535        6.5639172235       13.2118574153
Ga           -0.0007567797        9.3657661122        2.6414437286
Ga            0.0005059686        9.3664951603        7.9281399448
Ga            0.0007783260        9.3666524059       13.2131418135
Ga           -1.6016433187       12.1653755029        2.6503679144
Ga           -1.6177338977       12.1735891798        7.9333028214
Ga           -1.6155642784       12.1725352578       13.2118574153
Ga            8.0976670859        0.9329188809        2.6418078477
Ga            8.1137700764        0.9367142465        7.9274191171
Ga            8.1135161163        0.9362748088       13.2197226571
Ga            6.4744424494        3.7380196202        2.6522265488
Ga            6.4899237955        3.7469577795        7.9275871548
Ga            6.4932334123        3.7488685877       13.2164328384
Ga            4.8567662674        6.5463237611        2.6418078477
Ga            4.8681046457        6.5583716772        7.9274191171
Ga            4.8675971015        6.5583714601       13.2197226571
Ga            3.2458575584        9.3659066239        2.6416213780
Ga            3.2440227206        9.3664234103        7.9283016409
Ga            3.2439012982        9.3666898608       13.2133283728
Ga            1.6226720760       12.1773463496        2.6416213780
Ga            1.6222022073       12.1754989403        7.9283016409
Ga            1.6223722490       12.1752605602       13.2133283728
Ga           11.3718607846        0.9325589414        2.6417002765
Ga           11.3523563035        0.9364526175        7.9275355532
Ga           11.3529801873        0.9359256298       13.2192688467
Ga            9.7335122608        3.7474122720        2.6420432785
Ga            9.7330096747        3.7457464787        7.9259415999
Ga            9.7329958881        3.7475347406       13.2150087072
Ga            8.1121116301        6.5557605437        2.6420432785
Ga            8.1104177178        6.5561581881        7.9259415999
Ga            8.1119595047        6.5552521175       13.2150087072
Ga            6.4935514000        9.3820386509        2.6417002765
Ga            6.4871711819        9.3632004367        7.9275355532
Ga            6.4870267390        9.3640042298       13.2192688467
Ga            4.8471775160       12.1647222829        2.6502413674
Ga            4.8616340922       12.1730687911        7.9335389835
Ga            4.8600262561       12.1721405065       13.2121357116
Ga           14.6336872134        0.8677370391        2.6857912950
[...]
N            12.9776897309        1.8713271922        7.2740204527
N            12.9761364205        1.8740279707       12.5706394656
N            11.3703310568        4.6749551058        1.9887679702
N            11.3564283610        4.6825380744        7.2732696846
N            11.3557499272        4.6829439842       12.5639341629
N             9.7337930915        7.5095220104        1.9887679702
N             9.7334087870        7.4936904383        7.2732696846
N             9.7334210984        7.4928999425       12.5639341629
N             8.1412001398       10.3791474574        1.9924560420
N             8.1094594327       10.3033494118        7.2740204527
N             8.1110217204       10.3006538163       12.5706394656
N             6.4782199793       13.1064092381        1.9759542542
N             6.4887473716       13.1124872309        7.2862569477
N             6.4878793392       13.1119860721       12.5717627086
N             1.6228527771        0.9369530168        2.2292353713

     Writing config-only to output data dir ./GaN.save/
     NEW-OLD atomic charge density approx. for the potential

     Check: negative core charge=   -0.000003

[...]

     Self-consistent Calculation

[...]

     ethr =  2.45E-12,  avg # of iterations = 16.2

     Non-local corr. energy    =      81.33530611 Ry

     total energy              =  -46589.99021247 Ry
     estimated scf accuracy    <          6.7E-09 Ry

     iteration # 13     ecut=    70.00 Ry     beta= 0.70
     Davidson diagonalization with overlap

     max_seconds     =  154800.00
     Calculation stopped in k-point loop, point #     1
     Calculation stopped in scf loop at iteration #    12

     Writing config to output data dir ./GaN.save/

     General routines

     Parallel routines

     PAW routines

   This run was terminated on:   2:14:58  26Apr2024

   JOB DONE.