     Program PWSCF v.7.1 starts on 20Feb2024 at 15:50:34

     Reading input from espresso.pwi

     Current dimensions of program PWSCF are:
     Max number of different atomic species (ntypx) = 10
     Max number of k-points (npk) =  40000
     Max angular momentum in pseudopotentials (lmaxx) =  4
     file Pb.pbe-dn-kjpaw_psl.1.0.0.UPF: wavefunction(s)  6S 6P 5D renormalized
     file I.pbe-dn-kjpaw_psl.1.0.0.UPF: wavefunction(s)  5S 5P renormalized

     IMPORTANT: XC functional enforced from input :
     Exchange-correlation= BEEF-VDW
                           (   1   4  43  14   2   0   0)
     Any further DFT definition will be discarded
     Please, verify this is what you really want

     R & G space division:  proc/nbgrp/npool/nimage =     128
     Subspace diagonalization in iterative solution of the eigenvalue problem:
     a serial algorithm will be used

     Using Slab Decomposition

     bravais-lattice index     =            4
     lattice parameter (alat)  =       8.7477  a.u.
     unit-cell volume          =    6379.6139 (a.u.)^3
     number of atoms/cell      =           21
     number of atomic types    =            2
     number of electrons       =       336.00
     number of Kohn-Sham states=          202
     kinetic-energy cutoff     =      70.0000  Ry
     charge density cutoff     =     350.0000  Ry
     scf convergence threshold =      1.0E-07
     mixing beta               =       0.7000
     number of iterations used =            8  plain     mixing
     energy convergence thresh.=      1.0E-04
     force convergence thresh. =      1.0E-03
     press convergence thresh. =      5.0E-01
     Exchange-correlation= BEEF-VDW
                           (   1   4  43  14   2   0   0)
     nstep                     =           50

     celldm(1)=   8.747735  celldm(2)=   0.000000  celldm(3)=  11.004667
     celldm(4)=   0.000000  celldm(5)=   0.000000  celldm(6)=   0.000000

     crystal axes: (cart. coord. in units of alat)
               a(1) = (   1.000000   0.000000   0.000000 )
               a(2) = (  -0.500000   0.866025   0.000000 )
               a(3) = (   0.000000   0.000000  11.004667 )

     reciprocal axes: (cart. coord. in units 2 pi/alat)
               b(1) = (  1.000000  0.577350 -0.000000 )
               b(2) = (  0.000000  1.154701  0.000000 )
               b(3) = (  0.000000 -0.000000  0.090871 )

     PseudoPot. # 1 for Pb read from file:
     //group///packages/espresso/pseudo/psl_1.0.0/pslibrary.1.0.0/pbe/PSEUDOPOTENTIALS/Pb.pbe-dn-kjpaw_psl.1.0.0.UPF
     MD5 check sum: 39ab5b8a6bbd56b7735ad9f188aac93a
     Pseudo is Projector augmented-wave + core cor, Zval = 14.0
     Generated using 'atomic' code by A. Dal Corso  v.7.1
     Shape of augmentation charge: PSQ
     Using radial grid of 1281 points,  6 beta functions with:
                l(1) =   0
                l(2) =   0
                l(3) =   1
                l(4) =   1
                l(5) =   2
                l(6) =   2
     Q(r) pseudized with 0 coefficients

     PseudoPot. # 2 for I  read from file:
     //group///packages/espresso/pseudo/psl_1.0.0/pslibrary.1.0.0/pbe/PSEUDOPOTENTIALS/I.pbe-dn-kjpaw_psl.1.0.0.UPF
     MD5 check sum: bfa8781bc1224d19af3f3980e3fab11e
     Pseudo is Projector augmented-wave + core cor, Zval = 17.0
     Generated using 'atomic' code by A. Dal Corso  v.7.1
     Shape of augmentation charge: PSQ
     Using radial grid of 1247 points,  6 beta functions with:
                l(1) =   0
                l(2) =   0
                l(3) =   1
                l(4) =   1
                l(5) =   2
                l(6) =   2
     Q(r) pseudized with 0 coefficients

     atomic species   valence    mass     pseudopotential
        Pb            14.00   207.20000     Pb( 1.00)
        I             17.00   126.90447     I ( 1.00)

      6 Sym. Ops. (no inversion) found

                                    s                        frac. trans.

      isym =  1     identity

 cryst.   s( 1) = (     1          0          0      )
                  (     0          1          0      )
                  (     0          0          1      )

 cart.    s( 1) = (  1.0000000  0.0000000  0.0000000 )
                  (  0.0000000  1.0000000  0.0000000 )
                  (  0.0000000  0.0000000  1.0000000 )

      isym =  2     120 deg rotation - cryst. axis [0,0,1]

[...]

      isym =  4     inv. 180 deg rotation - cart. axis [1,0,0]

[...]

      isym =  5     inv. 180 deg rotation - cryst. axis [0,1,0]

[...]

     point group C_3v (3m)
     there are  3 classes
     the character table:

       E     2C3   3s_v
A_1    1.00  1.00  1.00
A_2    1.00  1.00 -1.00
E      2.00 -1.00  0.00

     the symmetry operations in each class and the name of the first element:

     E        1
          identity
     2C3      2    3
          120 deg rotation - cryst. axis [0,0,1]
     3s_v     4    5    6
          inv. 180 deg rotation - cart. axis [1,0,0]

   Cartesian axes

     site n.     atom                  positions (alat units)
         1           Pb  tau(   1) = (  -0.0000005   0.5773506   1.9890856  )
         2           Pb  tau(   2) = (  -0.0000005   0.5773506   5.1362214  )
         3           Pb  tau(   3) = (   0.0000000   0.0000000   9.8458956  )
         4           Pb  tau(   4) = (  -0.0000005   0.5773506   8.2703718  )
         5           Pb  tau(   5) = (  -0.0000005   0.5773506   6.7007843  )
         6           Pb  tau(   6) = (  -0.0000005   0.5773506   3.5658591  )
         7           Pb  tau(   7) = (  -0.0000005   0.5773506   0.4213779  )
         8           I   tau(   8) = (   0.5000005   0.2886749  10.2504196  )
         9           I   tau(   9) = (   0.0000000   0.0000000   4.7346785  )
        10           I   tau(  10) = (   0.5000005   0.2886749   0.8245711  )
        11           I   tau(  11) = (   0.5000005   0.2886749   8.6724413  )
        12           I   tau(  12) = (   0.0000000   0.0000000   1.5866606  )
        13           I   tau(  13) = (   0.5000005   0.2886749   3.9680606  )
        14           I   tau(  14) = (  -0.0000005   0.5773506   9.4413703  )
        15           I   tau(  15) = (   0.0000000   0.0000000   0.0182376  )
        16           I   tau(  16) = (   0.5000005   0.2886749   7.1037153  )
        17           I   tau(  17) = (   0.0000000   0.0000000   6.2985953  )
        18           I   tau(  18) = (   0.0000000   0.0000000   3.1635121  )
        19           I   tau(  19) = (   0.5000005   0.2886749   2.3912227  )
        20           I   tau(  20) = (   0.5000005   0.2886749   5.5385798  )
        21           I   tau(  21) = (   0.0000000   0.0000000   7.8690832  )

   Crystallographic axes

     site n.     atom                  positions (cryst. coord.)
         1           Pb  tau(   1) = (  0.3333330  0.6666670  0.1807493  )
         2           Pb  tau(   2) = (  0.3333330  0.6666670  0.4667312  )
         3           Pb  tau(   3) = (  0.0000000  0.0000000  0.8947018  )
         4           Pb  tau(   4) = (  0.3333330  0.6666670  0.7515331  )
         5           Pb  tau(   5) = (  0.3333330  0.6666670  0.6089039  )
         6           Pb  tau(   6) = (  0.3333330  0.6666670  0.3240315  )
         7           Pb  tau(   7) = (  0.3333330  0.6666670  0.0382908  )
         8           I   tau(   8) = (  0.6666670  0.3333330  0.9314611  )
         9           I   tau(   9) = (  0.0000000  0.0000000  0.4302428  )
        10           I   tau(  10) = (  0.6666670  0.3333330  0.0749292  )
        11           I   tau(  11) = (  0.6666670  0.3333330  0.7880694  )
        12           I   tau(  12) = (  0.0000000  0.0000000  0.1441807  )
        13           I   tau(  13) = (  0.6666670  0.3333330  0.3605798  )
        14           I   tau(  14) = (  0.3333330  0.6666670  0.8579424  )
        15           I   tau(  15) = (  0.0000000  0.0000000  0.0016573  )
        16           I   tau(  16) = (  0.6666670  0.3333330  0.6455184  )
        17           I   tau(  17) = (  0.0000000  0.0000000  0.5723567  )
        18           I   tau(  18) = (  0.0000000  0.0000000  0.2874700  )
        19           I   tau(  19) = (  0.6666670  0.3333330  0.2172917  )
        20           I   tau(  20) = (  0.6666670  0.3333330  0.5032937  )
        21           I   tau(  21) = (  0.0000000  0.0000000  0.7150678  )

     number of k points=     4  Gaussian smearing, width (Ry)=  0.0100
                       cart. coord. in units 2pi/alat
        k(    1) = (   0.0000000   0.0000000   0.0000000), wk =   0.1250000
        k(    2) = (   0.0000000   0.2886751   0.0000000), wk =   0.7500000
        k(    3) = (   0.0000000  -0.5773503   0.0000000), wk =   0.3750000
        k(    4) = (   0.2500000   0.4330127   0.0000000), wk =   0.7500000

                       cryst. coord.
        k(    1) = (   0.0000000   0.0000000   0.0000000), wk =   0.1250000
        k(    2) = (   0.0000000   0.2500000   0.0000000), wk =   0.7500000
        k(    3) = (   0.0000000  -0.5000000   0.0000000), wk =   0.3750000
        k(    4) = (   0.2500000   0.2500000   0.0000000), wk =   0.7500000

     Check: negative core charge=   -0.000001

     Initial potential from superposition of free atoms

     starting charge     335.9825, renormalised to     336.0000

     %%%%%%%%%%%%%%%%%%%%%%%%%%%%%%%%%%%%%%%%%%%%%%%%%%%%%%%%%%%%%%%%%%%%%%%%
     %                                                                      %
     % You are using vdW-DF, which was implemented by the Thonhauser group. %
     % Please cite the following two papers that made this development      %
     % possible and the two reviews that describe the various versions:     %
     %                                                                      %
     %   T. Thonhauser et al., PRL 115, 136402 (2015).                      %
     %   T. Thonhauser et al., PRB 76, 125112 (2007).                       %
     %   K. Berland et al., Rep. Prog. Phys. 78, 066501 (2015).             %
     %   D.C. Langreth et al., J. Phys.: Condens. Matter 21, 084203 (2009). %
     %                                                                      %
     % If you are calculating stress with vdW-DF, please also cite:         %
     %                                                                      %
     %   R. Sabatini et al., J. Phys.: Condens. Matter 24, 424209 (2012).   %
     %                                                                      %
     %%%%%%%%%%%%%%%%%%%%%%%%%%%%%%%%%%%%%%%%%%%%%%%%%%%%%%%%%%%%%%%%%%%%%%%%

     %%%%%%%%%%%%%%%%%%%%%%%%%%%%%%%%%%%%%%%%%%%%%%%%%%%%%%%%%%%%%%%%%%%%%%%%
     %                                                                      %
     %  vdW-DF NEWS:                                                        %
     %                                                                      %
     %  * vdW-DF3 is now available. DOI: 10.1021/acs.jctc.0c00471           %
     %    use with input_dft = 'vdW-DF3-opt1' or 'vdW-DF3-opt2'             %
     %                                                                      %
     %  * Unscreened and range-separated vdW-DF hybrid functionals          %
[...]
     1.0000   1.0000   1.0000   1.0000   1.0000   1.0000   1.0000   1.0000
     1.0000   1.0000   1.0000   1.0000   1.0000   1.0000   1.0000   1.0000
     1.0000   1.0000   1.0000   1.0000   1.0000   1.0000   1.0000   1.0000
     1.0000   1.0000   1.0000   1.0000   1.0000   1.0000   1.0000   1.0000
     1.0000   1.0000   1.0000   1.0000   1.0000   1.0000   1.0000   1.0000
     1.0000   1.0000   1.0000   1.0000   1.0000   1.0000   1.0000   1.0000
     1.0000   1.0000   1.0000   1.0000   1.0000   1.0000   1.0000   1.0000
     1.0000   1.0000   1.0000   1.0000   1.0000   1.0000   1.0000   1.0000
     1.0000   1.0000   1.0000   1.0000   1.0000   1.0000   1.0000   1.0000
     1.0000   1.0000   1.0000   1.0000   1.0000   1.0000   1.0000   1.0000
     1.0000   1.0000   1.0000   1.0000   1.0000   1.0000   1.0000   1.0000
     0.0000   0.0000   0.0000   0.0000   0.0000   0.0000   0.0000   0.0000
     0.0000   0.0000   0.0000   0.0000   0.0000   0.0000   0.0000   0.0000
     0.0000   0.0000   0.0000   0.0000   0.0000   0.0000   0.0000   0.0000
     0.0000   0.0000   0.0000   0.0000   0.0000   0.0000   0.0000   0.0000
     0.0000   0.0000

     the Fermi energy is     4.1902 ev

!    total energy              =  -14165.43112295 Ry
     total all-electron energy =   -491962.264218 Ry
     estimated scf accuracy    <          8.5E-10 Ry
     smearing contrib. (-TS)   =      -0.00000000 Ry
     internal energy E=F+TS    =  -14165.43112295 Ry

     The total energy is F=E-TS. E is the sum of the following terms:
     one-electron contribution =   -2626.48768357 Ry
     hartree contribution      =    1465.86615399 Ry
     xc contribution           =    -992.37615095 Ry
     ewald contribution        =   -2153.23618198 Ry
     one-center paw contrib.   =   -9859.19726043 Ry
      -> PAW hartree energy AE =      95.90158977 Ry
      -> PAW hartree energy PS =     -96.13824537 Ry
      -> PAW xc energy AE      =    -798.42987937 Ry
      -> PAW xc energy PS      =      33.30982124 Ry
      -> total E_H with PAW    =    1465.62949839 Ry
      -> total E_XC with PAW   =   -1757.49620908 Ry

     convergence has been achieved in  18 iterations

[...]

     Forces acting on atoms (cartesian axes, Ry/au):

     atom    1 type  1   force =     0.00000000    0.00000000   -0.00032738
     atom    2 type  1   force =    -0.00000000   -0.00000000    0.00041748
     atom    3 type  1   force =     0.00000000    0.00000000   -0.00078737
     atom    4 type  1   force =    -0.00000000   -0.00000000    0.00044404
     atom    5 type  1   force =    -0.00000000   -0.00000000    0.00078940
     atom    6 type  1   force =    -0.00000000   -0.00000000    0.00071898
     atom    7 type  1   force =     0.00000000    0.00000000   -0.00022076
     atom    8 type  2   force =    -0.00000000   -0.00000000    0.00083428
     atom    9 type  2   force =     0.00000000    0.00000000   -0.00000823
     atom   10 type  2   force =     0.00000000    0.00000000   -0.00088252
     atom   11 type  2   force =     0.00000000    0.00000000   -0.00064182
     atom   12 type  2   force =    -0.00000000   -0.00000000    0.00044622
     atom   13 type  2   force =    -0.00000000   -0.00000000    0.00049991
     atom   14 type  2   force =    -0.00000000   -0.00000000    0.00006330
     atom   15 type  2   force =    -0.00000000   -0.00000000    0.00053117
     atom   16 type  2   force =    -0.00000000   -0.00000000    0.00017887
     atom   17 type  2   force =     0.00000000    0.00000000   -0.00088177
     atom   18 type  2   force =     0.00000000    0.00000000   -0.00146816
     atom   19 type  2   force =    -0.00000000   -0.00000000    0.00054444
     atom   20 type  2   force =     0.00000000    0.00000000   -0.00054777
     atom   21 type  2   force =    -0.00000000   -0.00000000    0.00029768
     The non-local contrib.  to forces
     atom    1 type  1   force =    -0.00000000   -0.00000000    0.00011026
     atom    2 type  1   force =    -0.00000000   -0.00000000   -0.00025976
     atom    3 type  1   force =    -0.00000000   -0.00000000    0.00004819
     atom    4 type  1   force =     0.00000000    0.00000000   -0.00056976
     atom    5 type  1   force =     0.00000000    0.00000000   -0.00040270
     atom    6 type  1   force =     0.00000000    0.00000000   -0.00040603
     atom    7 type  1   force =     0.00000000    0.00000000    0.00009247
     atom    8 type  2   force =     0.00000000    0.00000000   -0.24485799
     atom    9 type  2   force =     0.00000000    0.00000000    0.24593855
     atom   10 type  2   force =     0.00000000    0.00000000   -0.24689700
     atom   11 type  2   force =    -0.00000000   -0.00000000   -0.24615697
     atom   12 type  2   force =    -0.00000000   -0.00000000    0.24687100
     atom   13 type  2   force =    -0.00000000   -0.00000000   -0.24601452
     atom   14 type  2   force =    -0.00000000   -0.00000000    0.24588079
     atom   15 type  2   force =    -0.00000000   -0.00000000    0.24528135
     atom   16 type  2   force =     0.00000000    0.00000000   -0.24633663
     atom   17 type  2   force =    -0.00000000   -0.00000000    0.24572266
     atom   18 type  2   force =    -0.00000000   -0.00000000    0.24473330
     atom   19 type  2   force =     0.00000000    0.00000000   -0.24516742
     atom   20 type  2   force =    -0.00000000   -0.00000000   -0.24674241
     atom   21 type  2   force =    -0.00000000   -0.00000000    0.24661165
     The ionic contribution  to forces
     atom    1 type  1   force =     0.00002818   -0.00001733    0.01881199
     atom    2 type  1   force =     0.00002822   -0.00001736   -0.60166165
     atom    3 type  1   force =     0.00000008    0.00000096    0.52497102
     atom    4 type  1   force =     0.00002811   -0.00001729    0.83592514
     atom    5 type  1   force =     0.00002829   -0.00001740    0.37659454
     atom    6 type  1   force =     0.00002833   -0.00001743   -0.75841687
     atom    7 type  1   force =     0.00002808   -0.00001727   -0.50375693
     atom    8 type  2   force =    -0.00001211    0.00000667   15.46255609
     atom    9 type  2   force =    -0.00000763    0.00000516  -15.41953825
     atom   10 type  2   force =    -0.00002057    0.00001218   13.92346764
     atom   11 type  2   force =    -0.00002149    0.00001278   15.66936296
     atom   12 type  2   force =    -0.00000753    0.00000510  -14.55752959
     atom   13 type  2   force =    -0.00002066    0.00001224   13.80861626
     atom   14 type  2   force =     0.00001302   -0.00000828  -13.85255922
     atom   15 type  2   force =    -0.00000756    0.00000511  -15.01212116
     atom   16 type  2   force =    -0.00002064    0.00001222   15.15312677
     atom   17 type  2   force =    -0.00000763    0.00000516  -14.34600716
     atom   18 type  2   force =    -0.00000772    0.00000521  -15.72370096
     atom   19 type  2   force =    -0.00002058    0.00001219   14.60574953
     atom   20 type  2   force =    -0.00002063    0.00001222   13.92001409
     atom   21 type  2   force =    -0.00000759    0.00000513  -13.52390424
     The local contribution  to forces
     atom    1 type  1   force =     0.00024537   -0.00015966   -0.01930331
     atom    2 type  1   force =     0.00024532   -0.00015962    0.60242840
     atom    3 type  1   force =     0.00000000    0.00000000   -0.52590352
     atom    4 type  1   force =     0.00024550   -0.00015974   -0.83487559
     atom    5 type  1   force =     0.00024526   -0.00015959   -0.37525130
     atom    6 type  1   force =     0.00024523   -0.00015957    0.75957900
     atom    7 type  1   force =     0.00024542   -0.00015969    0.50333884
     atom    8 type  2   force =    -0.00069836    0.00037941  -15.22212126
     atom    9 type  2   force =    -0.00000000   -0.00000000   15.17885962
     atom   10 type  2   force =    -0.00069839    0.00037942  -13.68280791
     atom   11 type  2   force =    -0.00069843    0.00037944  -15.42914562
     atom   12 type  2   force =    -0.00000000   -0.00000000   14.31645618
     atom   13 type  2   force =    -0.00069836    0.00037941  -13.56747777
     atom   14 type  2   force =     0.00070190   -0.00045672   13.61207346
     atom   15 type  2   force =    -0.00000000   -0.00000000   14.77261547
     atom   16 type  2   force =    -0.00069836    0.00037940  -14.91193605
     atom   17 type  2   force =    -0.00000000   -0.00000000   14.10479406
     atom   18 type  2   force =    -0.00000000   -0.00000000   15.48274748
     atom   19 type  2   force =    -0.00069843    0.00037944  -14.36538020
     atom   20 type  2   force =    -0.00069836    0.00037940  -13.67909384
     atom   21 type  2   force =    -0.00000000   -0.00000000   13.28286853
     The core correction contribution to forces
     atom    1 type  1   force =     0.00001652   -0.00001075    0.00002721
     atom    2 type  1   force =     0.00001652   -0.00001075   -0.00004239
     atom    3 type  1   force =    -0.00000000   -0.00000000    0.00008965
     atom    4 type  1   force =     0.00001652   -0.00001075   -0.00003193
     atom    5 type  1   force =     0.00001652   -0.00001075   -0.00007964
     atom    6 type  1   force =     0.00001652   -0.00001075   -0.00007708
     atom    7 type  1   force =     0.00001652   -0.00001075    0.00002656
     atom    8 type  2   force =    -0.00005752    0.00003125    0.00525658
     atom    9 type  2   force =    -0.00000000    0.00000000   -0.00525711
     atom   10 type  2   force =    -0.00005751    0.00003125    0.00531422
     atom   11 type  2   force =    -0.00005751    0.00003125    0.00531489
     atom   12 type  2   force =    -0.00000000    0.00000000   -0.00537763
     atom   13 type  2   force =    -0.00005751    0.00003125    0.00535102
     atom   14 type  2   force =     0.00005779   -0.00003760   -0.00535247
     atom   15 type  2   force =    -0.00000000    0.00000000   -0.00530963
     atom   16 type  2   force =    -0.00005751    0.00003125    0.00539560
     atom   17 type  2   force =    -0.00000000    0.00000000   -0.00534962
     atom   18 type  2   force =    -0.00000000    0.00000000   -0.00529229
     atom   19 type  2   force =    -0.00005751    0.00003125    0.00533817
     atom   20 type  2   force =    -0.00005751    0.00003125    0.00532240
     atom   21 type  2   force =    -0.00000000    0.00000000   -0.00529749
     The Hubbard contrib.    to forces
     atom    1 type  1   force =     0.00000000    0.00000000    0.00000000
     atom    2 type  1   force =     0.00000000    0.00000000    0.00000000
     atom    3 type  1   force =     0.00000000    0.00000000    0.00000000
     atom    4 type  1   force =     0.00000000    0.00000000    0.00000000
     atom    5 type  1   force =     0.00000000    0.00000000    0.00000000
     atom    6 type  1   force =     0.00000000    0.00000000    0.00000000
     atom    7 type  1   force =     0.00000000    0.00000000    0.00000000
     atom    8 type  2   force =     0.00000000    0.00000000    0.00000000
     atom    9 type  2   force =     0.00000000    0.00000000    0.00000000
     atom   10 type  2   force =     0.00000000    0.00000000    0.00000000
     atom   11 type  2   force =     0.00000000    0.00000000    0.00000000
     atom   12 type  2   force =     0.00000000    0.00000000    0.00000000
     atom   13 type  2   force =     0.00000000    0.00000000    0.00000000
     atom   14 type  2   force =     0.00000000    0.00000000    0.00000000
     atom   15 type  2   force =     0.00000000    0.00000000    0.00000000
     atom   16 type  2   force =     0.00000000    0.00000000    0.00000000
     atom   17 type  2   force =     0.00000000    0.00000000    0.00000000
     atom   18 type  2   force =     0.00000000    0.00000000    0.00000000
     atom   19 type  2   force =     0.00000000    0.00000000    0.00000000
     atom   20 type  2   force =     0.00000000    0.00000000    0.00000000
     atom   21 type  2   force =     0.00000000    0.00000000    0.00000000
     The SCF correction term to forces
     atom    1 type  1   force =    -0.00000000    0.00000000    0.00002263
     atom    2 type  1   force =    -0.00000000    0.00000000   -0.00005096
     atom    3 type  1   force =    -0.00000000   -0.00000000    0.00000345
     atom    4 type  1   force =    -0.00000000    0.00000000   -0.00000765
     atom    5 type  1   force =    -0.00000000    0.00000000   -0.00007533
     atom    6 type  1   force =    -0.00000000    0.00000000    0.00003612
     atom    7 type  1   force =    -0.00000000    0.00000000    0.00007445
     atom    8 type  2   force =     0.00000000   -0.00000000   -0.00000297
     atom    9 type  2   force =     0.00000000   -0.00000000   -0.00001488
     atom   10 type  2   force =     0.00000000   -0.00000000    0.00003670
     atom   11 type  2   force =     0.00000000   -0.00000000   -0.00002092
     atom   12 type  2   force =     0.00000000   -0.00000000    0.00002243
     atom   13 type  2   force =    -0.00000000    0.00000000    0.00002109
     atom   14 type  2   force =    -0.00000000    0.00000000    0.00001690
     atom   15 type  2   force =     0.00000000   -0.00000000    0.00006130
     atom   16 type  2   force =     0.00000000   -0.00000000   -0.00007466
     atom   17 type  2   force =     0.00000000   -0.00000000   -0.00004555
     atom   18 type  2   force =     0.00000000   -0.00000000    0.00004047
     atom   19 type  2   force =     0.00000000   -0.00000000    0.00000052
     atom   20 type  2   force =     0.00000000   -0.00000000   -0.00005184
     atom   21 type  2   force =     0.00000000   -0.00000000    0.00001538

     Total force =     0.002926     Total SCF correction =     0.000187

     Computing stress (Cartesian axis) and pressure

     Non-local corr. energy    =      10.07163906 Ry

          total   stress  (Ry/bohr**3)                   (kbar)     P=        1.05
   0.00000653   0.00000000  -0.00000000            0.96        0.00       -0.00
   0.00000000   0.00000653   0.00000000            0.00        0.96        0.00
  -0.00000000  -0.00000000   0.00000832           -0.00       -0.00        1.22

     kinetic stress (kbar)  14907.10      0.00      0.00
                                0.00  14907.10      0.00
                               -0.00     -0.00  14918.17

     local   stress (kbar)  -7738.80     -0.00      0.00
                               -0.00  -7738.80     -0.00
                                0.00     -0.00   1731.75

     nonloc. stress (kbar)  -1066.52     -0.00      0.00
                               -0.00  -1066.52     -0.00
                                0.00     -0.00  -1072.51

     hartree stress (kbar)  12094.28     -0.00     -0.00
                               -0.00  12094.28     -0.00
                               -0.00     -0.00   7820.01

     exc-cor stress (kbar)   6907.78      0.00     -0.00
                                0.00   6907.78      0.00
                               -0.00      0.00   6906.58

     corecor stress (kbar) -11246.84     -0.00     -0.00
                               -0.00 -11246.84      0.00
                               -0.00      0.00 -11246.77

     ewald   stress (kbar) -13938.86      0.00     -0.01
                                0.00 -13938.85      0.00
                               -0.01      0.00 -19140.23

     hubbard stress (kbar)      0.00      0.00      0.00
                                0.00      0.00      0.00
                                0.00      0.00      0.00

     DFT-D   stress (kbar)      0.00      0.00      0.00
                                0.00      0.00      0.00
                                0.00      0.00      0.00

     XDM     stress (kbar)      0.00      0.00      0.00
                                0.00      0.00      0.00
                                0.00      0.00      0.00

     dft-nl  stress (kbar)     82.82     -0.00      0.00
                               -0.00     82.82     -0.00
                                0.00     -0.00     84.22

     TS-vdW  stress (kbar)      0.00      0.00      0.00
                                0.00      0.00      0.00
                                0.00      0.00      0.00

     MDB     stress (kbar)      0.00      0.00      0.00
                                0.00      0.00      0.00
                                0.00      0.00      0.00

     3D-RISM stress (kbar)      0.00      0.00      0.00
                                0.00      0.00      0.00
                                0.00      0.00      0.00

     Writing all to output data dir ./PbI2.save/

     General routines

     Parallel routines

     PAW routines

   This run was terminated on:  17:15:39  20Feb2024

   JOB DONE.