     Program PWSCF v.7.1 starts on 18Feb2024 at 11:44: 7

     Reading input from espresso.pwi
Warning: card &CELL ignored
Warning: card    CELL_DYNAMICS    = 'BFGS' ignored
Warning: card / ignored

     Current dimensions of program PWSCF are:
     Max number of different atomic species (ntypx) = 10
     Max number of k-points (npk) =  40000
     Max angular momentum in pseudopotentials (lmaxx) =  4
     file Pb.pbe-dn-kjpaw_psl.1.0.0.UPF: wavefunction(s)  6S 6P 5D renormalized
     file I.pbe-dn-kjpaw_psl.1.0.0.UPF: wavefunction(s)  5S 5P renormalized

     IMPORTANT: XC functional enforced from input :
     Exchange-correlation= BEEF-VDW
                           (   1   4  43  14   2   0   0)
     Any further DFT definition will be discarded
     Please, verify this is what you really want

     R & G space division:  proc/nbgrp/npool/nimage =     128
     Subspace diagonalization in iterative solution of the eigenvalue problem:
     a serial algorithm will be used

     Using Slab Decomposition

     bravais-lattice index     =            4
     lattice parameter (alat)  =      35.6073  a.u.
     unit-cell volume          =   30614.2220 (a.u.)^3
     number of atoms/cell      =           96
     number of atomic types    =            2
     number of electrons       =      1536.00
     number of Kohn-Sham states=          922
     kinetic-energy cutoff     =      70.0000  Ry
     charge density cutoff     =     350.0000  Ry
     scf convergence threshold =      1.0E-07
     mixing beta               =       0.7000
     number of iterations used =            8  plain     mixing
     Exchange-correlation= BEEF-VDW
                           (   1   4  43  14   2   0   0)

     celldm(1)=  35.607290  celldm(2)=   0.000000  celldm(3)=   0.783025
     celldm(4)=   0.000000  celldm(5)=   0.000000  celldm(6)=   0.000000

     crystal axes: (cart. coord. in units of alat)
               a(1) = (   1.000000   0.000000   0.000000 )
               a(2) = (  -0.500000   0.866025   0.000000 )
               a(3) = (   0.000000   0.000000   0.783025 )

     reciprocal axes: (cart. coord. in units 2 pi/alat)
               b(1) = (  1.000000  0.577350 -0.000000 )
               b(2) = (  0.000000  1.154701  0.000000 )
               b(3) = (  0.000000 -0.000000  1.277098 )

     PseudoPot. # 1 for Pb read from file:
     //group///packages/espresso/pseudo/psl_1.0.0/pslibrary.1.0.0/pbe/PSEUDOPOTENTIALS/Pb.pbe-dn-kjpaw_psl.1.0.0.UPF
     MD5 check sum: 39ab5b8a6bbd56b7735ad9f188aac93a
     Pseudo is Projector augmented-wave + core cor, Zval = 14.0
     Generated using 'atomic' code by A. Dal Corso  v.7.1
     Shape of augmentation charge: PSQ
     Using radial grid of 1281 points,  6 beta functions with:
                l(1) =   0
                l(2) =   0
                l(3) =   1
                l(4) =   1
                l(5) =   2
                l(6) =   2
     Q(r) pseudized with 0 coefficients

     PseudoPot. # 2 for I  read from file:
     //group///packages/espresso/pseudo/psl_1.0.0/pslibrary.1.0.0/pbe/PSEUDOPOTENTIALS/I.pbe-dn-kjpaw_psl.1.0.0.UPF
     MD5 check sum: bfa8781bc1224d19af3f3980e3fab11e
     Pseudo is Projector augmented-wave + core cor, Zval = 17.0
     Generated using 'atomic' code by A. Dal Corso  v.7.1
     Shape of augmentation charge: PSQ
     Using radial grid of 1247 points,  6 beta functions with:
                l(1) =   0
                l(2) =   0
                l(3) =   1
                l(4) =   1
                l(5) =   2
                l(6) =   2
     Q(r) pseudized with 0 coefficients

     atomic species   valence    mass     pseudopotential
        Pb            14.00   207.20000     Pb( 1.00)
        I             17.00   126.90447     I ( 1.00)

     No symmetry found

                                    s                        frac. trans.

      isym =  1     identity

 cryst.   s( 1) = (     1          0          0      )
                  (     0          1          0      )
                  (     0          0          1      )

 cart.    s( 1) = (  1.0000000  0.0000000  0.0000000 )
                  (  0.0000000  1.0000000  0.0000000 )
                  (  0.0000000  0.0000000  1.0000000 )

     point group C_1 (1)
     there are  1 classes
     the character table:

       E
A      1.00

     the symmetry operations in each class and the name of the first element:

     E        1
          identity

   Cartesian axes

     site n.     atom                  positions (alat units)
         1           Pb  tau(   1) = (   0.1250086   0.2164870   0.7830203  )
         2           Pb  tau(   2) = (   0.1250034   0.2164916   0.3915076  )
         3           Pb  tau(   3) = (   0.0000077   0.4329922   0.7830161  )
         4           Pb  tau(   4) = (   0.0000025   0.4329968   0.3915034  )
         5           Pb  tau(   5) = (  -0.1249932   0.6494975   0.7830119  )
         6           Pb  tau(   6) = (  -0.1249984   0.6495021   0.3914992  )
         7           Pb  tau(   7) = (  -0.2499941   0.8660028   0.7830077  )
         8           Pb  tau(   8) = (  -0.2499993   0.8660074   0.3914950  )
         9           Pb  tau(   9) = (   0.3750086   0.2164859   0.7830237  )
        10           Pb  tau(  10) = (   0.3750034   0.2164905   0.3915110  )
        11           Pb  tau(  11) = (   0.2500077   0.4329912   0.7830194  )
        12           Pb  tau(  12) = (   0.2500025   0.4329958   0.3915068  )
        13           Pb  tau(  13) = (   0.1250068   0.6494965   0.7830152  )
        14           Pb  tau(  14) = (   0.1250016   0.6495011   0.3915026  )
        15           Pb  tau(  15) = (   0.0000059   0.8660017   0.7830110  )
        16           Pb  tau(  16) = (   0.0000007   0.8660063   0.3914983  )
        17           Pb  tau(  17) = (   0.6250086   0.2164849   0.7830270  )
        18           Pb  tau(  18) = (   0.6250034   0.2164895   0.3915143  )
        19           Pb  tau(  19) = (   0.5000077   0.4329901   0.7830228  )
        20           Pb  tau(  20) = (   0.5000025   0.4329947   0.3915101  )
        21           Pb  tau(  21) = (   0.3750068   0.6494954   0.7830186  )
        22           Pb  tau(  22) = (   0.3750016   0.6495000   0.3915059  )
        23           Pb  tau(  23) = (   0.2500059   0.8660007   0.7830144  )
        24           Pb  tau(  24) = (   0.2500007   0.8660053   0.3915017  )
        25           Pb  tau(  25) = (   0.8750086   0.2164838   0.7830303  )
        26           Pb  tau(  26) = (   0.8750034   0.2164884   0.3915177  )
        27           Pb  tau(  27) = (   0.7500077   0.4329891   0.7830261  )
        28           Pb  tau(  28) = (   0.7500025   0.4329937   0.3915135  )
        29           Pb  tau(  29) = (   0.6250068   0.6494944   0.7830219  )
        30           Pb  tau(  30) = (   0.6250016   0.6494990   0.3915092  )
        31           Pb  tau(  31) = (   0.5000059   0.8659996   0.7830177  )
        32           Pb  tau(  32) = (   0.5000007   0.8660042   0.3915050  )
        33           I   tau(  33) = (   0.1250056   0.0721546   0.2909163  )
        34           I   tau(  34) = (   0.1250108   0.0721500   0.6824290  )
        35           I   tau(  35) = (   0.0000047   0.2886599   0.2909121  )
        36           I   tau(  36) = (   0.0000099   0.2886553   0.6824248  )
        37           I   tau(  37) = (  -0.1249962   0.5051652   0.2909079  )
        38           I   tau(  38) = (  -0.1249910   0.5051606   0.6824206  )
        39           I   tau(  39) = (  -0.2499972   0.7216704   0.2909037  )
        40           I   tau(  40) = (  -0.2499919   0.7216658   0.6824164  )
        41           I   tau(  41) = (   0.3750056   0.0721536   0.2909197  )
        42           I   tau(  42) = (   0.3750108   0.0721490   0.6824324  )
        43           I   tau(  43) = (   0.2500047   0.2886589   0.2909155  )
        44           I   tau(  44) = (   0.2500099   0.2886543   0.6824282  )
        45           I   tau(  45) = (   0.1250038   0.5051641   0.2909113  )
        46           I   tau(  46) = (   0.1250090   0.5051595   0.6824240  )
        47           I   tau(  47) = (   0.0000028   0.7216694   0.2909071  )
        48           I   tau(  48) = (   0.0000081   0.7216648   0.6824197  )
        49           I   tau(  49) = (   0.6250056   0.0721525   0.2909230  )
        50           I   tau(  50) = (   0.6250108   0.0721479   0.6824357  )
        51           I   tau(  51) = (   0.5000047   0.2886578   0.2909188  )
        52           I   tau(  52) = (   0.5000099   0.2886532   0.6824315  )
        53           I   tau(  53) = (   0.3750038   0.5051631   0.2909146  )
        54           I   tau(  54) = (   0.3750090   0.5051585   0.6824273  )
        55           I   tau(  55) = (   0.2500028   0.7216683   0.2909104  )
        56           I   tau(  56) = (   0.2500081   0.7216637   0.6824231  )
        57           I   tau(  57) = (   0.8750056   0.0721515   0.2909264  )
        58           I   tau(  58) = (   0.8750108   0.0721469   0.6824391  )
        59           I   tau(  59) = (   0.7500047   0.2886567   0.2909222  )
        60           I   tau(  60) = (   0.7500099   0.2886521   0.6824348  )
[...]
        82           I   tau(  82) = (   0.5000034   0.1443230   0.4921126  )
        83           I   tau(  83) = (   0.3749973   0.3608329   0.1005958  )
        84           I   tau(  84) = (   0.3750025   0.3608283   0.4921084  )
        85           I   tau(  85) = (   0.2499964   0.5773382   0.1005915  )
        86           I   tau(  86) = (   0.2500016   0.5773336   0.4921042  )
        87           I   tau(  87) = (   0.1249955   0.7938434   0.1005873  )
        88           I   tau(  88) = (   0.1250007   0.7938388   0.4921000  )
        89           I   tau(  89) = (   0.7499982   0.1443266   0.1006033  )
        90           I   tau(  90) = (   0.7500034   0.1443220   0.4921160  )
        91           I   tau(  91) = (   0.6249973   0.3608319   0.1005991  )
        92           I   tau(  92) = (   0.6250025   0.3608273   0.4921118  )
        93           I   tau(  93) = (   0.4999964   0.5773371   0.1005949  )
        94           I   tau(  94) = (   0.5000016   0.5773325   0.4921076  )
        95           I   tau(  95) = (   0.3749955   0.7938424   0.1005907  )
        96           I   tau(  96) = (   0.3750007   0.7938378   0.4921034  )

   Crystallographic axes

     site n.     atom                  positions (cryst. coord.)
         1           Pb  tau(   1) = (  0.2499975  0.2499776  0.9999935  )
         2           Pb  tau(   2) = (  0.2499949  0.2499829  0.4999935  )
         3           Pb  tau(   3) = (  0.2499959  0.4999764  0.9999882  )
         4           Pb  tau(   4) = (  0.2499933  0.4999817  0.4999882  )
         5           Pb  tau(   5) = (  0.2499944  0.7499751  0.9999828  )
         6           Pb  tau(   6) = (  0.2499918  0.7499804  0.4999828  )
         7           Pb  tau(   7) = (  0.2499928  0.9999739  0.9999774  )
         8           Pb  tau(   8) = (  0.2499903  0.9999792  0.4999774  )
         9           Pb  tau(   9) = (  0.4999968  0.2499764  0.9999978  )
[...]
     atom   26 type  1   force =     0.00000000    0.00000000    0.00000000
     atom   27 type  1   force =     0.00000000    0.00000000    0.00000000
     atom   28 type  1   force =     0.00000000    0.00000000    0.00000000
     atom   29 type  1   force =     0.00000000    0.00000000    0.00000000
     atom   30 type  1   force =     0.00000000    0.00000000    0.00000000
     atom   31 type  1   force =     0.00000000    0.00000000    0.00000000
     atom   32 type  1   force =     0.00000000    0.00000000    0.00000000
     atom   33 type  2   force =     0.00000000    0.00000000    0.00000000
     atom   34 type  2   force =     0.00000000    0.00000000    0.00000000
     atom   35 type  2   force =     0.00000000    0.00000000    0.00000000
     atom   36 type  2   force =     0.00000000    0.00000000    0.00000000
     atom   37 type  2   force =     0.00000000    0.00000000    0.00000000
     atom   38 type  2   force =     0.00000000    0.00000000    0.00000000
     atom   39 type  2   force =     0.00000000    0.00000000    0.00000000
     atom   40 type  2   force =     0.00000000    0.00000000    0.00000000
     atom   41 type  2   force =     0.00000000    0.00000000    0.00000000
     atom   42 type  2   force =     0.00000000    0.00000000    0.00000000
     atom   43 type  2   force =     0.00000000    0.00000000    0.00000000
     atom   44 type  2   force =     0.00000000    0.00000000    0.00000000
     atom   45 type  2   force =     0.00000000    0.00000000    0.00000000
     atom   46 type  2   force =     0.00000000    0.00000000    0.00000000
     atom   47 type  2   force =     0.00000000    0.00000000    0.00000000
     atom   48 type  2   force =     0.00000000    0.00000000    0.00000000
     atom   49 type  2   force =     0.00000000    0.00000000    0.00000000
     atom   50 type  2   force =     0.00000000    0.00000000    0.00000000
     atom   51 type  2   force =     0.00000000    0.00000000    0.00000000
     atom   52 type  2   force =     0.00000000    0.00000000    0.00000000
     atom   53 type  2   force =     0.00000000    0.00000000    0.00000000
     atom   54 type  2   force =     0.00000000    0.00000000    0.00000000
     atom   55 type  2   force =     0.00000000    0.00000000    0.00000000
     atom   56 type  2   force =     0.00000000    0.00000000    0.00000000
     atom   57 type  2   force =     0.00000000    0.00000000    0.00000000
     atom   58 type  2   force =     0.00000000    0.00000000    0.00000000
     atom   59 type  2   force =     0.00000000    0.00000000    0.00000000
     atom   60 type  2   force =     0.00000000    0.00000000    0.00000000
[...]
     atom   82 type  2   force =     0.00000000    0.00000000    0.00000000
     atom   83 type  2   force =     0.00000000    0.00000000    0.00000000
     atom   84 type  2   force =     0.00000000    0.00000000    0.00000000
     atom   85 type  2   force =     0.00000000    0.00000000    0.00000000
     atom   86 type  2   force =     0.00000000    0.00000000    0.00000000
     atom   87 type  2   force =     0.00000000    0.00000000    0.00000000
     atom   88 type  2   force =     0.00000000    0.00000000    0.00000000
     atom   89 type  2   force =     0.00000000    0.00000000    0.00000000
     atom   90 type  2   force =     0.00000000    0.00000000    0.00000000
     atom   91 type  2   force =     0.00000000    0.00000000    0.00000000
     atom   92 type  2   force =     0.00000000    0.00000000    0.00000000
     atom   93 type  2   force =     0.00000000    0.00000000    0.00000000
     atom   94 type  2   force =     0.00000000    0.00000000    0.00000000
     atom   95 type  2   force =     0.00000000    0.00000000    0.00000000
     atom   96 type  2   force =     0.00000000    0.00000000    0.00000000
     The SCF correction term to forces
     atom    1 type  1   force =     0.00005854    0.00000283    0.00005296
     atom    2 type  1   force =     0.00004882   -0.00001630   -0.00005322
     atom    3 type  1   force =     0.00004133    0.00000775    0.00004723
     atom    4 type  1   force =     0.00003269   -0.00001311   -0.00005101
     atom    5 type  1   force =    -0.00000952    0.00002710    0.00005910
     atom    6 type  1   force =    -0.00002483    0.00002565   -0.00005413
     atom    7 type  1   force =     0.00000862    0.00002411    0.00006418
     atom    8 type  1   force =    -0.00000837    0.00002520   -0.00005174
     atom    9 type  1   force =    -0.00003314    0.00000589    0.00003095
     atom   10 type  1   force =    -0.00003979   -0.00000193   -0.00002778
     atom   11 type  1   force =     0.00001545   -0.00002560    0.00003495
     atom   12 type  1   force =     0.00001447   -0.00004088   -0.00004115
     atom   13 type  1   force =    -0.00000116   -0.00002585    0.00005420
     atom   14 type  1   force =     0.00000028   -0.00002513   -0.00005991
     atom   15 type  1   force =    -0.00005000    0.00001081    0.00005480
     atom   16 type  1   force =    -0.00005767    0.00001537   -0.00004069
     atom   17 type  1   force =    -0.00006122    0.00000945   -0.00000018
     atom   18 type  1   force =    -0.00005090    0.00001321    0.00000585
     atom   19 type  1   force =    -0.00004368   -0.00000245   -0.00000507
     atom   20 type  1   force =    -0.00003423   -0.00000262    0.00000415
     atom   21 type  1   force =     0.00000664   -0.00004096    0.00002159
     atom   22 type  1   force =     0.00002466   -0.00002847   -0.00002619
     atom   23 type  1   force =    -0.00000952   -0.00002238    0.00002878
     atom   24 type  1   force =     0.00000895   -0.00001432   -0.00002389
     atom   25 type  1   force =     0.00003071    0.00000575    0.00001618
     atom   26 type  1   force =     0.00004374    0.00000159   -0.00002293
     atom   27 type  1   force =    -0.00001894    0.00003331    0.00000603
     atom   28 type  1   force =    -0.00001180    0.00002817   -0.00000718
     atom   29 type  1   force =    -0.00000089    0.00001232    0.00002224
     atom   30 type  1   force =     0.00000198    0.00002369   -0.00002602
     atom   31 type  1   force =     0.00004870   -0.00000954    0.00003900
     atom   32 type  1   force =     0.00006100   -0.00000154   -0.00003865
     atom   33 type  2   force =     0.00005524    0.00001073   -0.00004961
     atom   34 type  2   force =     0.00004897    0.00000841    0.00000345
     atom   35 type  2   force =     0.00007862   -0.00000689   -0.00005679
     atom   36 type  2   force =     0.00005383    0.00000197   -0.00000461
     atom   37 type  2   force =     0.00001798    0.00003471   -0.00006635
     atom   38 type  2   force =    -0.00000731    0.00001570    0.00000126
     atom   39 type  2   force =    -0.00000534    0.00004875   -0.00006323
     atom   40 type  2   force =    -0.00001482    0.00001869    0.00000792
     atom   41 type  2   force =    -0.00006412    0.00001120   -0.00006423
     atom   42 type  2   force =    -0.00002953    0.00003710    0.00001730
     atom   43 type  2   force =    -0.00000340   -0.00002599   -0.00005904
     atom   44 type  2   force =     0.00003395   -0.00000154    0.00001358
     atom   45 type  2   force =     0.00002193   -0.00003504   -0.00008331
     atom   46 type  2   force =     0.00004200   -0.00003062    0.00002957
     atom   47 type  2   force =    -0.00003933    0.00000085   -0.00009126
     atom   48 type  2   force =    -0.00002186    0.00000675    0.00002944
     atom   49 type  2   force =    -0.00005810   -0.00001134   -0.00005796
     atom   50 type  2   force =    -0.00004859    0.00001995   -0.00000558
     atom   51 type  2   force =    -0.00007887   -0.00000138   -0.00003599
     atom   52 type  2   force =    -0.00005379    0.00001905   -0.00001969
     atom   53 type  2   force =    -0.00001940   -0.00003261   -0.00005185
     atom   54 type  2   force =     0.00000775   -0.00004242   -0.00000059
     atom   55 type  2   force =     0.00000348   -0.00004241   -0.00007240
     atom   56 type  2   force =     0.00001491   -0.00004543    0.00000860
     atom   57 type  2   force =     0.00006595   -0.00001331   -0.00004704
     atom   58 type  2   force =     0.00002988   -0.00000846   -0.00001923
     atom   59 type  2   force =     0.00000365    0.00001900   -0.00003715
     atom   60 type  2   force =    -0.00003313    0.00002232   -0.00003622
[...]
     atom   82 type  2   force =    -0.00005984    0.00003519    0.00000983
     atom   83 type  2   force =    -0.00004858   -0.00001819    0.00003499
     atom   84 type  2   force =    -0.00000799   -0.00001519    0.00001547
     atom   85 type  2   force =    -0.00000349   -0.00004872    0.00005068
     atom   86 type  2   force =     0.00003647   -0.00005187    0.00000933
     atom   87 type  2   force =    -0.00004412   -0.00003193    0.00005979
     atom   88 type  2   force =    -0.00001932    0.00000228    0.00000506
     atom   89 type  2   force =    -0.00001216   -0.00001215    0.00004984
     atom   90 type  2   force =    -0.00001073    0.00001536    0.00002157
     atom   91 type  2   force =    -0.00005696    0.00002212    0.00002749
     atom   92 type  2   force =    -0.00005353    0.00001800    0.00003657
     atom   93 type  2   force =    -0.00001607   -0.00000452    0.00003860
     atom   94 type  2   force =     0.00000097   -0.00001945    0.00001833
     atom   95 type  2   force =     0.00002886   -0.00003607    0.00006282
     atom   96 type  2   force =     0.00004459   -0.00002462    0.00000354

     Total force =     0.000240     Total SCF correction =     0.000607
     SCF correction compared to forces is large: reduce conv_thr to get better values

     Computing stress (Cartesian axis) and pressure

[...]

          total   stress  (Ry/bohr**3)                   (kbar)     P=        1.61
   0.00001031  -0.00000000   0.00000000            1.52       -0.00        0.00
  -0.00000000   0.00001030  -0.00000001           -0.00        1.52       -0.00
   0.00000000  -0.00000001   0.00001229            0.00       -0.00        1.81

     kinetic stress (kbar)  14996.53      0.00      0.00
                                0.00  14996.53     -0.00
                                0.00     -0.00  15007.83

     local   stress (kbar)  -7545.64      0.06     -0.05
                                0.06  -7545.50      0.06
                               -0.05      0.06   1594.39

     nonloc. stress (kbar)  -1072.67     -0.00      0.00
                               -0.00  -1072.67     -0.00
                                0.00     -0.00  -1078.67

     hartree stress (kbar)  12056.24     -0.02      0.02
                               -0.02  12056.19     -0.02
                                0.02     -0.02   7938.07

     exc-cor stress (kbar)   6948.90     -0.00      0.00
                               -0.00   6948.90     -0.00
                                0.00     -0.00   6947.79

     corecor stress (kbar) -11313.98      0.00     -0.00
                                0.00 -11313.98      0.00
                               -0.00      0.00 -11313.98

     ewald   stress (kbar) -14151.17     -0.04      0.03
                               -0.04 -14151.26     -0.04
                                0.03     -0.04 -19178.30

     hubbard stress (kbar)      0.00      0.00      0.00
                                0.00      0.00      0.00
                                0.00      0.00      0.00

     DFT-D   stress (kbar)      0.00      0.00      0.00
                                0.00      0.00      0.00
                                0.00      0.00      0.00

     XDM     stress (kbar)      0.00      0.00      0.00
                                0.00      0.00      0.00
                                0.00      0.00      0.00

     dft-nl  stress (kbar)     83.31      0.00     -0.00
                                0.00     83.31      0.00
                               -0.00      0.00     84.67

     TS-vdW  stress (kbar)      0.00      0.00      0.00
                                0.00      0.00      0.00
                                0.00      0.00      0.00

     MDB     stress (kbar)      0.00      0.00      0.00
                                0.00      0.00      0.00
                                0.00      0.00      0.00

     3D-RISM stress (kbar)      0.00      0.00      0.00
                                0.00      0.00      0.00
                                0.00      0.00      0.00

[...]

     Non-local corr. energy    =      46.02377490 Ry

 BEEFens 2000 ensemble energies
             -0.386870659243659E+02
             -0.389265642682659E+03
             -0.177107648959534E+03
              0.135941616214938E+03
             -0.297508961907516E+03
             -0.364267966867308E+03
              0.186957721794475E+03
              0.796494678036652E+00
              0.315098714744121E+03
             -0.199439695321180E+02
              0.161347764810909E+03
              0.164589381496836E+02
             -0.123565890817537E+02
             -0.998669963974294E+01
              0.201095756426689E+03
             -0.151433462091944E+03
             -0.297302905119780E+03
             -0.959500580245169E+02
              0.859623685265627E+02
             -0.183602870126060E+01
              0.438352983017890E+03
              0.365891462183491E+03
             -0.225368488186158E+03
              0.778958309360082E+02
             -0.469549795826806E+03
              0.385418339838749E+03
              0.131799564368221E+03
              0.348020730171780E+03
              0.234563761796187E+03
             -0.108908071130076E+03
              0.858242781417021E+02
             -0.153451803291578E+03
              0.640876318981453E+02
              0.233362459195003E+03
              0.251095780457368E+03
             -0.109129075838816E+03
              0.553947764145710E+03
             -0.222916362414825E+03
             -0.148500700364623E+03
              0.221567832136888E+03
              0.977088416674321E+02
              0.168348024370904E+03
             -0.325160990161827E+03
             -0.211392326565660E+02
              0.311949665595881E+03
              0.407731056392690E+03
             -0.413996036447343E+03
              0.265732632692828E+02
              0.143621344306641E+03
              0.927189327904457E+02
              0.161885261878080E+03
              0.355498334309121E+03
             -0.230889085467737E+03
             -0.224087266201261E+03
             -0.312146629190791E+03
             -0.452768836078112E+02
             -0.266301512018531E+03
              0.343987592307110E+02
             -0.384086945687395E+02
             -0.211252665898665E+03
[...]
              0.263784404810467E+03
              0.168970897895732E+03
              0.172281673458473E+03
             -0.318818899224790E+03
             -0.329253056108355E+03
             -0.742362373066838E+02
             -0.294327600710338E+03
              0.467265403046967E+03
              0.393586486666759E+03
              0.185638795480011E+03
              0.511757630355537E+03
             -0.255716490000703E+03
             -0.110147630655420E+03
             -0.158786180538870E+03
              0.442721421390150E+03

 BEEF-vdW xc energy contributions
            1 :    -4002.022726442248
            2 :     3667.135026013883
            3 :    -3096.139845935619
            4 :     2441.259118048301
            5 :    -1845.806455983689
            6 :     1397.983884949354
            7 :    -1116.499050983548
            8 :     963.8520589119803
            9 :    -874.7710693175222
           10 :     787.5528301463892
           11 :    -667.5838708978445
           12 :     514.9065094537918
           13 :    -354.5704914141279
           14 :     217.3636420054263
           15 :    -122.5594268039840
           16 :     70.66281565976897
           17 :    -46.86322274702889
           18 :     30.75461803547569
           19 :    -6.691446495517084
           20 :    -29.71110999170742
           21 :     71.39479248476346
           22 :    -105.6359010926772
           23 :     122.3735671347240
           24 :    -120.2714378216424
           25 :     107.2638127149430
           26 :    -95.82994807019259
           27 :     96.12272303677128
           28 :    -110.7471290409467
           29 :     133.6918563348827
           30 :    -153.7377238222762
           31 :    -344.5202239805121
           32 :    -247.8812213799374

     Writing all to output data dir ./PbI2.save/

     General routines

     Parallel routines

     PAW routines

   This run was terminated on:  11:50:45  18Feb2024

   JOB DONE.