     Program PWSCF v.7.1 starts on 14Feb2024 at  8:12:53

     Reading input from espresso.pwi
Warning: card &CELL ignored
Warning: card    CELL_DYNAMICS    = 'BFGS' ignored
Warning: card / ignored

     Current dimensions of program PWSCF are:
     Max number of different atomic species (ntypx) = 10
     Max number of k-points (npk) =  40000
     Max angular momentum in pseudopotentials (lmaxx) =  4
     file Pb.pbe-dn-kjpaw_psl.1.0.0.UPF: wavefunction(s)  6S 6P 5D renormalized
     file I.pbe-dn-kjpaw_psl.1.0.0.UPF: wavefunction(s)  5S 5P renormalized

     IMPORTANT: XC functional enforced from input :
     Exchange-correlation= BEEF-VDW
                           (   1   4  43  14   2   0   0)
     Any further DFT definition will be discarded
     Please, verify this is what you really want

     K-points division:     npool     =       2
     R & G space division:  proc/nbgrp/npool/nimage =      64
     Subspace diagonalization in iterative solution of the eigenvalue problem:
     a serial algorithm will be used

     Using Slab Decomposition

     bravais-lattice index     =            4
     lattice parameter (alat)  =      26.7090  a.u.
     unit-cell volume          =   17226.5091 (a.u.)^3
     number of atoms/cell      =           54
     number of atomic types    =            2
     number of electrons       =       864.00
     number of Kohn-Sham states=          518
     kinetic-energy cutoff     =      70.0000  Ry
     charge density cutoff     =     350.0000  Ry
     scf convergence threshold =      1.0E-07
     mixing beta               =       0.7000
     number of iterations used =            8  plain     mixing
     Exchange-correlation= BEEF-VDW
                           (   1   4  43  14   2   0   0)

     celldm(1)=  26.709025  celldm(2)=   0.000000  celldm(3)=   1.043981
     celldm(4)=   0.000000  celldm(5)=   0.000000  celldm(6)=   0.000000

     crystal axes: (cart. coord. in units of alat)
               a(1) = (   1.000000   0.000000   0.000000 )
               a(2) = (  -0.500000   0.866025   0.000000 )
               a(3) = (   0.000000   0.000000   1.043981 )

     reciprocal axes: (cart. coord. in units 2 pi/alat)
               b(1) = (  1.000000  0.577350 -0.000000 )
               b(2) = (  0.000000  1.154701  0.000000 )
               b(3) = (  0.000000 -0.000000  0.957872 )

     PseudoPot. # 1 for Pb read from file:
     /trace/group/acmegroup/atimmins/packages/espresso/pseudo/psl_1.0.0/pslibrary.1.0.0/pbe/PSEUDOPOTENTIALS/Pb.pbe-dn-kjpaw_psl.1.0.0.UPF
     MD5 check sum: 39ab5b8a6bbd56b7735ad9f188aac93a
     Pseudo is Projector augmented-wave + core cor, Zval = 14.0
     Generated using 'atomic' code by A. Dal Corso  v.7.1
     Shape of augmentation charge: PSQ
     Using radial grid of 1281 points,  6 beta functions with:
                l(1) =   0
                l(2) =   0
                l(3) =   1
                l(4) =   1
                l(5) =   2
                l(6) =   2
     Q(r) pseudized with 0 coefficients

     PseudoPot. # 2 for I  read from file:
     /trace/group/acmegroup/atimmins/packages/espresso/pseudo/psl_1.0.0/pslibrary.1.0.0/pbe/PSEUDOPOTENTIALS/I.pbe-dn-kjpaw_psl.1.0.0.UPF
     MD5 check sum: bfa8781bc1224d19af3f3980e3fab11e
     Pseudo is Projector augmented-wave + core cor, Zval = 17.0
     Generated using 'atomic' code by A. Dal Corso  v.7.1
     Shape of augmentation charge: PSQ
     Using radial grid of 1247 points,  6 beta functions with:
                l(1) =   0
                l(2) =   0
                l(3) =   1
                l(4) =   1
                l(5) =   2
                l(6) =   2
     Q(r) pseudized with 0 coefficients

     atomic species   valence    mass     pseudopotential
        Pb            14.00   207.20000     Pb( 1.00)
        I             17.00   126.90447     I ( 1.00)

     No symmetry found

                                    s                        frac. trans.

      isym =  1     identity

 cryst.   s( 1) = (     1          0          0      )
                  (     0          1          0      )
                  (     0          0          1      )

 cart.    s( 1) = (  1.0000000  0.0000000  0.0000000 )
                  (  0.0000000  1.0000000  0.0000000 )
                  (  0.0000000  0.0000000  1.0000000 )

     point group C_1 (1)
     there are  1 classes
     the character table:

       E
A      1.00

     the symmetry operations in each class and the name of the first element:

     E        1
          identity

   Cartesian axes

     site n.     atom                  positions (alat units)
         1           Pb  tau(   1) = (   0.1666780   0.2886497   1.0439767  )
         2           Pb  tau(   2) = (   0.1666712   0.2886557   0.5219862  )
         3           Pb  tau(   3) = (   0.0000102   0.5773235   1.0439712  )
         4           Pb  tau(   4) = (   0.0000034   0.5773295   0.5219807  )
         5           Pb  tau(   5) = (  -0.1666576   0.8659973   1.0439657  )
         6           Pb  tau(   6) = (  -0.1666644   0.8660033   0.5219752  )
         7           Pb  tau(   7) = (   0.5000113   0.2886484   1.0439810  )
         8           Pb  tau(   8) = (   0.5000045   0.2886544   0.5219905  )
         9           Pb  tau(   9) = (   0.3333436   0.5773222   1.0439755  )
        10           Pb  tau(  10) = (   0.3333367   0.5773282   0.5219850  )
        11           Pb  tau(  11) = (   0.1666758   0.8659960   1.0439700  )
        12           Pb  tau(  12) = (   0.1666690   0.8660020   0.5219795  )
        13           Pb  tau(  13) = (   0.8333447   0.2886471   1.0439853  )
        14           Pb  tau(  14) = (   0.8333379   0.2886531   0.5219949  )
        15           Pb  tau(  15) = (   0.6666769   0.5773209   1.0439798  )
        16           Pb  tau(  16) = (   0.6666701   0.5773269   0.5219894  )
        17           Pb  tau(  17) = (   0.5000091   0.8659947   1.0439743  )
        18           Pb  tau(  18) = (   0.5000023   0.8660007   0.5219839  )
        19           I   tau(  19) = (   0.1666738   0.0962066   0.3879099  )
        20           I   tau(  20) = (   0.1666806   0.0962006   0.9099004  )
        21           I   tau(  21) = (   0.0000060   0.3848804   0.3879044  )
        22           I   tau(  22) = (   0.0000129   0.3848744   0.9098949  )
        23           I   tau(  23) = (  -0.1666617   0.6735542   0.3878990  )
        24           I   tau(  24) = (  -0.1666549   0.6735482   0.9098894  )
        25           I   tau(  25) = (   0.5000071   0.0962053   0.3879143  )
        26           I   tau(  26) = (   0.5000140   0.0961993   0.9099047  )
        27           I   tau(  27) = (   0.3333394   0.3848792   0.3879088  )
        28           I   tau(  28) = (   0.3333462   0.3848731   0.9098993  )
        29           I   tau(  29) = (   0.1666716   0.6735530   0.3879033  )
        30           I   tau(  30) = (   0.1666784   0.6735469   0.9098938  )
        31           I   tau(  31) = (   0.8333405   0.0962041   0.3879186  )
        32           I   tau(  32) = (   0.8333473   0.0961980   0.9099091  )
        33           I   tau(  33) = (   0.6666727   0.3848779   0.3879131  )
        34           I   tau(  34) = (   0.6666795   0.3848718   0.9099036  )
        35           I   tau(  35) = (   0.5000049   0.6735517   0.3879076  )
        36           I   tau(  36) = (   0.5000117   0.6735457   0.9098981  )
        37           I   tau(  37) = (  -0.0000023   0.1924396   0.1340740  )
        38           I   tau(  38) = (   0.0000045   0.1924336   0.6560644  )
        39           I   tau(  39) = (  -0.1666701   0.4811134   0.1340685  )
        40           I   tau(  40) = (  -0.1666632   0.4811074   0.6560589  )
        41           I   tau(  41) = (  -0.3333378   0.7697873   0.1340630  )
        42           I   tau(  42) = (  -0.3333310   0.7697812   0.6560534  )
        43           I   tau(  43) = (   0.3333311   0.1924384   0.1340783  )
        44           I   tau(  44) = (   0.3333379   0.1924323   0.6560688  )
        45           I   tau(  45) = (   0.1666633   0.4811122   0.1340728  )
        46           I   tau(  46) = (   0.1666701   0.4811061   0.6560633  )
        47           I   tau(  47) = (  -0.0000045   0.7697860   0.1340673  )
        48           I   tau(  48) = (   0.0000023   0.7697799   0.6560578  )
        49           I   tau(  49) = (   0.6666644   0.1924371   0.1340827  )
        50           I   tau(  50) = (   0.6666712   0.1924310   0.6560731  )
        51           I   tau(  51) = (   0.4999966   0.4811109   0.1340772  )
        52           I   tau(  52) = (   0.5000034   0.4811049   0.6560676  )
        53           I   tau(  53) = (   0.3333288   0.7697847   0.1340717  )
        54           I   tau(  54) = (   0.3333356   0.7697787   0.6560621  )

   Crystallographic axes

     site n.     atom                  positions (cryst. coord.)
         1           Pb  tau(   1) = (  0.3333300  0.3333039  0.9999959  )
         2           Pb  tau(   2) = (  0.3333266  0.3333109  0.4999959  )
         3           Pb  tau(   3) = (  0.3333281  0.6666357  0.9999906  )
         4           Pb  tau(   4) = (  0.3333248  0.6666427  0.4999906  )
         5           Pb  tau(   5) = (  0.3333262  0.9999675  0.9999854  )
         6           Pb  tau(   6) = (  0.3333229  0.9999745  0.4999854  )
         7           Pb  tau(   7) = (  0.6666626  0.3333025  1.0000001  )
         8           Pb  tau(   8) = (  0.6666592  0.3333094  0.5000001  )
         9           Pb  tau(   9) = (  0.6666607  0.6666343  0.9999948  )
        10           Pb  tau(  10) = (  0.6666573  0.6666412  0.4999948  )
        11           Pb  tau(  11) = (  0.6666588  0.9999661  0.9999895  )
        12           Pb  tau(  12) = (  0.6666555  0.9999730  0.4999895  )
        13           Pb  tau(  13) = (  0.9999951  0.3333010  1.0000042  )
        14           Pb  tau(  14) = (  0.9999918  0.3333079  0.5000042  )
        15           Pb  tau(  15) = (  0.9999933  0.6666328  0.9999990  )
        16           Pb  tau(  16) = (  0.9999899  0.6666397  0.4999990  )
        17           Pb  tau(  17) = (  0.9999914  0.9999646  0.9999937  )
        18           Pb  tau(  18) = (  0.9999881  0.9999715  0.4999937  )
        19           I   tau(  19) = (  0.2222187  0.1110899  0.3715680  )
        20           I   tau(  20) = (  0.2222221  0.1110829  0.8715680  )
        21           I   tau(  21) = (  0.2222169  0.4444217  0.3715628  )
        22           I   tau(  22) = (  0.2222202  0.4444147  0.8715628  )
        23           I   tau(  23) = (  0.2222150  0.7777534  0.3715575  )
        24           I   tau(  24) = (  0.2222183  0.7777465  0.8715575  )
        25           I   tau(  25) = (  0.5555513  0.1110884  0.3715722  )
        26           I   tau(  26) = (  0.5555547  0.1110814  0.8715722  )
        27           I   tau(  27) = (  0.5555495  0.4444202  0.3715669  )
        28           I   tau(  28) = (  0.5555528  0.4444132  0.8715669  )
        29           I   tau(  29) = (  0.5555476  0.7777520  0.3715617  )
        30           I   tau(  30) = (  0.5555509  0.7777450  0.8715617  )
[...]
     atom   37 type  2   force =     0.00000016    0.00017115    0.00522844
     atom   38 type  2   force =     0.00000007    0.00017096    0.00522835
     atom   39 type  2   force =     0.00013451    0.00008101    0.00522143
     atom   40 type  2   force =     0.00013446    0.00008095    0.00522139
     atom   41 type  2   force =     0.00015140   -0.00008665    0.00522706
     atom   42 type  2   force =     0.00015158   -0.00008673    0.00522688
     atom   43 type  2   force =    -0.00001426   -0.00001286    0.00522080
     atom   44 type  2   force =    -0.00001393   -0.00001342    0.00522065
     atom   45 type  2   force =    -0.00013530    0.00008060    0.00522153
     atom   46 type  2   force =    -0.00013540    0.00008064    0.00522128
     atom   47 type  2   force =    -0.00000077   -0.00015460    0.00522055
     atom   48 type  2   force =    -0.00000077   -0.00015451    0.00522040
     atom   49 type  2   force =     0.00001393   -0.00001206    0.00522151
     atom   50 type  2   force =     0.00001370   -0.00001232    0.00522149
     atom   51 type  2   force =     0.00000048    0.00001993    0.00522108
     atom   52 type  2   force =     0.00000091    0.00001994    0.00522070
     atom   53 type  2   force =    -0.00015098   -0.00008646    0.00522803
     atom   54 type  2   force =    -0.00015105   -0.00008635    0.00522762
     The Hubbard contrib.    to forces
     atom    1 type  1   force =     0.00000000    0.00000000    0.00000000
     atom    2 type  1   force =     0.00000000    0.00000000    0.00000000
     atom    3 type  1   force =     0.00000000    0.00000000    0.00000000
     atom    4 type  1   force =     0.00000000    0.00000000    0.00000000
     atom    5 type  1   force =     0.00000000    0.00000000    0.00000000
     atom    6 type  1   force =     0.00000000    0.00000000    0.00000000
     atom    7 type  1   force =     0.00000000    0.00000000    0.00000000
     atom    8 type  1   force =     0.00000000    0.00000000    0.00000000
     atom    9 type  1   force =     0.00000000    0.00000000    0.00000000
     atom   10 type  1   force =     0.00000000    0.00000000    0.00000000
     atom   11 type  1   force =     0.00000000    0.00000000    0.00000000
     atom   12 type  1   force =     0.00000000    0.00000000    0.00000000
     atom   13 type  1   force =     0.00000000    0.00000000    0.00000000
     atom   14 type  1   force =     0.00000000    0.00000000    0.00000000
     atom   15 type  1   force =     0.00000000    0.00000000    0.00000000
     atom   16 type  1   force =     0.00000000    0.00000000    0.00000000
     atom   17 type  1   force =     0.00000000    0.00000000    0.00000000
     atom   18 type  1   force =     0.00000000    0.00000000    0.00000000
     atom   19 type  2   force =     0.00000000    0.00000000    0.00000000
     atom   20 type  2   force =     0.00000000    0.00000000    0.00000000
     atom   21 type  2   force =     0.00000000    0.00000000    0.00000000
     atom   22 type  2   force =     0.00000000    0.00000000    0.00000000
     atom   23 type  2   force =     0.00000000    0.00000000    0.00000000
     atom   24 type  2   force =     0.00000000    0.00000000    0.00000000
     atom   25 type  2   force =     0.00000000    0.00000000    0.00000000
     atom   26 type  2   force =     0.00000000    0.00000000    0.00000000
     atom   27 type  2   force =     0.00000000    0.00000000    0.00000000
     atom   28 type  2   force =     0.00000000    0.00000000    0.00000000
     atom   29 type  2   force =     0.00000000    0.00000000    0.00000000
     atom   30 type  2   force =     0.00000000    0.00000000    0.00000000
     atom   31 type  2   force =     0.00000000    0.00000000    0.00000000
     atom   32 type  2   force =     0.00000000    0.00000000    0.00000000
     atom   33 type  2   force =     0.00000000    0.00000000    0.00000000
     atom   34 type  2   force =     0.00000000    0.00000000    0.00000000
     atom   35 type  2   force =     0.00000000    0.00000000    0.00000000
     atom   36 type  2   force =     0.00000000    0.00000000    0.00000000
     atom   37 type  2   force =     0.00000000    0.00000000    0.00000000
     atom   38 type  2   force =     0.00000000    0.00000000    0.00000000
     atom   39 type  2   force =     0.00000000    0.00000000    0.00000000
     atom   40 type  2   force =     0.00000000    0.00000000    0.00000000
     atom   41 type  2   force =     0.00000000    0.00000000    0.00000000
     atom   42 type  2   force =     0.00000000    0.00000000    0.00000000
     atom   43 type  2   force =     0.00000000    0.00000000    0.00000000
     atom   44 type  2   force =     0.00000000    0.00000000    0.00000000
     atom   45 type  2   force =     0.00000000    0.00000000    0.00000000
     atom   46 type  2   force =     0.00000000    0.00000000    0.00000000
     atom   47 type  2   force =     0.00000000    0.00000000    0.00000000
     atom   48 type  2   force =     0.00000000    0.00000000    0.00000000
     atom   49 type  2   force =     0.00000000    0.00000000    0.00000000
     atom   50 type  2   force =     0.00000000    0.00000000    0.00000000
     atom   51 type  2   force =     0.00000000    0.00000000    0.00000000
     atom   52 type  2   force =     0.00000000    0.00000000    0.00000000
     atom   53 type  2   force =     0.00000000    0.00000000    0.00000000
     atom   54 type  2   force =     0.00000000    0.00000000    0.00000000
     The SCF correction term to forces
     atom    1 type  1   force =    -0.00000212    0.00000219    0.00000176
     atom    2 type  1   force =    -0.00000218    0.00000233   -0.00000168
     atom    3 type  1   force =    -0.00000032    0.00000030    0.00000013
     atom    4 type  1   force =    -0.00000212    0.00000220    0.00000019
     atom    5 type  1   force =     0.00000262   -0.00000236    0.00000056
     atom    6 type  1   force =     0.00000328   -0.00000528   -0.00000093
     atom    7 type  1   force =     0.00000806    0.00000239    0.00000316
     atom    8 type  1   force =     0.00000951    0.00000284   -0.00000262
     atom    9 type  1   force =     0.00000317    0.00000477    0.00000200
     atom   10 type  1   force =     0.00000416    0.00000602   -0.00000070
     atom   11 type  1   force =     0.00000521    0.00000234   -0.00000082
     atom   12 type  1   force =     0.00000428    0.00000149    0.00000175
     atom   13 type  1   force =    -0.00000591   -0.00000202    0.00000012
     atom   14 type  1   force =    -0.00000735   -0.00000072   -0.00000054
     atom   15 type  1   force =    -0.00000281   -0.00000455    0.00000170
     atom   16 type  1   force =    -0.00000195   -0.00000389   -0.00000222
     atom   17 type  1   force =    -0.00000767   -0.00000294   -0.00000075
     atom   18 type  1   force =    -0.00000739   -0.00000501    0.00000056
     atom   19 type  2   force =    -0.00000245   -0.00000468   -0.00000107
     atom   20 type  2   force =    -0.00000510   -0.00000314    0.00000099
     atom   21 type  2   force =    -0.00000898    0.00000329   -0.00000179
     atom   22 type  2   force =    -0.00000794    0.00000130   -0.00000035
     atom   23 type  2   force =    -0.00000256   -0.00000668    0.00000057
     atom   24 type  2   force =     0.00000008   -0.00000559   -0.00000243
     atom   25 type  2   force =     0.00000953    0.00000278   -0.00000065
     atom   26 type  2   force =     0.00001119    0.00000105   -0.00000125
     atom   27 type  2   force =     0.00001008    0.00000586   -0.00000426
     atom   28 type  2   force =     0.00000668    0.00000569    0.00000097
     atom   29 type  2   force =     0.00000323    0.00000462    0.00000035
     atom   30 type  2   force =     0.00000350    0.00000569   -0.00000215
     atom   31 type  2   force =    -0.00000689   -0.00000012    0.00000337
     atom   32 type  2   force =    -0.00000578   -0.00000086    0.00000147
     atom   33 type  2   force =    -0.00000121   -0.00000006    0.00000058
     atom   34 type  2   force =     0.00000117   -0.00000270    0.00000147
     atom   35 type  2   force =    -0.00000077   -0.00000475    0.00000245
     atom   36 type  2   force =    -0.00000349   -0.00000110    0.00000175
     atom   37 type  2   force =    -0.00000982   -0.00000036   -0.00000114
     atom   38 type  2   force =    -0.00001264   -0.00000247   -0.00000030
     atom   39 type  2   force =    -0.00000536   -0.00000338    0.00000285
     atom   40 type  2   force =    -0.00000507   -0.00000132   -0.00000215
     atom   41 type  2   force =    -0.00000476   -0.00000772    0.00000204
     atom   42 type  2   force =    -0.00000402   -0.00000877   -0.00000296
     atom   43 type  2   force =     0.00000773    0.00000384    0.00000401
     atom   44 type  2   force =     0.00000890   -0.00000008    0.00000061
     atom   45 type  2   force =     0.00000147    0.00000550    0.00000212
     atom   46 type  2   force =    -0.00000096    0.00000974    0.00000040
     atom   47 type  2   force =     0.00000581   -0.00000065    0.00000223
     atom   48 type  2   force =     0.00000652   -0.00000129   -0.00000077
     atom   49 type  2   force =     0.00000221    0.00000277    0.00000055
     atom   50 type  2   force =     0.00000392   -0.00000052   -0.00000196
     atom   51 type  2   force =     0.00000413   -0.00000004    0.00000421
     atom   52 type  2   force =     0.00000646    0.00000304   -0.00000341
     atom   53 type  2   force =    -0.00000147    0.00000004   -0.00000238
     atom   54 type  2   force =    -0.00000265    0.00000200   -0.00000308

     Total force =     0.000836     Total SCF correction =     0.000053

     Computing stress (Cartesian axis) and pressure

[...]

          total   stress  (Ry/bohr**3)                   (kbar)     P=        1.46
   0.00000872  -0.00000001   0.00000001            1.28       -0.00        0.00
  -0.00000001   0.00000871  -0.00000001           -0.00        1.28       -0.00
   0.00000001  -0.00000001   0.00001237            0.00       -0.00        1.82

     kinetic stress (kbar)  14990.61      0.00      0.00
                                0.00  14990.61     -0.00
                                0.00     -0.00  15003.34

     local   stress (kbar)  -7569.81      0.14     -0.12
                                0.14  -7569.57      0.11
                               -0.12      0.11   1620.39

     nonloc. stress (kbar)  -1072.70     -0.00      0.00
                               -0.00  -1072.70     -0.00
                                0.00     -0.00  -1077.30

     hartree stress (kbar)  12064.10     -0.05      0.05
                               -0.05  12064.01     -0.04
                                0.05     -0.04   7923.36

     exc-cor stress (kbar)   6946.51     -0.00      0.00
                               -0.00   6946.50     -0.00
                                0.00     -0.00   6945.39

     corecor stress (kbar) -11310.08      0.00     -0.00
                                0.00 -11310.08      0.00
                               -0.00      0.00 -11310.06

     ewald   stress (kbar) -14130.63     -0.09      0.08
                               -0.09 -14130.78     -0.07
                                0.08     -0.07 -19187.95

     hubbard stress (kbar)      0.00      0.00      0.00
                                0.00      0.00      0.00
                                0.00      0.00      0.00

     DFT-D   stress (kbar)      0.00      0.00      0.00
                                0.00      0.00      0.00
                                0.00      0.00      0.00

     XDM     stress (kbar)      0.00      0.00      0.00
                                0.00      0.00      0.00
                                0.00      0.00      0.00

     dft-nl  stress (kbar)     83.28      0.00     -0.00
                                0.00     83.28      0.00
                               -0.00      0.00     84.64

     TS-vdW  stress (kbar)      0.00      0.00      0.00
                                0.00      0.00      0.00
                                0.00      0.00      0.00

     MDB     stress (kbar)      0.00      0.00      0.00
                                0.00      0.00      0.00
                                0.00      0.00      0.00

     3D-RISM stress (kbar)      0.00      0.00      0.00
                                0.00      0.00      0.00
                                0.00      0.00      0.00

[...]

     Non-local corr. energy    =      25.88797513 Ry

 BEEFens 2000 ensemble energies
             -0.217658045042733E+02
             -0.218964478409992E+03
             -0.996009007385885E+02
              0.764606157313780E+02
             -0.167346781932276E+03
             -0.204910107741151E+03
              0.105161622336211E+03
              0.449145182119082E+00
              0.177231619090512E+03
             -0.112211092283504E+02
              0.907704568700860E+02
              0.925077208377189E+01
             -0.694397210367572E+01
             -0.561988270310337E+01
              0.113112503519958E+03
             -0.851762214969077E+02
             -0.167247700622389E+03
             -0.539721738217520E+02
              0.483469518319037E+02
             -0.103157178065840E+01
              0.246572065924551E+03
              0.205807946271710E+03
             -0.126773029182120E+03
              0.438195197506923E+02
             -0.264133483023722E+03
              0.216794770569244E+03
              0.741270121967842E+02
              0.195751825522847E+03
              0.131936517365366E+03
             -0.612620175806637E+02
              0.482690617664548E+02
             -0.863165430104392E+02
              0.360520921365081E+02
              0.131264149673764E+03
              0.141239256535716E+03
             -0.613860273839542E+02
              0.311594375814942E+03
             -0.125397900723624E+03
             -0.835434876199470E+02
              0.124638795023850E+03
              0.549739532123776E+02
              0.947043366751399E+02
             -0.182889857659548E+03
             -0.118959627732779E+02
              0.175457266081060E+03
              0.229333346418433E+03
             -0.232861912737837E+03
              0.149418779223931E+02
              0.807855941302524E+02
              0.521516939826022E+02
              0.910587158694085E+02
              0.199958086193461E+03
             -0.129893511001385E+03
             -0.126066209298674E+03
             -0.175586679020332E+03
             -0.254672979330169E+02
             -0.149801029004925E+03
              0.193466245620291E+02
             -0.216085706931394E+02
             -0.118834062288100E+03
[...]
              0.148383547689117E+03
              0.950417554538071E+02
              0.969103834562234E+02
             -0.179337567903570E+03
             -0.185203339099434E+03
             -0.417647842296886E+02
             -0.165574028614820E+03
              0.262838867433377E+03
              0.221380187883691E+03
              0.104413415388249E+03
              0.287863559777186E+03
             -0.143831139154437E+03
             -0.619536901499501E+02
             -0.893181002765484E+02
              0.249016373464613E+03

 BEEF-vdW xc energy contributions
            1 :    -2251.129817864759
            2 :     2062.759485732602
            3 :    -1741.574687128897
            4 :     1373.195908534215
            5 :    -1038.243781434564
            6 :     786.3431805265238
            7 :    -628.0211186421516
            8 :     542.1772855444931
            9 :    -492.0854927880932
           10 :     443.0301498286394
           11 :    -375.5399467481525
           12 :     289.6430900401706
           13 :    -199.4368512316701
           14 :     122.2435862808052
           15 :    -68.90345655087413
           16 :     39.69709957648865
           17 :    -26.29497047180894
           18 :     17.22994159306609
           19 :    -3.720727689951673
           20 :    -16.68198806451710
           21 :     40.00894973904497
           22 :    -59.13518759237240
           23 :     68.46443336204220
           24 :    -67.32132698063424
           25 :     60.22681059419347
           26 :    -54.20148550142630
           27 :     54.87079864990892
           28 :    -63.52908900145303
           29 :     76.58350989585188
           30 :    -87.54860299356233
           31 :    -193.7920236759846
           32 :    -139.4330615010808

     Writing all to output data dir ./PbI2.save/

     General routines

     Parallel routines

     PAW routines

   This run was terminated on:   8:17:23  14Feb2024

   JOB DONE.