     Program PWSCF v.7.1 starts on 14Feb2024 at 22:36:16

     Reading input from espresso.pwi
Warning: card &CELL ignored
Warning: card    CELL_DYNAMICS    = 'BFGS' ignored
Warning: card / ignored

     Current dimensions of program PWSCF are:
     Max number of different atomic species (ntypx) = 10
     Max number of k-points (npk) =  40000
     Max angular momentum in pseudopotentials (lmaxx) =  4
     file Pb.pbe-dn-kjpaw_psl.1.0.0.UPF: wavefunction(s)  6S 6P 5D renormalized
     file I.pbe-dn-kjpaw_psl.1.0.0.UPF: wavefunction(s)  5S 5P renormalized

     IMPORTANT: XC functional enforced from input :
     Exchange-correlation= BEEF-VDW
                           (   1   4  43  14   2   0   0)
     Any further DFT definition will be discarded
     Please, verify this is what you really want

     R & G space division:  proc/nbgrp/npool/nimage =     128
     Subspace diagonalization in iterative solution of the eigenvalue problem:
     a serial algorithm will be used

     Using Slab Decomposition

     bravais-lattice index     =            4
     lattice parameter (alat)  =      35.6073  a.u.
     unit-cell volume          =   30614.2220 (a.u.)^3
     number of atoms/cell      =           96
     number of atomic types    =            2
     number of electrons       =      1541.00
     number of Kohn-Sham states=          925
     kinetic-energy cutoff     =      70.0000  Ry
     charge density cutoff     =     350.0000  Ry
     scf convergence threshold =      1.0E-07
     mixing beta               =       0.7000
     number of iterations used =            8  plain     mixing
     energy convergence thresh.=      1.0E-04
     force convergence thresh. =      1.0E-03
     Exchange-correlation= BEEF-VDW
                           (   1   4  43  14   2   0   0)
     nstep                     =           50

     celldm(1)=  35.607290  celldm(2)=   0.000000  celldm(3)=   0.783025
     celldm(4)=   0.000000  celldm(5)=   0.000000  celldm(6)=   0.000000

     crystal axes: (cart. coord. in units of alat)
               a(1) = (   1.000000   0.000000   0.000000 )
               a(2) = (  -0.500000   0.866025   0.000000 )
               a(3) = (   0.000000   0.000000   0.783025 )

     reciprocal axes: (cart. coord. in units 2 pi/alat)
               b(1) = (  1.000000  0.577350 -0.000000 )
               b(2) = (  0.000000  1.154701  0.000000 )
               b(3) = (  0.000000 -0.000000  1.277098 )

     PseudoPot. # 1 for Pb read from file:
     /trace/group/acmegroup/atimmins/packages/espresso/pseudo/psl_1.0.0/pslibrary.1.0.0/pbe/PSEUDOPOTENTIALS/Pb.pbe-dn-kjpaw_psl.1.0.0.UPF
     MD5 check sum: 39ab5b8a6bbd56b7735ad9f188aac93a
     Pseudo is Projector augmented-wave + core cor, Zval = 14.0
     Generated using 'atomic' code by A. Dal Corso  v.7.1
     Shape of augmentation charge: PSQ
     Using radial grid of 1281 points,  6 beta functions with:
                l(1) =   0
                l(2) =   0
                l(3) =   1
                l(4) =   1
                l(5) =   2
                l(6) =   2
     Q(r) pseudized with 0 coefficients

     PseudoPot. # 2 for I  read from file:
     /trace/group/acmegroup/atimmins/packages/espresso/pseudo/psl_1.0.0/pslibrary.1.0.0/pbe/PSEUDOPOTENTIALS/I.pbe-dn-kjpaw_psl.1.0.0.UPF
     MD5 check sum: bfa8781bc1224d19af3f3980e3fab11e
     Pseudo is Projector augmented-wave + core cor, Zval = 17.0
     Generated using 'atomic' code by A. Dal Corso  v.7.1
     Shape of augmentation charge: PSQ
     Using radial grid of 1247 points,  6 beta functions with:
                l(1) =   0
                l(2) =   0
                l(3) =   1
                l(4) =   1
                l(5) =   2
                l(6) =   2
     Q(r) pseudized with 0 coefficients

     atomic species   valence    mass     pseudopotential
        Pb            14.00   207.20000     Pb( 1.00)
        I             17.00   126.90447     I ( 1.00)

     No symmetry found

                                    s                        frac. trans.

      isym =  1     identity

 cryst.   s( 1) = (     1          0          0      )
                  (     0          1          0      )
                  (     0          0          1      )

 cart.    s( 1) = (  1.0000000  0.0000000  0.0000000 )
                  (  0.0000000  1.0000000  0.0000000 )
                  (  0.0000000  0.0000000  1.0000000 )

     point group C_1 (1)
     there are  1 classes
     the character table:

       E
A      1.00

     the symmetry operations in each class and the name of the first element:

     E        1
          identity

   Cartesian axes

     site n.     atom                  positions (alat units)
         1           Pb  tau(   1) = (   0.1250034   0.2164916   0.3915076  )
         2           Pb  tau(   2) = (   0.0000077   0.4329922   0.7830161  )
         3           Pb  tau(   3) = (   0.0000025   0.4329968   0.3915034  )
         4           Pb  tau(   4) = (  -0.1249932   0.6494975   0.7830119  )
         5           Pb  tau(   5) = (  -0.1249984   0.6495021   0.3914992  )
         6           Pb  tau(   6) = (  -0.2499941   0.8660028   0.7830077  )
         7           Pb  tau(   7) = (  -0.2499993   0.8660074   0.3914950  )
         8           Pb  tau(   8) = (   0.3750086   0.2164859   0.7830237  )
         9           Pb  tau(   9) = (   0.3750034   0.2164905   0.3915110  )
        10           Pb  tau(  10) = (   0.2500077   0.4329912   0.7830194  )
        11           Pb  tau(  11) = (   0.2500025   0.4329958   0.3915068  )
        12           Pb  tau(  12) = (   0.1250068   0.6494965   0.7830152  )
        13           Pb  tau(  13) = (   0.1250016   0.6495011   0.3915026  )
        14           Pb  tau(  14) = (   0.0000059   0.8660017   0.7830110  )
        15           Pb  tau(  15) = (   0.0000007   0.8660063   0.3914983  )
        16           Pb  tau(  16) = (   0.6250086   0.2164849   0.7830270  )
        17           Pb  tau(  17) = (   0.6250034   0.2164895   0.3915143  )
        18           Pb  tau(  18) = (   0.5000077   0.4329901   0.7830228  )
        19           Pb  tau(  19) = (   0.5000025   0.4329947   0.3915101  )
        20           Pb  tau(  20) = (   0.3750068   0.6494954   0.7830186  )
        21           Pb  tau(  21) = (   0.3750016   0.6495000   0.3915059  )
        22           Pb  tau(  22) = (   0.2500059   0.8660007   0.7830144  )
        23           Pb  tau(  23) = (   0.2500007   0.8660053   0.3915017  )
        24           Pb  tau(  24) = (   0.8750086   0.2164838   0.7830303  )
        25           Pb  tau(  25) = (   0.8750034   0.2164884   0.3915177  )
        26           Pb  tau(  26) = (   0.7500077   0.4329891   0.7830261  )
        27           Pb  tau(  27) = (   0.7500025   0.4329937   0.3915135  )
        28           Pb  tau(  28) = (   0.6250068   0.6494944   0.7830219  )
        29           Pb  tau(  29) = (   0.6250016   0.6494990   0.3915092  )
        30           Pb  tau(  30) = (   0.5000059   0.8659996   0.7830177  )
        31           Pb  tau(  31) = (   0.5000007   0.8660042   0.3915050  )
        32           I   tau(  32) = (   0.1250056   0.0721546   0.2909163  )
        33           I   tau(  33) = (   0.1250108   0.0721500   0.6824290  )
        34           I   tau(  34) = (   0.0000047   0.2886599   0.2909121  )
        35           I   tau(  35) = (   0.0000099   0.2886553   0.6824248  )
        36           I   tau(  36) = (  -0.1249962   0.5051652   0.2909079  )
        37           I   tau(  37) = (  -0.1249910   0.5051606   0.6824206  )
        38           I   tau(  38) = (  -0.2499972   0.7216704   0.2909037  )
        39           I   tau(  39) = (  -0.2499919   0.7216658   0.6824164  )
        40           I   tau(  40) = (   0.3750056   0.0721536   0.2909197  )
        41           I   tau(  41) = (   0.3750108   0.0721490   0.6824324  )
        42           I   tau(  42) = (   0.2500047   0.2886589   0.2909155  )
        43           I   tau(  43) = (   0.2500099   0.2886543   0.6824282  )
        44           I   tau(  44) = (   0.1250038   0.5051641   0.2909113  )
        45           I   tau(  45) = (   0.1250090   0.5051595   0.6824240  )
        46           I   tau(  46) = (   0.0000028   0.7216694   0.2909071  )
        47           I   tau(  47) = (   0.0000081   0.7216648   0.6824197  )
        48           I   tau(  48) = (   0.6250056   0.0721525   0.2909230  )
        49           I   tau(  49) = (   0.6250108   0.0721479   0.6824357  )
        50           I   tau(  50) = (   0.5000047   0.2886578   0.2909188  )
        51           I   tau(  51) = (   0.5000099   0.2886532   0.6824315  )
        52           I   tau(  52) = (   0.3750038   0.5051631   0.2909146  )
        53           I   tau(  53) = (   0.3750090   0.5051585   0.6824273  )
        54           I   tau(  54) = (   0.2500028   0.7216683   0.2909104  )
        55           I   tau(  55) = (   0.2500081   0.7216637   0.6824231  )
        56           I   tau(  56) = (   0.8750056   0.0721515   0.2909264  )
        57           I   tau(  57) = (   0.8750108   0.0721469   0.6824391  )
        58           I   tau(  58) = (   0.7500047   0.2886567   0.2909222  )
        59           I   tau(  59) = (   0.7500099   0.2886521   0.6824348  )
        60           I   tau(  60) = (   0.6250038   0.5051620   0.2909180  )
[...]
        82           I   tau(  82) = (   0.3749973   0.3608329   0.1005958  )
        83           I   tau(  83) = (   0.3750025   0.3608283   0.4921084  )
        84           I   tau(  84) = (   0.2499964   0.5773382   0.1005915  )
        85           I   tau(  85) = (   0.2500016   0.5773336   0.4921042  )
        86           I   tau(  86) = (   0.1249955   0.7938434   0.1005873  )
        87           I   tau(  87) = (   0.1250007   0.7938388   0.4921000  )
        88           I   tau(  88) = (   0.7499982   0.1443266   0.1006033  )
        89           I   tau(  89) = (   0.7500034   0.1443220   0.4921160  )
        90           I   tau(  90) = (   0.6249973   0.3608319   0.1005991  )
        91           I   tau(  91) = (   0.6250025   0.3608273   0.4921118  )
        92           I   tau(  92) = (   0.4999964   0.5773371   0.1005949  )
        93           I   tau(  93) = (   0.5000016   0.5773325   0.4921076  )
        94           I   tau(  94) = (   0.3749955   0.7938424   0.1005907  )
        95           I   tau(  95) = (   0.3750007   0.7938378   0.4921034  )
        96           I   tau(  96) = (   0.1250086   0.2164870   0.7830203  )

   Crystallographic axes

     site n.     atom                  positions (cryst. coord.)
         1           Pb  tau(   1) = (  0.2499949  0.2499829  0.4999935  )
         2           Pb  tau(   2) = (  0.2499959  0.4999764  0.9999882  )
         3           Pb  tau(   3) = (  0.2499933  0.4999817  0.4999882  )
         4           Pb  tau(   4) = (  0.2499944  0.7499751  0.9999828  )
         5           Pb  tau(   5) = (  0.2499918  0.7499804  0.4999828  )
         6           Pb  tau(   6) = (  0.2499928  0.9999739  0.9999774  )
         7           Pb  tau(   7) = (  0.2499903  0.9999792  0.4999774  )
[...]
     atom   44 type  2   force =     0.00000000    0.00000000    0.00000000
     atom   45 type  2   force =     0.00000000    0.00000000    0.00000000
     atom   46 type  2   force =     0.00000000    0.00000000    0.00000000
     atom   47 type  2   force =     0.00000000    0.00000000    0.00000000
     atom   48 type  2   force =     0.00000000    0.00000000    0.00000000
     atom   49 type  2   force =     0.00000000    0.00000000    0.00000000
     atom   50 type  2   force =     0.00000000    0.00000000    0.00000000
     atom   51 type  2   force =     0.00000000    0.00000000    0.00000000
     atom   52 type  2   force =     0.00000000    0.00000000    0.00000000
     atom   53 type  2   force =     0.00000000    0.00000000    0.00000000
     atom   54 type  2   force =     0.00000000    0.00000000    0.00000000
     atom   55 type  2   force =     0.00000000    0.00000000    0.00000000
     atom   56 type  2   force =     0.00000000    0.00000000    0.00000000
     atom   57 type  2   force =     0.00000000    0.00000000    0.00000000
     atom   58 type  2   force =     0.00000000    0.00000000    0.00000000
     atom   59 type  2   force =     0.00000000    0.00000000    0.00000000
     atom   60 type  2   force =     0.00000000    0.00000000    0.00000000
[...]
     atom   82 type  2   force =     0.00000000    0.00000000    0.00000000
     atom   83 type  2   force =     0.00000000    0.00000000    0.00000000
     atom   84 type  2   force =     0.00000000    0.00000000    0.00000000
     atom   85 type  2   force =     0.00000000    0.00000000    0.00000000
     atom   86 type  2   force =     0.00000000    0.00000000    0.00000000
     atom   87 type  2   force =     0.00000000    0.00000000    0.00000000
     atom   88 type  2   force =     0.00000000    0.00000000    0.00000000
     atom   89 type  2   force =     0.00000000    0.00000000    0.00000000
     atom   90 type  2   force =     0.00000000    0.00000000    0.00000000
     atom   91 type  2   force =     0.00000000    0.00000000    0.00000000
     atom   92 type  2   force =     0.00000000    0.00000000    0.00000000
     atom   93 type  2   force =     0.00000000    0.00000000    0.00000000
     atom   94 type  2   force =     0.00000000    0.00000000    0.00000000
     atom   95 type  2   force =     0.00000000    0.00000000    0.00000000
     atom   96 type  2   force =     0.00000000    0.00000000    0.00000000
     The SCF correction term to forces
     atom    1 type  1   force =    -0.00000030    0.00000001   -0.00000499
     atom    2 type  1   force =     0.00000240   -0.00000124    0.00000673
     atom    3 type  1   force =     0.00000044    0.00000020   -0.00000572
     atom    4 type  1   force =    -0.00000001   -0.00000019    0.00000432
     atom    5 type  1   force =    -0.00000013   -0.00000017   -0.00000428
     atom    6 type  1   force =    -0.00000207    0.00000119    0.00000373
     atom    7 type  1   force =    -0.00000082   -0.00000047   -0.00000411
     atom    8 type  1   force =    -0.00000058   -0.00000203    0.00000779
     atom    9 type  1   force =     0.00000040    0.00000022   -0.00000574
     atom   10 type  1   force =    -0.00000287    0.00000119    0.00000922
     atom   11 type  1   force =     0.00000002    0.00000165   -0.00000655
     atom   12 type  1   force =     0.00000060    0.00000085    0.00000695
     atom   13 type  1   force =     0.00000087   -0.00000002   -0.00000527
     atom   14 type  1   force =     0.00000132   -0.00000082    0.00000612
     atom   15 type  1   force =     0.00000083   -0.00000034   -0.00000473
     atom   16 type  1   force =     0.00000031    0.00000003    0.00000457
     atom   17 type  1   force =     0.00000028   -0.00000006   -0.00000453
     atom   18 type  1   force =     0.00000203    0.00000199    0.00000315
     atom   19 type  1   force =    -0.00000000    0.00000098   -0.00000446
     atom   20 type  1   force =    -0.00000014    0.00000011    0.00000453
     atom   21 type  1   force =    -0.00000021    0.00000022   -0.00000454
     atom   22 type  1   force =    -0.00000176   -0.00000177    0.00000559
     atom   23 type  1   force =    -0.00000008   -0.00000085   -0.00000430
     atom   24 type  1   force =     0.00000044    0.00000157    0.00000270
     atom   25 type  1   force =    -0.00000040   -0.00000017   -0.00000415
     atom   26 type  1   force =    -0.00000153    0.00000098    0.00000257
     atom   27 type  1   force =    -0.00000074    0.00000015   -0.00000456
     atom   28 type  1   force =    -0.00000054   -0.00000111    0.00000187
     atom   29 type  1   force =    -0.00000108    0.00000005   -0.00000374
     atom   30 type  1   force =     0.00000255   -0.00000091    0.00000132
     atom   31 type  1   force =    -0.00000034   -0.00000124   -0.00000346
     atom   32 type  2   force =     0.00000047    0.00000443   -0.00000025
     atom   33 type  2   force =    -0.00000015    0.00000226    0.00000672
     atom   34 type  2   force =     0.00000516   -0.00000080   -0.00000120
     atom   35 type  2   force =     0.00000274   -0.00000137    0.00000727
     atom   36 type  2   force =     0.00000320   -0.00000174   -0.00000655
     atom   37 type  2   force =    -0.00000297    0.00000265    0.00000819
     atom   38 type  2   force =    -0.00000081    0.00000260   -0.00000570
     atom   39 type  2   force =    -0.00000064   -0.00000281    0.00000786
     atom   40 type  2   force =    -0.00000433    0.00000258   -0.00000191
     atom   41 type  2   force =     0.00000026   -0.00000215    0.00000642
     atom   42 type  2   force =    -0.00000468   -0.00000113   -0.00000267
     atom   43 type  2   force =    -0.00000383   -0.00000180    0.00000778
     atom   44 type  2   force =     0.00000104   -0.00000521   -0.00000398
     atom   45 type  2   force =    -0.00000050    0.00000207    0.00000803
     atom   46 type  2   force =     0.00000065   -0.00000085   -0.00000740
     atom   47 type  2   force =    -0.00000179   -0.00000154    0.00000912
     atom   48 type  2   force =     0.00000053    0.00000019   -0.00000685
     atom   49 type  2   force =     0.00000070    0.00000192    0.00000896
     atom   50 type  2   force =    -0.00000248   -0.00000084   -0.00000609
     atom   51 type  2   force =     0.00000636    0.00000120    0.00000872
     atom   52 type  2   force =    -0.00000339   -0.00000044   -0.00000592
     atom   53 type  2   force =     0.00000373    0.00000605    0.00000884
     atom   54 type  2   force =     0.00000084   -0.00000123   -0.00000677
     atom   55 type  2   force =     0.00000277   -0.00000131    0.00000919
     atom   56 type  2   force =     0.00000320    0.00000111    0.00000004
     atom   57 type  2   force =    -0.00000036   -0.00000157    0.00000471
     atom   58 type  2   force =     0.00000205   -0.00000136   -0.00000583
     atom   59 type  2   force =    -0.00000361    0.00000143    0.00000787
     atom   60 type  2   force =    -0.00000062    0.00000026   -0.00000597
[...]
     atom   82 type  2   force =    -0.00000032    0.00000140    0.00000275
     atom   83 type  2   force =    -0.00000235   -0.00000030   -0.00000805
     atom   84 type  2   force =    -0.00000023    0.00000275   -0.00000021
     atom   85 type  2   force =     0.00000102   -0.00000109   -0.00000264
     atom   86 type  2   force =     0.00000076   -0.00000087   -0.00000069
     atom   87 type  2   force =     0.00000126   -0.00000032   -0.00000044
     atom   88 type  2   force =    -0.00000518   -0.00000118   -0.00000123
     atom   89 type  2   force =     0.00000222    0.00000073   -0.00000170
     atom   90 type  2   force =     0.00000004   -0.00000190   -0.00000216
     atom   91 type  2   force =     0.00000017    0.00000024   -0.00000038
     atom   92 type  2   force =    -0.00000252    0.00000159   -0.00000234
     atom   93 type  2   force =    -0.00000024    0.00000132   -0.00000041
     atom   94 type  2   force =    -0.00000361   -0.00000509   -0.00000128
     atom   95 type  2   force =     0.00000283    0.00000027   -0.00000155
     atom   96 type  2   force =    -0.00000014    0.00000016    0.00000609

     Total force =     0.004094     Total SCF correction =     0.000057

     Computing stress (Cartesian axis) and pressure

     Non-local corr. energy    =      46.32236416 Ry

          total   stress  (Ry/bohr**3)                   (kbar)     P=        9.68
   0.00006560   0.00000001  -0.00000001            9.65        0.00       -0.00
   0.00000001   0.00006561   0.00000000            0.00        9.65        0.00
  -0.00000001   0.00000000   0.00006615           -0.00        0.00        9.73

     kinetic stress (kbar)  14927.97      0.01     -0.01
                                0.01  14927.98      0.00
                               -0.01      0.00  14936.07

     local   stress (kbar)  -7243.34      0.41     -0.15
                                0.41  -7243.02      0.06
                               -0.15      0.06   1009.53

     nonloc. stress (kbar)   -961.36      0.01     -0.01
                                0.01   -961.35      0.00
                               -0.01      0.00   -967.54

     hartree stress (kbar)  11983.44     -0.16      0.06
                               -0.16  11983.32     -0.03
                                0.06     -0.03   8248.91

     exc-cor stress (kbar)   6983.61     -0.00     -0.00
                               -0.00   6983.61      0.00
                               -0.00      0.00   6982.87

     corecor stress (kbar) -11365.79     -0.00      0.00
                               -0.00 -11365.79     -0.00
                                0.00     -0.00 -11365.73

     ewald   stress (kbar) -14398.85     -0.27      0.11
                               -0.27 -14399.06     -0.04
                                0.11     -0.04 -18919.46

     hubbard stress (kbar)      0.00      0.00      0.00
                                0.00      0.00      0.00
                                0.00      0.00      0.00

     DFT-D   stress (kbar)      0.00      0.00      0.00
                                0.00      0.00      0.00
                                0.00      0.00      0.00

     XDM     stress (kbar)      0.00      0.00      0.00
                                0.00      0.00      0.00
                                0.00      0.00      0.00

     dft-nl  stress (kbar)     83.96      0.00      0.00
                                0.00     83.96     -0.00
                                0.00     -0.00     85.09

     TS-vdW  stress (kbar)      0.00      0.00      0.00
                                0.00      0.00      0.00
                                0.00      0.00      0.00

     MDB     stress (kbar)      0.00      0.00      0.00
                                0.00      0.00      0.00
                                0.00      0.00      0.00

     3D-RISM stress (kbar)      0.00      0.00      0.00
                                0.00      0.00      0.00
                                0.00      0.00      0.00

     Energy error            =      7.0E-05 Ry
     Gradient error          =      9.0E-04 Ry/Bohr

     bfgs converged in  17 scf cycles and  16 bfgs steps
     (criteria: energy <  1.0E-04 Ry, force <  1.0E-03 Ry/Bohr)

     End of BFGS Geometry Optimization

     Final energy             =  -64422.6144535808 Ry

     File ./PbI2.bfgs deleted, as requested
Begin final coordinates

ATOMIC_POSITIONS (angstrom)
Pb            2.3553749190        4.0792094111        7.3769540533
Pb            0.0626384892        8.0507812573       14.7545576171
Pb            0.0036766445        8.1523942181        7.3770041980
Pb           -2.3552154944       12.2381734528       14.7539755402
Pb           -2.3552886741       12.2382928869        7.3767864206
Pb           -4.7730846413       16.4255630851       14.7537246831
Pb           -4.7142629573       16.3241480984        7.3767826455
Pb            6.9413461182        4.0794067413       14.7538473972
Pb            7.0586933248        4.0791857122        7.3769329252
Pb            4.6482854947        8.0504241835       14.7541063564
Pb            4.7070269587        8.1523891274        7.3769369696
Pb            2.3554172227       12.2060082420       14.7734495020
Pb            2.3553219493       12.2414522865        7.3956210021
Pb           -0.0278754219       16.3339114329       14.7735234785
Pb            0.0027585080       16.3162446149        7.3955809384
Pb           11.7767248428        4.0791515525       14.7543821976
Pb           11.7766655216        4.0792124817        7.3771486337
Pb            9.3934529878        8.1426109647       14.7348486088
Pb            9.4240984681        8.1602977392        7.3583058354
Pb            7.0660086309       12.2381908047       14.7541011872
Pb            7.0660237364       12.2382889395        7.3769294369
Pb            4.7386347316       16.3338629649       14.7735966116
Pb            4.7079433515       16.3162727731        7.3957975852
Pb           16.6120837540        4.0788647416       14.7548066827
Pb           16.4946289697        4.0792412062        7.3772039876
Pb           14.1599809174        8.1425543157       14.7348075308
Pb           14.1292825137        8.1603267767        7.3584162717
Pb           11.7766560507       12.2704649797       14.7346874181
Pb           11.7767062264       12.2351496456        7.3581626464
Pb            9.4837753596       16.4259135309       14.7542435941
Pb            9.4250323266       16.3241564165        7.3769805087
I             2.3553388697        1.3633324843        5.4902285949
I             2.3553848967        0.8959340477       12.6586560158
I             0.0032029020        5.4372309828        5.4903968328
I            -0.3999092184        5.6698435254       12.6595007312
I            -2.3479998656        9.5243830043        5.4889455854
I            -2.3855175852        9.5474421633       12.8778502239
I            -4.7019074782       13.6016243659        5.4887529052
I            -4.7003706780       13.5569287053       12.8776547302
I             7.0944809651        1.3431713888        5.5294986565
I             7.0632996919        1.3611620150       12.8454089263
I             4.7074707608        5.4372281575        5.4902765510
I             5.1125536066        5.6708842588       12.6584967334
I             2.3553436819        9.5516011454        5.5297769432
I             2.3553588209        9.5154283200       12.8454560828
I             0.0045532965       13.6008241465        5.5069810993
I             0.0022062653       13.5994207355       12.8621888923
I            11.7766677633        1.3544453629        5.5071751809
I            11.7766764547        1.3571365189       12.8624005588
I             9.4227600150        5.4298246091        5.4890321370
I             9.4621277249        5.4506702196       12.8779938863
I             7.0587110151        9.5244282967        5.4889755343
I             7.0964437843        9.5477116640       12.8779656618
I             4.7061620115       13.6008481407        5.5071322779
I             4.7085110373       13.5994542284       12.8622564785
I            16.4586229641        1.3430834557        5.5298966043
I            16.4900317968        1.3611860151       12.8455726051
I            14.1306113991        5.4298585589        5.4891716768
I            14.0917221504        5.4506531197       12.8781142685
I            11.7767921988        9.5185391938        5.4653513639
[...]
I             7.0632809452        6.7973445258        1.9086441640
I             7.0946324227        6.8154364466        9.2242813399
I             4.7207607752       10.9192830000        1.8759948553
I             4.7193513447       10.8750661984        9.2649512432
I             2.3553413362       14.9579706667        1.8765819805
I             2.3551992952       14.9580701757        9.2886807413
I            14.0913439367        2.7075293754        1.8764056366
I            14.1305832589        2.7286555391        9.2652468867
I            11.7766854052        6.8014358666        1.8918457822
I            11.7766631883        6.8041936056        9.2470557523
I             9.4235413218       10.8772343553        1.8916958558
I             9.4258799217       10.8759252207        9.2468350606
I             7.0355399832       14.9285052984        1.8760863808
I             7.0733658320       14.9522207393        9.2650329158
I             2.3555291230        4.0792403388       14.7546656849
End final coordinates

     Writing all to output data dir ./PbI2.save/

     General routines

     Parallel routines

     PAW routines

   This run was terminated on:  11:47:30  15Feb2024

   JOB DONE.