     Program PWSCF v.7.1 starts on 10Feb2024 at 12: 6: 3

     Reading input from espresso.pwi
Warning: card &CELL ignored
Warning: card    CELL_DYNAMICS    = 'BFGS' ignored
Warning: card / ignored

     Current dimensions of program PWSCF are:
     Max number of different atomic species (ntypx) = 10
     Max number of k-points (npk) =  40000
     Max angular momentum in pseudopotentials (lmaxx) =  4
     file Pb.pbe-dn-kjpaw_psl.1.0.0.UPF: wavefunction(s)  6S 6P 5D renormalized
     file I.pbe-dn-kjpaw_psl.1.0.0.UPF: wavefunction(s)  5S 5P renormalized

     IMPORTANT: XC functional enforced from input :
     Exchange-correlation= BEEF-VDW
                           (   1   4  43  14   2   0   0)
     Any further DFT definition will be discarded
     Please, verify this is what you really want

     K-points division:     npool     =       2
     R & G space division:  proc/nbgrp/npool/nimage =      64
     Subspace diagonalization in iterative solution of the eigenvalue problem:
     a serial algorithm will be used

     Using Slab Decomposition

     bravais-lattice index     =            4
     lattice parameter (alat)  =      26.7090  a.u.
     unit-cell volume          =   17226.5091 (a.u.)^3
     number of atoms/cell      =           53
     number of atomic types    =            2
     number of electrons       =       852.00
     number of Kohn-Sham states=          511
     kinetic-energy cutoff     =      70.0000  Ry
     charge density cutoff     =     350.0000  Ry
     scf convergence threshold =      1.0E-07
     mixing beta               =       0.7000
     number of iterations used =            8  plain     mixing
     energy convergence thresh.=      1.0E-04
     force convergence thresh. =      1.0E-03
     Exchange-correlation= BEEF-VDW
                           (   1   4  43  14   2   0   0)
     nstep                     =           50

     celldm(1)=  26.709025  celldm(2)=   0.000000  celldm(3)=   1.043981
     celldm(4)=   0.000000  celldm(5)=   0.000000  celldm(6)=   0.000000

     crystal axes: (cart. coord. in units of alat)
               a(1) = (   1.000000   0.000000   0.000000 )
               a(2) = (  -0.500000   0.866025   0.000000 )
               a(3) = (   0.000000   0.000000   1.043981 )

     reciprocal axes: (cart. coord. in units 2 pi/alat)
               b(1) = (  1.000000  0.577350 -0.000000 )
               b(2) = (  0.000000  1.154701  0.000000 )
               b(3) = (  0.000000 -0.000000  0.957872 )

     PseudoPot. # 1 for Pb read from file:
     /trace/group/acmegroup/atimmins/packages/espresso/pseudo/psl_1.0.0/pslibrary.1.0.0/pbe/PSEUDOPOTENTIALS/Pb.pbe-dn-kjpaw_psl.1.0.0.UPF
     MD5 check sum: 39ab5b8a6bbd56b7735ad9f188aac93a
     Pseudo is Projector augmented-wave + core cor, Zval = 14.0
     Generated using 'atomic' code by A. Dal Corso  v.7.1
     Shape of augmentation charge: PSQ
     Using radial grid of 1281 points,  6 beta functions with:
                l(1) =   0
                l(2) =   0
                l(3) =   1
                l(4) =   1
                l(5) =   2
                l(6) =   2
     Q(r) pseudized with 0 coefficients

     PseudoPot. # 2 for I  read from file:
     /trace/group/acmegroup/atimmins/packages/espresso/pseudo/psl_1.0.0/pslibrary.1.0.0/pbe/PSEUDOPOTENTIALS/I.pbe-dn-kjpaw_psl.1.0.0.UPF
     MD5 check sum: bfa8781bc1224d19af3f3980e3fab11e
     Pseudo is Projector augmented-wave + core cor, Zval = 17.0
     Generated using 'atomic' code by A. Dal Corso  v.7.1
     Shape of augmentation charge: PSQ
     Using radial grid of 1247 points,  6 beta functions with:
                l(1) =   0
                l(2) =   0
                l(3) =   1
                l(4) =   1
                l(5) =   2
                l(6) =   2
     Q(r) pseudized with 0 coefficients

     atomic species   valence    mass     pseudopotential
        Pb            14.00   207.20000     Pb( 1.00)
        I             17.00   126.90447     I ( 1.00)

     No symmetry found

                                    s                        frac. trans.

      isym =  1     identity

 cryst.   s( 1) = (     1          0          0      )
                  (     0          1          0      )
                  (     0          0          1      )

 cart.    s( 1) = (  1.0000000  0.0000000  0.0000000 )
                  (  0.0000000  1.0000000  0.0000000 )
                  (  0.0000000  0.0000000  1.0000000 )

     point group C_1 (1)
     there are  1 classes
     the character table:

       E
A      1.00

     the symmetry operations in each class and the name of the first element:

     E        1
          identity

   Cartesian axes

     site n.     atom                  positions (alat units)
         1           Pb  tau(   1) = (   0.1666712   0.2886557   0.5219862  )
         2           Pb  tau(   2) = (   0.0000102   0.5773235   1.0439712  )
         3           Pb  tau(   3) = (   0.0000034   0.5773295   0.5219807  )
         4           Pb  tau(   4) = (  -0.1666576   0.8659973   1.0439657  )
         5           Pb  tau(   5) = (  -0.1666644   0.8660033   0.5219752  )
         6           Pb  tau(   6) = (   0.5000113   0.2886484   1.0439810  )
         7           Pb  tau(   7) = (   0.5000045   0.2886544   0.5219905  )
         8           Pb  tau(   8) = (   0.3333436   0.5773222   1.0439755  )
         9           Pb  tau(   9) = (   0.3333367   0.5773282   0.5219850  )
        10           Pb  tau(  10) = (   0.1666758   0.8659960   1.0439700  )
        11           Pb  tau(  11) = (   0.1666690   0.8660020   0.5219795  )
        12           Pb  tau(  12) = (   0.8333447   0.2886471   1.0439853  )
        13           Pb  tau(  13) = (   0.8333379   0.2886531   0.5219949  )
        14           Pb  tau(  14) = (   0.6666769   0.5773209   1.0439798  )
        15           Pb  tau(  15) = (   0.6666701   0.5773269   0.5219894  )
        16           Pb  tau(  16) = (   0.5000091   0.8659947   1.0439743  )
        17           Pb  tau(  17) = (   0.5000023   0.8660007   0.5219839  )
        18           I   tau(  18) = (   0.1666738   0.0962066   0.3879099  )
        19           I   tau(  19) = (   0.1666806   0.0962006   0.9099004  )
        20           I   tau(  20) = (   0.0000060   0.3848804   0.3879044  )
        21           I   tau(  21) = (   0.0000129   0.3848744   0.9098949  )
        22           I   tau(  22) = (  -0.1666617   0.6735542   0.3878990  )
        23           I   tau(  23) = (  -0.1666549   0.6735482   0.9098894  )
        24           I   tau(  24) = (   0.5000071   0.0962053   0.3879143  )
        25           I   tau(  25) = (   0.5000140   0.0961993   0.9099047  )
        26           I   tau(  26) = (   0.3333394   0.3848792   0.3879088  )
        27           I   tau(  27) = (   0.3333462   0.3848731   0.9098993  )
        28           I   tau(  28) = (   0.1666716   0.6735530   0.3879033  )
        29           I   tau(  29) = (   0.1666784   0.6735469   0.9098938  )
        30           I   tau(  30) = (   0.8333405   0.0962041   0.3879186  )
        31           I   tau(  31) = (   0.8333473   0.0961980   0.9099091  )
        32           I   tau(  32) = (   0.6666727   0.3848779   0.3879131  )
        33           I   tau(  33) = (   0.6666795   0.3848718   0.9099036  )
        34           I   tau(  34) = (   0.5000049   0.6735517   0.3879076  )
        35           I   tau(  35) = (   0.5000117   0.6735457   0.9098981  )
        36           I   tau(  36) = (  -0.0000023   0.1924396   0.1340740  )
        37           I   tau(  37) = (   0.0000045   0.1924336   0.6560644  )
        38           I   tau(  38) = (  -0.1666701   0.4811134   0.1340685  )
        39           I   tau(  39) = (  -0.1666632   0.4811074   0.6560589  )
        40           I   tau(  40) = (  -0.3333378   0.7697873   0.1340630  )
        41           I   tau(  41) = (  -0.3333310   0.7697812   0.6560534  )
        42           I   tau(  42) = (   0.3333311   0.1924384   0.1340783  )
        43           I   tau(  43) = (   0.3333379   0.1924323   0.6560688  )
        44           I   tau(  44) = (   0.1666633   0.4811122   0.1340728  )
        45           I   tau(  45) = (   0.1666701   0.4811061   0.6560633  )
        46           I   tau(  46) = (  -0.0000045   0.7697860   0.1340673  )
        47           I   tau(  47) = (   0.0000023   0.7697799   0.6560578  )
        48           I   tau(  48) = (   0.6666644   0.1924371   0.1340827  )
        49           I   tau(  49) = (   0.6666712   0.1924310   0.6560731  )
        50           I   tau(  50) = (   0.4999966   0.4811109   0.1340772  )
        51           I   tau(  51) = (   0.5000034   0.4811049   0.6560676  )
        52           I   tau(  52) = (   0.3333288   0.7697847   0.1340717  )
        53           I   tau(  53) = (   0.3333356   0.7697787   0.6560621  )

   Crystallographic axes

     site n.     atom                  positions (cryst. coord.)
         1           Pb  tau(   1) = (  0.3333266  0.3333109  0.4999959  )
         2           Pb  tau(   2) = (  0.3333281  0.6666357  0.9999906  )
         3           Pb  tau(   3) = (  0.3333248  0.6666427  0.4999906  )
         4           Pb  tau(   4) = (  0.3333262  0.9999675  0.9999854  )
         5           Pb  tau(   5) = (  0.3333229  0.9999745  0.4999854  )
         6           Pb  tau(   6) = (  0.6666626  0.3333025  1.0000001  )
         7           Pb  tau(   7) = (  0.6666592  0.3333094  0.5000001  )
         8           Pb  tau(   8) = (  0.6666607  0.6666343  0.9999948  )
         9           Pb  tau(   9) = (  0.6666573  0.6666412  0.4999948  )
        10           Pb  tau(  10) = (  0.6666588  0.9999661  0.9999895  )
        11           Pb  tau(  11) = (  0.6666555  0.9999730  0.4999895  )
        12           Pb  tau(  12) = (  0.9999951  0.3333010  1.0000042  )
        13           Pb  tau(  13) = (  0.9999918  0.3333079  0.5000042  )
        14           Pb  tau(  14) = (  0.9999933  0.6666328  0.9999990  )
        15           Pb  tau(  15) = (  0.9999899  0.6666397  0.4999990  )
        16           Pb  tau(  16) = (  0.9999914  0.9999646  0.9999937  )
        17           Pb  tau(  17) = (  0.9999881  0.9999715  0.4999937  )
        18           I   tau(  18) = (  0.2222187  0.1110899  0.3715680  )
        19           I   tau(  19) = (  0.2222221  0.1110829  0.8715680  )
        20           I   tau(  20) = (  0.2222169  0.4444217  0.3715628  )
        21           I   tau(  21) = (  0.2222202  0.4444147  0.8715628  )
        22           I   tau(  22) = (  0.2222150  0.7777534  0.3715575  )
        23           I   tau(  23) = (  0.2222183  0.7777465  0.8715575  )
        24           I   tau(  24) = (  0.5555513  0.1110884  0.3715722  )
        25           I   tau(  25) = (  0.5555547  0.1110814  0.8715722  )
        26           I   tau(  26) = (  0.5555495  0.4444202  0.3715669  )
        27           I   tau(  27) = (  0.5555528  0.4444132  0.8715669  )
        28           I   tau(  28) = (  0.5555476  0.7777520  0.3715617  )
        29           I   tau(  29) = (  0.5555509  0.7777450  0.8715617  )
[...]
     atom   34 type  2   force =     0.00003585   -0.00017558   -0.00543334
     atom   35 type  2   force =    -0.00088259    0.00033425   -0.00421089
     atom   36 type  2   force =     0.00249267    0.00130921    0.00368967
     atom   37 type  2   force =     0.00000716    0.00019818    0.00559523
     atom   38 type  2   force =    -0.00025895    0.00031675    0.00478333
     atom   39 type  2   force =     0.00023215    0.00001815    0.00559765
     atom   40 type  2   force =     0.00017293   -0.00055113    0.00477845
     atom   41 type  2   force =     0.00017015    0.00000817    0.00561594
     atom   42 type  2   force =    -0.00271936    0.00136470    0.00370282
     atom   43 type  2   force =    -0.00006057    0.00003782    0.00559746
     atom   44 type  2   force =    -0.00003537   -0.00307692    0.00370234
     atom   45 type  2   force =    -0.00012827    0.00007620    0.00558897
     atom   46 type  2   force =    -0.00078523   -0.00047400    0.00421767
     atom   47 type  2   force =     0.00006942   -0.00012182    0.00541411
     atom   48 type  2   force =    -0.00012810    0.00075113    0.00422577
     atom   49 type  2   force =     0.00006109    0.00000552    0.00543610
     atom   50 type  2   force =     0.00044065    0.00025858    0.00475803
     atom   51 type  2   force =    -0.00005535   -0.00003245    0.00562510
     atom   52 type  2   force =     0.00072922   -0.00059810    0.00420888
     atom   53 type  2   force =    -0.00016757   -0.00005523    0.00543197
     The Hubbard contrib.    to forces
     atom    1 type  1   force =     0.00000000    0.00000000    0.00000000
     atom    2 type  1   force =     0.00000000    0.00000000    0.00000000
     atom    3 type  1   force =     0.00000000    0.00000000    0.00000000
     atom    4 type  1   force =     0.00000000    0.00000000    0.00000000
     atom    5 type  1   force =     0.00000000    0.00000000    0.00000000
     atom    6 type  1   force =     0.00000000    0.00000000    0.00000000
     atom    7 type  1   force =     0.00000000    0.00000000    0.00000000
     atom    8 type  1   force =     0.00000000    0.00000000    0.00000000
     atom    9 type  1   force =     0.00000000    0.00000000    0.00000000
     atom   10 type  1   force =     0.00000000    0.00000000    0.00000000
     atom   11 type  1   force =     0.00000000    0.00000000    0.00000000
     atom   12 type  1   force =     0.00000000    0.00000000    0.00000000
     atom   13 type  1   force =     0.00000000    0.00000000    0.00000000
     atom   14 type  1   force =     0.00000000    0.00000000    0.00000000
     atom   15 type  1   force =     0.00000000    0.00000000    0.00000000
     atom   16 type  1   force =     0.00000000    0.00000000    0.00000000
     atom   17 type  1   force =     0.00000000    0.00000000    0.00000000
     atom   18 type  2   force =     0.00000000    0.00000000    0.00000000
     atom   19 type  2   force =     0.00000000    0.00000000    0.00000000
     atom   20 type  2   force =     0.00000000    0.00000000    0.00000000
     atom   21 type  2   force =     0.00000000    0.00000000    0.00000000
     atom   22 type  2   force =     0.00000000    0.00000000    0.00000000
     atom   23 type  2   force =     0.00000000    0.00000000    0.00000000
     atom   24 type  2   force =     0.00000000    0.00000000    0.00000000
     atom   25 type  2   force =     0.00000000    0.00000000    0.00000000
     atom   26 type  2   force =     0.00000000    0.00000000    0.00000000
     atom   27 type  2   force =     0.00000000    0.00000000    0.00000000
     atom   28 type  2   force =     0.00000000    0.00000000    0.00000000
     atom   29 type  2   force =     0.00000000    0.00000000    0.00000000
     atom   30 type  2   force =     0.00000000    0.00000000    0.00000000
     atom   31 type  2   force =     0.00000000    0.00000000    0.00000000
     atom   32 type  2   force =     0.00000000    0.00000000    0.00000000
     atom   33 type  2   force =     0.00000000    0.00000000    0.00000000
     atom   34 type  2   force =     0.00000000    0.00000000    0.00000000
     atom   35 type  2   force =     0.00000000    0.00000000    0.00000000
     atom   36 type  2   force =     0.00000000    0.00000000    0.00000000
     atom   37 type  2   force =     0.00000000    0.00000000    0.00000000
     atom   38 type  2   force =     0.00000000    0.00000000    0.00000000
     atom   39 type  2   force =     0.00000000    0.00000000    0.00000000
     atom   40 type  2   force =     0.00000000    0.00000000    0.00000000
     atom   41 type  2   force =     0.00000000    0.00000000    0.00000000
     atom   42 type  2   force =     0.00000000    0.00000000    0.00000000
     atom   43 type  2   force =     0.00000000    0.00000000    0.00000000
     atom   44 type  2   force =     0.00000000    0.00000000    0.00000000
     atom   45 type  2   force =     0.00000000    0.00000000    0.00000000
     atom   46 type  2   force =     0.00000000    0.00000000    0.00000000
     atom   47 type  2   force =     0.00000000    0.00000000    0.00000000
     atom   48 type  2   force =     0.00000000    0.00000000    0.00000000
     atom   49 type  2   force =     0.00000000    0.00000000    0.00000000
     atom   50 type  2   force =     0.00000000    0.00000000    0.00000000
     atom   51 type  2   force =     0.00000000    0.00000000    0.00000000
     atom   52 type  2   force =     0.00000000    0.00000000    0.00000000
     atom   53 type  2   force =     0.00000000    0.00000000    0.00000000
     The SCF correction term to forces
     atom    1 type  1   force =    -0.00000011   -0.00000010   -0.00000688
     atom    2 type  1   force =    -0.00000588    0.00000736    0.00000854
     atom    3 type  1   force =     0.00000791   -0.00000984   -0.00000822
     atom    4 type  1   force =     0.00000439   -0.00000867    0.00000480
     atom    5 type  1   force =    -0.00000871    0.00000919   -0.00000500
     atom    6 type  1   force =     0.00000935    0.00000053    0.00000462
     atom    7 type  1   force =    -0.00001204    0.00000303   -0.00000430
     atom    8 type  1   force =     0.00000470    0.00000694    0.00000627
     atom    9 type  1   force =    -0.00000378   -0.00000723   -0.00000649
     atom   10 type  1   force =    -0.00000052    0.00000004    0.00000092
     atom   11 type  1   force =     0.00000401   -0.00000216   -0.00001852
     atom   12 type  1   force =    -0.00000959    0.00000162    0.00000883
     atom   13 type  1   force =     0.00001225   -0.00000213   -0.00000744
     atom   14 type  1   force =     0.00000080   -0.00000041    0.00001049
     atom   15 type  1   force =    -0.00000380    0.00000218    0.00000230
     atom   16 type  1   force =    -0.00000379   -0.00000828    0.00000695
     atom   17 type  1   force =     0.00000457    0.00000712   -0.00000683
     atom   18 type  2   force =    -0.00000421    0.00000431    0.00000108
     atom   19 type  2   force =     0.00000204   -0.00000800   -0.00000083
     atom   20 type  2   force =     0.00000588   -0.00000314   -0.00000210
     atom   21 type  2   force =    -0.00000534    0.00000340    0.00000283
     atom   22 type  2   force =    -0.00000258   -0.00000165   -0.00001517
     atom   23 type  2   force =    -0.00000957   -0.00000306    0.00001866
     atom   24 type  2   force =     0.00000105   -0.00000189   -0.00001660
     atom   25 type  2   force =     0.00002194   -0.00001281    0.00001749
     atom   26 type  2   force =    -0.00000686    0.00000143    0.00000238
     atom   27 type  2   force =     0.00000710    0.00000263    0.00000014
     atom   28 type  2   force =     0.00000391   -0.00000152   -0.00001536
     atom   29 type  2   force =     0.00000032    0.00002246    0.00001677
     atom   30 type  2   force =     0.00000330   -0.00000347   -0.00001571
     atom   31 type  2   force =    -0.00002031   -0.00001181    0.00001549
     atom   32 type  2   force =     0.00000068    0.00000335   -0.00001457
     atom   33 type  2   force =    -0.00000137    0.00001020    0.00001785
     atom   34 type  2   force =    -0.00000146    0.00000103   -0.00001069
     atom   35 type  2   force =     0.00001012   -0.00000544    0.00001411
     atom   36 type  2   force =    -0.00000711   -0.00000171    0.00001361
     atom   37 type  2   force =     0.00000560   -0.00000125   -0.00001249
     atom   38 type  2   force =    -0.00002354    0.00001402   -0.00000753
     atom   39 type  2   force =    -0.00000168   -0.00000029    0.00000373
     atom   40 type  2   force =    -0.00000003   -0.00002410   -0.00000521
     atom   41 type  2   force =    -0.00000437    0.00000130    0.00000270
     atom   42 type  2   force =     0.00000473   -0.00000265    0.00000949
     atom   43 type  2   force =    -0.00000560    0.00000333   -0.00000925
     atom   44 type  2   force =    -0.00000158    0.00000680    0.00001254
     atom   45 type  2   force =     0.00000443   -0.00000493   -0.00001353
     atom   46 type  2   force =     0.00000810    0.00000277   -0.00000520
     atom   47 type  2   force =     0.00000150    0.00000182    0.00000252
     atom   48 type  2   force =     0.00000233   -0.00000806   -0.00000608
     atom   49 type  2   force =    -0.00000015   -0.00000186    0.00000304
     atom   50 type  2   force =     0.00002057    0.00001214   -0.00000589
     atom   51 type  2   force =    -0.00000331    0.00000229    0.00000222
     atom   52 type  2   force =    -0.00000815    0.00000492   -0.00000178
     atom   53 type  2   force =     0.00000249   -0.00000138   -0.00000190

     Total force =     0.004229     Total SCF correction =     0.000106

     Computing stress (Cartesian axis) and pressure

     Non-local corr. energy    =      25.64351147 Ry

          total   stress  (Ry/bohr**3)                   (kbar)     P=       13.54
   0.00009082   0.00000018  -0.00000036           13.36        0.03       -0.05
   0.00000018   0.00009102   0.00000020            0.03       13.39        0.03
  -0.00000036   0.00000020   0.00009427           -0.05        0.03       13.87

     kinetic stress (kbar)  14631.59      0.01     -0.03
                                0.01  14631.60      0.02
                               -0.03      0.02  14642.38

     local   stress (kbar)  -7382.71     -5.12      6.05
                               -5.12  -7388.49     -3.41
                                6.05     -3.41    654.09

     nonloc. stress (kbar)   -919.33      0.01     -0.03
                                0.01   -919.32      0.02
                               -0.03      0.02   -923.68

     hartree stress (kbar)  11888.49      2.06     -2.39
                                2.06  11890.81      1.35
                               -2.39      1.35   8263.39

     exc-cor stress (kbar)   6857.97      0.01     -0.01
                                0.01   6857.98      0.00
                               -0.01      0.00   6857.03

     corecor stress (kbar) -11162.01     -0.00      0.00
                               -0.00 -11162.02     -0.00
                                0.00     -0.00 -11161.96

     ewald   stress (kbar) -13983.19      3.06     -3.65
                                3.06 -13979.73      2.06
                               -3.65      2.06 -18401.07

     hubbard stress (kbar)      0.00      0.00      0.00
                                0.00      0.00      0.00
                                0.00      0.00      0.00

     DFT-D   stress (kbar)      0.00      0.00      0.00
                                0.00      0.00      0.00
                                0.00      0.00      0.00

     XDM     stress (kbar)      0.00      0.00      0.00
                                0.00      0.00      0.00
                                0.00      0.00      0.00

     dft-nl  stress (kbar)     82.56     -0.00      0.00
                               -0.00     82.56     -0.00
                                0.00     -0.00     83.69

     TS-vdW  stress (kbar)      0.00      0.00      0.00
                                0.00      0.00      0.00
                                0.00      0.00      0.00

     MDB     stress (kbar)      0.00      0.00      0.00
                                0.00      0.00      0.00
                                0.00      0.00      0.00

     3D-RISM stress (kbar)      0.00      0.00      0.00
                                0.00      0.00      0.00
                                0.00      0.00      0.00

     Energy error            =      3.8E-05 Ry
     Gradient error          =      8.1E-04 Ry/Bohr

     bfgs converged in  13 scf cycles and  12 bfgs steps
     (criteria: energy <  1.0E-04 Ry, force <  1.0E-03 Ry/Bohr)

     End of BFGS Geometry Optimization

     Final energy             =  -35528.3165271125 Ry

     File ./PbI2.bfgs deleted, as requested
Begin final coordinates

ATOMIC_POSITIONS (angstrom)
Pb            2.3565542189        4.0812453981        7.3776669227
Pb            0.0682049624        8.0427015239       14.7545665499
Pb            0.0006243425        8.1601845317        7.3764277528
Pb           -2.4221821603       12.3574052219       14.7549921442
Pb           -2.3544328541       12.2409930540        7.3775549987
Pb            6.9314964022        4.0801812098       14.7562043028
Pb            7.0669466238        4.0804690407        7.3788565367
Pb            4.6432387267        8.0417838401       14.7553636160
Pb            4.7110324674        8.1592790041        7.3776567254
Pb            2.3552901697       12.2403614375       14.8408247458
Pb            2.3550550478       12.2407345935        7.3692793270
Pb           11.9133391724        4.0807982758       14.7557816226
Pb           11.7785862251        4.0813467832        7.3777139311
Pb            9.4232789706        8.1596620895       14.6698600137
Pb            9.4236119300        8.1597183005        7.3859919439
Pb            7.1347453037       12.3572032581       14.7553729810
Pb            7.0676305551       12.2410271694        7.3776348180
I             2.3589823655        1.3657429839        5.4964454051
I             2.3520719572        1.3138853909       12.8958800839
I             0.0037796989        5.4369778623        5.4953636519
I            -0.0381051468        5.4568807906       12.8957349048
I            -2.3521683368        9.5242575981        5.5000229620
I            -2.3840678008        9.5004672854       12.8668524230
I             7.0682471335        1.3641409443        5.5066846645
I             7.0658533569        1.3654594146       12.8415458441
I             4.7123625893        5.4365360209        5.4958853190
I             4.7477551734        5.4601567727       12.8960238896
I             2.3571533611        9.5232421401        5.5059254160
I             2.3558058167        9.5231293784       12.8417063270
I            11.7743414390        1.3615187763        5.5070583131
I            11.7752427029        1.3633332742       12.8425775392
I             9.4191784700        5.4339742474        5.5005450312
I             9.4209157672        5.4677407422       12.8682683905
I             7.0633350342        9.5197633629        5.5010756417
I             7.0913863796        9.5009251721       12.8680348011
I            -0.0378499246        2.6936990394        1.8594528276
I             0.0035882460        2.7255650762        9.2588167299
I            -2.3500460166        6.8017679433        1.9137606113
I            -2.3524513473        6.8032059751        9.2485923037
I            -4.7064833004       10.8790901409        1.9127305725
I            -4.7076435110       10.8773823063        9.2482282315
I             4.7452307149        2.6952568726        1.8595808269
I             4.7070812019        2.7214251407        9.2599319473
I             2.3551404498        6.8415706341        1.8593474128
I             2.3522905695        6.7991260009        9.2593930249
I             0.0250802915       10.8924217795        1.8869876804
I            -0.0033746689       10.8740458730        9.2547127651
I             9.4200217408        2.6853941015        1.8884053374
I             9.4246900164        2.7249517716        9.2552054425
I             7.0699242414        6.8015756075        1.9135905273
I             7.0693432732        6.8027630891        9.2493830263
I             4.6827132250       10.8915715358        1.8872186114
I             4.7131080496       10.8767429070        9.2541746712
End final coordinates

     Writing all to output data dir ./PbI2.save/

     General routines

     Parallel routines

     PAW routines

   This run was terminated on:  15:28: 6  10Feb2024

   JOB DONE.