     Program PWSCF v.7.1 starts on  9Jan2024 at 15:14: 6

     Reading input from espresso.pwi
Warning: card &CELL ignored
Warning: card    CELL_DYNAMICS    = 'BFGS' ignored
Warning: card / ignored

     Current dimensions of program PWSCF are:
     Max number of different atomic species (ntypx) = 10
     Max number of k-points (npk) =  40000
     Max angular momentum in pseudopotentials (lmaxx) =  4
     file C.pbe-n-kjpaw_psl.1.0.0.UPF: wavefunction(s)  2S 2P renormalized

     IMPORTANT: XC functional enforced from input :
     Exchange-correlation= BEEF-VDW
                           (   1   4  43  14   2   0   0)
     Any further DFT definition will be discarded
     Please, verify this is what you really want

     R & G space division:  proc/nbgrp/npool/nimage =     256
     wavefunctions fft division:  task group distribution
                                  #TG    x Z-proc =       8     32
     Subspace diagonalization in iterative solution of the eigenvalue problem:
     a serial algorithm will be used

     Using Pencil Decomposition

     bravais-lattice index     =            1
     lattice parameter (alat)  =      27.0027  a.u.
     unit-cell volume          =   19688.9026 (a.u.)^3
     number of atoms/cell      =          511
     number of atomic types    =            1
     number of electrons       =      2042.00
     number of Kohn-Sham states=         1225
     kinetic-energy cutoff     =      70.0000  Ry
     charge density cutoff     =     350.0000  Ry
     scf convergence threshold =      1.0E-08
     mixing beta               =       0.7000
     number of iterations used =            8  plain     mixing
     Exchange-correlation= BEEF-VDW
                           (   1   4  43  14   2   0   0)

     celldm(1)=  27.002699  celldm(2)=   0.000000  celldm(3)=   0.000000
     celldm(4)=   0.000000  celldm(5)=   0.000000  celldm(6)=   0.000000

     crystal axes: (cart. coord. in units of alat)
               a(1) = (   1.000000   0.000000   0.000000 )
               a(2) = (   0.000000   1.000000   0.000000 )
               a(3) = (   0.000000   0.000000   1.000000 )

     reciprocal axes: (cart. coord. in units 2 pi/alat)
               b(1) = (  1.000000  0.000000  0.000000 )
               b(2) = (  0.000000  1.000000  0.000000 )
               b(3) = (  0.000000  0.000000  1.000000 )

     PseudoPot. # 1 for C  read from file:
     /trace/group/acmegroup/atimmins/packages/espresso/pseudo/psl_1.0.0/pslibrary.1.0.0/pbe/PSEUDOPOTENTIALS/C.pbe-n-kjpaw_psl.1.0.0.UPF
     MD5 check sum: 5459cf7f2c8c37df2f7cde8914797f4d
     Pseudo is Projector augmented-wave + core cor, Zval =  4.0
     Generated using 'atomic' code by A. Dal Corso  v.7.1
     Shape of augmentation charge: PSQ
     Using radial grid of 1073 points,  4 beta functions with:
                l(1) =   0
                l(2) =   0
                l(3) =   1
                l(4) =   1
     Q(r) pseudized with 0 coefficients

     atomic species   valence    mass     pseudopotential
        C              4.00    12.01100     C ( 1.00)

      6 Sym. Ops. (no inversion) found ( 4 have fractional translation)

                                    s                        frac. trans.

      isym =  1     identity

 cryst.   s( 1) = (     1          0          0      )
                  (     0          1          0      )
                  (     0          0          1      )

 cart.    s( 1) = (  1.0000000  0.0000000  0.0000000 )
                  (  0.0000000  1.0000000  0.0000000 )
                  (  0.0000000  0.0000000  1.0000000 )

      isym =  2     120 deg rotation - cart. axis [1,-1,1]

 cryst.   s( 2) = (     0          0          1      )    f =( -0.2500000 )
                  (    -1          0          0      )       ( -0.2500000 )
                  (     0         -1          0      )       (  0.0000000 )

 cart.    s( 2) = (  0.0000000 -1.0000000  0.0000000 )    f =( -0.2500000 )
                  (  0.0000000  0.0000000 -1.0000000 )       ( -0.2500000 )
                  (  1.0000000  0.0000000  0.0000000 )       (  0.0000000 )

      isym =  3     120 deg rotation - cart. axis [-1,1,-1]

[...]

      isym =  4     inv. 180 deg rotation - cart. axis [1,1,0]

[...]

 cryst.   s( 5) = (     0          0          1      )
                  (     0          1          0      )
                  (     1          0          0      )

 cart.    s( 5) = (  0.0000000  0.0000000  1.0000000 )
                  (  0.0000000  1.0000000  0.0000000 )
                  (  1.0000000  0.0000000  0.0000000 )

      isym =  6     inv. 180 deg rotation - cart. axis [0,1,1]

 cryst.   s( 6) = (     1          0          0      )    f =(  0.0000000 )
                  (     0          0         -1      )       ( -0.2500000 )
                  (     0         -1          0      )       ( -0.2500000 )

 cart.    s( 6) = (  1.0000000  0.0000000  0.0000000 )    f =(  0.0000000 )
                  (  0.0000000  0.0000000 -1.0000000 )       ( -0.2500000 )
                  (  0.0000000 -1.0000000  0.0000000 )       ( -0.2500000 )

     point group C_3v (3m)
     there are  3 classes
     the character table:

       E     2C3   3s_v
A_1    1.00  1.00  1.00
A_2    1.00  1.00 -1.00
E      2.00 -1.00  0.00

     the symmetry operations in each class and the name of the first element:

     E        1
          identity
     2C3      2    3
          120 deg rotation - cart. axis [1,-1,1]
     3s_v     4    5    6
          inv. 180 deg rotation - cart. axis [1,1,0]

   Cartesian axes

     site n.     atom                  positions (alat units)
         1           C   tau(   1) = (   0.0625015   0.1874985   0.3125015  )
         2           C   tau(   2) = (   0.0625015   0.1874985   0.5625015  )
         3           C   tau(   3) = (   0.0625015   0.1874985   0.8125015  )
         4           C   tau(   4) = (   0.0625015   0.4374985   0.0625015  )
         5           C   tau(   5) = (   0.0625015   0.4374985   0.3125015  )
         6           C   tau(   6) = (   0.0625015   0.4374985   0.5625015  )
         7           C   tau(   7) = (   0.0625015   0.4374985   0.8125015  )
         8           C   tau(   8) = (   0.0625015   0.6874985   0.0625015  )
         9           C   tau(   9) = (   0.0625015   0.6874985   0.3125015  )
        10           C   tau(  10) = (   0.0625015   0.6874985   0.5625015  )
        11           C   tau(  11) = (   0.0625015   0.6874985   0.8125015  )
        12           C   tau(  12) = (   0.0625015   0.9374985   0.0625015  )
        13           C   tau(  13) = (   0.0625015   0.9374985   0.3125015  )
        14           C   tau(  14) = (   0.0625015   0.9374985   0.5625015  )
        15           C   tau(  15) = (   0.0625015   0.9374985   0.8125015  )
        16           C   tau(  16) = (   0.3125015   0.1874985   0.0625015  )
        17           C   tau(  17) = (   0.3125015   0.1874985   0.3125015  )
        18           C   tau(  18) = (   0.3125015   0.1874985   0.5625015  )
        19           C   tau(  19) = (   0.3125015   0.1874985   0.8125015  )
        20           C   tau(  20) = (   0.3125015   0.4374985   0.0625015  )
        21           C   tau(  21) = (   0.3125015   0.4374985   0.3125015  )
        22           C   tau(  22) = (   0.3125015   0.4374985   0.5625015  )
        23           C   tau(  23) = (   0.3125015   0.4374985   0.8125015  )
        24           C   tau(  24) = (   0.3125015   0.6874985   0.0625015  )
        25           C   tau(  25) = (   0.3125015   0.6874985   0.3125015  )
        26           C   tau(  26) = (   0.3125015   0.6874985   0.5625015  )
        27           C   tau(  27) = (   0.3125015   0.6874985   0.8125015  )
        28           C   tau(  28) = (   0.3125015   0.9374985   0.0625015  )
        29           C   tau(  29) = (   0.3125015   0.9374985   0.3125015  )
        30           C   tau(  30) = (   0.3125015   0.9374985   0.5625015  )
        31           C   tau(  31) = (   0.3125015   0.9374985   0.8125015  )
        32           C   tau(  32) = (   0.5625015   0.1874985   0.0625015  )
        33           C   tau(  33) = (   0.5625015   0.1874985   0.3125015  )
        34           C   tau(  34) = (   0.5625015   0.1874985   0.5625015  )
        35           C   tau(  35) = (   0.5625015   0.1874985   0.8125015  )
        36           C   tau(  36) = (   0.5625015   0.4374985   0.0625015  )
        37           C   tau(  37) = (   0.5625015   0.4374985   0.3125015  )
        38           C   tau(  38) = (   0.5625015   0.4374985   0.5625015  )
        39           C   tau(  39) = (   0.5625015   0.4374985   0.8125015  )
        40           C   tau(  40) = (   0.5625015   0.6874985   0.0625015  )
        41           C   tau(  41) = (   0.5625015   0.6874985   0.3125015  )
        42           C   tau(  42) = (   0.5625015   0.6874985   0.5625015  )
        43           C   tau(  43) = (   0.5625015   0.6874985   0.8125015  )
        44           C   tau(  44) = (   0.5625015   0.9374985   0.0625015  )
        45           C   tau(  45) = (   0.5625015   0.9374985   0.3125015  )
        46           C   tau(  46) = (   0.5625015   0.9374985   0.5625015  )
        47           C   tau(  47) = (   0.5625015   0.9374985   0.8125015  )
        48           C   tau(  48) = (   0.8125015   0.1874985   0.0625015  )
        49           C   tau(  49) = (   0.8125015   0.1874985   0.3125015  )
        50           C   tau(  50) = (   0.8125015   0.1874985   0.5625015  )
        51           C   tau(  51) = (   0.8125015   0.1874985   0.8125015  )
        52           C   tau(  52) = (   0.8125015   0.4374985   0.0625015  )
        53           C   tau(  53) = (   0.8125015   0.4374985   0.3125015  )
        54           C   tau(  54) = (   0.8125015   0.4374985   0.5625015  )
        55           C   tau(  55) = (   0.8125015   0.4374985   0.8125015  )
        56           C   tau(  56) = (   0.8125015   0.6874985   0.0625015  )
        57           C   tau(  57) = (   0.8125015   0.6874985   0.3125015  )
        58           C   tau(  58) = (   0.8125015   0.6874985   0.5625015  )
        59           C   tau(  59) = (   0.8125015   0.6874985   0.8125015  )
        60           C   tau(  60) = (   0.8125015   0.9374985   0.0625015  )
[...]
       497           C   tau( 497) = (   0.8750000   0.1250000   0.3750000  )
       498           C   tau( 498) = (   0.8750000   0.1250000   0.6250000  )
       499           C   tau( 499) = (   0.8750000   0.1250000   0.8750000  )
       500           C   tau( 500) = (   0.8750000   0.3750000   0.1250000  )
       501           C   tau( 501) = (   0.8750000   0.3750000   0.3750000  )
       502           C   tau( 502) = (   0.8750000   0.3750000   0.6250000  )
       503           C   tau( 503) = (   0.8750000   0.3750000   0.8750000  )
       504           C   tau( 504) = (   0.8750000   0.6250000   0.1250000  )
       505           C   tau( 505) = (   0.8750000   0.6250000   0.3750000  )
       506           C   tau( 506) = (   0.8750000   0.6250000   0.6250000  )
       507           C   tau( 507) = (   0.8750000   0.6250000   0.8750000  )
[...]
     atom   25 type  1   force =     0.00000000    0.00000000    0.00000000
     atom   26 type  1   force =     0.00000000    0.00000000    0.00000000
     atom   27 type  1   force =     0.00000000    0.00000000    0.00000000
     atom   28 type  1   force =     0.00000000    0.00000000    0.00000000
     atom   29 type  1   force =     0.00000000    0.00000000    0.00000000
     atom   30 type  1   force =     0.00000000    0.00000000    0.00000000
     atom   31 type  1   force =     0.00000000    0.00000000    0.00000000
     atom   32 type  1   force =     0.00000000    0.00000000    0.00000000
     atom   33 type  1   force =     0.00000000    0.00000000    0.00000000
     atom   34 type  1   force =     0.00000000    0.00000000    0.00000000
     atom   35 type  1   force =     0.00000000    0.00000000    0.00000000
     atom   36 type  1   force =     0.00000000    0.00000000    0.00000000
     atom   37 type  1   force =     0.00000000    0.00000000    0.00000000
     atom   38 type  1   force =     0.00000000    0.00000000    0.00000000
     atom   39 type  1   force =     0.00000000    0.00000000    0.00000000
     atom   40 type  1   force =     0.00000000    0.00000000    0.00000000
     atom   41 type  1   force =     0.00000000    0.00000000    0.00000000
     atom   42 type  1   force =     0.00000000    0.00000000    0.00000000
     atom   43 type  1   force =     0.00000000    0.00000000    0.00000000
     atom   44 type  1   force =     0.00000000    0.00000000    0.00000000
     atom   45 type  1   force =     0.00000000    0.00000000    0.00000000
     atom   46 type  1   force =     0.00000000    0.00000000    0.00000000
     atom   47 type  1   force =     0.00000000    0.00000000    0.00000000
     atom   48 type  1   force =     0.00000000    0.00000000    0.00000000
     atom   49 type  1   force =     0.00000000    0.00000000    0.00000000
     atom   50 type  1   force =     0.00000000    0.00000000    0.00000000
     atom   51 type  1   force =     0.00000000    0.00000000    0.00000000
     atom   52 type  1   force =     0.00000000    0.00000000    0.00000000
     atom   53 type  1   force =     0.00000000    0.00000000    0.00000000
     atom   54 type  1   force =     0.00000000    0.00000000    0.00000000
     atom   55 type  1   force =     0.00000000    0.00000000    0.00000000
     atom   56 type  1   force =     0.00000000    0.00000000    0.00000000
     atom   57 type  1   force =     0.00000000    0.00000000    0.00000000
     atom   58 type  1   force =     0.00000000    0.00000000    0.00000000
     atom   59 type  1   force =     0.00000000    0.00000000    0.00000000
     atom   60 type  1   force =     0.00000000    0.00000000    0.00000000
[...]
     atom  497 type  1   force =     0.00000000    0.00000000    0.00000000
     atom  498 type  1   force =     0.00000000    0.00000000    0.00000000
     atom  499 type  1   force =     0.00000000    0.00000000    0.00000000
     atom  500 type  1   force =     0.00000000    0.00000000    0.00000000
     atom  501 type  1   force =     0.00000000    0.00000000    0.00000000
     atom  502 type  1   force =     0.00000000    0.00000000    0.00000000
     atom  503 type  1   force =     0.00000000    0.00000000    0.00000000
     atom  504 type  1   force =     0.00000000    0.00000000    0.00000000
     atom  505 type  1   force =     0.00000000    0.00000000    0.00000000
     atom  506 type  1   force =     0.00000000    0.00000000    0.00000000
     atom  507 type  1   force =     0.00000000    0.00000000    0.00000000
     atom  508 type  1   force =     0.00000000    0.00000000    0.00000000
     atom  509 type  1   force =     0.00000000    0.00000000    0.00000000
     atom  510 type  1   force =     0.00000000    0.00000000    0.00000000
     atom  511 type  1   force =     0.00000000    0.00000000    0.00000000
     The SCF correction term to forces
     atom    1 type  1   force =    -0.00000378    0.00000378    0.00000363
     atom    2 type  1   force =    -0.00000113    0.00000113    0.00000196
     atom    3 type  1   force =    -0.00000154    0.00000154   -0.00000005
     atom    4 type  1   force =    -0.00000154    0.00000005   -0.00000154
     atom    5 type  1   force =    -0.00000170   -0.00000041   -0.00000127
     atom    6 type  1   force =    -0.00000082    0.00000210    0.00000130
     atom    7 type  1   force =    -0.00000037   -0.00000165    0.00000165
     atom    8 type  1   force =    -0.00000113   -0.00000196   -0.00000113
     atom    9 type  1   force =    -0.00000091   -0.00000157    0.00000232
     atom   10 type  1   force =    -0.00000074   -0.00000092    0.00000092
     atom   11 type  1   force =    -0.00000082   -0.00000130   -0.00000210
     atom   12 type  1   force =    -0.00000378   -0.00000363   -0.00000378
     atom   13 type  1   force =    -0.00000251   -0.00000169    0.00000169
     atom   14 type  1   force =    -0.00000091   -0.00000232    0.00000157
     atom   15 type  1   force =    -0.00000170    0.00000127    0.00000041
     atom   16 type  1   force =     0.00000363    0.00000378   -0.00000378
     atom   17 type  1   force =     0.00000169    0.00000251    0.00000169
     atom   18 type  1   force =     0.00000232    0.00000091    0.00000157
     atom   19 type  1   force =    -0.00000127    0.00000170    0.00000041
     atom   20 type  1   force =    -0.00000127   -0.00000041   -0.00000170
     atom   21 type  1   force =    -0.00000169   -0.00000102   -0.00000169
     atom   22 type  1   force =    -0.00000381   -0.00000367   -0.00000052
     atom   23 type  1   force =    -0.00000399   -0.00000351    0.00000351
     atom   24 type  1   force =     0.00000232   -0.00000157   -0.00000091
     atom   25 type  1   force =    -0.00000343   -0.00000273   -0.00000343
     atom   26 type  1   force =    -0.00001242   -0.00000072    0.00000072
     atom   27 type  1   force =    -0.00000381    0.00000052    0.00000367
     atom   28 type  1   force =     0.00000169   -0.00000169   -0.00000251
     atom   29 type  1   force =    -0.00000100    0.00000100   -0.00000100
     atom   30 type  1   force =    -0.00000343    0.00000343    0.00000273
     atom   31 type  1   force =    -0.00000169    0.00000169    0.00000102
     atom   32 type  1   force =     0.00000196    0.00000113   -0.00000113
     atom   33 type  1   force =     0.00000157    0.00000091    0.00000232
     atom   34 type  1   force =     0.00000092    0.00000074    0.00000092
     atom   35 type  1   force =     0.00000130    0.00000082   -0.00000210
     atom   36 type  1   force =     0.00000130    0.00000210   -0.00000082
     atom   37 type  1   force =    -0.00000052   -0.00000367   -0.00000381
     atom   38 type  1   force =     0.00000075   -0.00001255    0.00000075
     atom   39 type  1   force =     0.00000255   -0.00000391    0.00000391
     atom   40 type  1   force =     0.00000092   -0.00000092   -0.00000074
     atom   41 type  1   force =     0.00000072   -0.00000072   -0.00001242
     atom   42 type  1   force =     0.00000066   -0.00000066    0.00000066
     atom   43 type  1   force =     0.00000075   -0.00000075    0.00001255
     atom   44 type  1   force =     0.00000157   -0.00000232   -0.00000091
     atom   45 type  1   force =     0.00000273    0.00000343   -0.00000343
     atom   46 type  1   force =     0.00000072    0.00001242    0.00000072
     atom   47 type  1   force =    -0.00000052    0.00000381    0.00000367
     atom   48 type  1   force =    -0.00000005    0.00000154   -0.00000154
     atom   49 type  1   force =     0.00000041    0.00000170   -0.00000127
     atom   50 type  1   force =    -0.00000210    0.00000082    0.00000130
     atom   51 type  1   force =     0.00000165    0.00000037    0.00000165
     atom   52 type  1   force =     0.00000165   -0.00000165   -0.00000037
     atom   53 type  1   force =     0.00000351   -0.00000351   -0.00000399
     atom   54 type  1   force =     0.00000391   -0.00000391    0.00000255
     atom   55 type  1   force =     0.00000239   -0.00000239    0.00000239
     atom   56 type  1   force =    -0.00000210   -0.00000130   -0.00000082
     atom   57 type  1   force =     0.00000367    0.00000052   -0.00000381
     atom   58 type  1   force =     0.00001255   -0.00000075    0.00000075
     atom   59 type  1   force =     0.00000391   -0.00000255    0.00000391
     atom   60 type  1   force =     0.00000041    0.00000127   -0.00000170
[...]
     atom  497 type  1   force =    -0.00000036    0.00000278   -0.00000016
     atom  498 type  1   force =    -0.00000037    0.00000216    0.00000223
     atom  499 type  1   force =     0.00000078    0.00000189    0.00000078
     atom  500 type  1   force =     0.00000078   -0.00000078   -0.00000189
     atom  501 type  1   force =     0.00000284   -0.00000284   -0.00000196
     atom  502 type  1   force =     0.00000164   -0.00000164    0.00000146
     atom  503 type  1   force =     0.00000207   -0.00000207    0.00000207
     atom  504 type  1   force =    -0.00000037   -0.00000223   -0.00000216
     atom  505 type  1   force =     0.00000635    0.00000005   -0.00000043
     atom  506 type  1   force =     0.00000951   -0.00000085    0.00000085
     atom  507 type  1   force =     0.00000164   -0.00000146    0.00000164
     atom  508 type  1   force =    -0.00000036    0.00000016   -0.00000278
     atom  509 type  1   force =     0.00000284   -0.00000037    0.00000037
     atom  510 type  1   force =     0.00000635    0.00000043   -0.00000005
     atom  511 type  1   force =     0.00000284    0.00000196    0.00000284

     Total force =     0.004274     Total SCF correction =     0.000126

     Computing stress (Cartesian axis) and pressure

[...]

          total   stress  (Ry/bohr**3)                   (kbar)     P=      -18.59
  -0.00012639  -0.00000001   0.00000001          -18.59       -0.00        0.00
  -0.00000001  -0.00012639  -0.00000001           -0.00      -18.59       -0.00
   0.00000001  -0.00000001  -0.00012639            0.00       -0.00      -18.59

     kinetic stress (kbar)  18932.11     -0.00      0.00
                               -0.00  18932.11     -0.00
                                0.00     -0.00  18932.11

     local   stress (kbar)  -3535.29      0.05     -0.05
                                0.05  -3535.29      0.05
                               -0.05      0.05  -3535.29

     nonloc. stress (kbar)   4317.23     -0.00      0.00
                               -0.00   4317.23     -0.00
                                0.00     -0.00   4317.23

     hartree stress (kbar)   1287.07     -0.01      0.01
                               -0.01   1287.07     -0.01
                                0.01     -0.01   1287.07

     exc-cor stress (kbar)   -407.73     -0.00      0.00
                               -0.00   -407.73     -0.00
                                0.00     -0.00   -407.73

     corecor stress (kbar)  -4425.89      0.00     -0.00
                                0.00  -4425.89      0.00
                               -0.00      0.00  -4425.89

     ewald   stress (kbar) -16210.87     -0.04      0.04
                               -0.04 -16210.87     -0.04
                                0.04     -0.04 -16210.87

     hubbard stress (kbar)      0.00      0.00      0.00
                                0.00      0.00      0.00
                                0.00      0.00      0.00

     DFT-D   stress (kbar)      0.00      0.00      0.00
                                0.00      0.00      0.00
                                0.00      0.00      0.00

     XDM     stress (kbar)      0.00      0.00      0.00
                                0.00      0.00      0.00
                                0.00      0.00      0.00

     dft-nl  stress (kbar)     24.78      0.00     -0.00
                                0.00     24.78      0.00
                               -0.00      0.00     24.78

     TS-vdW  stress (kbar)      0.00      0.00      0.00
                                0.00      0.00      0.00
                                0.00      0.00      0.00

     MDB     stress (kbar)      0.00      0.00      0.00
                                0.00      0.00      0.00
                                0.00      0.00      0.00

     3D-RISM stress (kbar)      0.00      0.00      0.00
                                0.00      0.00      0.00
                                0.00      0.00      0.00

[...]

     Non-local corr. energy    =      17.47845337 Ry

 BEEFens 2000 ensemble energies
             -0.309199157319475E+02
             -0.215193293363476E+03
             -0.763731362964545E+02
              0.845498522571853E+02
             -0.142347473212704E+03
             -0.199186455072127E+03
              0.117952159275881E+03
             -0.245439225678515E+02
              0.163572185252641E+03
             -0.266969360915664E+01
              0.665475495403663E+02
              0.329275203342519E+01
              0.920030256436053E+01
             -0.194827099039044E+02
              0.110725774778265E+03
             -0.828491195467900E+02
             -0.190058768828366E+03
             -0.526679000457302E+02
              0.429013202869605E+02
              0.459734375054154E+01
              0.227426951241922E+03
              0.206205717414120E+03
             -0.101281722113236E+03
              0.568998871460273E+02
             -0.258383683975456E+03
              0.208085758983752E+03
              0.745109025324596E+02
              0.219103554628070E+03
              0.138169904971912E+03
             -0.863443770917131E+02
              0.539438174938895E+02
             -0.112125636524443E+03
              0.324509934627071E+01
              0.110220769939074E+03
              0.142301832310036E+03
             -0.349384924397851E+02
              0.306607405648626E+03
             -0.107385289578909E+03
             -0.775848614216727E+02
              0.118842391130232E+03
              0.408859274326642E+02
              0.100071665610367E+03
             -0.174780209340352E+03
             -0.716411618864595E+01
              0.185245584216258E+03
              0.225977667811721E+03
             -0.204757709000621E+03
              0.169278195985057E+02
              0.807032782631012E+02
              0.188301102173045E+02
              0.987256370895308E+02
              0.198074263791367E+03
             -0.132737871480300E+03
             -0.139730302404029E+03
             -0.176999568361246E+03
             -0.487917180823663E+02
             -0.147758039730764E+03
              0.787053577321456E+01
             -0.392822360792218E+02
             -0.134081768975876E+03
[...]
              0.173909985754412E+03
              0.710519617123822E+02
              0.121214307159247E+03
             -0.173521917270569E+03
             -0.135165504988253E+03
             -0.550631884232121E+02
             -0.148710219993740E+03
              0.268049863301345E+03
              0.229917851256396E+03
              0.999142697887865E+02
              0.271050537663496E+03
             -0.145380480057556E+03
             -0.699440892189176E+02
             -0.721993811045148E+02
              0.213867683428978E+03

 BEEF-vdW xc energy contributions
            1 :    -2089.889202546525
            2 :     1843.675691679960
            3 :    -1419.184056859315
            4 :     926.6130094883188
            5 :    -478.4023406420956
            6 :     152.0475952598267
            7 :     29.32437486702975
            8 :    -92.66794096962803
            9 :     92.08608537507780
           10 :    -79.96781159748798
           11 :     85.80548930761279
           12 :    -110.6749626192004
           13 :     136.6756243092509
           14 :    -143.5399310508315
           15 :     122.4766052201439
           16 :    -80.53558846757869
           17 :     34.96483245611853
           18 :    -2.504555688860364
           19 :    -9.486739094948916
           20 :     5.311005091613424
           21 :     3.687594823975360
           22 :    -6.958326049005791
           23 :    0.7972729399580203
           24 :     10.64158223675031
           25 :    -19.23834998636949
           26 :     18.68964575036489
           27 :    -8.438862950297789
           28 :    -6.403141414157290
           29 :     18.61886923654492
           30 :    -23.34497711072299
           31 :    -273.4365634603641
           32 :    -198.3483932259865

     Writing all to output data dir ./diamond.save/

     General routines

     Parallel routines

     PAW routines

   This run was terminated on:  15:29:55   9Jan2024

   JOB DONE.