     Program PWSCF v.7.2 starts on 29Sep2023 at 11:20:37

     Reading input from espresso.pwi
Warning: card &CELL ignored
Warning: card    CELL_DYNAMICS    = 'BFGS' ignored
Warning: card / ignored

     Current dimensions of program PWSCF are:
     Max number of different atomic species (ntypx) = 10
     Max number of k-points (npk) =  40000
     Max angular momentum in pseudopotentials (lmaxx) =  4
     file Ga.pbe-dn-kjpaw_psl.1.0.0.UPF: wavefunction(s)  4S renormalized
     file N.pbe-n-kjpaw_psl.1.0.0.UPF: wavefunction(s)  2S renormalized

     IMPORTANT: XC functional enforced from input :
     Exchange-correlation= BEEF-VDW
                           (   1   4  43  14   2   0   0)
     Any further DFT definition will be discarded
     Please, verify this is what you really want

     Found identity + (  0.0000  0.0000  0.3333) symmetry
     This is a supercell, fractional translations are disabled

     K-points division:     npool     =       4
     R & G space division:  proc/nbgrp/npool/nimage =      64
     Subspace diagonalization in iterative solution of the eigenvalue problem:
     one sub-group per band group will be used

     Using Slab Decomposition

     bravais-lattice index     =            4
     lattice parameter (alat)  =      30.6565  a.u.
     unit-cell volume          =   24400.9461 (a.u.)^3
     number of atoms/cell      =          300
     number of atomic types    =            2
     number of electrons       =      2700.00
     number of Kohn-Sham states=         1620
     kinetic-energy cutoff     =      70.0000  Ry
     charge density cutoff     =     350.0000  Ry
     scf convergence threshold =      1.0E-09
     mixing beta               =       0.7000
     number of iterations used =            8  plain     mixing
     energy convergence thresh.=      1.0E-04
     force convergence thresh. =      1.0E-03
     Exchange-correlation= BEEF-VDW
                           (   1   4  43  14   2   0   0)
     nstep                     =           50

     celldm(1)=  30.656540  celldm(2)=   0.000000  celldm(3)=   0.977927
     celldm(4)=   0.000000  celldm(5)=   0.000000  celldm(6)=   0.000000

     crystal axes: (cart. coord. in units of alat)
               a(1) = (   1.000000   0.000000   0.000000 )
               a(2) = (  -0.500000   0.866025   0.000000 )
               a(3) = (   0.000000   0.000000   0.977927 )

     reciprocal axes: (cart. coord. in units 2 pi/alat)
               b(1) = (  1.000000  0.577350 -0.000000 )
               b(2) = (  0.000000  1.154701  0.000000 )
               b(3) = (  0.000000 -0.000000  1.022571 )

     PseudoPot. # 1 for Ga read from file:
     //group///packages/espresso/pseudo/psl_1.0.0/pslibrary.1.0.0/pbe/PSEUDOPOTENTIALS/Ga.pbe-dn-kjpaw_psl.1.0.0.UPF
     MD5 check sum: cd2a01e492f15b435d17032472d8505c
     Pseudo is Projector augmented-wave + core cor, Zval = 13.0
     Generated using 'atomic' code by A. Dal Corso  v.7.1
     Shape of augmentation charge: PSQ
     Using radial grid of 1205 points,  6 beta functions with:
                l(1) =   0
                l(2) =   0
                l(3) =   1
                l(4) =   1
                l(5) =   2
                l(6) =   2
     Q(r) pseudized with 0 coefficients

     PseudoPot. # 2 for N  read from file:
     //group///packages/espresso/pseudo/psl_1.0.0/pslibrary.1.0.0/pbe/PSEUDOPOTENTIALS/N.pbe-n-kjpaw_psl.1.0.0.UPF
     MD5 check sum: f77f775694dac7e2c3fe1c82443d1a16
     Pseudo is Projector augmented-wave + core cor, Zval =  5.0
     Generated using 'atomic' code by A. Dal Corso  v.7.1
     Shape of augmentation charge: PSQ
     Using radial grid of 1085 points,  4 beta functions with:
                l(1) =   0
                l(2) =   0
                l(3) =   1
                l(4) =   1
     Q(r) pseudized with 0 coefficients

     atomic species   valence    mass     pseudopotential
        Ga            13.00    69.72300     Ga( 1.00)
        N              5.00    14.00700     N ( 1.00)

      6 Sym. Ops. (no inversion) found

                                    s                        frac. trans.

      isym =  1     identity

 cryst.   s( 1) = (     1          0          0      )
                  (     0          1          0      )
                  (     0          0          1      )

 cart.    s( 1) = (  1.0000000  0.0000000  0.0000000 )
                  (  0.0000000  1.0000000  0.0000000 )
                  (  0.0000000  0.0000000  1.0000000 )

      isym =  2     120 deg rotation - cryst. axis [0,0,1]

[...]

      isym =  3     120 deg rotation - cryst. axis [0,0,-1]

[...]

      isym =  4     inv. 180 deg rotation - cart. axis [1,0,0]

[...]

      isym =  5     inv. 180 deg rotation - cryst. axis [0,1,0]

[...]

      isym =  6     inv. 180 deg rotation - cryst. axis [1,1,0]

 cryst.   s( 6) = (     0         -1          0      )
                  (    -1          0          0      )
                  (     0          0          1      )

 cart.    s( 6) = (  0.5000000 -0.8660254  0.0000000 )
                  ( -0.8660254 -0.5000000  0.0000000 )
                  (  0.0000000  0.0000000  1.0000000 )

     point group C_3v (3m)
     there are  3 classes
     the character table:

       E     2C3   3s_v
A_1    1.00  1.00  1.00
A_2    1.00  1.00 -1.00
E      2.00 -1.00  0.00

     the symmetry operations in each class and the name of the first element:

     E        1
          identity
     2C3      2    3
          120 deg rotation - cryst. axis [0,0,1]
     3s_v     4    5    6
          inv. 180 deg rotation - cart. axis [1,0,0]

   Cartesian axes

     site n.     atom                  positions (alat units)
         1           Ga  tau(   1) = (   0.1000001   0.0577350   0.1627148  )
         2           Ga  tau(   2) = (   0.1000001   0.0577350   0.4886906  )
         3           Ga  tau(   3) = (   0.1000001   0.0577350   0.8146665  )
         4           Ga  tau(   4) = (   0.0000001   0.2309401   0.1627148  )
         5           Ga  tau(   5) = (   0.0000001   0.2309401   0.4886906  )
         6           Ga  tau(   6) = (   0.0000001   0.2309401   0.8146665  )
         7           Ga  tau(   7) = (  -0.0999999   0.4041451   0.1627148  )
         8           Ga  tau(   8) = (  -0.0999999   0.4041451   0.4886906  )
         9           Ga  tau(   9) = (  -0.0999999   0.4041451   0.8146665  )
        10           Ga  tau(  10) = (  -0.1999999   0.5773502   0.1627148  )
        11           Ga  tau(  11) = (  -0.1999999   0.5773502   0.4886906  )
        12           Ga  tau(  12) = (  -0.1999999   0.5773502   0.8146665  )
        13           Ga  tau(  13) = (  -0.2999999   0.7505553   0.1627148  )
        14           Ga  tau(  14) = (  -0.2999999   0.7505553   0.4886906  )
        15           Ga  tau(  15) = (  -0.2999999   0.7505553   0.8146665  )
        16           Ga  tau(  16) = (   0.3000001   0.0577350   0.1627148  )
        17           Ga  tau(  17) = (   0.3000001   0.0577350   0.4886906  )
        18           Ga  tau(  18) = (   0.3000001   0.0577350   0.8146665  )
        19           Ga  tau(  19) = (   0.2000001   0.2309401   0.1627148  )
        20           Ga  tau(  20) = (   0.2000001   0.2309401   0.4886906  )
        21           Ga  tau(  21) = (   0.2000001   0.2309401   0.8146665  )
        22           Ga  tau(  22) = (   0.1000001   0.4041451   0.1627148  )
        23           Ga  tau(  23) = (   0.1000001   0.4041451   0.4886906  )
        24           Ga  tau(  24) = (   0.1000001   0.4041451   0.8146665  )
        25           Ga  tau(  25) = (   0.0000001   0.5773502   0.1627148  )
        26           Ga  tau(  26) = (   0.0000001   0.5773502   0.4886906  )
        27           Ga  tau(  27) = (   0.0000001   0.5773502   0.8146665  )
        28           Ga  tau(  28) = (  -0.0999999   0.7505553   0.1627148  )
        29           Ga  tau(  29) = (  -0.0999999   0.7505553   0.4886906  )
        30           Ga  tau(  30) = (  -0.0999999   0.7505553   0.8146665  )
        31           Ga  tau(  31) = (   0.5000001   0.0577350   0.1627148  )
        32           Ga  tau(  32) = (   0.5000001   0.0577350   0.4886906  )
        33           Ga  tau(  33) = (   0.5000001   0.0577350   0.8146665  )
        34           Ga  tau(  34) = (   0.4000001   0.2309401   0.1627148  )
        35           Ga  tau(  35) = (   0.4000001   0.2309401   0.4886906  )
        36           Ga  tau(  36) = (   0.4000001   0.2309401   0.8146665  )
        37           Ga  tau(  37) = (   0.3000001   0.4041451   0.1627148  )
        38           Ga  tau(  38) = (   0.3000001   0.4041451   0.4886906  )
        39           Ga  tau(  39) = (   0.3000001   0.4041451   0.8146665  )
        40           Ga  tau(  40) = (   0.2000001   0.5773502   0.1627148  )
        41           Ga  tau(  41) = (   0.2000001   0.5773502   0.4886906  )
        42           Ga  tau(  42) = (   0.2000001   0.5773502   0.8146665  )
        43           Ga  tau(  43) = (   0.1000001   0.7505553   0.1627148  )
        44           Ga  tau(  44) = (   0.1000001   0.7505553   0.4886906  )
        45           Ga  tau(  45) = (   0.1000001   0.7505553   0.8146665  )
        46           Ga  tau(  46) = (   0.7000001   0.0577350   0.1627148  )
        47           Ga  tau(  47) = (   0.7000001   0.0577350   0.4886906  )
        48           Ga  tau(  48) = (   0.7000001   0.0577350   0.8146665  )
        49           Ga  tau(  49) = (   0.6000001   0.2309401   0.1627148  )
        50           Ga  tau(  50) = (   0.6000001   0.2309401   0.4886906  )
        51           Ga  tau(  51) = (   0.6000001   0.2309401   0.8146665  )
        52           Ga  tau(  52) = (   0.5000001   0.4041451   0.1627148  )
        53           Ga  tau(  53) = (   0.5000001   0.4041451   0.4886906  )
        54           Ga  tau(  54) = (   0.5000001   0.4041451   0.8146665  )
        55           Ga  tau(  55) = (   0.4000001   0.5773502   0.1627148  )
        56           Ga  tau(  56) = (   0.4000001   0.5773502   0.4886906  )
        57           Ga  tau(  57) = (   0.4000001   0.5773502   0.8146665  )
        58           Ga  tau(  58) = (   0.3000001   0.7505553   0.1627148  )
        59           Ga  tau(  59) = (   0.3000001   0.7505553   0.4886906  )
        60           Ga  tau(  60) = (   0.3000001   0.7505553   0.8146665  )
[...]
       286           N   tau( 286) = (   0.7999999   0.1154701   0.1225140  )
       287           N   tau( 287) = (   0.7999999   0.1154701   0.4484898  )
       288           N   tau( 288) = (   0.7999999   0.1154701   0.7744656  )
       289           N   tau( 289) = (   0.6999999   0.2886752   0.1225140  )
       290           N   tau( 290) = (   0.6999999   0.2886752   0.4484898  )
       291           N   tau( 291) = (   0.6999999   0.2886752   0.7744656  )
       292           N   tau( 292) = (   0.5999999   0.4618803   0.1225140  )
       293           N   tau( 293) = (   0.5999999   0.4618803   0.4484898  )
       294           N   tau( 294) = (   0.5999999   0.4618803   0.7744656  )
       295           N   tau( 295) = (   0.4999999   0.6350854   0.1225140  )
[...]
     atom   44 type  1   force =     0.00000000    0.00000000    0.00000000
     atom   45 type  1   force =     0.00000000    0.00000000    0.00000000
     atom   46 type  1   force =     0.00000000    0.00000000    0.00000000
     atom   47 type  1   force =     0.00000000    0.00000000    0.00000000
     atom   48 type  1   force =     0.00000000    0.00000000    0.00000000
     atom   49 type  1   force =     0.00000000    0.00000000    0.00000000
     atom   50 type  1   force =     0.00000000    0.00000000    0.00000000
     atom   51 type  1   force =     0.00000000    0.00000000    0.00000000
     atom   52 type  1   force =     0.00000000    0.00000000    0.00000000
     atom   53 type  1   force =     0.00000000    0.00000000    0.00000000
     atom   54 type  1   force =     0.00000000    0.00000000    0.00000000
     atom   55 type  1   force =     0.00000000    0.00000000    0.00000000
     atom   56 type  1   force =     0.00000000    0.00000000    0.00000000
     atom   57 type  1   force =     0.00000000    0.00000000    0.00000000
     atom   58 type  1   force =     0.00000000    0.00000000    0.00000000
     atom   59 type  1   force =     0.00000000    0.00000000    0.00000000
     atom   60 type  1   force =     0.00000000    0.00000000    0.00000000
[...]
     atom  286 type  2   force =     0.00000000    0.00000000    0.00000000
     atom  287 type  2   force =     0.00000000    0.00000000    0.00000000
     atom  288 type  2   force =     0.00000000    0.00000000    0.00000000
     atom  289 type  2   force =     0.00000000    0.00000000    0.00000000
     atom  290 type  2   force =     0.00000000    0.00000000    0.00000000
     atom  291 type  2   force =     0.00000000    0.00000000    0.00000000
     atom  292 type  2   force =     0.00000000    0.00000000    0.00000000
     atom  293 type  2   force =     0.00000000    0.00000000    0.00000000
     atom  294 type  2   force =     0.00000000    0.00000000    0.00000000
     atom  295 type  2   force =     0.00000000    0.00000000    0.00000000
     atom  296 type  2   force =     0.00000000    0.00000000    0.00000000
     atom  297 type  2   force =     0.00000000    0.00000000    0.00000000
     atom  298 type  2   force =     0.00000000    0.00000000    0.00000000
     atom  299 type  2   force =     0.00000000    0.00000000    0.00000000
     atom  300 type  2   force =     0.00000000    0.00000000    0.00000000
     The SCF correction term to forces
     atom    1 type  1   force =    -0.00000019   -0.00000011   -0.00000042
     atom    2 type  1   force =    -0.00000027   -0.00000015   -0.00000016
     atom    3 type  1   force =    -0.00000022   -0.00000013   -0.00000001
     atom    4 type  1   force =    -0.00000000   -0.00000032   -0.00000007
     atom    5 type  1   force =    -0.00000000   -0.00000070   -0.00000006
     atom    6 type  1   force =    -0.00000000   -0.00000090    0.00000026
     atom    7 type  1   force =    -0.00000022   -0.00000015   -0.00000003
     atom    8 type  1   force =    -0.00000011   -0.00000016   -0.00000015
     atom    9 type  1   force =     0.00000011   -0.00000008    0.00000026
     atom   10 type  1   force =    -0.00000024   -0.00000012   -0.00000003
     atom   11 type  1   force =    -0.00000020   -0.00000002   -0.00000015
     atom   12 type  1   force =    -0.00000001    0.00000014    0.00000026
     atom   13 type  1   force =    -0.00000028    0.00000016   -0.00000007
     atom   14 type  1   force =    -0.00000061    0.00000035   -0.00000006
     atom   15 type  1   force =    -0.00000078    0.00000045    0.00000026
     atom   16 type  1   force =    -0.00000023    0.00000024   -0.00000054
     atom   17 type  1   force =    -0.00000047    0.00000034   -0.00000030
     atom   18 type  1   force =    -0.00000051    0.00000030    0.00000010
     atom   19 type  1   force =     0.00000009   -0.00000032   -0.00000054
     atom   20 type  1   force =     0.00000006   -0.00000058   -0.00000030
     atom   21 type  1   force =     0.00000001   -0.00000059    0.00000010
     atom   22 type  1   force =     0.00000022   -0.00000015   -0.00000003
     atom   23 type  1   force =     0.00000011   -0.00000016   -0.00000015
     atom   24 type  1   force =    -0.00000011   -0.00000008    0.00000026
     atom   25 type  1   force =    -0.00000000    0.00000000   -0.00000033
     atom   26 type  1   force =    -0.00000000    0.00000000    0.00000058
     atom   27 type  1   force =    -0.00000000    0.00000000    0.00000044
     atom   28 type  1   force =    -0.00000002    0.00000026   -0.00000003
     atom   29 type  1   force =    -0.00000008    0.00000018   -0.00000015
     atom   30 type  1   force =    -0.00000013   -0.00000006    0.00000026
     atom   31 type  1   force =    -0.00000000   -0.00000005    0.00000003
     atom   32 type  1   force =    -0.00000000    0.00000025   -0.00000017
     atom   33 type  1   force =    -0.00000000    0.00000014    0.00000034
     atom   34 type  1   force =    -0.00000023   -0.00000014   -0.00000029
     atom   35 type  1   force =    -0.00000037   -0.00000021    0.00000010
     atom   36 type  1   force =    -0.00000008   -0.00000004    0.00000031
     atom   37 type  1   force =    -0.00000004    0.00000002    0.00000003
     atom   38 type  1   force =     0.00000022   -0.00000012   -0.00000017
     atom   39 type  1   force =     0.00000012   -0.00000007    0.00000034
     atom   40 type  1   force =     0.00000024   -0.00000012   -0.00000003
     atom   41 type  1   force =     0.00000020   -0.00000002   -0.00000015
     atom   42 type  1   force =     0.00000001    0.00000014    0.00000026
     atom   43 type  1   force =     0.00000002    0.00000026   -0.00000003
     atom   44 type  1   force =     0.00000008    0.00000018   -0.00000015
     atom   45 type  1   force =     0.00000013   -0.00000006    0.00000026
     atom   46 type  1   force =     0.00000023    0.00000024   -0.00000054
     atom   47 type  1   force =     0.00000047    0.00000034   -0.00000030
     atom   48 type  1   force =     0.00000051    0.00000030    0.00000010
     atom   49 type  1   force =     0.00000023   -0.00000014   -0.00000029
     atom   50 type  1   force =     0.00000037   -0.00000021    0.00000010
     atom   51 type  1   force =     0.00000008   -0.00000004    0.00000031
     atom   52 type  1   force =    -0.00000000    0.00000027   -0.00000029
     atom   53 type  1   force =    -0.00000000    0.00000042    0.00000010
     atom   54 type  1   force =    -0.00000000    0.00000009    0.00000031
     atom   55 type  1   force =     0.00000033    0.00000008   -0.00000054
     atom   56 type  1   force =     0.00000053    0.00000023   -0.00000030
     atom   57 type  1   force =     0.00000052    0.00000029    0.00000010
     atom   58 type  1   force =     0.00000028    0.00000016   -0.00000007
     atom   59 type  1   force =     0.00000061    0.00000035   -0.00000006
     atom   60 type  1   force =     0.00000078    0.00000045    0.00000026
[...]
     atom  286 type  2   force =    -0.00000013    0.00000008   -0.00000023
     atom  287 type  2   force =     0.00000003   -0.00000001    0.00000017
     atom  288 type  2   force =    -0.00000002    0.00000001    0.00000020
     atom  289 type  2   force =     0.00000004   -0.00000007   -0.00000027
     atom  290 type  2   force =    -0.00000001   -0.00000009    0.00000011
     atom  291 type  2   force =    -0.00000019   -0.00000024    0.00000017
     atom  292 type  2   force =    -0.00000004    0.00000007   -0.00000027
     atom  293 type  2   force =    -0.00000008    0.00000003    0.00000011
     atom  294 type  2   force =    -0.00000030   -0.00000005    0.00000017
     atom  295 type  2   force =    -0.00000000   -0.00000015   -0.00000023
     atom  296 type  2   force =     0.00000000    0.00000003    0.00000017
     atom  297 type  2   force =     0.00000000   -0.00000003    0.00000020
     atom  298 type  2   force =    -0.00000021   -0.00000012   -0.00000019
     atom  299 type  2   force =    -0.00000000   -0.00000000    0.00000016
     atom  300 type  2   force =     0.00000007    0.00000004    0.00000021

     Total force =     0.004331     Total SCF correction =     0.000007

     Computing stress (Cartesian axis) and pressure

     Non-local corr. energy    =      81.75638708 Ry

          total   stress  (Ry/bohr**3)                   (kbar)     P=        1.11
   0.00000396   0.00000000   0.00000000            0.58        0.00        0.00
   0.00000000   0.00000396   0.00000000            0.00        0.58        0.00
   0.00000000   0.00000000   0.00001475            0.00        0.00        2.17

     kinetic stress (kbar)  18449.00     -0.00      0.00
                                0.00  18449.00     -0.00
                                0.00      0.00  18443.78

     local   stress (kbar)   5447.03     -0.07     -0.00
                               -0.07   5446.94      0.00
                               -0.00      0.00   3811.83

     nonloc. stress (kbar)     61.59     -0.00      0.00
                               -0.00     61.59      0.00
                                0.00      0.00     73.49

     hartree stress (kbar)  19596.13      0.00     -0.00
                                0.00  19596.13     -0.00
                               -0.00     -0.00  20346.07

     exc-cor stress (kbar)   5218.06      0.00      0.00
                                0.00   5218.06     -0.00
                                0.00     -0.00   5218.27

     corecor stress (kbar) -14110.26     -0.00     -0.00
                               -0.00 -14110.26      0.00
                               -0.00      0.00 -14109.69

     ewald   stress (kbar) -34823.05      0.10      0.00
                                0.10 -34822.93     -0.00
                                0.00     -0.00 -33942.83

     hubbard stress (kbar)      0.00      0.00      0.00
                                0.00      0.00      0.00
                                0.00      0.00      0.00

     DFT-D   stress (kbar)      0.00      0.00      0.00
                                0.00      0.00      0.00
                                0.00      0.00      0.00

     XDM     stress (kbar)      0.00      0.00      0.00
                                0.00      0.00      0.00
                                0.00      0.00      0.00

     dft-nl  stress (kbar)    162.09     -0.00     -0.00
                               -0.00    162.09      0.00
                               -0.00      0.00    161.24

     TS-vdW  stress (kbar)      0.00      0.00      0.00
                                0.00      0.00      0.00
                                0.00      0.00      0.00

     MDB     stress (kbar)      0.00      0.00      0.00
                                0.00      0.00      0.00
                                0.00      0.00      0.00

     3D-RISM stress (kbar)      0.00      0.00      0.00
                                0.00      0.00      0.00
                                0.00      0.00      0.00

     BFGS Geometry Optimization
     Energy error            =      0.0E+00 Ry
     Gradient error          =      3.9E-04 Ry/Bohr

     bfgs converged in   1 scf cycles and   0 bfgs steps
     (criteria: energy <  1.0E-04 Ry, force <  1.0E-03 Ry/Bohr)

     End of BFGS Geometry Optimization

     Final energy             =  -46843.5451125482 Ry
Begin final coordinates

ATOMIC_POSITIONS (angstrom)
Ga            1.6222756606        0.9366198184        2.6396807677
Ga            1.6222756606        0.9366198184        7.9279023555
Ga            1.6222756606        0.9366198184       13.2161239432
Ga            0.0000014521        3.7464811715        2.6396807677
Ga            0.0000014521        3.7464811715        7.9279023555
Ga            0.0000014521        3.7464811715       13.2161239432
Ga           -1.6222727565        6.5563425246        2.6396807677
Ga           -1.6222727565        6.5563425246        7.9279023555
Ga           -1.6222727565        6.5563425246       13.2161239432
Ga           -3.2445469650        9.3662038776        2.6396807677
Ga           -3.2445469650        9.3662038776        7.9279023555
Ga           -3.2445469650        9.3662038776       13.2161239432
Ga           -4.8668211735       12.1760652307        2.6396807677
Ga           -4.8668211735       12.1760652307        7.9279023555
Ga           -4.8668211735       12.1760652307       13.2161239432
Ga            4.8668240777        0.9366198184        2.6396807677
Ga            4.8668240777        0.9366198184        7.9279023555
Ga            4.8668240777        0.9366198184       13.2161239432
Ga            3.2445498691        3.7464811715        2.6396807677
Ga            3.2445498691        3.7464811715        7.9279023555
Ga            3.2445498691        3.7464811715       13.2161239432
Ga            1.6222756606        6.5563425246        2.6396807677
Ga            1.6222756606        6.5563425246        7.9279023555
Ga            1.6222756606        6.5563425246       13.2161239432
Ga            0.0000014521        9.3662038776        2.6396807677
Ga            0.0000014521        9.3662038776        7.9279023555
Ga            0.0000014521        9.3662038776       13.2161239432
Ga           -1.6222727565       12.1760652307        2.6396807677
Ga           -1.6222727565       12.1760652307        7.9279023555
Ga           -1.6222727565       12.1760652307       13.2161239432
Ga            8.1113724947        0.9366198184        2.6396807677
Ga            8.1113724947        0.9366198184        7.9279023555
Ga            8.1113724947        0.9366198184       13.2161239432
Ga            6.4890982862        3.7464811715        2.6396807677
Ga            6.4890982862        3.7464811715        7.9279023555
Ga            6.4890982862        3.7464811715       13.2161239432
Ga            4.8668240777        6.5563425246        2.6396807677
Ga            4.8668240777        6.5563425246        7.9279023555
Ga            4.8668240777        6.5563425246       13.2161239432
Ga            3.2445498691        9.3662038776        2.6396807677
Ga            3.2445498691        9.3662038776        7.9279023555
Ga            3.2445498691        9.3662038776       13.2161239432
Ga            1.6222756606       12.1760652307        2.6396807677
Ga            1.6222756606       12.1760652307        7.9279023555
Ga            1.6222756606       12.1760652307       13.2161239432
Ga           11.3559209118        0.9366198184        2.6396807677
Ga           11.3559209118        0.9366198184        7.9279023555
Ga           11.3559209118        0.9366198184       13.2161239432
Ga            9.7336467033        3.7464811715        2.6396807677
Ga            9.7336467033        3.7464811715        7.9279023555
Ga            9.7336467033        3.7464811715       13.2161239432
Ga            8.1113724947        6.5563425246        2.6396807677
Ga            8.1113724947        6.5563425246        7.9279023555
Ga            8.1113724947        6.5563425246       13.2161239432
Ga            6.4890982862        9.3662038776        2.6396807677
Ga            6.4890982862        9.3662038776        7.9279023555
Ga            6.4890982862        9.3662038776       13.2161239432
Ga            4.8668240777       12.1760652307        2.6396807677
Ga            4.8668240777       12.1760652307        7.9279023555
Ga            4.8668240777       12.1760652307       13.2161239432
[...]
N            12.9781917035        1.8732424465        1.9875131237
N            12.9781917035        1.8732424465        7.2757347115
N            12.9781917035        1.8732424465       12.5639562992
N            11.3559174949        4.6831037996        1.9875131237
N            11.3559174949        4.6831037996        7.2757347115
N            11.3559174949        4.6831037996       12.5639562992
N             9.7336432864        7.4929651527        1.9875131237
N             9.7336432864        7.4929651527        7.2757347115
N             9.7336432864        7.4929651527       12.5639562992
N             8.1113690779       10.3028265057        1.9875131237
N             8.1113690779       10.3028265057        7.2757347115
N             8.1113690779       10.3028265057       12.5639562992
N             6.4890948693       13.1126878588        1.9875131237
N             6.4890948693       13.1126878588        7.2757347115
N             6.4890948693       13.1126878588       12.5639562992
End final coordinates

     Writing all to output data dir ./GaN.save/

     General routines

     Parallel routines

     PAW routines

   This run was terminated on:  21:34: 1  29Sep2023

   JOB DONE.