     Program PWSCF v.7.2 starts on 17Mar2024 at 21:17:40

     Reading input from espresso.pwi
Warning: card &CELL ignored
Warning: card    CELL_DYNAMICS    = 'BFGS' ignored
Warning: card / ignored

     Current dimensions of program PWSCF are:
     Max number of different atomic species (ntypx) = 10
     Max number of k-points (npk) =  40000
     Max angular momentum in pseudopotentials (lmaxx) =  4
     file C.pbe-n-kjpaw_psl.1.0.0.UPF: wavefunction(s)  2S 2P renormalized

     IMPORTANT: XC functional enforced from input :
     Exchange-correlation= BEEF-VDW
                           (   1   4  43  14   2   0   0)
     Any further DFT definition will be discarded
     Please, verify this is what you really want

     K-points division:     npool     =       4
     R & G space division:  proc/nbgrp/npool/nimage =      32
     Subspace diagonalization in iterative solution of the eigenvalue problem:
     a serial algorithm will be used

     Using Slab Decomposition

     bravais-lattice index     =            1
     lattice parameter (alat)  =      13.5013  a.u.
     unit-cell volume          =    2461.1121 (a.u.)^3
     number of atoms/cell      =           63
     number of atomic types    =            1
     number of electrons       =       250.00
     number of Kohn-Sham states=          150
     kinetic-energy cutoff     =      70.0000  Ry
     charge density cutoff     =     350.0000  Ry
     scf convergence threshold =      1.0E-07
     mixing beta               =       0.7000
     number of iterations used =            8  plain     mixing
     Exchange-correlation= BEEF-VDW
                           (   1   4  43  14   2   0   0)

     celldm(1)=  13.501348  celldm(2)=   0.000000  celldm(3)=   0.000000
     celldm(4)=   0.000000  celldm(5)=   0.000000  celldm(6)=   0.000000

     crystal axes: (cart. coord. in units of alat)
               a(1) = (   1.000000   0.000000   0.000000 )
               a(2) = (   0.000000   1.000000   0.000000 )
               a(3) = (   0.000000   0.000000   1.000000 )

     reciprocal axes: (cart. coord. in units 2 pi/alat)
               b(1) = (  1.000000  0.000000  0.000000 )
               b(2) = (  0.000000  1.000000  0.000000 )
               b(3) = (  0.000000  0.000000  1.000000 )

     PseudoPot. # 1 for C  read from file:
     //group///packages/espresso/pseudo/psl_1.0.0/pslibrary.1.0.0/pbe/PSEUDOPOTENTIALS/C.pbe-n-kjpaw_psl.1.0.0.UPF
     MD5 check sum: 5459cf7f2c8c37df2f7cde8914797f4d
     Pseudo is Projector augmented-wave + core cor, Zval =  4.0
     Generated using 'atomic' code by A. Dal Corso  v.7.1
     Shape of augmentation charge: PSQ
     Using radial grid of 1073 points,  4 beta functions with:
                l(1) =   0
                l(2) =   0
                l(3) =   1
                l(4) =   1
     Q(r) pseudized with 0 coefficients

     atomic species   valence    mass     pseudopotential
        C              4.00    12.01100     C ( 1.00)

      6 Sym. Ops. (no inversion) found ( 4 have fractional translation)

                                    s                        frac. trans.

      isym =  1     identity

 cryst.   s( 1) = (     1          0          0      )
                  (     0          1          0      )
                  (     0          0          1      )

 cart.    s( 1) = (  1.0000000  0.0000000  0.0000000 )
                  (  0.0000000  1.0000000  0.0000000 )
                  (  0.0000000  0.0000000  1.0000000 )

      isym =  2     120 deg rotation - cart. axis [1,-1,1]

 cryst.   s( 2) = (     0          0          1      )    f =( -0.5000000 )
                  (    -1          0          0      )       ( -0.5000000 )
                  (     0         -1          0      )       (  0.0000000 )

 cart.    s( 2) = (  0.0000000 -1.0000000  0.0000000 )    f =( -0.5000000 )
                  (  0.0000000  0.0000000 -1.0000000 )       ( -0.5000000 )
                  (  1.0000000  0.0000000  0.0000000 )       (  0.0000000 )

      isym =  3     120 deg rotation - cart. axis [-1,1,-1]

[...]

      isym =  4     inv. 180 deg rotation - cart. axis [1,1,0]

[...]

 cryst.   s( 5) = (     0          0          1      )
                  (     0          1          0      )
                  (     1          0          0      )

 cart.    s( 5) = (  0.0000000  0.0000000  1.0000000 )
                  (  0.0000000  1.0000000  0.0000000 )
                  (  1.0000000  0.0000000  0.0000000 )

      isym =  6     inv. 180 deg rotation - cart. axis [0,1,1]

 cryst.   s( 6) = (     1          0          0      )    f =(  0.0000000 )
                  (     0          0         -1      )       ( -0.5000000 )
                  (     0         -1          0      )       ( -0.5000000 )

 cart.    s( 6) = (  1.0000000  0.0000000  0.0000000 )    f =(  0.0000000 )
                  (  0.0000000  0.0000000 -1.0000000 )       ( -0.5000000 )
                  (  0.0000000 -1.0000000  0.0000000 )       ( -0.5000000 )

     point group C_3v (3m)
     there are  3 classes
     the character table:

       E     2C3   3s_v
A_1    1.00  1.00  1.00
A_2    1.00  1.00 -1.00
E      2.00 -1.00  0.00

     the symmetry operations in each class and the name of the first element:

     E        1
          identity
     2C3      2    3
          120 deg rotation - cart. axis [1,-1,1]
     3s_v     4    5    6
          inv. 180 deg rotation - cart. axis [1,1,0]

   Cartesian axes

     site n.     atom                  positions (alat units)
         1           C   tau(   1) = (   0.1250031   0.3749969   0.6250031  )
         2           C   tau(   2) = (   0.1250031   0.8749969   0.1250031  )
         3           C   tau(   3) = (   0.1250031   0.8749969   0.6250031  )
         4           C   tau(   4) = (   0.6250031   0.3749969   0.1250031  )
         5           C   tau(   5) = (   0.6250031   0.3749969   0.6250031  )
         6           C   tau(   6) = (   0.6250031   0.8749969   0.1250031  )
         7           C   tau(   7) = (   0.6250031   0.8749969   0.6250031  )
         8           C   tau(   8) = (   0.0000000   0.0000000   0.2500000  )
         9           C   tau(   9) = (   0.0000000   0.0000000   0.7500000  )
        10           C   tau(  10) = (   0.0000000   0.5000000   0.2500000  )
        11           C   tau(  11) = (   0.0000000   0.5000000   0.7500000  )
        12           C   tau(  12) = (   0.5000000   0.0000000   0.2500000  )
        13           C   tau(  13) = (   0.5000000   0.0000000   0.7500000  )
        14           C   tau(  14) = (   0.5000000   0.5000000   0.2500000  )
        15           C   tau(  15) = (   0.5000000   0.5000000   0.7500000  )
        16           C   tau(  16) = (   0.1250031   0.1250031   0.3749969  )
        17           C   tau(  17) = (   0.1250031   0.1250031   0.8749969  )
        18           C   tau(  18) = (   0.1250031   0.6250031   0.3749969  )
        19           C   tau(  19) = (   0.1250031   0.6250031   0.8749969  )
        20           C   tau(  20) = (   0.6250031   0.1250031   0.3749969  )
        21           C   tau(  21) = (   0.6250031   0.1250031   0.8749969  )
        22           C   tau(  22) = (   0.6250031   0.6250031   0.3749969  )
        23           C   tau(  23) = (   0.6250031   0.6250031   0.8749969  )
        24           C   tau(  24) = (   0.0000000   0.2500000   0.0000000  )
        25           C   tau(  25) = (   0.0000000   0.2500000   0.5000000  )
        26           C   tau(  26) = (   0.0000000   0.7500000   0.0000000  )
        27           C   tau(  27) = (   0.0000000   0.7500000   0.5000000  )
        28           C   tau(  28) = (   0.5000000   0.2500000   0.0000000  )
        29           C   tau(  29) = (   0.5000000   0.2500000   0.5000000  )
        30           C   tau(  30) = (   0.5000000   0.7500000   0.0000000  )
        31           C   tau(  31) = (   0.5000000   0.7500000   0.5000000  )
        32           C   tau(  32) = (   0.3749969   0.3749969   0.3749969  )
        33           C   tau(  33) = (   0.3749969   0.3749969   0.8749969  )
        34           C   tau(  34) = (   0.3749969   0.8749969   0.3749969  )
        35           C   tau(  35) = (   0.3749969   0.8749969   0.8749969  )
        36           C   tau(  36) = (   0.8749969   0.3749969   0.3749969  )
        37           C   tau(  37) = (   0.8749969   0.3749969   0.8749969  )
        38           C   tau(  38) = (   0.8749969   0.8749969   0.3749969  )
        39           C   tau(  39) = (   0.8749969   0.8749969   0.8749969  )
        40           C   tau(  40) = (   0.2500000   0.0000000   0.0000000  )
        41           C   tau(  41) = (   0.2500000   0.0000000   0.5000000  )
        42           C   tau(  42) = (   0.2500000   0.5000000   0.0000000  )
        43           C   tau(  43) = (   0.2500000   0.5000000   0.5000000  )
        44           C   tau(  44) = (   0.7500000   0.0000000   0.0000000  )
        45           C   tau(  45) = (   0.7500000   0.0000000   0.5000000  )
        46           C   tau(  46) = (   0.7500000   0.5000000   0.0000000  )
        47           C   tau(  47) = (   0.7500000   0.5000000   0.5000000  )
        48           C   tau(  48) = (   0.3749969   0.1250031   0.1250031  )
        49           C   tau(  49) = (   0.3749969   0.1250031   0.6250031  )
        50           C   tau(  50) = (   0.3749969   0.6250031   0.1250031  )
        51           C   tau(  51) = (   0.3749969   0.6250031   0.6250031  )
        52           C   tau(  52) = (   0.8749969   0.1250031   0.1250031  )
        53           C   tau(  53) = (   0.8749969   0.1250031   0.6250031  )
        54           C   tau(  54) = (   0.8749969   0.6250031   0.1250031  )
        55           C   tau(  55) = (   0.8749969   0.6250031   0.6250031  )
        56           C   tau(  56) = (   0.2500000   0.2500000   0.2500000  )
        57           C   tau(  57) = (   0.2500000   0.2500000   0.7500000  )
        58           C   tau(  58) = (   0.2500000   0.7500000   0.2500000  )
        59           C   tau(  59) = (   0.2500000   0.7500000   0.7500000  )
        60           C   tau(  60) = (   0.7500000   0.2500000   0.2500000  )
        61           C   tau(  61) = (   0.7500000   0.2500000   0.7500000  )
        62           C   tau(  62) = (   0.7500000   0.7500000   0.2500000  )
        63           C   tau(  63) = (   0.7500000   0.7500000   0.7500000  )

   Crystallographic axes

     site n.     atom                  positions (cryst. coord.)
         1           C   tau(   1) = (  0.1250031  0.3749969  0.6250031  )
         2           C   tau(   2) = (  0.1250031  0.8749969  0.1250031  )
         3           C   tau(   3) = (  0.1250031  0.8749969  0.6250031  )
         4           C   tau(   4) = (  0.6250031  0.3749969  0.1250031  )
         5           C   tau(   5) = (  0.6250031  0.3749969  0.6250031  )
         6           C   tau(   6) = (  0.6250031  0.8749969  0.1250031  )
         7           C   tau(   7) = (  0.6250031  0.8749969  0.6250031  )
         8           C   tau(   8) = (  0.0000000  0.0000000  0.2500000  )
         9           C   tau(   9) = (  0.0000000  0.0000000  0.7500000  )
[...]
     atom    2 type  1   force =     0.00000000    0.00000000    0.00000000
     atom    3 type  1   force =     0.00000000    0.00000000    0.00000000
     atom    4 type  1   force =     0.00000000    0.00000000    0.00000000
     atom    5 type  1   force =     0.00000000    0.00000000    0.00000000
     atom    6 type  1   force =     0.00000000    0.00000000    0.00000000
     atom    7 type  1   force =     0.00000000    0.00000000    0.00000000
     atom    8 type  1   force =     0.00000000    0.00000000    0.00000000
     atom    9 type  1   force =     0.00000000    0.00000000    0.00000000
     atom   10 type  1   force =     0.00000000    0.00000000    0.00000000
     atom   11 type  1   force =     0.00000000    0.00000000    0.00000000
     atom   12 type  1   force =     0.00000000    0.00000000    0.00000000
     atom   13 type  1   force =     0.00000000    0.00000000    0.00000000
     atom   14 type  1   force =     0.00000000    0.00000000    0.00000000
     atom   15 type  1   force =     0.00000000    0.00000000    0.00000000
     atom   16 type  1   force =     0.00000000    0.00000000    0.00000000
     atom   17 type  1   force =     0.00000000    0.00000000    0.00000000
     atom   18 type  1   force =     0.00000000    0.00000000    0.00000000
     atom   19 type  1   force =     0.00000000    0.00000000    0.00000000
     atom   20 type  1   force =     0.00000000    0.00000000    0.00000000
     atom   21 type  1   force =     0.00000000    0.00000000    0.00000000
     atom   22 type  1   force =     0.00000000    0.00000000    0.00000000
     atom   23 type  1   force =     0.00000000    0.00000000    0.00000000
     atom   24 type  1   force =     0.00000000    0.00000000    0.00000000
     atom   25 type  1   force =     0.00000000    0.00000000    0.00000000
     atom   26 type  1   force =     0.00000000    0.00000000    0.00000000
     atom   27 type  1   force =     0.00000000    0.00000000    0.00000000
     atom   28 type  1   force =     0.00000000    0.00000000    0.00000000
     atom   29 type  1   force =     0.00000000    0.00000000    0.00000000
     atom   30 type  1   force =     0.00000000    0.00000000    0.00000000
     atom   31 type  1   force =     0.00000000    0.00000000    0.00000000
     atom   32 type  1   force =     0.00000000    0.00000000    0.00000000
     atom   33 type  1   force =     0.00000000    0.00000000    0.00000000
     atom   34 type  1   force =     0.00000000    0.00000000    0.00000000
     atom   35 type  1   force =     0.00000000    0.00000000    0.00000000
     atom   36 type  1   force =     0.00000000    0.00000000    0.00000000
     atom   37 type  1   force =     0.00000000    0.00000000    0.00000000
     atom   38 type  1   force =     0.00000000    0.00000000    0.00000000
     atom   39 type  1   force =     0.00000000    0.00000000    0.00000000
     atom   40 type  1   force =     0.00000000    0.00000000    0.00000000
     atom   41 type  1   force =     0.00000000    0.00000000    0.00000000
     atom   42 type  1   force =     0.00000000    0.00000000    0.00000000
     atom   43 type  1   force =     0.00000000    0.00000000    0.00000000
     atom   44 type  1   force =     0.00000000    0.00000000    0.00000000
     atom   45 type  1   force =     0.00000000    0.00000000    0.00000000
     atom   46 type  1   force =     0.00000000    0.00000000    0.00000000
     atom   47 type  1   force =     0.00000000    0.00000000    0.00000000
     atom   48 type  1   force =     0.00000000    0.00000000    0.00000000
     atom   49 type  1   force =     0.00000000    0.00000000    0.00000000
     atom   50 type  1   force =     0.00000000    0.00000000    0.00000000
     atom   51 type  1   force =     0.00000000    0.00000000    0.00000000
     atom   52 type  1   force =     0.00000000    0.00000000    0.00000000
     atom   53 type  1   force =     0.00000000    0.00000000    0.00000000
     atom   54 type  1   force =     0.00000000    0.00000000    0.00000000
     atom   55 type  1   force =     0.00000000    0.00000000    0.00000000
     atom   56 type  1   force =     0.00000000    0.00000000    0.00000000
     atom   57 type  1   force =     0.00000000    0.00000000    0.00000000
     atom   58 type  1   force =     0.00000000    0.00000000    0.00000000
     atom   59 type  1   force =     0.00000000    0.00000000    0.00000000
     atom   60 type  1   force =     0.00000000    0.00000000    0.00000000
     atom   61 type  1   force =     0.00000000    0.00000000    0.00000000
     atom   62 type  1   force =     0.00000000    0.00000000    0.00000000
     atom   63 type  1   force =     0.00000000    0.00000000    0.00000000
     The SCF correction term to forces
     atom    1 type  1   force =    -0.00002662    0.00002662    0.00003527
     atom    2 type  1   force =    -0.00002662   -0.00003527   -0.00002662
     atom    3 type  1   force =    -0.00001941   -0.00002582    0.00002582
     atom    4 type  1   force =     0.00003527    0.00002662   -0.00002662
     atom    5 type  1   force =     0.00002582    0.00001941    0.00002582
     atom    6 type  1   force =     0.00002582   -0.00002582   -0.00001941
     atom    7 type  1   force =     0.00001894   -0.00001894    0.00001894
     atom    8 type  1   force =    -0.00004014   -0.00001043   -0.00001168
     atom    9 type  1   force =    -0.00003052   -0.00001437    0.00001352
     atom   10 type  1   force =    -0.00001239    0.00001239   -0.00003059
     atom   11 type  1   force =    -0.00001675    0.00001675    0.00003731
     atom   12 type  1   force =     0.00004017   -0.00004017    0.00000210
     atom   13 type  1   force =     0.00002821   -0.00002821    0.00000094
     atom   14 type  1   force =     0.00001043    0.00004014   -0.00001168
     atom   15 type  1   force =     0.00001437    0.00003052    0.00001352
     atom   16 type  1   force =    -0.00005485   -0.00001075    0.00001075
     atom   17 type  1   force =    -0.00003587    0.00001616    0.00000671
     atom   18 type  1   force =    -0.00003587   -0.00000671   -0.00001616
     atom   19 type  1   force =    -0.00000633   -0.00001730    0.00001730
     atom   20 type  1   force =     0.00003785   -0.00002719    0.00002719
     atom   21 type  1   force =     0.00002769   -0.00001838   -0.00002460
     atom   22 type  1   force =     0.00002769    0.00002460    0.00001838
     atom   23 type  1   force =     0.00001378    0.00001909   -0.00001909
     atom   24 type  1   force =    -0.00001239    0.00003059   -0.00001239
     atom   25 type  1   force =    -0.00004014    0.00001168    0.00001043
     atom   26 type  1   force =    -0.00001675   -0.00003731   -0.00001675
     atom   27 type  1   force =    -0.00003052   -0.00001352    0.00001437
     atom   28 type  1   force =     0.00001043    0.00001168   -0.00004014
     atom   29 type  1   force =     0.00004017   -0.00000210    0.00004017
     atom   30 type  1   force =     0.00001437   -0.00001352   -0.00003052
     atom   31 type  1   force =     0.00002821   -0.00000094    0.00002821
     atom   32 type  1   force =     0.00001075    0.00005485    0.00001075
     atom   33 type  1   force =    -0.00001616    0.00003587    0.00000671
     atom   34 type  1   force =     0.00002719   -0.00003785    0.00002719
     atom   35 type  1   force =     0.00001838   -0.00002769   -0.00002460
     atom   36 type  1   force =     0.00000671    0.00003587   -0.00001616
     atom   37 type  1   force =     0.00001730    0.00000633    0.00001730
     atom   38 type  1   force =    -0.00002460   -0.00002769    0.00001838
     atom   39 type  1   force =    -0.00001909   -0.00001378   -0.00001909
     atom   40 type  1   force =    -0.00001168   -0.00001043   -0.00004014
     atom   41 type  1   force =     0.00000210   -0.00004017    0.00004017
     atom   42 type  1   force =    -0.00003059    0.00001239   -0.00001239
     atom   43 type  1   force =    -0.00001168    0.00004014    0.00001043
     atom   44 type  1   force =     0.00001352   -0.00001437   -0.00003052
     atom   45 type  1   force =     0.00000094   -0.00002821    0.00002821
     atom   46 type  1   force =     0.00003731    0.00001675   -0.00001675
     atom   47 type  1   force =     0.00001352    0.00003052    0.00001437
     atom   48 type  1   force =     0.00001075   -0.00001075   -0.00005485
     atom   49 type  1   force =     0.00002719   -0.00002719    0.00003785
     atom   50 type  1   force =    -0.00001616   -0.00000671   -0.00003587
     atom   51 type  1   force =     0.00001838    0.00002460    0.00002769
     atom   52 type  1   force =     0.00000671    0.00001616   -0.00003587
     atom   53 type  1   force =    -0.00002460   -0.00001838    0.00002769
     atom   54 type  1   force =     0.00001730   -0.00001730   -0.00000633
     atom   55 type  1   force =    -0.00001909    0.00001909    0.00001378
     atom   56 type  1   force =    -0.00002765    0.00002765   -0.00002765
     atom   57 type  1   force =    -0.00001097    0.00001097    0.00004041
     atom   58 type  1   force =    -0.00001097   -0.00004041   -0.00001097
     atom   59 type  1   force =     0.00000295   -0.00001353    0.00001353
     atom   60 type  1   force =     0.00004041    0.00001097   -0.00001097
     atom   61 type  1   force =     0.00001353   -0.00000295    0.00001353
     atom   62 type  1   force =     0.00001353   -0.00001353    0.00000295
     atom   63 type  1   force =    -0.00000096    0.00000096   -0.00000096

     Total force =     0.002586     Total SCF correction =     0.000331
     SCF correction compared to forces is large: reduce conv_thr to get better values

     Computing stress (Cartesian axis) and pressure

[...]

          total   stress  (Ry/bohr**3)                   (kbar)     P=     -145.70
  -0.00099047  -0.00000010   0.00000010         -145.70       -0.01        0.01
  -0.00000010  -0.00099047  -0.00000010           -0.01     -145.70       -0.01
   0.00000010  -0.00000010  -0.00099047            0.01       -0.01     -145.70

     kinetic stress (kbar)  18469.97     -0.00      0.00
                               -0.00  18469.97     -0.00
                                0.00     -0.00  18469.97

     local   stress (kbar)  -3830.21      0.24     -0.24
                                0.24  -3830.21      0.24
                               -0.24      0.24  -3830.21

     nonloc. stress (kbar)   4277.56     -0.00      0.00
                               -0.00   4277.56     -0.00
                                0.00     -0.00   4277.56

     hartree stress (kbar)   1394.69     -0.07      0.07
                               -0.07   1394.69     -0.07
                                0.07     -0.07   1394.69

     exc-cor stress (kbar)   -361.74      0.00     -0.00
                                0.00   -361.74      0.00
                               -0.00      0.00   -361.74

     corecor stress (kbar)  -4361.12      0.00     -0.00
                                0.00  -4361.12      0.00
                               -0.00      0.00  -4361.12

     ewald   stress (kbar) -15759.37     -0.19      0.19
                               -0.19 -15759.37     -0.19
                                0.19     -0.19 -15759.37

     hubbard stress (kbar)      0.00      0.00      0.00
                                0.00      0.00      0.00
                                0.00      0.00      0.00

     DFT-D   stress (kbar)      0.00      0.00      0.00
                                0.00      0.00      0.00
                                0.00      0.00      0.00

     XDM     stress (kbar)      0.00      0.00      0.00
                                0.00      0.00      0.00
                                0.00      0.00      0.00

     dft-nl  stress (kbar)     24.53      0.00     -0.00
                                0.00     24.53      0.00
                               -0.00      0.00     24.53

     TS-vdW  stress (kbar)      0.00      0.00      0.00
                                0.00      0.00      0.00
                                0.00      0.00      0.00

     MDB     stress (kbar)      0.00      0.00      0.00
                                0.00      0.00      0.00
                                0.00      0.00      0.00

     3D-RISM stress (kbar)      0.00      0.00      0.00
                                0.00      0.00      0.00
                                0.00      0.00      0.00

[...]

     Non-local corr. energy    =       2.16538430 Ry

 BEEFens 2000 ensemble energies
             -0.222191021816720E+02
             -0.149660804741332E+01
             -0.497887872566766E+01
              0.153291568626038E+02
             -0.673445050194812E+01
             -0.569681767146082E+01
             -0.155173806929681E+02
             -0.333235939021495E+02
             -0.122998595058577E+02
             -0.129004941490019E+02
             -0.133463614815419E+02
              0.191108977277931E+01
              0.191753126662320E+01
             -0.173710508648131E+01
              0.146243754651802E+01
              0.164245435658537E+02
             -0.657951303020101E+01
             -0.420575438321325E+01
              0.842776551609359E+01
             -0.379627015799190E+02
              0.199082768918233E+02
             -0.691628895239182E+01
             -0.204099226287388E+01
             -0.270433875503927E+01
              0.445921221978836E-01
             -0.197922155236839E+01
              0.298035015681271E+02
             -0.817557439778506E+01
             -0.304908023752617E+01
             -0.199403513640770E+02
              0.240618265361185E+02
             -0.212501959137950E+01
             -0.144640412919854E+02
              0.686998703426300E+01
             -0.824523680649605E+00
              0.995845581323439E+01
              0.822986683171578E+00
              0.175259198930178E-02
              0.127895133554648E+02
             -0.345106146985959E+02
              0.183429458661601E+02
              0.444818113893918E+01
             -0.364552965464347E+01
             -0.111194774260154E+02
              0.400150496970490E+01
             -0.588793817717425E+01
              0.173837171965388E+02
              0.120442437553882E+02
             -0.660996906696053E+01
             -0.114488694339989E+02
             -0.111227373672806E+02
             -0.123472649862470E+02
              0.662577938233065E+01
             -0.183386964637805E+02
              0.538690524244890E+01
              0.211474451640032E+02
              0.259871393351650E+02
              0.104967681915579E+02
              0.545342533044300E+01
              0.108776245463702E+02
[...]
             -0.260448171802605E+02
              0.814936203641537E+00
              0.316064427325861E+00
             -0.389909732834528E+01
              0.169210858856830E+01
             -0.223319066320321E+02
             -0.367533712067522E+01
              0.396732583022319E+01
              0.431094124244619E+01
              0.174724833353921E+02
             -0.151585174532165E+02
              0.181026305929273E+02
             -0.135066774880485E+02
              0.909139841895269E+01
              0.149968085877364E+02

 BEEF-vdW xc energy contributions
            1 :    -255.5969439167663
            2 :     225.1404185368134
            3 :    -172.7306053659760
            4 :     112.1208649380810
            5 :    -57.26247323087227
            6 :     17.65006416942606
            7 :     4.049209246577789
            8 :    -11.36445703651549
            9 :     11.07825022878217
           10 :    -9.612340316371615
           11 :     10.45211907647911
           12 :    -13.56692316176043
           13 :     16.67311748987800
           14 :    -17.31817175444502
           15 :     14.54332433529885
           16 :    -9.331944763033789
           17 :     3.839108842082396
           18 :   -5.8321305255333300E-002
           19 :    -1.221479617413536
           20 :    0.6197005824614052
           21 :    0.4568720447439318
           22 :   -0.7755054195342836
           23 :   -2.8740438882891794E-002
           24 :     1.390651041596641
           25 :    -2.325859784594115
           26 :     2.126879676718204
           27 :   -0.7983652025696415
           28 :   -0.9994717304679170
           29 :     2.404398303023299
           30 :    -2.878471920395327
           31 :    -33.47201623129070
           32 :    -24.20518460082167

     Writing all to output data dir ./diamond.save/

     General routines

     Parallel routines

     PAW routines

   This run was terminated on:  21:17:54  17Mar2024

   JOB DONE.