     Program PWSCF v.7.1 starts on 21Feb2024 at  8:36: 8

     Reading input from espresso.pwi

     Current dimensions of program PWSCF are:
     Max number of different atomic species (ntypx) = 10
     Max number of k-points (npk) =  40000
     Max angular momentum in pseudopotentials (lmaxx) =  4
     file Ga.pbe-dn-kjpaw_psl.1.0.0.UPF: wavefunction(s)  4S renormalized
     file N.pbe-n-kjpaw_psl.1.0.0.UPF: wavefunction(s)  2S renormalized

     IMPORTANT: XC functional enforced from input :
     Exchange-correlation= BEEF-VDW
                           (   1   4  43  14   2   0   0)
     Any further DFT definition will be discarded
     Please, verify this is what you really want

     K-points division:     npool     =       4
     R & G space division:  proc/nbgrp/npool/nimage =      32
     Subspace diagonalization in iterative solution of the eigenvalue problem:
     a serial algorithm will be used

     Using Slab Decomposition

     bravais-lattice index     =            4
     lattice parameter (alat)  =       6.0689  a.u.
     unit-cell volume          =     624.2817 (a.u.)^3
     number of atoms/cell      =            8
     number of atomic types    =            2
     number of electrons       =        72.00
     number of Kohn-Sham states=           43
     kinetic-energy cutoff     =      70.0000  Ry
     charge density cutoff     =     350.0000  Ry
     scf convergence threshold =      1.0E-07
     mixing beta               =       0.7000
     number of iterations used =            8  plain     mixing
     energy convergence thresh.=      1.0E-04
     force convergence thresh. =      1.0E-03
     press convergence thresh. =      5.0E-01
     Exchange-correlation= BEEF-VDW
                           (   1   4  43  14   2   0   0)
     nstep                     =           50

     celldm(1)=   6.068927  celldm(2)=   0.000000  celldm(3)=   3.224885
     celldm(4)=   0.000000  celldm(5)=   0.000000  celldm(6)=   0.000000

     crystal axes: (cart. coord. in units of alat)
               a(1) = (   1.000000   0.000000   0.000000 )
               a(2) = (  -0.500000   0.866025   0.000000 )
               a(3) = (   0.000000   0.000000   3.224885 )

     reciprocal axes: (cart. coord. in units 2 pi/alat)
               b(1) = (  1.000000  0.577350 -0.000000 )
               b(2) = (  0.000000  1.154701  0.000000 )
               b(3) = (  0.000000 -0.000000  0.310089 )

     PseudoPot. # 1 for Ga read from file:
     /trace/group/acmegroup/atimmins/packages/espresso/pseudo/psl_1.0.0/pslibrary.1.0.0/pbe/PSEUDOPOTENTIALS/Ga.pbe-dn-kjpaw_psl.1.0.0.UPF
     MD5 check sum: cd2a01e492f15b435d17032472d8505c
     Pseudo is Projector augmented-wave + core cor, Zval = 13.0
     Generated using 'atomic' code by A. Dal Corso  v.7.1
     Shape of augmentation charge: PSQ
     Using radial grid of 1205 points,  6 beta functions with:
                l(1) =   0
                l(2) =   0
                l(3) =   1
                l(4) =   1
                l(5) =   2
                l(6) =   2
     Q(r) pseudized with 0 coefficients

     PseudoPot. # 2 for N  read from file:
     /trace/group/acmegroup/atimmins/packages/espresso/pseudo/psl_1.0.0/pslibrary.1.0.0/pbe/PSEUDOPOTENTIALS/N.pbe-n-kjpaw_psl.1.0.0.UPF
     MD5 check sum: f77f775694dac7e2c3fe1c82443d1a16
     Pseudo is Projector augmented-wave + core cor, Zval =  5.0
     Generated using 'atomic' code by A. Dal Corso  v.7.1
     Shape of augmentation charge: PSQ
     Using radial grid of 1085 points,  4 beta functions with:
                l(1) =   0
                l(2) =   0
                l(3) =   1
                l(4) =   1
     Q(r) pseudized with 0 coefficients

     atomic species   valence    mass     pseudopotential
        Ga            13.00    69.72300     Ga( 1.00)
        N              5.00    14.00700     N ( 1.00)

     12 Sym. Ops. (no inversion) found ( 6 have fractional translation)

                                    s                        frac. trans.

      isym =  1     identity

 cryst.   s( 1) = (     1          0          0      )
                  (     0          1          0      )
                  (     0          0          1      )

 cart.    s( 1) = (  1.0000000  0.0000000  0.0000000 )
                  (  0.0000000  1.0000000  0.0000000 )
                  (  0.0000000  0.0000000  1.0000000 )

      isym =  2     180 deg rotation - cart. axis [0,0,1]

 cryst.   s( 2) = (    -1          0          0      )    f =(  0.0000000 )
                  (     0         -1          0      )       (  0.0000000 )
                  (     0          0          1      )       (  0.5000000 )

 cart.    s( 2) = ( -1.0000000  0.0000000  0.0000000 )    f =(  0.0000000 )
                  (  0.0000000 -1.0000000  0.0000000 )       (  0.0000000 )
                  (  0.0000000  0.0000000  1.0000000 )       (  1.6124424 )

      isym =  3      60 deg rotation - cryst. axis [0,0,1]

[...]

      isym =  7     inv. 180 deg rotation - cart. axis [0,1,0]

[...]

      isym =  9     inv. 180 deg rotation - cryst. axis [1,-1,0]

[...]

 cryst.   s(10) = (    -1         -1          0      )    f =(  0.0000000 )
                  (     0          1          0      )       (  0.0000000 )
                  (     0          0          1      )       (  0.5000000 )

 cart.    s(10) = ( -0.5000000 -0.8660254  0.0000000 )    f =(  0.0000000 )
                  ( -0.8660254  0.5000000  0.0000000 )       (  0.0000000 )
                  (  0.0000000  0.0000000  1.0000000 )       (  1.6124424 )

[...]

 cryst.   s(11) = (     1          1          0      )
                  (     0         -1          0      )
                  (     0          0          1      )

 cart.    s(11) = (  0.5000000  0.8660254  0.0000000 )
                  (  0.8660254 -0.5000000  0.0000000 )
                  (  0.0000000  0.0000000  1.0000000 )

[...]

     point group C_6v (6mm)
     there are  6 classes
     the character table:

       E     2C6   2C3   C2    3s_v  3s_d
A_1    1.00  1.00  1.00  1.00  1.00  1.00
A_2    1.00  1.00  1.00  1.00 -1.00 -1.00
B_1    1.00 -1.00  1.00 -1.00  1.00 -1.00
B_2    1.00 -1.00  1.00 -1.00 -1.00  1.00
E_1    2.00  1.00 -1.00 -2.00  0.00  0.00
E_2    2.00 -1.00 -1.00  2.00  0.00  0.00

     the symmetry operations in each class and the name of the first element:

     E        1
          identity
     2C6      3    4
           60 deg rotation - cryst. axis [0,0,1]
     2C3      5    6
          120 deg rotation - cryst. axis [0,0,1]
     C2       2
          180 deg rotation - cart. axis [0,0,1]
     3s_v     8   12   11
          inv. 180 deg rotation - cart. axis [1,0,0]
     3s_d     7    9   10
          inv. 180 deg rotation - cart. axis [0,1,0]

   Cartesian axes

     site n.     atom                  positions (alat units)
         1           Ga  tau(   1) = (   0.0000000   0.0000000   0.9218914  )
         2           Ga  tau(   2) = (  -0.0000005   0.5773505   1.7328886  )
         3           Ga  tau(   3) = (   0.5000005   0.2886748   0.1204462  )
         4           Ga  tau(   4) = (   0.0000000   0.0000000   2.5343337  )
         5           N   tau(   5) = (  -0.0000005   0.5773505   2.7209804  )
         6           N   tau(   6) = (   0.0000000   0.0000000   1.9124792  )
         7           N   tau(   7) = (   0.5000005   0.2886748   1.1085380  )
         8           N   tau(   8) = (   0.0000000   0.0000000   0.3000368  )

   Crystallographic axes

     site n.     atom                  positions (cryst. coord.)
         1           Ga  tau(   1) = (  0.0000000  0.0000000  0.2858680  )
         2           Ga  tau(   2) = (  0.3333329  0.6666669  0.5373490  )
         3           Ga  tau(   3) = (  0.6666670  0.3333329  0.0373490  )
         4           Ga  tau(   4) = (  0.0000000  0.0000000  0.7858680  )
         5           N   tau(   5) = (  0.3333329  0.6666669  0.8437450  )
         6           N   tau(   6) = (  0.0000000  0.0000000  0.5930380  )
         7           N   tau(   7) = (  0.6666670  0.3333329  0.3437450  )
         8           N   tau(   8) = (  0.0000000  0.0000000  0.0930380  )

     number of k points=    14  Gaussian smearing, width (Ry)=  0.0100
                       cart. coord. in units 2pi/alat
        k(    1) = (   0.0000000   0.0000000   0.0000000), wk =   0.0277778
        k(    2) = (   0.0000000   0.0000000  -0.1550443), wk =   0.0277778
        k(    3) = (   0.0000000   0.1924501   0.0000000), wk =   0.1666667
        k(    4) = (   0.0000000   0.1924501  -0.1550443), wk =   0.1666667
        k(    5) = (   0.0000000   0.3849002   0.0000000), wk =   0.1666667
        k(    6) = (   0.0000000   0.3849002  -0.1550443), wk =   0.1666667
        k(    7) = (   0.0000000  -0.5773503   0.0000000), wk =   0.0833333
        k(    8) = (   0.0000000  -0.5773503  -0.1550443), wk =   0.0833333
        k(    9) = (   0.1666667   0.2886751   0.0000000), wk =   0.1666667
        k(   10) = (   0.1666667   0.2886751  -0.1550443), wk =   0.1666667
        k(   11) = (   0.1666667   0.4811252   0.0000000), wk =   0.3333333
        k(   12) = (   0.1666667   0.4811252  -0.1550443), wk =   0.3333333
        k(   13) = (   0.3333333   0.5773503   0.0000000), wk =   0.0555556
        k(   14) = (   0.3333333   0.5773503  -0.1550443), wk =   0.0555556

                       cryst. coord.
        k(    1) = (   0.0000000   0.0000000   0.0000000), wk =   0.0277778
        k(    2) = (   0.0000000   0.0000000  -0.5000000), wk =   0.0277778
        k(    3) = (   0.0000000   0.1666667   0.0000000), wk =   0.1666667
        k(    4) = (   0.0000000   0.1666667  -0.5000000), wk =   0.1666667
        k(    5) = (   0.0000000   0.3333333   0.0000000), wk =   0.1666667
        k(    6) = (   0.0000000   0.3333333  -0.5000000), wk =   0.1666667
        k(    7) = (   0.0000000  -0.5000000   0.0000000), wk =   0.0833333
        k(    8) = (   0.0000000  -0.5000000  -0.5000000), wk =   0.0833333
        k(    9) = (   0.1666667   0.1666667   0.0000000), wk =   0.1666667
        k(   10) = (   0.1666667   0.1666667  -0.5000000), wk =   0.1666667
        k(   11) = (   0.1666667   0.3333333   0.0000000), wk =   0.3333333
        k(   12) = (   0.1666667   0.3333333  -0.5000000), wk =   0.3333333
        k(   13) = (   0.3333333   0.3333333   0.0000000), wk =   0.0555556
        k(   14) = (   0.3333333   0.3333333  -0.5000000), wk =   0.0555556

     Check: negative core charge=   -0.000003

     Initial potential from superposition of free atoms

     starting charge      71.9882, renormalised to      72.0000

     %%%%%%%%%%%%%%%%%%%%%%%%%%%%%%%%%%%%%%%%%%%%%%%%%%%%%%%%%%%%%%%%%%%%%%%%
     %                                                                      %
     % You are using vdW-DF, which was implemented by the Thonhauser group. %
     % Please cite the following two papers that made this development      %
     % possible and the two reviews that describe the various versions:     %
     %                                                                      %
     %   T. Thonhauser et al., PRL 115, 136402 (2015).                      %
[...]

[...]

      isym =  2     180 deg rotation - cart. axis [0,0,1]

[...]

      isym =  6     120 deg rotation - cryst. axis [0,0,-1]

[...]

      isym =  8     inv. 180 deg rotation - cart. axis [1,0,0]

 cryst.   s( 8) = (    -1          0          0      )
                  (     1          1          0      )
                  (     0          0          1      )

 cart.    s( 8) = ( -1.0000000  0.0000000  0.0000000 )
                  (  0.0000000  1.0000000  0.0000000 )
                  (  0.0000000  0.0000000  1.0000000 )

[...]

 cryst.   s( 9) = (     0          1          0      )    f =(  0.0000000 )
                  (     1          0          0      )       (  0.0000000 )
                  (     0          0          1      )       (  0.5000000 )

 cart.    s( 9) = ( -0.5000000  0.8660254  0.0000000 )    f =( -0.0000000 )
                  (  0.8660254  0.5000000  0.0000000 )       (  0.0000000 )
                  (  0.0000000  0.0000000  1.0000000 )       (  1.6573818 )

[...]

 cryst.   s(10) = (    -1         -1          0      )    f =(  0.0000000 )
                  (     0          1          0      )       (  0.0000000 )
                  (     0          0          1      )       (  0.5000000 )

 cart.    s(10) = ( -0.5000000 -0.8660254  0.0000000 )    f =( -0.0000000 )
                  ( -0.8660254  0.5000000  0.0000000 )       (  0.0000000 )
                  (  0.0000000  0.0000000  1.0000000 )       (  1.6573818 )

[...]

      isym = 12     inv. 180 deg rotation - cryst. axis [1,1,0]

 cryst.   s(12) = (     0         -1          0      )
                  (    -1          0          0      )
                  (     0          0          1      )

 cart.    s(12) = (  0.5000000 -0.8660254  0.0000000 )
                  ( -0.8660254 -0.5000000  0.0000000 )
                  (  0.0000000  0.0000000  1.0000000 )

     point group C_6v (6mm)
     there are  6 classes
     the character table:

       E     2C6   2C3   C2    3s_v  3s_d
A_1    1.00  1.00  1.00  1.00  1.00  1.00
A_2    1.00  1.00  1.00  1.00 -1.00 -1.00
B_1    1.00 -1.00  1.00 -1.00  1.00 -1.00
B_2    1.00 -1.00  1.00 -1.00 -1.00  1.00
E_1    2.00  1.00 -1.00 -2.00  0.00  0.00
E_2    2.00 -1.00 -1.00  2.00  0.00  0.00

     the symmetry operations in each class and the name of the first element:

     E        1
          identity
     2C6      3    4
           60 deg rotation - cryst. axis [0,0,1]
     2C3      5    6
          120 deg rotation - cryst. axis [0,0,1]
     C2       2
          180 deg rotation - cart. axis [0,0,1]
     3s_v     8   12   11
          inv. 180 deg rotation - cart. axis [1,0,0]
     3s_d     7    9   10
          inv. 180 deg rotation - cart. axis [0,1,0]

   Cartesian axes

     site n.     atom                  positions (alat units)
         1           Ga  tau(   1) = (   0.0000000   0.0000000   0.9418260  )
         2           Ga  tau(   2) = (  -0.0000005   0.5752706   1.7672633  )
         3           Ga  tau(   3) = (   0.4981993   0.2876349   0.1098815  )
         4           Ga  tau(   4) = (  -0.0000000  -0.0000000   2.5992077  )
         5           N   tau(   5) = (  -0.0000005   0.5752706   2.8153132  )
         6           N   tau(   6) = (   0.0000000   0.0000000   1.9669631  )
         7           N   tau(   7) = (   0.4981993   0.2876349   1.1579315  )
         8           N   tau(   8) = (  -0.0000000  -0.0000000   0.3095813  )

   Crystallographic axes

     site n.     atom                  positions (cryst. coord.)
         1           Ga  tau(   1) = (  0.0000000  0.0000000  0.2841307  )
         2           Ga  tau(   2) = (  0.3333329  0.6666669  0.5331491  )
         3           Ga  tau(   3) = (  0.6666670  0.3333329  0.0331491  )
         4           Ga  tau(   4) = ( -0.0000000 -0.0000000  0.7841307  )
         5           N   tau(   5) = (  0.3333329  0.6666669  0.8493255  )
         6           N   tau(   6) = (  0.0000000  0.0000000  0.5933947  )
         7           N   tau(   7) = (  0.6666670  0.3333329  0.3493255  )
         8           N   tau(   8) = ( -0.0000000 -0.0000000  0.0933947  )

     number of k points=    14  Gaussian smearing, width (Ry)=  0.0100
                       cart. coord. in units 2pi/alat
        k(    1) = (   0.0000000   0.0000000   0.0000000), wk =   0.0277778
        k(    2) = (  -0.0000000   0.0000000  -0.1508403), wk =   0.0277778
        k(    3) = (   0.0000000   0.1931459  -0.0000000), wk =   0.1666667
        k(    4) = (   0.0000000   0.1931459  -0.1508403), wk =   0.1666667
        k(    5) = (   0.0000000   0.3862918  -0.0000000), wk =   0.1666667
        k(    6) = (   0.0000000   0.3862918  -0.1508403), wk =   0.1666667
        k(    7) = (  -0.0000000  -0.5794377   0.0000000), wk =   0.0833333
        k(    8) = (  -0.0000000  -0.5794377  -0.1508403), wk =   0.0833333
        k(    9) = (   0.1672692   0.2897188  -0.0000000), wk =   0.1666667
        k(   10) = (   0.1672692   0.2897188  -0.1508403), wk =   0.1666667
        k(   11) = (   0.1672692   0.4828647  -0.0000000), wk =   0.3333333
        k(   12) = (   0.1672692   0.4828647  -0.1508403), wk =   0.3333333
        k(   13) = (   0.3345385   0.5794377  -0.0000000), wk =   0.0555556
        k(   14) = (   0.3345385   0.5794377  -0.1508403), wk =   0.0555556

                       cryst. coord.
        k(    1) = (   0.0000000   0.0000000   0.0000000), wk =   0.0277778
        k(    2) = (  -0.0000000  -0.0000000  -0.5000000), wk =   0.0277778
        k(    3) = (   0.0000000   0.1666667   0.0000000), wk =   0.1666667
        k(    4) = (   0.0000000   0.1666667  -0.5000000), wk =   0.1666667
        k(    5) = (   0.0000000   0.3333333   0.0000000), wk =   0.1666667
        k(    6) = (   0.0000000   0.3333333  -0.5000000), wk =   0.1666667
        k(    7) = (   0.0000000  -0.5000000  -0.0000000), wk =   0.0833333
        k(    8) = (   0.0000000  -0.5000000  -0.5000000), wk =   0.0833333
        k(    9) = (   0.1666667   0.1666667   0.0000000), wk =   0.1666667
        k(   10) = (   0.1666667   0.1666667  -0.5000000), wk =   0.1666667
        k(   11) = (   0.1666667   0.3333333   0.0000000), wk =   0.3333333
        k(   12) = (   0.1666667   0.3333333  -0.5000000), wk =   0.3333333
        k(   13) = (   0.3333333   0.3333333   0.0000000), wk =   0.0555556
        k(   14) = (   0.3333333   0.3333333  -0.5000000), wk =   0.0555556

     Check: negative core charge=   -0.000003

     Initial potential from superposition of free atoms

     starting charge      71.9882, renormalised to      72.0000

[...]

     Starting wfcs are   52 randomized atomic wfcs
     Checking if some PAW data can be deallocated...

     Self-consistent Calculation

[...]

     c_bands:  1 eigenvalues not converged
     ethr =  1.00E-06,  avg # of iterations = 16.3

[...]

     total energy              =   -1248.99523363 Ry
     estimated scf accuracy    <          5.9E-09 Ry

     iteration # 16     ecut=    70.00 Ry     beta= 0.70
     Davidson diagonalization with overlap

     ethr =  8.20E-12,  avg # of iterations =  4.9

[...]

     End of self-consistent calculation

[...]

          k =-0.0000-0.5794-0.1508 (  6332 PWs)   bands (ev):

[...]

          k = 0.3345 0.5794-0.1508 (  6300 PWs)   bands (ev):

    -6.3674  -6.3674  -5.7113  -5.7113  -5.3276  -5.3276  -5.3050  -5.3050
    -5.2601  -5.2601  -5.1421  -5.1421  -4.7543  -4.7543  -4.7467  -4.7467
    -4.6693  -4.6693  -4.6326  -4.6326  -2.9204  -2.9204  -2.3559  -2.3559
     3.0957   3.0957   3.5601   3.5601   4.6611   4.6611   5.5578   5.5578
     6.9472   6.9472   8.4211   8.4211  12.4530  12.4530  15.7492  15.7492
    16.2708  16.2708  17.4178

     occupation numbers
     1.0000   1.0000   1.0000   1.0000   1.0000   1.0000   1.0000   1.0000
     1.0000   1.0000   1.0000   1.0000   1.0000   1.0000   1.0000   1.0000
     1.0000   1.0000   1.0000   1.0000   1.0000   1.0000   1.0000   1.0000
     1.0000   1.0000   1.0000   1.0000   1.0000   1.0000   1.0000   1.0000
     1.0000   1.0000   1.0000   1.0000   0.0000   0.0000   0.0000   0.0000
     0.0000   0.0000   0.0000

     the Fermi energy is     9.7672 ev

!    total energy              =   -1248.99523363 Ry
     total all-electron energy =    -16014.849071 Ry
     estimated scf accuracy    <          3.2E-10 Ry
     smearing contrib. (-TS)   =      -0.00000008 Ry
     internal energy E=F+TS    =   -1248.99523355 Ry

     The total energy is F=E-TS. E is the sum of the following terms:
     one-electron contribution =    -360.62980582 Ry
     hartree contribution      =     256.57466007 Ry
     xc contribution           =    -181.93370469 Ry
     ewald contribution        =    -466.03335835 Ry
     one-center paw contrib.   =    -496.97302475 Ry
      -> PAW hartree energy AE =     144.88462376 Ry
      -> PAW hartree energy PS =    -143.50804573 Ry
      -> PAW xc energy AE      =    -156.96570947 Ry
      -> PAW xc energy PS      =      39.75913091 Ry
      -> total E_H with PAW    =     257.95123809 Ry
      -> total E_XC with PAW   =    -299.14028325 Ry

     convergence has been achieved in  16 iterations

[...]

     Forces acting on atoms (cartesian axes, Ry/au):

     atom    1 type  1   force =    -0.00000000   -0.00000000   -0.00009428
     atom    2 type  1   force =     0.00000000    0.00000000    0.00039889
     atom    3 type  1   force =     0.00000000    0.00000000    0.00039889
     atom    4 type  1   force =     0.00000000    0.00000000   -0.00009428
     atom    5 type  2   force =     0.00000000   -0.00000000    0.00035552
     atom    6 type  2   force =     0.00000000    0.00000000   -0.00066014
     atom    7 type  2   force =    -0.00000000   -0.00000000    0.00035552
     atom    8 type  2   force =    -0.00000000    0.00000000   -0.00066014
     The non-local contrib.  to forces
     atom    1 type  1   force =     0.00000000   -0.00000000   -0.14298740
     atom    2 type  1   force =    -0.00000000   -0.00000000   -0.64612583
     atom    3 type  1   force =     0.00000000    0.00000000   -0.64612583
     atom    4 type  1   force =    -0.00000000   -0.00000000   -0.14298740
     atom    5 type  2   force =    -0.00000000   -0.00000000   -0.46942098
     atom    6 type  2   force =    -0.00000000    0.00000000   -0.07275335
     atom    7 type  2   force =    -0.00000000   -0.00000000   -0.46942098
     atom    8 type  2   force =     0.00000000    0.00000000   -0.07275335
     The ionic contribution  to forces
     atom    1 type  1   force =     0.00001330   -0.00000940   -1.42777093
     atom    2 type  1   force =     0.00001889   -0.00000741   -2.29479012
     atom    3 type  1   force =    -0.00001882    0.00001243   -2.29479176
     atom    4 type  1   force =    -0.00001338    0.00000463   -1.42776919
     atom    5 type  2   force =     0.00001663   -0.00000657    2.72082545
     atom    6 type  2   force =    -0.00001420    0.00000517    1.00173619
     atom    7 type  2   force =    -0.00001656    0.00001089    2.72082486
     atom    8 type  2   force =     0.00001413   -0.00000974    1.00173550
     The local contribution  to forces
     atom    1 type  1   force =    -0.00000000    0.00000000    1.56978465
     atom    2 type  1   force =     0.00054139   -0.00019870    2.93005624
     atom    3 type  1   force =    -0.00053878    0.00036950    2.93004725
     atom    4 type  1   force =    -0.00000000   -0.00000000    1.56979346
     atom    5 type  2   force =     0.00004022   -0.00001476   -2.25848951
     atom    6 type  2   force =     0.00000000   -0.00000000   -0.93064675
     atom    7 type  2   force =    -0.00004002    0.00002745   -2.25849034
     atom    8 type  2   force =     0.00000000    0.00000000   -0.93064749
     The core correction contribution to forces
     atom    1 type  1   force =    -0.00000000    0.00000000    0.00099883
     atom    2 type  1   force =     0.00004065   -0.00001492    0.01138923
     atom    3 type  1   force =    -0.00004045    0.00002774    0.01138858
     atom    4 type  1   force =     0.00000000   -0.00000000    0.00099948
     atom    5 type  2   force =    -0.00000117    0.00000043    0.00756548
     atom    6 type  2   force =     0.00000000   -0.00000000    0.00112731
     atom    7 type  2   force =     0.00000117   -0.00000080    0.00756550
     atom    8 type  2   force =    -0.00000000    0.00000000    0.00112733
     The Hubbard contrib.    to forces
     atom    1 type  1   force =     0.00000000    0.00000000    0.00000000
     atom    2 type  1   force =     0.00000000    0.00000000    0.00000000
     atom    3 type  1   force =     0.00000000    0.00000000    0.00000000
     atom    4 type  1   force =     0.00000000    0.00000000    0.00000000
     atom    5 type  2   force =     0.00000000    0.00000000    0.00000000
     atom    6 type  2   force =     0.00000000    0.00000000    0.00000000
     atom    7 type  2   force =     0.00000000    0.00000000    0.00000000
     atom    8 type  2   force =     0.00000000    0.00000000    0.00000000
     The SCF correction term to forces
     atom    1 type  1   force =     0.00000000   -0.00000000   -0.00000143
     atom    2 type  1   force =    -0.00000000    0.00000000   -0.00000140
     atom    3 type  1   force =     0.00000000   -0.00000000   -0.00000140
     atom    4 type  1   force =    -0.00000000    0.00000000   -0.00000143
     atom    5 type  2   force =     0.00000000   -0.00000000   -0.00000061
     atom    6 type  2   force =    -0.00000000    0.00000000    0.00000077
     atom    7 type  2   force =    -0.00000000    0.00000000   -0.00000061
     atom    8 type  2   force =     0.00000000   -0.00000000    0.00000077

     Total force =     0.001208     Total SCF correction =     0.000003

     Computing stress (Cartesian axis) and pressure

     Non-local corr. energy    =       2.16756766 Ry

          total   stress  (Ry/bohr**3)                   (kbar)     P=        0.25
  -0.00000303   0.00000000   0.00000000           -0.45        0.00        0.00
   0.00000000  -0.00000303   0.00000000            0.00       -0.45        0.00
   0.00000000   0.00000000   0.00001110            0.00        0.00        1.63

     kinetic stress (kbar)  18789.64     -0.00      0.00
                               -0.00  18789.64     -0.00
                                0.00     -0.00  18644.80

     local   stress (kbar)   2589.63      0.03     -0.00
                                0.03   2589.66     -0.00
                               -0.00     -0.00  13208.33

     nonloc. stress (kbar)     99.14     -0.00      0.00
                               -0.00     99.14      0.00
                                0.00     -0.00    279.01

     hartree stress (kbar)  21050.16      0.00      0.00
                                0.00  21050.16      0.00
                                0.00      0.00  17145.41

     exc-cor stress (kbar)   5349.91     -0.00     -0.00
                               -0.00   5349.91     -0.00
                               -0.00     -0.00   5318.30

     corecor stress (kbar) -14412.53      0.00     -0.00
                                0.00 -14412.53     -0.00
                               -0.00     -0.00 -14407.99

     ewald   stress (kbar) -33627.33     -0.04      0.00
                               -0.04 -33627.37      0.00
                                0.00      0.00 -40357.22

     hubbard stress (kbar)      0.00      0.00      0.00
                                0.00      0.00      0.00
                                0.00      0.00      0.00

     DFT-D   stress (kbar)      0.00      0.00      0.00
                                0.00      0.00      0.00
                                0.00      0.00      0.00

     XDM     stress (kbar)      0.00      0.00      0.00
                                0.00      0.00      0.00
                                0.00      0.00      0.00

     dft-nl  stress (kbar)    160.94      0.00      0.00
                                0.00    160.94      0.00
                                0.00      0.00    170.99

     TS-vdW  stress (kbar)      0.00      0.00      0.00
                                0.00      0.00      0.00
                                0.00      0.00      0.00

     MDB     stress (kbar)      0.00      0.00      0.00
                                0.00      0.00      0.00
                                0.00      0.00      0.00

     3D-RISM stress (kbar)      0.00      0.00      0.00
                                0.00      0.00      0.00
                                0.00      0.00      0.00

     Writing all to output data dir ./PbI2.save/

     General routines

     Parallel routines

     PAW routines

   This run was terminated on:   8:37:43  21Feb2024

   JOB DONE.