     Program PWSCF v.7.2 starts on 17Mar2024 at 21: 7:39

     Reading input from espresso.pwi
Warning: card &CELL ignored
Warning: card    CELL_DYNAMICS    = 'BFGS' ignored
Warning: card / ignored

     Current dimensions of program PWSCF are:
     Max number of different atomic species (ntypx) = 10
     Max number of k-points (npk) =  40000
     Max angular momentum in pseudopotentials (lmaxx) =  4
     file C.pbe-n-kjpaw_psl.1.0.0.UPF: wavefunction(s)  2S 2P renormalized

     IMPORTANT: XC functional enforced from input :
     Exchange-correlation= BEEF-VDW
                           (   1   4  43  14   2   0   0)
     Any further DFT definition will be discarded
     Please, verify this is what you really want

     K-points division:     npool     =       4
     R & G space division:  proc/nbgrp/npool/nimage =      32
     Subspace diagonalization in iterative solution of the eigenvalue problem:
     a serial algorithm will be used

     Using Slab Decomposition

     bravais-lattice index     =            1
     lattice parameter (alat)  =      13.5013  a.u.
     unit-cell volume          =    2461.1121 (a.u.)^3
     number of atoms/cell      =           63
     number of atomic types    =            1
     number of electrons       =       250.00
     number of Kohn-Sham states=          150
     kinetic-energy cutoff     =      70.0000  Ry
     charge density cutoff     =     350.0000  Ry
     scf convergence threshold =      1.0E-07
     mixing beta               =       0.7000
     number of iterations used =            8  plain     mixing
     energy convergence thresh.=      1.0E-04
     force convergence thresh. =      1.0E-03
     Exchange-correlation= BEEF-VDW
                           (   1   4  43  14   2   0   0)
     nstep                     =           50

     celldm(1)=  13.501348  celldm(2)=   0.000000  celldm(3)=   0.000000
     celldm(4)=   0.000000  celldm(5)=   0.000000  celldm(6)=   0.000000

     crystal axes: (cart. coord. in units of alat)
               a(1) = (   1.000000   0.000000   0.000000 )
               a(2) = (   0.000000   1.000000   0.000000 )
               a(3) = (   0.000000   0.000000   1.000000 )

     reciprocal axes: (cart. coord. in units 2 pi/alat)
               b(1) = (  1.000000  0.000000  0.000000 )
               b(2) = (  0.000000  1.000000  0.000000 )
               b(3) = (  0.000000  0.000000  1.000000 )

     PseudoPot. # 1 for C  read from file:
     /trace/group/acmegroup/atimmins/packages/espresso/pseudo/psl_1.0.0/pslibrary.1.0.0/pbe/PSEUDOPOTENTIALS/C.pbe-n-kjpaw_psl.1.0.0.UPF
     MD5 check sum: 5459cf7f2c8c37df2f7cde8914797f4d
     Pseudo is Projector augmented-wave + core cor, Zval =  4.0
     Generated using 'atomic' code by A. Dal Corso  v.7.1
     Shape of augmentation charge: PSQ
     Using radial grid of 1073 points,  4 beta functions with:
                l(1) =   0
                l(2) =   0
                l(3) =   1
                l(4) =   1
     Q(r) pseudized with 0 coefficients

     atomic species   valence    mass     pseudopotential
        C              4.00    12.01100     C ( 1.00)

      6 Sym. Ops. (no inversion) found ( 4 have fractional translation)

                                    s                        frac. trans.

      isym =  1     identity

 cryst.   s( 1) = (     1          0          0      )
                  (     0          1          0      )
                  (     0          0          1      )

 cart.    s( 1) = (  1.0000000  0.0000000  0.0000000 )
                  (  0.0000000  1.0000000  0.0000000 )
                  (  0.0000000  0.0000000  1.0000000 )

      isym =  2     120 deg rotation - cart. axis [1,-1,1]

 cryst.   s( 2) = (     0          0          1      )    f =( -0.5000000 )
                  (    -1          0          0      )       ( -0.5000000 )
                  (     0         -1          0      )       (  0.0000000 )

 cart.    s( 2) = (  0.0000000 -1.0000000  0.0000000 )    f =( -0.5000000 )
                  (  0.0000000  0.0000000 -1.0000000 )       ( -0.5000000 )
                  (  1.0000000  0.0000000  0.0000000 )       (  0.0000000 )

      isym =  3     120 deg rotation - cart. axis [-1,1,-1]

[...]

      isym =  4     inv. 180 deg rotation - cart. axis [1,1,0]

[...]

 cryst.   s( 5) = (     0          0          1      )
                  (     0          1          0      )
                  (     1          0          0      )

 cart.    s( 5) = (  0.0000000  0.0000000  1.0000000 )
                  (  0.0000000  1.0000000  0.0000000 )
                  (  1.0000000  0.0000000  0.0000000 )

      isym =  6     inv. 180 deg rotation - cart. axis [0,1,1]

 cryst.   s( 6) = (     1          0          0      )    f =(  0.0000000 )
                  (     0          0         -1      )       ( -0.5000000 )
                  (     0         -1          0      )       ( -0.5000000 )

 cart.    s( 6) = (  1.0000000  0.0000000  0.0000000 )    f =(  0.0000000 )
                  (  0.0000000  0.0000000 -1.0000000 )       ( -0.5000000 )
                  (  0.0000000 -1.0000000  0.0000000 )       ( -0.5000000 )

     point group C_3v (3m)
     there are  3 classes
     the character table:

       E     2C3   3s_v
A_1    1.00  1.00  1.00
A_2    1.00  1.00 -1.00
E      2.00 -1.00  0.00

     the symmetry operations in each class and the name of the first element:

     E        1
          identity
     2C3      2    3
          120 deg rotation - cart. axis [1,-1,1]
     3s_v     4    5    6
          inv. 180 deg rotation - cart. axis [1,1,0]

   Cartesian axes

     site n.     atom                  positions (alat units)
         1           C   tau(   1) = (   0.1250031   0.3749969   0.6250031  )
         2           C   tau(   2) = (   0.1250031   0.8749969   0.1250031  )
         3           C   tau(   3) = (   0.1250031   0.8749969   0.6250031  )
         4           C   tau(   4) = (   0.6250031   0.3749969   0.1250031  )
         5           C   tau(   5) = (   0.6250031   0.3749969   0.6250031  )
         6           C   tau(   6) = (   0.6250031   0.8749969   0.1250031  )
         7           C   tau(   7) = (   0.6250031   0.8749969   0.6250031  )
         8           C   tau(   8) = (   0.0000000   0.0000000   0.2500000  )
         9           C   tau(   9) = (   0.0000000   0.0000000   0.7500000  )
        10           C   tau(  10) = (   0.0000000   0.5000000   0.2500000  )
        11           C   tau(  11) = (   0.0000000   0.5000000   0.7500000  )
        12           C   tau(  12) = (   0.5000000   0.0000000   0.2500000  )
        13           C   tau(  13) = (   0.5000000   0.0000000   0.7500000  )
        14           C   tau(  14) = (   0.5000000   0.5000000   0.2500000  )
        15           C   tau(  15) = (   0.5000000   0.5000000   0.7500000  )
        16           C   tau(  16) = (   0.1250031   0.1250031   0.3749969  )
        17           C   tau(  17) = (   0.1250031   0.1250031   0.8749969  )
        18           C   tau(  18) = (   0.1250031   0.6250031   0.3749969  )
        19           C   tau(  19) = (   0.1250031   0.6250031   0.8749969  )
        20           C   tau(  20) = (   0.6250031   0.1250031   0.3749969  )
        21           C   tau(  21) = (   0.6250031   0.1250031   0.8749969  )
        22           C   tau(  22) = (   0.6250031   0.6250031   0.3749969  )
        23           C   tau(  23) = (   0.6250031   0.6250031   0.8749969  )
        24           C   tau(  24) = (   0.0000000   0.2500000   0.0000000  )
        25           C   tau(  25) = (   0.0000000   0.2500000   0.5000000  )
        26           C   tau(  26) = (   0.0000000   0.7500000   0.0000000  )
        27           C   tau(  27) = (   0.0000000   0.7500000   0.5000000  )
        28           C   tau(  28) = (   0.5000000   0.2500000   0.0000000  )
        29           C   tau(  29) = (   0.5000000   0.2500000   0.5000000  )
        30           C   tau(  30) = (   0.5000000   0.7500000   0.0000000  )
        31           C   tau(  31) = (   0.5000000   0.7500000   0.5000000  )
        32           C   tau(  32) = (   0.3749969   0.3749969   0.3749969  )
        33           C   tau(  33) = (   0.3749969   0.3749969   0.8749969  )
        34           C   tau(  34) = (   0.3749969   0.8749969   0.3749969  )
        35           C   tau(  35) = (   0.3749969   0.8749969   0.8749969  )
        36           C   tau(  36) = (   0.8749969   0.3749969   0.3749969  )
        37           C   tau(  37) = (   0.8749969   0.3749969   0.8749969  )
        38           C   tau(  38) = (   0.8749969   0.8749969   0.3749969  )
        39           C   tau(  39) = (   0.8749969   0.8749969   0.8749969  )
        40           C   tau(  40) = (   0.2500000   0.0000000   0.0000000  )
        41           C   tau(  41) = (   0.2500000   0.0000000   0.5000000  )
        42           C   tau(  42) = (   0.2500000   0.5000000   0.0000000  )
        43           C   tau(  43) = (   0.2500000   0.5000000   0.5000000  )
        44           C   tau(  44) = (   0.7500000   0.0000000   0.0000000  )
        45           C   tau(  45) = (   0.7500000   0.0000000   0.5000000  )
        46           C   tau(  46) = (   0.7500000   0.5000000   0.0000000  )
        47           C   tau(  47) = (   0.7500000   0.5000000   0.5000000  )
        48           C   tau(  48) = (   0.3749969   0.1250031   0.1250031  )
        49           C   tau(  49) = (   0.3749969   0.1250031   0.6250031  )
        50           C   tau(  50) = (   0.3749969   0.6250031   0.1250031  )
        51           C   tau(  51) = (   0.3749969   0.6250031   0.6250031  )
        52           C   tau(  52) = (   0.8749969   0.1250031   0.1250031  )
        53           C   tau(  53) = (   0.8749969   0.1250031   0.6250031  )
        54           C   tau(  54) = (   0.8749969   0.6250031   0.1250031  )
        55           C   tau(  55) = (   0.8749969   0.6250031   0.6250031  )
        56           C   tau(  56) = (   0.2500000   0.2500000   0.2500000  )
        57           C   tau(  57) = (   0.2500000   0.2500000   0.7500000  )
        58           C   tau(  58) = (   0.2500000   0.7500000   0.2500000  )
        59           C   tau(  59) = (   0.2500000   0.7500000   0.7500000  )
        60           C   tau(  60) = (   0.7500000   0.2500000   0.2500000  )
        61           C   tau(  61) = (   0.7500000   0.2500000   0.7500000  )
        62           C   tau(  62) = (   0.7500000   0.7500000   0.2500000  )
        63           C   tau(  63) = (   0.7500000   0.7500000   0.7500000  )

   Crystallographic axes

     site n.     atom                  positions (cryst. coord.)
         1           C   tau(   1) = (  0.1250031  0.3749969  0.6250031  )
         2           C   tau(   2) = (  0.1250031  0.8749969  0.1250031  )
         3           C   tau(   3) = (  0.1250031  0.8749969  0.6250031  )
         4           C   tau(   4) = (  0.6250031  0.3749969  0.1250031  )
         5           C   tau(   5) = (  0.6250031  0.3749969  0.6250031  )
         6           C   tau(   6) = (  0.6250031  0.8749969  0.1250031  )
[...]
     atom    9 type  1   force =     0.00000000    0.00000000    0.00000000
     atom   10 type  1   force =     0.00000000    0.00000000    0.00000000
     atom   11 type  1   force =     0.00000000    0.00000000    0.00000000
     atom   12 type  1   force =     0.00000000    0.00000000    0.00000000
     atom   13 type  1   force =     0.00000000    0.00000000    0.00000000
     atom   14 type  1   force =     0.00000000    0.00000000    0.00000000
     atom   15 type  1   force =     0.00000000    0.00000000    0.00000000
     atom   16 type  1   force =     0.00000000    0.00000000    0.00000000
     atom   17 type  1   force =     0.00000000    0.00000000    0.00000000
     atom   18 type  1   force =     0.00000000    0.00000000    0.00000000
     atom   19 type  1   force =     0.00000000    0.00000000    0.00000000
     atom   20 type  1   force =     0.00000000    0.00000000    0.00000000
     atom   21 type  1   force =     0.00000000    0.00000000    0.00000000
     atom   22 type  1   force =     0.00000000    0.00000000    0.00000000
     atom   23 type  1   force =     0.00000000    0.00000000    0.00000000
     atom   24 type  1   force =     0.00000000    0.00000000    0.00000000
     atom   25 type  1   force =     0.00000000    0.00000000    0.00000000
     atom   26 type  1   force =     0.00000000    0.00000000    0.00000000
     atom   27 type  1   force =     0.00000000    0.00000000    0.00000000
     atom   28 type  1   force =     0.00000000    0.00000000    0.00000000
     atom   29 type  1   force =     0.00000000    0.00000000    0.00000000
     atom   30 type  1   force =     0.00000000    0.00000000    0.00000000
     atom   31 type  1   force =     0.00000000    0.00000000    0.00000000
     atom   32 type  1   force =     0.00000000    0.00000000    0.00000000
     atom   33 type  1   force =     0.00000000    0.00000000    0.00000000
     atom   34 type  1   force =     0.00000000    0.00000000    0.00000000
     atom   35 type  1   force =     0.00000000    0.00000000    0.00000000
     atom   36 type  1   force =     0.00000000    0.00000000    0.00000000
     atom   37 type  1   force =     0.00000000    0.00000000    0.00000000
     atom   38 type  1   force =     0.00000000    0.00000000    0.00000000
     atom   39 type  1   force =     0.00000000    0.00000000    0.00000000
     atom   40 type  1   force =     0.00000000    0.00000000    0.00000000
     atom   41 type  1   force =     0.00000000    0.00000000    0.00000000
     atom   42 type  1   force =     0.00000000    0.00000000    0.00000000
     atom   43 type  1   force =     0.00000000    0.00000000    0.00000000
     atom   44 type  1   force =     0.00000000    0.00000000    0.00000000
     atom   45 type  1   force =     0.00000000    0.00000000    0.00000000
     atom   46 type  1   force =     0.00000000    0.00000000    0.00000000
     atom   47 type  1   force =     0.00000000    0.00000000    0.00000000
     atom   48 type  1   force =     0.00000000    0.00000000    0.00000000
     atom   49 type  1   force =     0.00000000    0.00000000    0.00000000
     atom   50 type  1   force =     0.00000000    0.00000000    0.00000000
     atom   51 type  1   force =     0.00000000    0.00000000    0.00000000
     atom   52 type  1   force =     0.00000000    0.00000000    0.00000000
     atom   53 type  1   force =     0.00000000    0.00000000    0.00000000
     atom   54 type  1   force =     0.00000000    0.00000000    0.00000000
     atom   55 type  1   force =     0.00000000    0.00000000    0.00000000
     atom   56 type  1   force =     0.00000000    0.00000000    0.00000000
     atom   57 type  1   force =     0.00000000    0.00000000    0.00000000
     atom   58 type  1   force =     0.00000000    0.00000000    0.00000000
     atom   59 type  1   force =     0.00000000    0.00000000    0.00000000
     atom   60 type  1   force =     0.00000000    0.00000000    0.00000000
     atom   61 type  1   force =     0.00000000    0.00000000    0.00000000
     atom   62 type  1   force =     0.00000000    0.00000000    0.00000000
     atom   63 type  1   force =     0.00000000    0.00000000    0.00000000
     The SCF correction term to forces
     atom    1 type  1   force =     0.00000675   -0.00000675   -0.00000850
     atom    2 type  1   force =     0.00000675    0.00000850    0.00000675
     atom    3 type  1   force =     0.00000465    0.00000654   -0.00000654
     atom    4 type  1   force =    -0.00000850   -0.00000675    0.00000675
     atom    5 type  1   force =    -0.00000654   -0.00000465   -0.00000654
     atom    6 type  1   force =    -0.00000654    0.00000654    0.00000465
     atom    7 type  1   force =    -0.00000467    0.00000467   -0.00000467
     atom    8 type  1   force =     0.00001220   -0.00000193    0.00000100
     atom    9 type  1   force =     0.00001083    0.00000582   -0.00000148
     atom   10 type  1   force =    -0.00000038    0.00000038    0.00001072
     atom   11 type  1   force =     0.00000642   -0.00000642   -0.00001338
     atom   12 type  1   force =    -0.00001217    0.00001217   -0.00000413
     atom   13 type  1   force =    -0.00000850    0.00000850    0.00000158
     atom   14 type  1   force =     0.00000193   -0.00001220    0.00000100
     atom   15 type  1   force =    -0.00000582   -0.00001083   -0.00000148
     atom   16 type  1   force =     0.00001337    0.00000061   -0.00000061
     atom   17 type  1   force =     0.00000914   -0.00000576   -0.00000381
     atom   18 type  1   force =     0.00000914    0.00000381    0.00000576
     atom   19 type  1   force =     0.00000113    0.00000596   -0.00000596
     atom   20 type  1   force =    -0.00000844    0.00001189   -0.00001189
     atom   21 type  1   force =    -0.00000759    0.00000925    0.00001109
     atom   22 type  1   force =    -0.00000759   -0.00001109   -0.00000925
     atom   23 type  1   force =    -0.00000287   -0.00000967    0.00000967
     atom   24 type  1   force =    -0.00000038   -0.00001072   -0.00000038
     atom   25 type  1   force =     0.00001220   -0.00000100    0.00000193
     atom   26 type  1   force =     0.00000642    0.00001338    0.00000642
     atom   27 type  1   force =     0.00001083    0.00000148   -0.00000582
     atom   28 type  1   force =     0.00000193   -0.00000100    0.00001220
     atom   29 type  1   force =    -0.00001217    0.00000413   -0.00001217
     atom   30 type  1   force =    -0.00000582    0.00000148    0.00001083
     atom   31 type  1   force =    -0.00000850   -0.00000158   -0.00000850
     atom   32 type  1   force =    -0.00000061   -0.00001337   -0.00000061
     atom   33 type  1   force =     0.00000576   -0.00000914   -0.00000381
     atom   34 type  1   force =    -0.00001189    0.00000844   -0.00001189
     atom   35 type  1   force =    -0.00000925    0.00000759    0.00001109
     atom   36 type  1   force =    -0.00000381   -0.00000914    0.00000576
     atom   37 type  1   force =    -0.00000596   -0.00000113   -0.00000596
     atom   38 type  1   force =     0.00001109    0.00000759   -0.00000925
     atom   39 type  1   force =     0.00000967    0.00000287    0.00000967
     atom   40 type  1   force =     0.00000100   -0.00000193    0.00001220
     atom   41 type  1   force =    -0.00000413    0.00001217   -0.00001217
     atom   42 type  1   force =     0.00001072    0.00000038   -0.00000038
     atom   43 type  1   force =     0.00000100   -0.00001220    0.00000193
     atom   44 type  1   force =    -0.00000148    0.00000582    0.00001083
     atom   45 type  1   force =     0.00000158    0.00000850   -0.00000850
     atom   46 type  1   force =    -0.00001338   -0.00000642    0.00000642
     atom   47 type  1   force =    -0.00000148   -0.00001083   -0.00000582
     atom   48 type  1   force =    -0.00000061    0.00000061    0.00001337
     atom   49 type  1   force =    -0.00001189    0.00001189   -0.00000844
     atom   50 type  1   force =     0.00000576    0.00000381    0.00000914
     atom   51 type  1   force =    -0.00000925   -0.00001109   -0.00000759
     atom   52 type  1   force =    -0.00000381   -0.00000576    0.00000914
     atom   53 type  1   force =     0.00001109    0.00000925   -0.00000759
     atom   54 type  1   force =    -0.00000596    0.00000596    0.00000113
     atom   55 type  1   force =     0.00000967   -0.00000967   -0.00000287
     atom   56 type  1   force =     0.00001039   -0.00001039    0.00001039
     atom   57 type  1   force =     0.00000056   -0.00000056   -0.00001464
     atom   58 type  1   force =     0.00000056    0.00001464    0.00000056
     atom   59 type  1   force =    -0.00000392    0.00000119   -0.00000119
     atom   60 type  1   force =    -0.00001464   -0.00000056    0.00000056
     atom   61 type  1   force =    -0.00000119    0.00000392   -0.00000119
     atom   62 type  1   force =    -0.00000119    0.00000119   -0.00000392
     atom   63 type  1   force =     0.00000160   -0.00000160    0.00000160

     Total force =     0.002595     Total SCF correction =     0.000105

     Computing stress (Cartesian axis) and pressure

     Non-local corr. energy    =       2.16538397 Ry

          total   stress  (Ry/bohr**3)                   (kbar)     P=     -145.70
  -0.00099048  -0.00000009   0.00000009         -145.70       -0.01        0.01
  -0.00000009  -0.00099048  -0.00000009           -0.01     -145.70       -0.01
   0.00000009  -0.00000009  -0.00099048            0.01       -0.01     -145.70

     kinetic stress (kbar)  18469.96      0.00     -0.00
                                0.00  18469.96      0.00
                               -0.00      0.00  18469.96

     local   stress (kbar)  -3830.21      0.24     -0.24
                                0.24  -3830.21      0.24
                               -0.24      0.24  -3830.21

     nonloc. stress (kbar)   4277.56     -0.00      0.00
                               -0.00   4277.56     -0.00
                                0.00     -0.00   4277.56

     hartree stress (kbar)   1394.69     -0.07      0.07
                               -0.07   1394.69     -0.07
                                0.07     -0.07   1394.69

     exc-cor stress (kbar)   -361.74      0.00     -0.00
                                0.00   -361.74      0.00
                               -0.00      0.00   -361.74

     corecor stress (kbar)  -4361.12      0.00     -0.00
                                0.00  -4361.12      0.00
                               -0.00      0.00  -4361.12

     ewald   stress (kbar) -15759.37     -0.19      0.19
                               -0.19 -15759.37     -0.19
                                0.19     -0.19 -15759.37

     hubbard stress (kbar)      0.00      0.00      0.00
                                0.00      0.00      0.00
                                0.00      0.00      0.00

     DFT-D   stress (kbar)      0.00      0.00      0.00
                                0.00      0.00      0.00
                                0.00      0.00      0.00

     XDM     stress (kbar)      0.00      0.00      0.00
                                0.00      0.00      0.00
                                0.00      0.00      0.00

     dft-nl  stress (kbar)     24.53      0.00     -0.00
                                0.00     24.53      0.00
                               -0.00      0.00     24.53

     TS-vdW  stress (kbar)      0.00      0.00      0.00
                                0.00      0.00      0.00
                                0.00      0.00      0.00

     MDB     stress (kbar)      0.00      0.00      0.00
                                0.00      0.00      0.00
                                0.00      0.00      0.00

     3D-RISM stress (kbar)      0.00      0.00      0.00
                                0.00      0.00      0.00
                                0.00      0.00      0.00

     Energy error            =      8.6E-05 Ry
     Gradient error          =      4.2E-04 Ry/Bohr

     bfgs converged in   6 scf cycles and   5 bfgs steps
     (criteria: energy <  1.0E-04 Ry, force <  1.0E-03 Ry/Bohr)

     End of BFGS Geometry Optimization

     Final energy             =   -1198.0603656104 Ry

     File ./diamond.bfgs deleted, as requested
Begin final coordinates

ATOMIC_POSITIONS (angstrom)
C             0.8930954834        2.6792073350        4.4654213501
C             0.8930954834        6.2514871059        0.8930954834
C             0.8930793157        6.2514839210        4.4654245350
C             4.4654213501        2.6792073350        0.8930954834
C             4.4654245350        2.6792235027        4.4654245350
C             4.4654245350        6.2514839210        0.8930793157
C             4.4653716568        6.2515367992        4.4653716568
C             0.0048189751       -0.0006114713        1.7813700815
C            -0.0121203248       -0.0082241925        5.3504244681
C            -0.0890995645        3.6614023833        1.8752362476
C             0.0048587983        3.5674440205        5.3578990626
C             3.5804420229       -0.0081392041        1.7980330535
C             3.5721915889        0.0001112299        5.3584679823
C             3.5729142901        3.5674838437        1.7813700815
C             3.5805270113        3.5844231436        5.3504244681
C             0.8861480294        0.9067414492        2.6655613692
C             0.8998794259        0.9067649481        6.2652678156
C             0.8998794259        4.4516406404        2.6655378703
C             0.8864587586        4.4517824527        6.2651260033
C             4.4679532943        0.8937767326        2.6785260858
C             4.4628374908        0.8936364122        6.2520438791
C             4.4628374908        4.4648645769        2.6786664062
C             4.4680645649        4.4648220583        6.2520863977
C            -0.0890995645        1.6970665708       -0.0890995645
C             0.0048189751        1.7909327369        3.5729142901
C             0.0048587983        5.3590093934        0.0048587983
C            -0.0121203248        5.3664839879        3.5805270113
C             3.5729142901        1.7909327369        0.0048189751
C             3.5804420229        1.7742697649        3.5804420229
C             3.5805270113        5.3664839879       -0.0121203248
C             3.5721915889        5.3584404737        3.5721915889
C             2.6655613692        2.6861547890        2.6655613692
C             2.6655378703        2.6724233925        6.2652678156
C             2.6785260858        6.2489551617        2.6785260858
C             2.6786664062        6.2540709652        6.2520438791
C             6.2652678156        2.6724233925        2.6655378703
C             6.2651260033        2.6858440598        6.2651260033
C             6.2520438791        6.2540709652        2.6786664062
C             6.2520863977        6.2488438911        6.2520863977
C             1.7813700815       -0.0006114713        0.0048189751
C             1.7980330535       -0.0081392041        3.5804420229
C             1.8752362476        3.6614023833       -0.0890995645
C             1.7813700815        3.5674838437        3.5729142901
C             5.3504244681       -0.0082241925       -0.0121203248
C             5.3584679823        0.0001112299        3.5721915889
C             5.3578990626        3.5674440205        0.0048587983
C             5.3504244681        3.5844231436        3.5805270113
C             2.6655613692        0.9067414492        0.8861480294
C             2.6785260858        0.8937767326        4.4679532943
C             2.6655378703        4.4516406404        0.8998794259
C             2.6786664062        4.4648645769        4.4628374908
C             6.2652678156        0.9067649481        0.8998794259
C             6.2520438791        0.8936364122        4.4628374908
C             6.2651260033        4.4517824527        0.8864587586
C             6.2520863977        4.4648220583        4.4680645649
C             1.8753863237        1.6969164947        1.8753863237
C             1.7812164930        1.7910863254        5.3579199520
C             1.7812164930        5.3589885040        1.7812164930
C             1.7984432539        5.3667745715        5.3501338845
C             5.3579199520        1.7910863254        1.7812164930
C             5.3501338845        1.7738595645        5.3501338845
C             5.3501338845        5.3667745715        1.7984432539
C             5.3585163681        5.3583920879        5.3585163681
End final coordinates

     Writing all to output data dir ./diamond.save/

     General routines

     Parallel routines

     PAW routines

   This run was terminated on:  21: 9:57  17Mar2024

   JOB DONE.