     Program PWSCF v.7.1 starts on 20Feb2024 at 15:44:49

     Reading input from espresso.pwi

     Current dimensions of program PWSCF are:
     Max number of different atomic species (ntypx) = 10
     Max number of k-points (npk) =  40000
     Max angular momentum in pseudopotentials (lmaxx) =  4
     file Pb.pbe-dn-kjpaw_psl.1.0.0.UPF: wavefunction(s)  6S 6P 5D renormalized

     IMPORTANT: XC functional enforced from input :
     Exchange-correlation= BEEF-VDW
                           (   1   4  43  14   2   0   0)
     Any further DFT definition will be discarded
     Please, verify this is what you really want

     Found identity + (  0.0000  0.5000  0.5000) symmetry
     This is a supercell, fractional translations are disabled

     K-points division:     npool     =       4
     R & G space division:  proc/nbgrp/npool/nimage =      32
     Subspace diagonalization in iterative solution of the eigenvalue problem:
     a serial algorithm will be used

     Using Slab Decomposition

     bravais-lattice index     =            1
     lattice parameter (alat)  =       9.4288  a.u.
     unit-cell volume          =     838.2434 (a.u.)^3
     number of atoms/cell      =            4
     number of atomic types    =            1
     number of electrons       =        56.00
     number of Kohn-Sham states=           34
     kinetic-energy cutoff     =      70.0000  Ry
     charge density cutoff     =     350.0000  Ry
     scf convergence threshold =      1.0E-07
     mixing beta               =       0.7000
     number of iterations used =            8  plain     mixing
     energy convergence thresh.=      1.0E-04
     force convergence thresh. =      1.0E-03
     press convergence thresh. =      5.0E-01
     Exchange-correlation= BEEF-VDW
                           (   1   4  43  14   2   0   0)
     nstep                     =           50

     celldm(1)=   9.428806  celldm(2)=   0.000000  celldm(3)=   0.000000
     celldm(4)=   0.000000  celldm(5)=   0.000000  celldm(6)=   0.000000

     crystal axes: (cart. coord. in units of alat)
               a(1) = (   1.000000   0.000000   0.000000 )
               a(2) = (   0.000000   1.000000   0.000000 )
               a(3) = (   0.000000   0.000000   1.000000 )

     reciprocal axes: (cart. coord. in units 2 pi/alat)
               b(1) = (  1.000000  0.000000  0.000000 )
               b(2) = (  0.000000  1.000000  0.000000 )
               b(3) = (  0.000000  0.000000  1.000000 )

     PseudoPot. # 1 for Pb read from file:
     /trace/group/acmegroup/atimmins/packages/espresso/pseudo/psl_1.0.0/pslibrary.1.0.0/pbe/PSEUDOPOTENTIALS/Pb.pbe-dn-kjpaw_psl.1.0.0.UPF
     MD5 check sum: 39ab5b8a6bbd56b7735ad9f188aac93a
     Pseudo is Projector augmented-wave + core cor, Zval = 14.0
     Generated using 'atomic' code by A. Dal Corso  v.7.1
     Shape of augmentation charge: PSQ
     Using radial grid of 1281 points,  6 beta functions with:
                l(1) =   0
                l(2) =   0
                l(3) =   1
                l(4) =   1
                l(5) =   2
                l(6) =   2
     Q(r) pseudized with 0 coefficients

     atomic species   valence    mass     pseudopotential
        Pb            14.00   207.20000     Pb( 1.00)

     48 Sym. Ops., with inversion, found

                                    s                        frac. trans.

      isym =  1     identity

 cryst.   s( 1) = (     1          0          0      )
                  (     0          1          0      )
                  (     0          0          1      )

 cart.    s( 1) = (  1.0000000  0.0000000  0.0000000 )
                  (  0.0000000  1.0000000  0.0000000 )
                  (  0.0000000  0.0000000  1.0000000 )

      isym =  2     180 deg rotation - cart. axis [0,0,1]

[...]

 cryst.   s(10) = (     0          0         -1      )
                  (     0         -1          0      )
                  (    -1          0          0      )

 cart.    s(10) = (  0.0000000  0.0000000 -1.0000000 )
                  (  0.0000000 -1.0000000  0.0000000 )
                  ( -1.0000000  0.0000000  0.0000000 )

[...]

      isym = 25     inversion

[...]

      isym = 26     inv. 180 deg rotation - cart. axis [0,0,1]

[...]

     point group O_h (m-3m)
     there are 10 classes
     the character table:

       E     8C3   3C2   6C4   6C2'  i     8S6   3s_h  6S4   6s_d
A_1g   1.00  1.00  1.00  1.00  1.00  1.00  1.00  1.00  1.00  1.00
A_2g   1.00  1.00  1.00 -1.00 -1.00  1.00  1.00  1.00 -1.00 -1.00
E_g    2.00 -1.00  2.00  0.00  0.00  2.00 -1.00  2.00  0.00  0.00
T_1g   3.00  0.00 -1.00  1.00 -1.00  3.00  0.00 -1.00  1.00 -1.00
T_2g   3.00  0.00 -1.00 -1.00  1.00  3.00  0.00 -1.00 -1.00  1.00
A_1u   1.00  1.00  1.00  1.00  1.00 -1.00 -1.00 -1.00 -1.00 -1.00
A_2u   1.00  1.00  1.00 -1.00 -1.00 -1.00 -1.00 -1.00  1.00  1.00
E_u    2.00 -1.00  2.00  0.00  0.00 -2.00  1.00 -2.00  0.00  0.00
T_1u   3.00  0.00 -1.00  1.00 -1.00 -3.00  0.00  1.00 -1.00  1.00
T_2u   3.00  0.00 -1.00 -1.00  1.00 -3.00  0.00  1.00  1.00 -1.00

     the symmetry operations in each class and the name of the first element:

     E        1
          identity
     8C3     17   19   20   18   24   21   22   23
          120 deg rotation - cart. axis [-1,-1,-1]
     3C2      2    4    3
          180 deg rotation - cart. axis [0,0,1]
     6C4      7    8   15   16   12   11
           90 deg rotation - cart. axis [0,0,-1]
     6C2'     5    6   14   13   10    9
          180 deg rotation - cart. axis [1,1,0]
     i       25
          inversion
     8S6     41   43   44   42   48   45   46   47
          inv. 120 deg rotation - cart. axis [-1,-1,-1]
     3s_h    26   28   27
          inv. 180 deg rotation - cart. axis [0,0,1]
     6S4     31   32   39   40   36   35
          inv.  90 deg rotation - cart. axis [0,0,-1]
     6s_d    29   30   38   37   34   33
          inv. 180 deg rotation - cart. axis [1,1,0]

   Cartesian axes

     site n.     atom                  positions (alat units)
         1           Pb  tau(   1) = (   0.0000000   0.0000000   0.0000000  )
         2           Pb  tau(   2) = (   0.0000000   0.5000000   0.5000000  )
         3           Pb  tau(   3) = (   0.5000000   0.0000000   0.5000000  )
         4           Pb  tau(   4) = (   0.5000000   0.5000000   0.0000000  )

   Crystallographic axes

     site n.     atom                  positions (cryst. coord.)
         1           Pb  tau(   1) = (  0.0000000  0.0000000  0.0000000  )
         2           Pb  tau(   2) = (  0.0000000  0.5000000  0.5000000  )
         3           Pb  tau(   3) = (  0.5000000  0.0000000  0.5000000  )
         4           Pb  tau(   4) = (  0.5000000  0.5000000  0.0000000  )

     number of k points=     4  Gaussian smearing, width (Ry)=  0.0100
                       cart. coord. in units 2pi/alat
        k(    1) = (   0.0000000   0.0000000   0.0000000), wk =   0.0740741
        k(    2) = (   0.0000000   0.0000000   0.3333333), wk =   0.4444444
        k(    3) = (   0.0000000   0.3333333   0.3333333), wk =   0.8888889
        k(    4) = (   0.3333333   0.3333333   0.3333333), wk =   0.5925926

                       cryst. coord.
        k(    1) = (   0.0000000   0.0000000   0.0000000), wk =   0.0740741
        k(    2) = (   0.0000000   0.0000000   0.3333333), wk =   0.4444444
        k(    3) = (   0.0000000   0.3333333   0.3333333), wk =   0.8888889
        k(    4) = (   0.3333333   0.3333333   0.3333333), wk =   0.5925926

     Initial potential from superposition of free atoms

     starting charge      55.9906, renormalised to      56.0000

     %%%%%%%%%%%%%%%%%%%%%%%%%%%%%%%%%%%%%%%%%%%%%%%%%%%%%%%%%%%%%%%%%%%%%%%%
     %                                                                      %
     % You are using vdW-DF, which was implemented by the Thonhauser group. %
     % Please cite the following two papers that made this development      %
     % possible and the two reviews that describe the various versions:     %
     %                                                                      %
     %   T. Thonhauser et al., PRL 115, 136402 (2015).                      %
     %   T. Thonhauser et al., PRB 76, 125112 (2007).                       %
     %   K. Berland et al., Rep. Prog. Phys. 78, 066501 (2015).             %
     %   D.C. Langreth et al., J. Phys.: Condens. Matter 21, 084203 (2009). %
     %                                                                      %
     % If you are calculating stress with vdW-DF, please also cite:         %
     %                                                                      %
     %   R. Sabatini et al., J. Phys.: Condens. Matter 24, 424209 (2012).   %
     %                                                                      %
     %%%%%%%%%%%%%%%%%%%%%%%%%%%%%%%%%%%%%%%%%%%%%%%%%%%%%%%%%%%%%%%%%%%%%%%%

     %%%%%%%%%%%%%%%%%%%%%%%%%%%%%%%%%%%%%%%%%%%%%%%%%%%%%%%%%%%%%%%%%%%%%%%%
     %                                                                      %
     %  vdW-DF NEWS:                                                        %
     %                                                                      %
     %  * vdW-DF3 is now available. DOI: 10.1021/acs.jctc.0c00471           %
     %    use with input_dft = 'vdW-DF3-opt1' or 'vdW-DF3-opt2'             %
     %                                                                      %
     %  * Unscreened and range-separated vdW-DF hybrid functionals          %
     %    DOI: 10.1063/1.4986522 and 10.1088/1361-648X/ac2ad2               %
     %    use with input_dft = 'vdW-DF-cx0' (etc) and 'vdW-DF-ahcx'         %
     %                                                                      %
     %%%%%%%%%%%%%%%%%%%%%%%%%%%%%%%%%%%%%%%%%%%%%%%%%%%%%%%%%%%%%%%%%%%%%%%%

     Carrying out vdW-DF run using the following parameters:
     Nqs    =  20  Npoints =  1024  r_max =  100.000
     q_mesh =  0.00001000  0.04494208  0.09755937  0.15916263
               0.23128650  0.31572767  0.41458969  0.53033537
               0.66584808  0.82450364  1.01025438  1.22772762
               1.48234092  1.78043706  2.12944203  2.53805004
               3.01644009  3.57652955  4.23227104  5.00000000

     Non-local corr. energy    =       1.01299033 Ry

     Starting wfcs are   36 randomized atomic wfcs
     Checking if some PAW data can be deallocated...

     Self-consistent Calculation

     iteration #  1     ecut=    70.00 Ry     beta= 0.70
     Davidson diagonalization with overlap

     ethr =  1.00E-02,  avg # of iterations =  2.3

     Threshold (ethr) on eigenvalues was too large:
     Diagonalizing with lowered threshold

     Davidson diagonalization with overlap

[...]

     total energy              =   -3585.22288653 Ry
     estimated scf accuracy    <       0.00920236 Ry

[...]

     End of self-consistent calculation

          k = 0.0000 0.0000 0.0000 (  8289 PWs)   bands (ev):

    -6.7793  -6.7793  -6.7793  -6.6993  -6.6991  -6.6991  -6.6372  -6.6372
    -6.6372  -6.5148  -6.5148  -6.4047  -6.4045  -6.4045  -6.3627  -6.3627
    -6.3627  -6.3626  -6.3626  -6.3626  -0.8099   3.9753   3.9753   3.9755
[...]
     Gradient error          =      0.0E+00 Ry/Bohr
     Cell gradient error     =      2.4E+01 kbar

[...]

     enthalpy           old  =   -3585.2252480588 Ry
     enthalpy           new  =   -3585.2279444805 Ry

     CASE: enthalpy          _new < enthalpy          _old

[...]

     number of scf cycles    =   4
     number of bfgs steps    =   3

     enthalpy           old  =   -3585.2300363227 Ry
     enthalpy           new  =   -3585.2314607533 Ry

     CASE: enthalpy          _new < enthalpy          _old

     new trust radius        =       0.0111511081 bohr
     new conv_thr            =       0.0000000010 Ry

     new unit-cell volume =    896.35468 a.u.^3 (   132.82606 Ang^3 )
     density =     10.36133 g/cm^3

[...]

ATOMIC_POSITIONS (angstrom)
Pb            0.0000000000        0.0000000000        0.0000000000
Pb            0.0000000000        2.5511212368        2.5511212368
Pb            2.5511212368        0.0000000000        2.5511212368
Pb            2.5511212368        2.5511212368        0.0000000000

     Writing config-only to output data dir ./PbI2.save/
     NEW-OLD atomic charge density approx. for the potential

[...]

     extrapolated charge   56.31252, renormalised to   56.00000

[...]

     Energy error            =      4.3E-05 Ry
     Gradient error          =      0.0E+00 Ry/Bohr
     Cell gradient error     =      8.4E-02 kbar

     bfgs converged in   5 scf cycles and   4 bfgs steps
     (criteria: energy <  1.0E-04 Ry, force <  1.0E-03 Ry/Bohr, cell <  5.0E-01 kbar)

     End of BFGS Geometry Optimization

     Final enthalpy           =   -3585.2315038668 Ry

     File ./PbI2.bfgs deleted, as requested
Begin final coordinates
     new unit-cell volume =    896.35468 a.u.^3 (   132.82606 Ang^3 )
     density =     10.36133 g/cm^3

CELL_PARAMETERS (alat=  9.42880647)
   1.022594002   0.000000000   0.000000000
   0.000000000   1.022594002   0.000000000
   0.000000000   0.000000000   1.022594002

ATOMIC_POSITIONS (angstrom)
Pb            0.0000000000        0.0000000000        0.0000000000
Pb            0.0000000000        2.5511212368        2.5511212368
Pb            2.5511212368        0.0000000000        2.5511212368
Pb            2.5511212368        2.5511212368        0.0000000000
End final coordinates

     Writing config-only to output data dir ./PbI2.save/

     Final scf calculation at the relaxed structure.
     The G-vectors are recalculated for the final unit cell
     Results may differ from those at the preceding step.

     Using Slab Decomposition

     bravais-lattice index     =            1
     lattice parameter (alat)  =       9.4288  a.u.
     unit-cell volume          =     896.3547 (a.u.)^3
     number of atoms/cell      =            4
     number of atomic types    =            1
     number of electrons       =        56.00
     number of Kohn-Sham states=           34
     kinetic-energy cutoff     =      70.0000  Ry
     charge density cutoff     =     350.0000  Ry
     scf convergence threshold =      1.0E-09
     mixing beta               =       0.7000
     number of iterations used =            8  plain     mixing
     press convergence thresh. =      5.0E-01
     Exchange-correlation= BEEF-VDW
                           (   1   4  43  14   2   0   0)

     celldm(1)=   9.428806  celldm(2)=   0.000000  celldm(3)=   0.000000
     celldm(4)=   0.000000  celldm(5)=   0.000000  celldm(6)=   0.000000

     crystal axes: (cart. coord. in units of alat)
               a(1) = (   1.022594   0.000000   0.000000 )
               a(2) = (   0.000000   1.022594   0.000000 )
               a(3) = (   0.000000   0.000000   1.022594 )

     reciprocal axes: (cart. coord. in units 2 pi/alat)
               b(1) = (  0.977905  0.000000  0.000000 )
               b(2) = (  0.000000  0.977905  0.000000 )
               b(3) = (  0.000000  0.000000  0.977905 )

     PseudoPot. # 1 for Pb read from file:
     /trace/group/acmegroup/atimmins/packages/espresso/pseudo/psl_1.0.0/pslibrary.1.0.0/pbe/PSEUDOPOTENTIALS/Pb.pbe-dn-kjpaw_psl.1.0.0.UPF
     MD5 check sum: 39ab5b8a6bbd56b7735ad9f188aac93a
     Pseudo is Projector augmented-wave + core cor, Zval = 14.0
     Generated using 'atomic' code by A. Dal Corso  v.7.1
     Shape of augmentation charge: PSQ
     Using radial grid of 1281 points,  6 beta functions with:
                l(1) =   0
                l(2) =   0
                l(3) =   1
                l(4) =   1
                l(5) =   2
                l(6) =   2
     Q(r) pseudized with 0 coefficients

     atomic species   valence    mass     pseudopotential
        Pb            14.00   207.20000     Pb( 1.00)

     48 Sym. Ops., with inversion, found

                                    s                        frac. trans.

      isym =  1     identity

[...]

 cryst.   s( 9) = (     0          0          1      )
                  (     0         -1          0      )
                  (     1          0          0      )

 cart.    s( 9) = (  0.0000000  0.0000000  1.0000000 )
                  (  0.0000000 -1.0000000  0.0000000 )
                  (  1.0000000  0.0000000  0.0000000 )

[...]

      isym = 24     120 deg rotation - cart. axis [-1,-1,1]

[...]

      isym = 25     inversion

[...]

      isym = 48     inv. 120 deg rotation - cart. axis [-1,-1,1]

 cryst.   s(48) = (     0         -1          0      )
                  (     0          0          1      )
                  (     1          0          0      )

 cart.    s(48) = (  0.0000000  0.0000000  1.0000000 )
                  ( -1.0000000  0.0000000  0.0000000 )
                  (  0.0000000  1.0000000  0.0000000 )

     point group O_h (m-3m)
     there are 10 classes
     the character table:

       E     8C3   3C2   6C4   6C2'  i     8S6   3s_h  6S4   6s_d
A_1g   1.00  1.00  1.00  1.00  1.00  1.00  1.00  1.00  1.00  1.00
A_2g   1.00  1.00  1.00 -1.00 -1.00  1.00  1.00  1.00 -1.00 -1.00
E_g    2.00 -1.00  2.00  0.00  0.00  2.00 -1.00  2.00  0.00  0.00
T_1g   3.00  0.00 -1.00  1.00 -1.00  3.00  0.00 -1.00  1.00 -1.00
T_2g   3.00  0.00 -1.00 -1.00  1.00  3.00  0.00 -1.00 -1.00  1.00
A_1u   1.00  1.00  1.00  1.00  1.00 -1.00 -1.00 -1.00 -1.00 -1.00
A_2u   1.00  1.00  1.00 -1.00 -1.00 -1.00 -1.00 -1.00  1.00  1.00
E_u    2.00 -1.00  2.00  0.00  0.00 -2.00  1.00 -2.00  0.00  0.00
T_1u   3.00  0.00 -1.00  1.00 -1.00 -3.00  0.00  1.00 -1.00  1.00
T_2u   3.00  0.00 -1.00 -1.00  1.00 -3.00  0.00  1.00  1.00 -1.00

     the symmetry operations in each class and the name of the first element:

     E        1
          identity
     8C3     17   19   20   18   24   21   22   23
          120 deg rotation - cart. axis [-1,-1,-1]
     3C2      2    4    3
          180 deg rotation - cart. axis [0,0,1]
     6C4      7    8   15   16   12   11
           90 deg rotation - cart. axis [0,0,-1]
     6C2'     5    6   14   13   10    9
          180 deg rotation - cart. axis [1,1,0]
     i       25
          inversion
     8S6     41   43   44   42   48   45   46   47
          inv. 120 deg rotation - cart. axis [-1,-1,-1]
     3s_h    26   28   27
          inv. 180 deg rotation - cart. axis [0,0,1]
     6S4     31   32   39   40   36   35
          inv.  90 deg rotation - cart. axis [0,0,-1]
     6s_d    29   30   38   37   34   33
          inv. 180 deg rotation - cart. axis [1,1,0]

   Cartesian axes

     site n.     atom                  positions (alat units)
         1           Pb  tau(   1) = (   0.0000000   0.0000000   0.0000000  )
         2           Pb  tau(   2) = (   0.0000000   0.5112970   0.5112970  )
         3           Pb  tau(   3) = (   0.5112970   0.0000000   0.5112970  )
         4           Pb  tau(   4) = (   0.5112970   0.5112970   0.0000000  )

   Crystallographic axes

     site n.     atom                  positions (cryst. coord.)
         1           Pb  tau(   1) = (  0.0000000  0.0000000  0.0000000  )
         2           Pb  tau(   2) = (  0.0000000  0.5000000  0.5000000  )
         3           Pb  tau(   3) = (  0.5000000  0.0000000  0.5000000  )
         4           Pb  tau(   4) = (  0.5000000  0.5000000  0.0000000  )

     number of k points=     4  Gaussian smearing, width (Ry)=  0.0100
                       cart. coord. in units 2pi/alat
        k(    1) = (   0.0000000   0.0000000   0.0000000), wk =   0.0740741
        k(    2) = (   0.0000000   0.0000000   0.3259684), wk =   0.4444444
        k(    3) = (   0.0000000   0.3259684   0.3259684), wk =   0.8888889
        k(    4) = (   0.3259684   0.3259684   0.3259684), wk =   0.5925926

                       cryst. coord.
        k(    1) = (   0.0000000   0.0000000   0.0000000), wk =   0.0740741
        k(    2) = (   0.0000000   0.0000000   0.3333333), wk =   0.4444444
        k(    3) = (   0.0000000   0.3333333   0.3333333), wk =   0.8888889
        k(    4) = (   0.3333333   0.3333333   0.3333333), wk =   0.5925926

     Initial potential from superposition of free atoms

     starting charge      55.9906, renormalised to      56.0000

[...]

     Starting wfcs are   36 randomized atomic wfcs
     Checking if some PAW data can be deallocated...

     Self-consistent Calculation

[...]

     total energy              =   -3585.23415314 Ry
     estimated scf accuracy    <       0.00000005 Ry

     iteration #  7     ecut=    70.00 Ry     beta= 0.70
     Davidson diagonalization with overlap

     ethr =  9.62E-11,  avg # of iterations =  3.3

[...]

     End of self-consistent calculation

[...]

          k = 0.3260 0.3260 0.3260 (  8862 PWs)   bands (ev):

    -7.5746  -7.5746  -7.5746  -7.5594  -7.5367  -7.5367  -7.5222  -7.5222
    -7.5222  -7.4998  -7.4998  -7.4998  -7.4066  -7.4066  -7.4066  -7.3958
    -7.3958  -7.3546  -7.3546  -7.3546   0.4933   1.8638   1.8638   1.8638
     6.8676   6.8676   6.8676   8.3814  12.2497  12.2497  12.2497  13.7806
    13.7806  13.7806

     occupation numbers
     1.0000   1.0000   1.0000   1.0000   1.0000   1.0000   1.0000   1.0000
     1.0000   1.0000   1.0000   1.0000   1.0000   1.0000   1.0000   1.0000
     1.0000   1.0000   1.0000   1.0000   1.0000   1.0000   1.0000   1.0000
     1.0000   1.0000   1.0000   1.0000   0.0000   0.0000   0.0000   0.0000
     0.0000   0.0000

     the Fermi energy is     9.8569 ev

!    total energy              =   -3585.23415315 Ry
     total all-electron energy =   -167159.348090 Ry
     estimated scf accuracy    <          4.4E-10 Ry
     smearing contrib. (-TS)   =      -0.00249707 Ry
     internal energy E=F+TS    =   -3585.23165608 Ry

     The total energy is F=E-TS. E is the sum of the following terms:
     one-electron contribution =    -130.87370854 Ry
     hartree contribution      =     115.13455078 Ry
     xc contribution           =    -135.18905216 Ry
     ewald contribution        =    -372.80555522 Ry
     one-center paw contrib.   =   -3061.49789094 Ry
      -> PAW hartree energy AE =      98.07558813 Ry
      -> PAW hartree energy PS =     -98.33595647 Ry
      -> PAW xc energy AE      =    -798.55611836 Ry
      -> PAW xc energy PS      =      33.44201049 Ry
      -> total E_H with PAW    =     114.87418244 Ry
      -> total E_XC with PAW   =    -900.30316004 Ry

     convergence has been achieved in   7 iterations

[...]

     Forces acting on atoms (cartesian axes, Ry/au):

     atom    1 type  1   force =     0.00000000    0.00000000    0.00000000
     atom    2 type  1   force =     0.00000000    0.00000000    0.00000000
     atom    3 type  1   force =     0.00000000    0.00000000    0.00000000
     atom    4 type  1   force =     0.00000000    0.00000000    0.00000000
     The non-local contrib.  to forces
     atom    1 type  1   force =     0.00000000    0.00000000    0.00000000
     atom    2 type  1   force =     0.00000000    0.00000000    0.00000000
     atom    3 type  1   force =     0.00000000    0.00000000    0.00000000
     atom    4 type  1   force =     0.00000000    0.00000000    0.00000000
     The ionic contribution  to forces
     atom    1 type  1   force =    -0.00000017   -0.00000017   -0.00000017
     atom    2 type  1   force =    -0.00000017    0.00000017    0.00000017
     atom    3 type  1   force =     0.00000017   -0.00000017    0.00000017
     atom    4 type  1   force =     0.00000017    0.00000017   -0.00000017
     The local contribution  to forces
     atom    1 type  1   force =     0.00000000    0.00000000    0.00000000
     atom    2 type  1   force =     0.00000000    0.00000128    0.00000128
     atom    3 type  1   force =     0.00000128    0.00000000    0.00000128
     atom    4 type  1   force =     0.00000128    0.00000128    0.00000000
     The core correction contribution to forces
     atom    1 type  1   force =     0.00000000    0.00000000    0.00000000
     atom    2 type  1   force =     0.00000000    0.00000009    0.00000009
     atom    3 type  1   force =     0.00000009    0.00000000    0.00000009
     atom    4 type  1   force =     0.00000009    0.00000009    0.00000000
     The Hubbard contrib.    to forces
     atom    1 type  1   force =     0.00000000    0.00000000    0.00000000
     atom    2 type  1   force =     0.00000000    0.00000000    0.00000000
     atom    3 type  1   force =     0.00000000    0.00000000    0.00000000
     atom    4 type  1   force =     0.00000000    0.00000000    0.00000000
     The SCF correction term to forces
     atom    1 type  1   force =    -0.00000000   -0.00000000   -0.00000000
     atom    2 type  1   force =    -0.00000000    0.00000000    0.00000000
     atom    3 type  1   force =     0.00000000   -0.00000000    0.00000000
     atom    4 type  1   force =     0.00000000    0.00000000   -0.00000000

     Total force =     0.000000     Total SCF correction =     0.000000

     Computing stress (Cartesian axis) and pressure

     Non-local corr. energy    =       1.02327153 Ry

          total   stress  (Ry/bohr**3)                   (kbar)     P=        3.34
   0.00002268   0.00000000   0.00000000            3.34        0.00        0.00
   0.00000000   0.00002268   0.00000000            0.00        3.34        0.00
   0.00000000   0.00000000   0.00002268            0.00        0.00        3.34

     kinetic stress (kbar)  28023.68      0.00      0.00
                                0.00  28023.68      0.00
                                0.00      0.00  28023.68

     local   stress (kbar)   2161.34     -0.00     -0.00
                               -0.00   2161.34     -0.00
                               -0.00     -0.00   2161.34

     nonloc. stress (kbar) -11316.11      0.00      0.00
                                0.00 -11316.11      0.00
                                0.00      0.00 -11316.11

     hartree stress (kbar)   6298.43      0.00      0.00
                                0.00   6298.43      0.00
                                0.00      0.00   6298.43

     exc-cor stress (kbar)   6559.11      0.00      0.00
                                0.00   6559.11     -0.00
                                0.00     -0.00   6559.11

     corecor stress (kbar) -11393.24     -0.00      0.00
                               -0.00 -11393.24      0.00
                                0.00      0.00 -11393.24

     ewald   stress (kbar) -20394.30      0.00      0.00
                                0.00 -20394.30      0.00
                                0.00      0.00 -20394.30

     hubbard stress (kbar)      0.00      0.00      0.00
                                0.00      0.00      0.00
                                0.00      0.00      0.00

     DFT-D   stress (kbar)      0.00      0.00      0.00
                                0.00      0.00      0.00
                                0.00      0.00      0.00

     XDM     stress (kbar)      0.00      0.00      0.00
                                0.00      0.00      0.00
                                0.00      0.00      0.00

     dft-nl  stress (kbar)     64.44     -0.00     -0.00
                               -0.00     64.44     -0.00
                               -0.00     -0.00     64.44

     TS-vdW  stress (kbar)      0.00      0.00      0.00
                                0.00      0.00      0.00
                                0.00      0.00      0.00

     MDB     stress (kbar)      0.00      0.00      0.00
                                0.00      0.00      0.00
                                0.00      0.00      0.00

     3D-RISM stress (kbar)      0.00      0.00      0.00
                                0.00      0.00      0.00
                                0.00      0.00      0.00

     Writing all to output data dir ./PbI2.save/

     General routines

     Parallel routines

     PAW routines

   This run was terminated on:  15:45: 6  20Feb2024

   JOB DONE.