     Program PWSCF v.7.1 starts on  7Mar2024 at 11:32:17

     Reading input from espresso.pwi
Warning: card &CELL ignored
Warning: card    CELL_DYNAMICS    = 'BFGS' ignored
Warning: card / ignored

     Current dimensions of program PWSCF are:
     Max number of different atomic species (ntypx) = 10
     Max number of k-points (npk) =  40000
     Max angular momentum in pseudopotentials (lmaxx) =  4
     file Pb.pbe-dn-kjpaw_psl.1.0.0.UPF: wavefunction(s)  6S 6P 5D renormalized
     file I.pbe-dn-kjpaw_psl.1.0.0.UPF: wavefunction(s)  5S 5P renormalized

     IMPORTANT: XC functional enforced from input :
     Exchange-correlation= BEEF-VDW
                           (   1   4  43  14   2   0   0)
     Any further DFT definition will be discarded
     Please, verify this is what you really want

     R & G space division:  proc/nbgrp/npool/nimage =     256
     wavefunctions fft division:  task group distribution
                                  #TG    x Z-proc =       8     32
     Subspace diagonalization in iterative solution of the eigenvalue problem:
     a serial algorithm will be used

     Using Pencil Decomposition

     bravais-lattice index     =            4
     lattice parameter (alat)  =      35.6120  a.u.
     unit-cell volume          =   45937.3577 (a.u.)^3
     number of atoms/cell      =          144
     number of atomic types    =            2
     number of electrons       =      2301.00
     number of Kohn-Sham states=         1381
     kinetic-energy cutoff     =      70.0000  Ry
     charge density cutoff     =     350.0000  Ry
     scf convergence threshold =      1.0E-07
     mixing beta               =       0.7000
     number of iterations used =            8  plain     mixing
     energy convergence thresh.=      1.0E-04
     force convergence thresh. =      1.0E-03
     Exchange-correlation= BEEF-VDW
                           (   1   4  43  14   2   0   0)
     nstep                     =           50

     celldm(1)=  35.612033  celldm(2)=   0.000000  celldm(3)=   1.174479
     celldm(4)=   0.000000  celldm(5)=   0.000000  celldm(6)=   0.000000

     crystal axes: (cart. coord. in units of alat)
               a(1) = (   1.000000   0.000000   0.000000 )
               a(2) = (  -0.500000   0.866025   0.000000 )
               a(3) = (   0.000000   0.000000   1.174479 )

     reciprocal axes: (cart. coord. in units 2 pi/alat)
               b(1) = (  1.000000  0.577350 -0.000000 )
               b(2) = (  0.000000  1.154701  0.000000 )
               b(3) = (  0.000000 -0.000000  0.851442 )

     PseudoPot. # 1 for Pb read from file:
     //group///packages/espresso/pseudo/psl_1.0.0/pslibrary.1.0.0/pbe/PSEUDOPOTENTIALS/Pb.pbe-dn-kjpaw_psl.1.0.0.UPF
     MD5 check sum: 39ab5b8a6bbd56b7735ad9f188aac93a
     Pseudo is Projector augmented-wave + core cor, Zval = 14.0
     Generated using 'atomic' code by A. Dal Corso  v.7.1
     Shape of augmentation charge: PSQ
     Using radial grid of 1281 points,  6 beta functions with:
                l(1) =   0
                l(2) =   0
                l(3) =   1
                l(4) =   1
                l(5) =   2
                l(6) =   2
     Q(r) pseudized with 0 coefficients

     PseudoPot. # 2 for I  read from file:
     //group///packages/espresso/pseudo/psl_1.0.0/pslibrary.1.0.0/pbe/PSEUDOPOTENTIALS/I.pbe-dn-kjpaw_psl.1.0.0.UPF
     MD5 check sum: bfa8781bc1224d19af3f3980e3fab11e
     Pseudo is Projector augmented-wave + core cor, Zval = 17.0
     Generated using 'atomic' code by A. Dal Corso  v.7.1
     Shape of augmentation charge: PSQ
     Using radial grid of 1247 points,  6 beta functions with:
                l(1) =   0
                l(2) =   0
                l(3) =   1
                l(4) =   1
                l(5) =   2
                l(6) =   2
     Q(r) pseudized with 0 coefficients

     atomic species   valence    mass     pseudopotential
        Pb            14.00   207.20000     Pb( 1.00)
        I             17.00   126.90447     I ( 1.00)

     No symmetry found

                                    s                        frac. trans.

      isym =  1     identity

 cryst.   s( 1) = (     1          0          0      )
                  (     0          1          0      )
                  (     0          0          1      )

 cart.    s( 1) = (  1.0000000  0.0000000  0.0000000 )
                  (  0.0000000  1.0000000  0.0000000 )
                  (  0.0000000  0.0000000  1.0000000 )

     point group C_1 (1)
     there are  1 classes
     the character table:

       E
A      1.00

     the symmetry operations in each class and the name of the first element:

     E        1
          identity

   Cartesian axes

     site n.     atom                  positions (alat units)
         1           Pb  tau(   1) = (   0.1250136   0.2164827   1.1744753  )
         2           Pb  tau(   2) = (   0.1250034   0.2164918   0.3914896  )
         3           Pb  tau(   3) = (   0.1250085   0.2164873   0.7829825  )
         4           Pb  tau(   4) = (   0.0000128   0.4329881   1.1744712  )
         5           Pb  tau(   5) = (   0.0000026   0.4329971   0.3914855  )
         6           Pb  tau(   6) = (   0.0000077   0.4329926   0.7829784  )
         7           Pb  tau(   7) = (  -0.1249881   0.6494934   1.1744671  )
         8           Pb  tau(   8) = (  -0.1249983   0.6495025   0.3914814  )
         9           Pb  tau(   9) = (  -0.1249932   0.6494980   0.7829742  )
        10           Pb  tau(  10) = (  -0.2499889   0.8659988   1.1744630  )
        11           Pb  tau(  11) = (  -0.2499991   0.8660078   0.3914773  )
        12           Pb  tau(  12) = (  -0.2499940   0.8660033   0.7829701  )
        13           Pb  tau(  13) = (   0.3750136   0.2164818   1.1744786  )
        14           Pb  tau(  14) = (   0.3750034   0.2164908   0.3914929  )
        15           Pb  tau(  15) = (   0.3750085   0.2164863   0.7829857  )
        16           Pb  tau(  16) = (   0.2500128   0.4329871   1.1744745  )
        17           Pb  tau(  17) = (   0.2500026   0.4329962   0.3914888  )
        18           Pb  tau(  18) = (   0.2500077   0.4329916   0.7829816  )
        19           Pb  tau(  19) = (   0.1250119   0.6494925   1.1744703  )
        20           Pb  tau(  20) = (   0.1250017   0.6495015   0.3914847  )
        21           Pb  tau(  21) = (   0.1250068   0.6494970   0.7829775  )
        22           Pb  tau(  22) = (   0.0000111   0.8659978   1.1744662  )
        23           Pb  tau(  23) = (   0.0000009   0.8660069   0.3914805  )
        24           Pb  tau(  24) = (   0.0000060   0.8660024   0.7829734  )
        25           Pb  tau(  25) = (   0.6250136   0.2164808   1.1744818  )
        26           Pb  tau(  26) = (   0.6250034   0.2164898   0.3914962  )
        27           Pb  tau(  27) = (   0.6250085   0.2164853   0.7829890  )
        28           Pb  tau(  28) = (   0.5000128   0.4329862   1.1744777  )
        29           Pb  tau(  29) = (   0.5000026   0.4329952   0.3914920  )
        30           Pb  tau(  30) = (   0.5000077   0.4329907   0.7829849  )
        31           Pb  tau(  31) = (   0.3750119   0.6494915   1.1744736  )
        32           Pb  tau(  32) = (   0.3750017   0.6495006   0.3914879  )
        33           Pb  tau(  33) = (   0.3750068   0.6494960   0.7829808  )
        34           Pb  tau(  34) = (   0.2500111   0.8659969   1.1744695  )
        35           Pb  tau(  35) = (   0.2500009   0.8660059   0.3914838  )
        36           Pb  tau(  36) = (   0.2500060   0.8660014   0.7829766  )
        37           Pb  tau(  37) = (   0.8750136   0.2164798   1.1744851  )
        38           Pb  tau(  38) = (   0.8750034   0.2164889   0.3914994  )
        39           Pb  tau(  39) = (   0.8750085   0.2164844   0.7829923  )
        40           Pb  tau(  40) = (   0.7500128   0.4329852   1.1744810  )
        41           Pb  tau(  41) = (   0.7500026   0.4329942   0.3914953  )
        42           Pb  tau(  42) = (   0.7500077   0.4329897   0.7829881  )
        43           Pb  tau(  43) = (   0.6250119   0.6494906   1.1744769  )
        44           Pb  tau(  44) = (   0.6250017   0.6494996   0.3914912  )
        45           Pb  tau(  45) = (   0.6250068   0.6494951   0.7829840  )
        46           Pb  tau(  46) = (   0.5000111   0.8659959   1.1744727  )
        47           Pb  tau(  47) = (   0.5000009   0.8660050   0.3914870  )
        48           Pb  tau(  48) = (   0.5000060   0.8660004   0.7829799  )
        49           I   tau(  49) = (   0.1250105   0.0721505   0.6824253  )
        50           I   tau(  50) = (   0.1250156   0.0721459   1.0739182  )
        51           I   tau(  51) = (   0.0000045   0.2886603   0.2909283  )
        52           I   tau(  52) = (   0.0000096   0.2886558   0.6824212  )
        53           I   tau(  53) = (   0.0000147   0.2886513   1.0739140  )
        54           I   tau(  54) = (  -0.1249963   0.5051657   0.2909242  )
        55           I   tau(  55) = (  -0.1249912   0.5051612   0.6824171  )
        56           I   tau(  56) = (  -0.1249861   0.5051566   1.0739099  )
        57           I   tau(  57) = (  -0.2499971   0.7216710   0.2909201  )
        58           I   tau(  58) = (  -0.2499920   0.7216665   0.6824129  )
        59           I   tau(  59) = (  -0.2499869   0.7216620   1.0739058  )
        60           I   tau(  60) = (   0.3750054   0.0721540   0.2909357  )
[...]
       130           I   tau( 130) = (   0.1250009   0.7938394   0.4920425  )
       131           I   tau( 131) = (   0.1250060   0.7938348   0.8835353  )
       132           I   tau( 132) = (   0.7499983   0.1443268   0.1005653  )
       133           I   tau( 133) = (   0.7500034   0.1443223   0.4920581  )
       134           I   tau( 134) = (   0.7500085   0.1443178   0.8835509  )
       135           I   tau( 135) = (   0.6249975   0.3608322   0.1005611  )
       136           I   tau( 136) = (   0.6250026   0.3608277   0.4920540  )
       137           I   tau( 137) = (   0.6250077   0.3608232   0.8835468  )
       138           I   tau( 138) = (   0.4999966   0.5773376   0.1005570  )
       139           I   tau( 139) = (   0.5000017   0.5773330   0.4920499  )
       140           I   tau( 140) = (   0.5000068   0.5773285   0.8835427  )
       141           I   tau( 141) = (   0.3749958   0.7938429   0.1005529  )
       142           I   tau( 142) = (   0.3750009   0.7938384   0.4920457  )
       143           I   tau( 143) = (   0.3750060   0.7938339   0.8835386  )
       144           Pb  tau( 144) = (   0.1250054   0.0721550   0.2909325  )

   Crystallographic axes

     site n.     atom                  positions (cryst. coord.)
         1           Pb  tau(   1) = (  0.2500000  0.2499727  0.9999973  )
         2           Pb  tau(   2) = (  0.2499950  0.2499832  0.3333306  )
         3           Pb  tau(   3) = (  0.2499975  0.2499780  0.6666639  )
         4           Pb  tau(   4) = (  0.2499986  0.4999716  0.9999938  )
         5           Pb  tau(   5) = (  0.2499936  0.4999820  0.3333271  )
         6           Pb  tau(   6) = (  0.2499961  0.4999768  0.6666604  )
[...]
     atom   44 type  1   force =     0.00000000    0.00000000    0.00000000
     atom   45 type  1   force =     0.00000000    0.00000000    0.00000000
     atom   46 type  1   force =     0.00000000    0.00000000    0.00000000
     atom   47 type  1   force =     0.00000000    0.00000000    0.00000000
     atom   48 type  1   force =     0.00000000    0.00000000    0.00000000
     atom   49 type  2   force =     0.00000000    0.00000000    0.00000000
     atom   50 type  2   force =     0.00000000    0.00000000    0.00000000
     atom   51 type  2   force =     0.00000000    0.00000000    0.00000000
     atom   52 type  2   force =     0.00000000    0.00000000    0.00000000
     atom   53 type  2   force =     0.00000000    0.00000000    0.00000000
     atom   54 type  2   force =     0.00000000    0.00000000    0.00000000
     atom   55 type  2   force =     0.00000000    0.00000000    0.00000000
     atom   56 type  2   force =     0.00000000    0.00000000    0.00000000
     atom   57 type  2   force =     0.00000000    0.00000000    0.00000000
     atom   58 type  2   force =     0.00000000    0.00000000    0.00000000
     atom   59 type  2   force =     0.00000000    0.00000000    0.00000000
     atom   60 type  2   force =     0.00000000    0.00000000    0.00000000
[...]
     atom  130 type  2   force =     0.00000000    0.00000000    0.00000000
     atom  131 type  2   force =     0.00000000    0.00000000    0.00000000
     atom  132 type  2   force =     0.00000000    0.00000000    0.00000000
     atom  133 type  2   force =     0.00000000    0.00000000    0.00000000
     atom  134 type  2   force =     0.00000000    0.00000000    0.00000000
     atom  135 type  2   force =     0.00000000    0.00000000    0.00000000
     atom  136 type  2   force =     0.00000000    0.00000000    0.00000000
     atom  137 type  2   force =     0.00000000    0.00000000    0.00000000
     atom  138 type  2   force =     0.00000000    0.00000000    0.00000000
     atom  139 type  2   force =     0.00000000    0.00000000    0.00000000
     atom  140 type  2   force =     0.00000000    0.00000000    0.00000000
     atom  141 type  2   force =     0.00000000    0.00000000    0.00000000
     atom  142 type  2   force =     0.00000000    0.00000000    0.00000000
     atom  143 type  2   force =     0.00000000    0.00000000    0.00000000
     atom  144 type  1   force =     0.00000000    0.00000000    0.00000000
     The SCF correction term to forces
     atom    1 type  1   force =    -0.00000069    0.00000084    0.00000051
     atom    2 type  1   force =    -0.00001319   -0.00000993   -0.00000356
     atom    3 type  1   force =    -0.00000320   -0.00000023   -0.00000969
     atom    4 type  1   force =    -0.00000048    0.00000215   -0.00000080
     atom    5 type  1   force =     0.00000127   -0.00000098    0.00000446
     atom    6 type  1   force =     0.00000463    0.00000572   -0.00000108
     atom    7 type  1   force =     0.00000210   -0.00000292   -0.00000174
     atom    8 type  1   force =     0.00000237   -0.00000453    0.00000347
     atom    9 type  1   force =     0.00000815   -0.00000102    0.00000038
     atom   10 type  1   force =    -0.00000093   -0.00000003   -0.00000074
     atom   11 type  1   force =    -0.00002096    0.00000042   -0.00000351
     atom   12 type  1   force =    -0.00000326   -0.00000084   -0.00000780
     atom   13 type  1   force =     0.00000426    0.00000362    0.00000225
     atom   14 type  1   force =     0.00000299    0.00000594    0.00000037
     atom   15 type  1   force =     0.00000139    0.00000232   -0.00000258
     atom   16 type  1   force =     0.00000205    0.00000479   -0.00000064
     atom   17 type  1   force =     0.00000107    0.00000748    0.00000536
     atom   18 type  1   force =    -0.00000223    0.00001044   -0.00000126
     atom   19 type  1   force =     0.00000384    0.00000118   -0.00000561
     atom   20 type  1   force =     0.00000995    0.00000307    0.00000812
     atom   21 type  1   force =     0.00000530    0.00000160    0.00000087
     atom   22 type  1   force =     0.00000594   -0.00000031   -0.00000168
     atom   23 type  1   force =     0.00001169   -0.00000158    0.00000409
     atom   24 type  1   force =     0.00000896   -0.00000668    0.00000025
     atom   25 type  1   force =     0.00000186    0.00000427    0.00000491
     atom   26 type  1   force =     0.00000663   -0.00000284    0.00000120
     atom   27 type  1   force =     0.00000273   -0.00000205    0.00000242
     atom   28 type  1   force =     0.00000383   -0.00000060    0.00000495
     atom   29 type  1   force =    -0.00000138    0.00000656    0.00000151
     atom   30 type  1   force =    -0.00000160    0.00000331    0.00000241
     atom   31 type  1   force =    -0.00000168    0.00000062    0.00000230
     atom   32 type  1   force =     0.00000212    0.00001473    0.00000864
     atom   33 type  1   force =    -0.00000774    0.00000340   -0.00000594
     atom   34 type  1   force =     0.00000042   -0.00000172    0.00000224
     atom   35 type  1   force =     0.00001595   -0.00000504    0.00000840
     atom   36 type  1   force =     0.00000035   -0.00000829   -0.00000592
     atom   37 type  1   force =    -0.00000533   -0.00000066    0.00000494
     atom   38 type  1   force =     0.00000174   -0.00001400    0.00000307
     atom   39 type  1   force =    -0.00000100   -0.00000430   -0.00000790
     atom   40 type  1   force =    -0.00000541   -0.00000366    0.00000482
     atom   41 type  1   force =    -0.00000103   -0.00000246    0.00000026
     atom   42 type  1   force =    -0.00000075   -0.00000123    0.00000268
     atom   43 type  1   force =    -0.00000425   -0.00000460    0.00000429
     atom   44 type  1   force =    -0.00001486    0.00000509    0.00000246
     atom   45 type  1   force =    -0.00000554    0.00000035   -0.00000665
     atom   46 type  1   force =    -0.00000552   -0.00000289    0.00000447
     atom   47 type  1   force =    -0.00001569   -0.00000533   -0.00000347
     atom   48 type  1   force =    -0.00000613   -0.00000257   -0.00001568
     atom   49 type  2   force =    -0.00001236   -0.00000369   -0.00000485
     atom   50 type  2   force =    -0.00000314   -0.00000100    0.00000382
     atom   51 type  2   force =    -0.00000510   -0.00001330   -0.00000009
     atom   52 type  2   force =    -0.00000090   -0.00000459   -0.00000158
     atom   53 type  2   force =    -0.00000052    0.00000014    0.00000396
     atom   54 type  2   force =    -0.00000408   -0.00000597   -0.00000418
     atom   55 type  2   force =     0.00000587    0.00000059    0.00000427
     atom   56 type  2   force =     0.00000073   -0.00000062    0.00000157
     atom   57 type  2   force =    -0.00001629   -0.00000382   -0.00000590
     atom   58 type  2   force =    -0.00000579   -0.00000012    0.00000141
     atom   59 type  2   force =    -0.00000101   -0.00000111    0.00000340
     atom   60 type  2   force =     0.00000014    0.00000630   -0.00001061
[...]
     atom  130 type  2   force =     0.00001834   -0.00000391    0.00000459
     atom  131 type  2   force =     0.00000528   -0.00000803   -0.00000531
     atom  132 type  2   force =     0.00000081    0.00000209   -0.00000144
     atom  133 type  2   force =     0.00001122   -0.00001132   -0.00000224
     atom  134 type  2   force =    -0.00000299   -0.00000565   -0.00000275
     atom  135 type  2   force =     0.00000017    0.00000011   -0.00000789
     atom  136 type  2   force =     0.00000093    0.00000034   -0.00000003
     atom  137 type  2   force =    -0.00000064   -0.00000017    0.00000053
     atom  138 type  2   force =     0.00000084   -0.00000111   -0.00000201
     atom  139 type  2   force =    -0.00000774    0.00001300   -0.00000197
     atom  140 type  2   force =    -0.00000763   -0.00000061   -0.00000264
     atom  141 type  2   force =     0.00000221    0.00000124    0.00000460
     atom  142 type  2   force =     0.00000747    0.00000493   -0.00000846
     atom  143 type  2   force =    -0.00000996   -0.00000588   -0.00000822
     atom  144 type  1   force =    -0.00002154   -0.00000645   -0.00001460

     Total force =     0.003860     Total SCF correction =     0.000132

     Computing stress (Cartesian axis) and pressure

     Non-local corr. energy    =      68.72379577 Ry

          total   stress  (Ry/bohr**3)                   (kbar)     P=        1.19
   0.00000654   0.00000000  -0.00000000            0.96        0.00       -0.00
   0.00000000   0.00000654  -0.00000000            0.00        0.96       -0.00
  -0.00000000  -0.00000000   0.00001116           -0.00       -0.00        1.64

     kinetic stress (kbar)  15039.71      0.00     -0.00
                                0.00  15039.71     -0.00
                               -0.00     -0.00  15051.84

     local   stress (kbar)  -7416.96      0.02     -0.00
                                0.02  -7416.96      0.01
                               -0.00      0.01   1457.10

     nonloc. stress (kbar)  -1144.91      0.00     -0.00
                                0.00  -1144.92     -0.00
                               -0.00     -0.00  -1149.53

     hartree stress (kbar)  11957.37     -0.01      0.00
                               -0.01  11957.37     -0.00
                                0.00     -0.00   7955.18

     exc-cor stress (kbar)   6922.25      0.00     -0.00
                                0.00   6922.25     -0.00
                               -0.00     -0.00   6921.25

     corecor stress (kbar) -11275.57     -0.00      0.00
                               -0.00 -11275.57      0.00
                                0.00      0.00 -11275.54

     ewald   stress (kbar) -14163.85     -0.02      0.00
                               -0.02 -14163.85     -0.01
                                0.00     -0.01 -19042.87

     hubbard stress (kbar)      0.00      0.00      0.00
                                0.00      0.00      0.00
                                0.00      0.00      0.00

     DFT-D   stress (kbar)      0.00      0.00      0.00
                                0.00      0.00      0.00
                                0.00      0.00      0.00

     XDM     stress (kbar)      0.00      0.00      0.00
                                0.00      0.00      0.00
                                0.00      0.00      0.00

     dft-nl  stress (kbar)     82.92     -0.00      0.00
                               -0.00     82.92      0.00
                                0.00      0.00     84.20

     TS-vdW  stress (kbar)      0.00      0.00      0.00
                                0.00      0.00      0.00
                                0.00      0.00      0.00

     MDB     stress (kbar)      0.00      0.00      0.00
                                0.00      0.00      0.00
                                0.00      0.00      0.00

     3D-RISM stress (kbar)      0.00      0.00      0.00
                                0.00      0.00      0.00
                                0.00      0.00      0.00

     Energy error            =      4.4E-05 Ry
     Gradient error          =      7.4E-04 Ry/Bohr

     bfgs converged in  30 scf cycles and  29 bfgs steps
     (criteria: energy <  1.0E-04 Ry, force <  1.0E-03 Ry/Bohr)

     End of BFGS Geometry Optimization

     Final energy             =  -97466.8790381988 Ry

     File ./PbI2.bfgs deleted, as requested
Begin final coordinates

ATOMIC_POSITIONS (angstrom)
Pb            2.3558508708        4.0939219187       22.1284848005
Pb            2.3558537026        3.7649185392        7.3911742791
Pb            2.3557881532        4.0841777988       14.7571322835
Pb            0.0021643928        8.1662909371       22.1361087042
Pb            0.0345899341        8.1285272815        7.3856699008
Pb           -0.0002915379        8.1621893093       14.7557941593
Pb           -2.3488128620       12.2383106108       22.1361326588
Pb           -2.3653099271       12.2852039593        7.3855517477
Pb           -2.3536041049       12.2382647401       14.7557729629
Pb           -4.6987073156       16.3127324199       22.1284119532
Pb           -4.9835084830       16.4772128992        7.3913113461
Pb           -4.7072190477       16.3176557617       14.7570931032
Pb            7.0890578496        4.0923638097       22.1422054879
Pb            7.0705304406        4.0817009758        7.3610233499
Pb            7.0676947197        4.0800516578       14.7530567633
Pb            4.7094165204        8.1663019760       22.1360764398
Pb            4.6769292698        8.1285471750        7.3856032160
Pb            4.7118221649        8.1621717989       14.7557521626
Pb            2.3557798251       12.2398492545       22.1305114981
Pb            2.3557279714       12.2398255071        7.3654019824
Pb            2.3557422603       12.2398297306       14.7664931526
Pb            0.0048063143       16.3148974303       22.1361060648
Pb           -0.0441161220       16.3056930342        7.3855486509
Pb            0.0024224508       16.3190537614       14.7557204955
Pb           11.7783258702        4.0713849297       22.1456979527
Pb           11.7782765743        4.0555782971        7.3786906159
Pb           11.7782979441        4.0800398684       14.7547576603
Pb            9.4155163119        8.1638845156       22.1456419338
Pb            9.4017447976        8.1718017443        7.3786568293
Pb            9.4229898790        8.1595745780       14.7547318305
Pb            7.0603916563       12.2383002287       22.1360693959
Pb            7.0767328534       12.2852122200        7.3855847463
Pb            7.0651578839       12.2382536323       14.7558077784
Pb            4.7067544822       16.3149079574       22.1360893953
Pb            4.7556000277       16.3056059913        7.3856531981
Pb            4.7090735623       16.3190726838       14.7558069375
Pb           16.4676482537        4.0923491402       22.1423120674
Pb           16.4860868438        4.0816917175        7.3612287779
Pb           16.4889287740        4.0800659183       14.7532943612
Pb           14.1411541514        8.1638799563       22.1457130562
Pb           14.1547991503        8.1717966257        7.3787586187
Pb           14.1336435857        8.1595906417       14.7547785355
Pb           11.7783479518       12.2143433008       22.1421263882
Pb           11.7783034073       12.2357638291        7.3610349831
Pb           11.7783233843       12.2390879712       14.7532378831
Pb            9.4103562387       16.3126960710       22.1284341541
Pb            9.6951987661       16.4772029827        7.3912094319
Pb            9.4188023372       16.3176661336       14.7572118093
I             2.3557466748        1.3597107999       12.8849954617
I             2.3557800056        1.3596824808       20.2662156357
I             0.0472993516        5.3514273227        5.5197821022
I             0.0014147819        5.4430566933       12.8718500558
I             0.0045597785        5.4299487426       20.2622494477
I            -2.3624621764        9.5158236587        5.4945176015
I            -2.3546893637        9.5203512013       12.8713081362
I            -2.3556742239        9.5197885815       20.2542404659
I            -4.7640840922       13.6849940187        5.5196433357
I            -4.7076595573       13.5994373040       12.8717629710
I            -4.7173851238       13.6086178203       20.2621454771
I             6.9669499949        1.3630032260        5.5196690158
[...]
I             2.3555990474       14.9715374660        9.2340083004
I             2.3556825674       14.9659484183       16.6484936550
I            14.1334467260        2.7174501618        1.8905536149
I            14.1344142510        2.7136197211        9.2643585360
I            14.1356380621        2.7201355517       16.6420182835
I            11.7782671703        6.7998245051        1.8846425536
I            11.7782569838        6.7998028913        9.2511197916
I            11.7782895643        6.7997773122       16.6434295297
I             9.4204557701       10.8806278113        1.8904476399
I             9.4176425755       10.8834111262        9.2642503633
I             9.4238911877       10.8811469996       16.6419697319
I             7.0653698117       14.9590196652        1.8875475884
I             7.0557338509       14.9533234732        9.2361261219
I             7.0661006792       14.9594275135       16.6440474732
Pb            2.3554810603        1.3593537717        4.7000753400
End final coordinates

     Writing all to output data dir ./PbI2.save/

     General routines

     Parallel routines

     PAW routines

   This run was terminated on:   0: 9:45   9Mar2024

   JOB DONE.