     Program PWSCF v.7.1 starts on 12Mar2024 at 11:59:49

     Reading input from espresso.pwi
Warning: card &CELL ignored
Warning: card    CELL_DYNAMICS    = 'BFGS' ignored
Warning: card / ignored

     Current dimensions of program PWSCF are:
     Max number of different atomic species (ntypx) = 10
     Max number of k-points (npk) =  40000
     Max angular momentum in pseudopotentials (lmaxx) =  4
     file Pb.pbe-dn-kjpaw_psl.1.0.0.UPF: wavefunction(s)  6S 6P 5D renormalized
     file I.pbe-dn-kjpaw_psl.1.0.0.UPF: wavefunction(s)  5S 5P renormalized

     IMPORTANT: XC functional enforced from input :
     Exchange-correlation= BEEF-VDW
                           (   1   4  43  14   2   0   0)
     Any further DFT definition will be discarded
     Please, verify this is what you really want

     R & G space division:  proc/nbgrp/npool/nimage =     256
     wavefunctions fft division:  task group distribution
                                  #TG    x Z-proc =       8     32
     Subspace diagonalization in iterative solution of the eigenvalue problem:
     a serial algorithm will be used

     Using Pencil Decomposition

     bravais-lattice index     =            4
     lattice parameter (alat)  =      35.6120  a.u.
     unit-cell volume          =   45937.3577 (a.u.)^3
     number of atoms/cell      =          144
     number of atomic types    =            2
     number of electrons       =      2300.00
     number of Kohn-Sham states=         1380
     kinetic-energy cutoff     =      70.0000  Ry
     charge density cutoff     =     350.0000  Ry
     scf convergence threshold =      1.0E-07
     mixing beta               =       0.7000
     number of iterations used =            8  plain     mixing
     Exchange-correlation= BEEF-VDW
                           (   1   4  43  14   2   0   0)

     celldm(1)=  35.612033  celldm(2)=   0.000000  celldm(3)=   1.174479
     celldm(4)=   0.000000  celldm(5)=   0.000000  celldm(6)=   0.000000

     crystal axes: (cart. coord. in units of alat)
               a(1) = (   1.000000   0.000000   0.000000 )
               a(2) = (  -0.500000   0.866025   0.000000 )
               a(3) = (   0.000000   0.000000   1.174479 )

     reciprocal axes: (cart. coord. in units 2 pi/alat)
               b(1) = (  1.000000  0.577350 -0.000000 )
               b(2) = (  0.000000  1.154701  0.000000 )
               b(3) = (  0.000000 -0.000000  0.851442 )

     PseudoPot. # 1 for Pb read from file:
     //group///packages/espresso/pseudo/psl_1.0.0/pslibrary.1.0.0/pbe/PSEUDOPOTENTIALS/Pb.pbe-dn-kjpaw_psl.1.0.0.UPF
     MD5 check sum: 39ab5b8a6bbd56b7735ad9f188aac93a
     Pseudo is Projector augmented-wave + core cor, Zval = 14.0
     Generated using 'atomic' code by A. Dal Corso  v.7.1
     Shape of augmentation charge: PSQ
     Using radial grid of 1281 points,  6 beta functions with:
                l(1) =   0
                l(2) =   0
                l(3) =   1
                l(4) =   1
                l(5) =   2
                l(6) =   2
     Q(r) pseudized with 0 coefficients

     PseudoPot. # 2 for I  read from file:
     //group///packages/espresso/pseudo/psl_1.0.0/pslibrary.1.0.0/pbe/PSEUDOPOTENTIALS/I.pbe-dn-kjpaw_psl.1.0.0.UPF
     MD5 check sum: bfa8781bc1224d19af3f3980e3fab11e
     Pseudo is Projector augmented-wave + core cor, Zval = 17.0
     Generated using 'atomic' code by A. Dal Corso  v.7.1
     Shape of augmentation charge: PSQ
     Using radial grid of 1247 points,  6 beta functions with:
                l(1) =   0
                l(2) =   0
                l(3) =   1
                l(4) =   1
                l(5) =   2
                l(6) =   2
     Q(r) pseudized with 0 coefficients

     atomic species   valence    mass     pseudopotential
        Pb            14.00   207.20000     Pb( 1.00)
        I             17.00   126.90447     I ( 1.00)

     No symmetry found

                                    s                        frac. trans.

      isym =  1     identity

 cryst.   s( 1) = (     1          0          0      )
                  (     0          1          0      )
                  (     0          0          1      )

 cart.    s( 1) = (  1.0000000  0.0000000  0.0000000 )
                  (  0.0000000  1.0000000  0.0000000 )
                  (  0.0000000  0.0000000  1.0000000 )

     point group C_1 (1)
     there are  1 classes
     the character table:

       E
A      1.00

     the symmetry operations in each class and the name of the first element:

     E        1
          identity

   Cartesian axes

     site n.     atom                  positions (alat units)
         1           Pb  tau(   1) = (   0.1250136   0.2164827   1.1744753  )
         2           Pb  tau(   2) = (   0.1250034   0.2164918   0.3914896  )
         3           Pb  tau(   3) = (   0.1250085   0.2164873   0.7829825  )
         4           Pb  tau(   4) = (   0.0000128   0.4329881   1.1744712  )
         5           Pb  tau(   5) = (   0.0000026   0.4329971   0.3914855  )
         6           Pb  tau(   6) = (   0.0000077   0.4329926   0.7829784  )
         7           Pb  tau(   7) = (  -0.1249881   0.6494934   1.1744671  )
         8           Pb  tau(   8) = (  -0.1249983   0.6495025   0.3914814  )
         9           Pb  tau(   9) = (  -0.1249932   0.6494980   0.7829742  )
        10           Pb  tau(  10) = (  -0.2499889   0.8659988   1.1744630  )
        11           Pb  tau(  11) = (  -0.2499991   0.8660078   0.3914773  )
        12           Pb  tau(  12) = (  -0.2499940   0.8660033   0.7829701  )
        13           Pb  tau(  13) = (   0.3750136   0.2164818   1.1744786  )
        14           Pb  tau(  14) = (   0.3750034   0.2164908   0.3914929  )
        15           Pb  tau(  15) = (   0.3750085   0.2164863   0.7829857  )
        16           Pb  tau(  16) = (   0.2500128   0.4329871   1.1744745  )
        17           Pb  tau(  17) = (   0.2500026   0.4329962   0.3914888  )
        18           Pb  tau(  18) = (   0.2500077   0.4329916   0.7829816  )
        19           Pb  tau(  19) = (   0.1250119   0.6494925   1.1744703  )
        20           Pb  tau(  20) = (   0.1250017   0.6495015   0.3914847  )
        21           Pb  tau(  21) = (   0.1250068   0.6494970   0.7829775  )
        22           Pb  tau(  22) = (   0.0000111   0.8659978   1.1744662  )
        23           Pb  tau(  23) = (   0.0000009   0.8660069   0.3914805  )
        24           Pb  tau(  24) = (   0.0000060   0.8660024   0.7829734  )
        25           Pb  tau(  25) = (   0.6250136   0.2164808   1.1744818  )
        26           Pb  tau(  26) = (   0.6250034   0.2164898   0.3914962  )
        27           Pb  tau(  27) = (   0.6250085   0.2164853   0.7829890  )
        28           Pb  tau(  28) = (   0.5000128   0.4329862   1.1744777  )
        29           Pb  tau(  29) = (   0.5000026   0.4329952   0.3914920  )
        30           Pb  tau(  30) = (   0.5000077   0.4329907   0.7829849  )
        31           Pb  tau(  31) = (   0.3750119   0.6494915   1.1744736  )
        32           Pb  tau(  32) = (   0.3750017   0.6495006   0.3914879  )
        33           Pb  tau(  33) = (   0.3750068   0.6494960   0.7829808  )
        34           Pb  tau(  34) = (   0.2500111   0.8659969   1.1744695  )
        35           Pb  tau(  35) = (   0.2500009   0.8660059   0.3914838  )
        36           Pb  tau(  36) = (   0.2500060   0.8660014   0.7829766  )
        37           Pb  tau(  37) = (   0.8750136   0.2164798   1.1744851  )
        38           Pb  tau(  38) = (   0.8750034   0.2164889   0.3914994  )
        39           Pb  tau(  39) = (   0.8750085   0.2164844   0.7829923  )
        40           Pb  tau(  40) = (   0.7500128   0.4329852   1.1744810  )
        41           Pb  tau(  41) = (   0.7500026   0.4329942   0.3914953  )
        42           Pb  tau(  42) = (   0.7500077   0.4329897   0.7829881  )
        43           Pb  tau(  43) = (   0.6250119   0.6494906   1.1744769  )
        44           Pb  tau(  44) = (   0.6250017   0.6494996   0.3914912  )
        45           Pb  tau(  45) = (   0.6250068   0.6494951   0.7829840  )
        46           Pb  tau(  46) = (   0.5000111   0.8659959   1.1744727  )
        47           Pb  tau(  47) = (   0.5000009   0.8660050   0.3914870  )
        48           Pb  tau(  48) = (   0.5000060   0.8660004   0.7829799  )
        49           I   tau(  49) = (   0.1250105   0.0721505   0.6824253  )
        50           I   tau(  50) = (   0.1250156   0.0721459   1.0739182  )
        51           I   tau(  51) = (   0.0000045   0.2886603   0.2909283  )
        52           I   tau(  52) = (   0.0000096   0.2886558   0.6824212  )
        53           I   tau(  53) = (   0.0000147   0.2886513   1.0739140  )
        54           I   tau(  54) = (  -0.1249963   0.5051657   0.2909242  )
        55           I   tau(  55) = (  -0.1249912   0.5051612   0.6824171  )
        56           I   tau(  56) = (  -0.1249861   0.5051566   1.0739099  )
        57           I   tau(  57) = (  -0.2499971   0.7216710   0.2909201  )
        58           I   tau(  58) = (  -0.2499920   0.7216665   0.6824129  )
        59           I   tau(  59) = (  -0.2499869   0.7216620   1.0739058  )
        60           I   tau(  60) = (   0.3750054   0.0721540   0.2909357  )
[...]
       130           I   tau( 130) = (   0.1250009   0.7938394   0.4920425  )
       131           I   tau( 131) = (   0.1250060   0.7938348   0.8835353  )
       132           I   tau( 132) = (   0.7499983   0.1443268   0.1005653  )
       133           I   tau( 133) = (   0.7500034   0.1443223   0.4920581  )
       134           I   tau( 134) = (   0.7500085   0.1443178   0.8835509  )
       135           I   tau( 135) = (   0.6249975   0.3608322   0.1005611  )
       136           I   tau( 136) = (   0.6250026   0.3608277   0.4920540  )
       137           I   tau( 137) = (   0.6250077   0.3608232   0.8835468  )
       138           I   tau( 138) = (   0.4999966   0.5773376   0.1005570  )
       139           I   tau( 139) = (   0.5000017   0.5773330   0.4920499  )
       140           I   tau( 140) = (   0.5000068   0.5773285   0.8835427  )
       141           I   tau( 141) = (   0.3749958   0.7938429   0.1005529  )
       142           I   tau( 142) = (   0.3750009   0.7938384   0.4920457  )
       143           I   tau( 143) = (   0.3750060   0.7938339   0.8835386  )
       144           Pb  tau( 144) = (   0.1250054   0.0721550   0.2909325  )

   Crystallographic axes

     site n.     atom                  positions (cryst. coord.)
         1           Pb  tau(   1) = (  0.2500000  0.2499727  0.9999973  )
         2           Pb  tau(   2) = (  0.2499950  0.2499832  0.3333306  )
         3           Pb  tau(   3) = (  0.2499975  0.2499780  0.6666639  )
         4           Pb  tau(   4) = (  0.2499986  0.4999716  0.9999938  )
         5           Pb  tau(   5) = (  0.2499936  0.4999820  0.3333271  )
         6           Pb  tau(   6) = (  0.2499961  0.4999768  0.6666604  )
         7           Pb  tau(   7) = (  0.2499972  0.7499704  0.9999902  )
         8           Pb  tau(   8) = (  0.2499922  0.7499809  0.3333236  )
[...]
     atom   25 type  1   force =     0.00000000    0.00000000    0.00000000
     atom   26 type  1   force =     0.00000000    0.00000000    0.00000000
     atom   27 type  1   force =     0.00000000    0.00000000    0.00000000
     atom   28 type  1   force =     0.00000000    0.00000000    0.00000000
     atom   29 type  1   force =     0.00000000    0.00000000    0.00000000
     atom   30 type  1   force =     0.00000000    0.00000000    0.00000000
     atom   31 type  1   force =     0.00000000    0.00000000    0.00000000
     atom   32 type  1   force =     0.00000000    0.00000000    0.00000000
     atom   33 type  1   force =     0.00000000    0.00000000    0.00000000
     atom   34 type  1   force =     0.00000000    0.00000000    0.00000000
     atom   35 type  1   force =     0.00000000    0.00000000    0.00000000
     atom   36 type  1   force =     0.00000000    0.00000000    0.00000000
     atom   37 type  1   force =     0.00000000    0.00000000    0.00000000
     atom   38 type  1   force =     0.00000000    0.00000000    0.00000000
     atom   39 type  1   force =     0.00000000    0.00000000    0.00000000
     atom   40 type  1   force =     0.00000000    0.00000000    0.00000000
     atom   41 type  1   force =     0.00000000    0.00000000    0.00000000
     atom   42 type  1   force =     0.00000000    0.00000000    0.00000000
     atom   43 type  1   force =     0.00000000    0.00000000    0.00000000
     atom   44 type  1   force =     0.00000000    0.00000000    0.00000000
     atom   45 type  1   force =     0.00000000    0.00000000    0.00000000
     atom   46 type  1   force =     0.00000000    0.00000000    0.00000000
     atom   47 type  1   force =     0.00000000    0.00000000    0.00000000
     atom   48 type  1   force =     0.00000000    0.00000000    0.00000000
     atom   49 type  2   force =     0.00000000    0.00000000    0.00000000
     atom   50 type  2   force =     0.00000000    0.00000000    0.00000000
     atom   51 type  2   force =     0.00000000    0.00000000    0.00000000
     atom   52 type  2   force =     0.00000000    0.00000000    0.00000000
     atom   53 type  2   force =     0.00000000    0.00000000    0.00000000
     atom   54 type  2   force =     0.00000000    0.00000000    0.00000000
     atom   55 type  2   force =     0.00000000    0.00000000    0.00000000
     atom   56 type  2   force =     0.00000000    0.00000000    0.00000000
     atom   57 type  2   force =     0.00000000    0.00000000    0.00000000
     atom   58 type  2   force =     0.00000000    0.00000000    0.00000000
     atom   59 type  2   force =     0.00000000    0.00000000    0.00000000
     atom   60 type  2   force =     0.00000000    0.00000000    0.00000000
[...]
     atom  130 type  2   force =     0.00000000    0.00000000    0.00000000
     atom  131 type  2   force =     0.00000000    0.00000000    0.00000000
     atom  132 type  2   force =     0.00000000    0.00000000    0.00000000
     atom  133 type  2   force =     0.00000000    0.00000000    0.00000000
     atom  134 type  2   force =     0.00000000    0.00000000    0.00000000
     atom  135 type  2   force =     0.00000000    0.00000000    0.00000000
     atom  136 type  2   force =     0.00000000    0.00000000    0.00000000
     atom  137 type  2   force =     0.00000000    0.00000000    0.00000000
     atom  138 type  2   force =     0.00000000    0.00000000    0.00000000
     atom  139 type  2   force =     0.00000000    0.00000000    0.00000000
     atom  140 type  2   force =     0.00000000    0.00000000    0.00000000
     atom  141 type  2   force =     0.00000000    0.00000000    0.00000000
     atom  142 type  2   force =     0.00000000    0.00000000    0.00000000
     atom  143 type  2   force =     0.00000000    0.00000000    0.00000000
     atom  144 type  1   force =     0.00000000    0.00000000    0.00000000
     The SCF correction term to forces
     atom    1 type  1   force =    -0.00000011    0.00001978    0.00000638
     atom    2 type  1   force =    -0.00000018    0.00000548   -0.00002562
     atom    3 type  1   force =    -0.00000010    0.00002578    0.00001460
     atom    4 type  1   force =     0.00000491    0.00000954   -0.00000281
     atom    5 type  1   force =    -0.00002391   -0.00001614   -0.00001043
     atom    6 type  1   force =    -0.00002947    0.00001374    0.00000874
     atom    7 type  1   force =     0.00001143   -0.00000148   -0.00000317
     atom    8 type  1   force =    -0.00002499   -0.00001450   -0.00001054
     atom    9 type  1   force =    -0.00000230   -0.00003352    0.00000920
     atom   10 type  1   force =     0.00001669   -0.00000895    0.00000593
     atom   11 type  1   force =     0.00000334   -0.00000065   -0.00002576
     atom   12 type  1   force =     0.00002149   -0.00001196    0.00001509
     atom   13 type  1   force =     0.00000366    0.00000268    0.00001218
     atom   14 type  1   force =     0.00002568    0.00001621    0.00000089
     atom   15 type  1   force =     0.00005459    0.00003229   -0.00001790
     atom   16 type  1   force =    -0.00000484    0.00000968   -0.00000282
     atom   17 type  1   force =     0.00002406   -0.00001606   -0.00001039
     atom   18 type  1   force =     0.00002950    0.00001385    0.00000877
     atom   19 type  1   force =     0.00000014   -0.00000045   -0.00001073
     atom   20 type  1   force =     0.00000019   -0.00000086   -0.00002189
     atom   21 type  1   force =     0.00000011   -0.00000075    0.00003247
     atom   22 type  1   force =     0.00000663   -0.00000870   -0.00000299
     atom   23 type  1   force =    -0.00000060    0.00002935   -0.00001091
     atom   24 type  1   force =     0.00002736    0.00001892    0.00000931
     atom   25 type  1   force =     0.00000015   -0.00000543    0.00001088
     atom   26 type  1   force =     0.00000012    0.00003826    0.00003885
     atom   27 type  1   force =     0.00000003    0.00003588   -0.00005048
     atom   28 type  1   force =    -0.00000505    0.00000232    0.00001081
     atom   29 type  1   force =     0.00003239   -0.00001949    0.00003924
     atom   30 type  1   force =     0.00003048   -0.00001806   -0.00005063
     atom   31 type  1   force =    -0.00001139   -0.00000131   -0.00000307
     atom   32 type  1   force =     0.00002508   -0.00001415   -0.00001053
     atom   33 type  1   force =     0.00000235   -0.00003332    0.00000917
     atom   34 type  1   force =    -0.00000633   -0.00000869   -0.00000289
     atom   35 type  1   force =     0.00000104    0.00002928   -0.00001093
     atom   36 type  1   force =    -0.00002703    0.00001884    0.00000930
     atom   37 type  1   force =    -0.00000369    0.00000243    0.00001210
     atom   38 type  1   force =    -0.00002566    0.00001575    0.00000081
     atom   39 type  1   force =    -0.00005446    0.00003214   -0.00001783
     atom   40 type  1   force =     0.00000499    0.00000214    0.00001077
     atom   41 type  1   force =    -0.00003251   -0.00001967    0.00003933
     atom   42 type  1   force =    -0.00003050   -0.00001815   -0.00005062
     atom   43 type  1   force =    -0.00000023   -0.00000478    0.00001165
     atom   44 type  1   force =    -0.00000031   -0.00003124    0.00000123
     atom   45 type  1   force =    -0.00000017   -0.00006373   -0.00001761
     atom   46 type  1   force =    -0.00001701   -0.00000897    0.00000600
     atom   47 type  1   force =    -0.00000397   -0.00000076   -0.00002586
     atom   48 type  1   force =    -0.00002180   -0.00001201    0.00001505
     atom   49 type  2   force =    -0.00000019    0.00000114   -0.00003146
     atom   50 type  2   force =    -0.00000016    0.00000091   -0.00000969
     atom   51 type  2   force =    -0.00001411   -0.00000495    0.00000455
     atom   52 type  2   force =    -0.00005603    0.00002929   -0.00001473
     atom   53 type  2   force =    -0.00000489    0.00001982    0.00000030
     atom   54 type  2   force =    -0.00002704   -0.00001723    0.00001674
     atom   55 type  2   force =    -0.00005722   -0.00003430    0.00000433
     atom   56 type  2   force =     0.00001693    0.00000885   -0.00000349
     atom   57 type  2   force =    -0.00001172   -0.00001088    0.00000356
     atom   58 type  2   force =    -0.00000331   -0.00006375   -0.00001443
     atom   59 type  2   force =     0.00001455   -0.00001424   -0.00000038
     atom   60 type  2   force =     0.00000298    0.00001687    0.00000357
[...]
     atom  130 type  2   force =     0.00000042    0.00003856   -0.00000737
     atom  131 type  2   force =     0.00000019   -0.00000052    0.00001191
     atom  132 type  2   force =     0.00000431   -0.00000108    0.00001305
     atom  133 type  2   force =    -0.00003270    0.00006154   -0.00000017
     atom  134 type  2   force =    -0.00002642    0.00001577   -0.00002659
     atom  135 type  2   force =    -0.00000011   -0.00000037    0.00002592
     atom  136 type  2   force =    -0.00000005   -0.00000026    0.00002037
     atom  137 type  2   force =     0.00000001   -0.00000011   -0.00008560
     atom  138 type  2   force =     0.00000036    0.00000365    0.00001304
     atom  139 type  2   force =     0.00003577   -0.00006005    0.00000039
     atom  140 type  2   force =    -0.00000021   -0.00003126   -0.00002690
     atom  141 type  2   force =    -0.00001067   -0.00000547    0.00000472
     atom  142 type  2   force =     0.00000617    0.00000374   -0.00002323
     atom  143 type  2   force =    -0.00002706   -0.00001547    0.00002744
     atom  144 type  1   force =    -0.00000031    0.00000150    0.00001795

     Total force =     0.005347     Total SCF correction =     0.000462

     Computing stress (Cartesian axis) and pressure

[...]

          total   stress  (Ry/bohr**3)                   (kbar)     P=       -1.38
  -0.00001002  -0.00000000   0.00000000           -1.47       -0.00        0.00
  -0.00000000  -0.00001002  -0.00000000           -0.00       -1.47       -0.00
   0.00000000  -0.00000000  -0.00000807            0.00       -0.00       -1.19

     kinetic stress (kbar)  15038.60      0.00     -0.00
                                0.00  15038.60      0.00
                               -0.00      0.00  15050.57

     local   stress (kbar)  -7381.25      0.06     -0.02
                                0.06  -7381.14      0.01
                               -0.02      0.01   1385.61

     nonloc. stress (kbar)  -1146.22      0.00     -0.00
                                0.00  -1146.22      0.00
                               -0.00      0.00  -1150.81

     hartree stress (kbar)  11938.95     -0.02      0.00
                               -0.02  11938.91     -0.00
                                0.00     -0.00   7989.19

     exc-cor stress (kbar)   6922.89     -0.00      0.00
                               -0.00   6922.89     -0.00
                                0.00     -0.00   6921.85

     corecor stress (kbar) -11275.55     -0.00      0.00
                               -0.00 -11275.55      0.00
                                0.00      0.00 -11275.51

     ewald   stress (kbar) -14181.82     -0.04      0.01
                               -0.04 -14181.89     -0.01
                                0.01     -0.01 -19006.29

     hubbard stress (kbar)      0.00      0.00      0.00
                                0.00      0.00      0.00
                                0.00      0.00      0.00

     DFT-D   stress (kbar)      0.00      0.00      0.00
                                0.00      0.00      0.00
                                0.00      0.00      0.00

     XDM     stress (kbar)      0.00      0.00      0.00
                                0.00      0.00      0.00
                                0.00      0.00      0.00

     dft-nl  stress (kbar)     82.92      0.00     -0.00
                                0.00     82.92      0.00
                               -0.00      0.00     84.21

     TS-vdW  stress (kbar)      0.00      0.00      0.00
                                0.00      0.00      0.00
                                0.00      0.00      0.00

     MDB     stress (kbar)      0.00      0.00      0.00
                                0.00      0.00      0.00
                                0.00      0.00      0.00

     3D-RISM stress (kbar)      0.00      0.00      0.00
                                0.00      0.00      0.00
                                0.00      0.00      0.00

[...]

     Non-local corr. energy    =      68.72786180 Ry

 BEEFens 2000 ensemble energies
             -0.578406927410585E+02
             -0.581991888183778E+03
             -0.264859467916488E+03
              0.203303051476224E+03
             -0.444921403757975E+03
             -0.544676710221103E+03
              0.279596122469233E+03
              0.108340980488720E+01
              0.471092767723880E+03
             -0.298061097940918E+02
              0.241333627800409E+03
              0.245514204821039E+02
             -0.185303569493701E+02
             -0.150338218093111E+02
              0.300572465742206E+03
             -0.226539418877397E+03
             -0.444502401658654E+03
             -0.143462889312833E+03
              0.128457321197666E+03
             -0.283861121434529E+01
              0.655464823266019E+03
              0.547044388338513E+03
             -0.336957158972310E+03
              0.116447735327806E+03
             -0.702068755475572E+03
              0.576250195660365E+03
              0.197117489717242E+03
              0.520317972994168E+03
              0.350649249264578E+03
             -0.162796461986369E+03
              0.128370166749753E+03
             -0.229284790025390E+03
              0.958099802597945E+02
              0.348930090509878E+03
              0.375573581467638E+03
             -0.163107611146290E+03
              0.828194190823823E+03
             -0.333417329510605E+03
             -0.221930564505987E+03
              0.331244681979817E+03
              0.146074971922138E+03
              0.251816978587458E+03
             -0.486240483147963E+03
             -0.316075782004218E+02
              0.466477724975468E+03
              0.609745366020506E+03
             -0.619156509583893E+03
              0.396613569106108E+02
              0.214701839261569E+03
              0.138669460824420E+03
              0.242015560555305E+03
              0.531558704632668E+03
             -0.345287982557810E+03
             -0.335154539870619E+03
             -0.466717432600899E+03
             -0.676070088814358E+02
             -0.398122052932677E+03
              0.514058196385254E+02
             -0.574076558612046E+02
             -0.315897264016082E+03
[...]
              0.394456430059633E+03
              0.252619961085557E+03
              0.257555001073297E+03
             -0.476719644364173E+03
             -0.492313679055680E+03
             -0.110993679954712E+03
             -0.440051323880106E+03
              0.698662371145014E+03
              0.588448976300760E+03
              0.277597442217142E+03
              0.765139614250750E+03
             -0.382270878163578E+03
             -0.164728100882089E+03
             -0.237472499765869E+03
              0.662028947744421E+03

 BEEF-vdW xc energy contributions
            1 :    -5983.731413550576
            2 :     5482.723482124034
            3 :    -4628.646118339318
            4 :     3649.462984128576
            5 :    -2759.704487308946
            6 :     2091.161570946956
            7 :    -1671.363372550923
            8 :     1443.706270328955
            9 :    -1310.333340712192
           10 :     1179.163745351393
           11 :    -998.9088715537882
           12 :     770.0599148750616
           13 :    -530.2285890841003
           14 :     325.3278671583739
           15 :    -183.9192014382179
           16 :     106.5121754845304
           17 :    -70.81171765647468
           18 :     46.29381863007711
           19 :    -9.692333629675886
           20 :    -45.35089207099827
           21 :     108.1321085174959
           22 :    -159.5939465885358
           23 :     184.7383099875524
           24 :    -181.6047288600475
           25 :     162.0587087676022
           26 :    -144.7669921626612
           27 :     144.9681837832550
           28 :    -166.6730983245134
           29 :     201.0468360077220
           30 :    -231.4576642727498
           31 :    -515.6793595732142
           32 :    -371.0724845827599

     Writing all to output data dir ./PbI2.save/

     General routines

     Parallel routines

     PAW routines

   This run was terminated on:  12:16:37  12Mar2024

   JOB DONE.