     Program PWSCF v.7.1 starts on  8Mar2024 at  8:35:38

     Reading input from espresso.pwi
Warning: card &CELL ignored
Warning: card    CELL_DYNAMICS    = 'BFGS' ignored
Warning: card / ignored

     Current dimensions of program PWSCF are:
     Max number of different atomic species (ntypx) = 10
     Max number of k-points (npk) =  40000
     Max angular momentum in pseudopotentials (lmaxx) =  4
     file Pb.pbe-dn-kjpaw_psl.1.0.0.UPF: wavefunction(s)  6S 6P 5D renormalized
     file I.pbe-dn-kjpaw_psl.1.0.0.UPF: wavefunction(s)  5S 5P renormalized

     IMPORTANT: XC functional enforced from input :
     Exchange-correlation= BEEF-VDW
                           (   1   4  43  14   2   0   0)
     Any further DFT definition will be discarded
     Please, verify this is what you really want

     R & G space division:  proc/nbgrp/npool/nimage =     128
     Subspace diagonalization in iterative solution of the eigenvalue problem:
     a serial algorithm will be used

     Using Slab Decomposition

     bravais-lattice index     =            4
     lattice parameter (alat)  =      35.6120  a.u.
     unit-cell volume          =   30624.9051 (a.u.)^3
     number of atoms/cell      =           95
     number of atomic types    =            2
     number of electrons       =      1520.00
     number of Kohn-Sham states=          912
     kinetic-energy cutoff     =      70.0000  Ry
     charge density cutoff     =     350.0000  Ry
     scf convergence threshold =      1.0E-07
     mixing beta               =       0.7000
     number of iterations used =            8  plain     mixing
     energy convergence thresh.=      1.0E-04
     force convergence thresh. =      1.0E-03
     Exchange-correlation= BEEF-VDW
                           (   1   4  43  14   2   0   0)
     nstep                     =           50

     celldm(1)=  35.612033  celldm(2)=   0.000000  celldm(3)=   0.782986
     celldm(4)=   0.000000  celldm(5)=   0.000000  celldm(6)=   0.000000

     crystal axes: (cart. coord. in units of alat)
               a(1) = (   1.000000   0.000000   0.000000 )
               a(2) = (  -0.500000   0.866025   0.000000 )
               a(3) = (   0.000000   0.000000   0.782986 )

     reciprocal axes: (cart. coord. in units 2 pi/alat)
               b(1) = (  1.000000  0.577350 -0.000000 )
               b(2) = (  0.000000  1.154701  0.000000 )
               b(3) = (  0.000000 -0.000000  1.277163 )

     PseudoPot. # 1 for Pb read from file:
     /trace/group/acmegroup/atimmins/packages/espresso/pseudo/psl_1.0.0/pslibrary.1.0.0/pbe/PSEUDOPOTENTIALS/Pb.pbe-dn-kjpaw_psl.1.0.0.UPF
     MD5 check sum: 39ab5b8a6bbd56b7735ad9f188aac93a
     Pseudo is Projector augmented-wave + core cor, Zval = 14.0
     Generated using 'atomic' code by A. Dal Corso  v.7.1
     Shape of augmentation charge: PSQ
     Using radial grid of 1281 points,  6 beta functions with:
                l(1) =   0
                l(2) =   0
                l(3) =   1
                l(4) =   1
                l(5) =   2
                l(6) =   2
     Q(r) pseudized with 0 coefficients

     PseudoPot. # 2 for I  read from file:
     /trace/group/acmegroup/atimmins/packages/espresso/pseudo/psl_1.0.0/pslibrary.1.0.0/pbe/PSEUDOPOTENTIALS/I.pbe-dn-kjpaw_psl.1.0.0.UPF
     MD5 check sum: bfa8781bc1224d19af3f3980e3fab11e
     Pseudo is Projector augmented-wave + core cor, Zval = 17.0
     Generated using 'atomic' code by A. Dal Corso  v.7.1
     Shape of augmentation charge: PSQ
     Using radial grid of 1247 points,  6 beta functions with:
                l(1) =   0
                l(2) =   0
                l(3) =   1
                l(4) =   1
                l(5) =   2
                l(6) =   2
     Q(r) pseudized with 0 coefficients

     atomic species   valence    mass     pseudopotential
        Pb            14.00   207.20000     Pb( 1.00)
        I             17.00   126.90447     I ( 1.00)

     No symmetry found

                                    s                        frac. trans.

      isym =  1     identity

 cryst.   s( 1) = (     1          0          0      )
                  (     0          1          0      )
                  (     0          0          1      )

 cart.    s( 1) = (  1.0000000  0.0000000  0.0000000 )
                  (  0.0000000  1.0000000  0.0000000 )
                  (  0.0000000  0.0000000  1.0000000 )

     point group C_1 (1)
     there are  1 classes
     the character table:

       E
A      1.00

     the symmetry operations in each class and the name of the first element:

     E        1
          identity

   Cartesian axes

     site n.     atom                  positions (alat units)
         1           Pb  tau(   1) = (   0.1250085   0.2164873   0.7829825  )
         2           Pb  tau(   2) = (   0.1250034   0.2164918   0.3914896  )
         3           Pb  tau(   3) = (   0.0000077   0.4329926   0.7829784  )
         4           Pb  tau(   4) = (   0.0000026   0.4329971   0.3914855  )
         5           Pb  tau(   5) = (  -0.1249932   0.6494980   0.7829742  )
         6           Pb  tau(   6) = (  -0.1249983   0.6495025   0.3914814  )
         7           Pb  tau(   7) = (  -0.2499940   0.8660033   0.7829701  )
         8           Pb  tau(   8) = (  -0.2499991   0.8660078   0.3914773  )
         9           Pb  tau(   9) = (   0.3750085   0.2164863   0.7829857  )
        10           Pb  tau(  10) = (   0.3750034   0.2164908   0.3914929  )
        11           Pb  tau(  11) = (   0.2500077   0.4329916   0.7829816  )
        12           Pb  tau(  12) = (   0.2500026   0.4329962   0.3914888  )
        13           Pb  tau(  13) = (   0.1250068   0.6494970   0.7829775  )
        14           Pb  tau(  14) = (   0.1250017   0.6495015   0.3914847  )
        15           Pb  tau(  15) = (   0.0000060   0.8660024   0.7829734  )
        16           Pb  tau(  16) = (   0.0000009   0.8660069   0.3914805  )
        17           Pb  tau(  17) = (   0.6250085   0.2164853   0.7829890  )
        18           Pb  tau(  18) = (   0.6250034   0.2164898   0.3914962  )
        19           Pb  tau(  19) = (   0.5000077   0.4329907   0.7829849  )
        20           Pb  tau(  20) = (   0.5000026   0.4329952   0.3914920  )
        21           Pb  tau(  21) = (   0.3750068   0.6494960   0.7829808  )
        22           Pb  tau(  22) = (   0.3750017   0.6495006   0.3914879  )
        23           Pb  tau(  23) = (   0.2500060   0.8660014   0.7829766  )
        24           Pb  tau(  24) = (   0.2500009   0.8660059   0.3914838  )
        25           Pb  tau(  25) = (   0.8750085   0.2164844   0.7829923  )
        26           Pb  tau(  26) = (   0.8750034   0.2164889   0.3914994  )
        27           Pb  tau(  27) = (   0.7500077   0.4329897   0.7829881  )
        28           Pb  tau(  28) = (   0.7500026   0.4329942   0.3914953  )
        29           Pb  tau(  29) = (   0.6250068   0.6494951   0.7829840  )
        30           Pb  tau(  30) = (   0.6250017   0.6494996   0.3914912  )
        31           Pb  tau(  31) = (   0.5000060   0.8660004   0.7829799  )
        32           Pb  tau(  32) = (   0.5000009   0.8660050   0.3914870  )
        33           I   tau(  33) = (   0.1250105   0.0721505   0.6824253  )
        34           I   tau(  34) = (   0.0000045   0.2886603   0.2909283  )
        35           I   tau(  35) = (   0.0000096   0.2886558   0.6824212  )
        36           I   tau(  36) = (  -0.1249963   0.5051657   0.2909242  )
        37           I   tau(  37) = (  -0.1249912   0.5051612   0.6824171  )
        38           I   tau(  38) = (  -0.2499971   0.7216710   0.2909201  )
        39           I   tau(  39) = (  -0.2499920   0.7216665   0.6824129  )
        40           I   tau(  40) = (   0.3750054   0.0721540   0.2909357  )
        41           I   tau(  41) = (   0.3750105   0.0721495   0.6824286  )
        42           I   tau(  42) = (   0.2500045   0.2886594   0.2909316  )
        43           I   tau(  43) = (   0.2500096   0.2886548   0.6824244  )
        44           I   tau(  44) = (   0.1250037   0.5051647   0.2909275  )
        45           I   tau(  45) = (   0.1250088   0.5051602   0.6824203  )
        46           I   tau(  46) = (   0.0000029   0.7216701   0.2909233  )
        47           I   tau(  47) = (   0.0000080   0.7216656   0.6824162  )
        48           I   tau(  48) = (   0.6250054   0.0721530   0.2909390  )
        49           I   tau(  49) = (   0.6250105   0.0721485   0.6824318  )
        50           I   tau(  50) = (   0.5000045   0.2886584   0.2909348  )
        51           I   tau(  51) = (   0.5000096   0.2886539   0.6824277  )
        52           I   tau(  52) = (   0.3750037   0.5051638   0.2909307  )
        53           I   tau(  53) = (   0.3750088   0.5051592   0.6824236  )
        54           I   tau(  54) = (   0.2500029   0.7216691   0.2909266  )
        55           I   tau(  55) = (   0.2500080   0.7216646   0.6824194  )
        56           I   tau(  56) = (   0.8750054   0.0721521   0.2909422  )
        57           I   tau(  57) = (   0.8750105   0.0721476   0.6824351  )
        58           I   tau(  58) = (   0.7500045   0.2886574   0.2909381  )
        59           I   tau(  59) = (   0.7500096   0.2886529   0.6824310  )
        60           I   tau(  60) = (   0.6250037   0.5051628   0.2909340  )
[...]
        81           I   tau(  81) = (   0.5000034   0.1443233   0.4920548  )
        82           I   tau(  82) = (   0.3749975   0.3608332   0.1005579  )
        83           I   tau(  83) = (   0.3750026   0.3608286   0.4920507  )
        84           I   tau(  84) = (   0.2499966   0.5773385   0.1005537  )
        85           I   tau(  85) = (   0.2500017   0.5773340   0.4920466  )
        86           I   tau(  86) = (   0.1249958   0.7938439   0.1005496  )
        87           I   tau(  87) = (   0.1250009   0.7938394   0.4920425  )
        88           I   tau(  88) = (   0.7499983   0.1443268   0.1005653  )
        89           I   tau(  89) = (   0.7500034   0.1443223   0.4920581  )
        90           I   tau(  90) = (   0.6249975   0.3608322   0.1005611  )
        91           I   tau(  91) = (   0.6250026   0.3608277   0.4920540  )
        92           I   tau(  92) = (   0.4999966   0.5773376   0.1005570  )
        93           I   tau(  93) = (   0.5000017   0.5773330   0.4920499  )
        94           I   tau(  94) = (   0.3749958   0.7938429   0.1005529  )
        95           I   tau(  95) = (   0.3750009   0.7938384   0.4920457  )

   Crystallographic axes

     site n.     atom                  positions (cryst. coord.)
         1           Pb  tau(   1) = (  0.2499975  0.2499780  0.9999959  )
         2           Pb  tau(   2) = (  0.2499950  0.2499832  0.4999959  )
         3           Pb  tau(   3) = (  0.2499961  0.4999768  0.9999906  )
         4           Pb  tau(   4) = (  0.2499936  0.4999820  0.4999906  )
         5           Pb  tau(   5) = (  0.2499947  0.7499757  0.9999854  )
         6           Pb  tau(   6) = (  0.2499922  0.7499809  0.4999854  )
         7           Pb  tau(   7) = (  0.2499932  0.9999745  0.9999801  )
[...]
     atom   44 type  2   force =     0.00000000    0.00000000    0.00000000
     atom   45 type  2   force =     0.00000000    0.00000000    0.00000000
     atom   46 type  2   force =     0.00000000    0.00000000    0.00000000
     atom   47 type  2   force =     0.00000000    0.00000000    0.00000000
     atom   48 type  2   force =     0.00000000    0.00000000    0.00000000
     atom   49 type  2   force =     0.00000000    0.00000000    0.00000000
     atom   50 type  2   force =     0.00000000    0.00000000    0.00000000
     atom   51 type  2   force =     0.00000000    0.00000000    0.00000000
     atom   52 type  2   force =     0.00000000    0.00000000    0.00000000
     atom   53 type  2   force =     0.00000000    0.00000000    0.00000000
     atom   54 type  2   force =     0.00000000    0.00000000    0.00000000
     atom   55 type  2   force =     0.00000000    0.00000000    0.00000000
     atom   56 type  2   force =     0.00000000    0.00000000    0.00000000
     atom   57 type  2   force =     0.00000000    0.00000000    0.00000000
     atom   58 type  2   force =     0.00000000    0.00000000    0.00000000
     atom   59 type  2   force =     0.00000000    0.00000000    0.00000000
     atom   60 type  2   force =     0.00000000    0.00000000    0.00000000
[...]
     atom   81 type  2   force =     0.00000000    0.00000000    0.00000000
     atom   82 type  2   force =     0.00000000    0.00000000    0.00000000
     atom   83 type  2   force =     0.00000000    0.00000000    0.00000000
     atom   84 type  2   force =     0.00000000    0.00000000    0.00000000
     atom   85 type  2   force =     0.00000000    0.00000000    0.00000000
     atom   86 type  2   force =     0.00000000    0.00000000    0.00000000
     atom   87 type  2   force =     0.00000000    0.00000000    0.00000000
     atom   88 type  2   force =     0.00000000    0.00000000    0.00000000
     atom   89 type  2   force =     0.00000000    0.00000000    0.00000000
     atom   90 type  2   force =     0.00000000    0.00000000    0.00000000
     atom   91 type  2   force =     0.00000000    0.00000000    0.00000000
     atom   92 type  2   force =     0.00000000    0.00000000    0.00000000
     atom   93 type  2   force =     0.00000000    0.00000000    0.00000000
     atom   94 type  2   force =     0.00000000    0.00000000    0.00000000
     atom   95 type  2   force =     0.00000000    0.00000000    0.00000000
     The SCF correction term to forces
     atom    1 type  1   force =    -0.00000294   -0.00001387    0.00000055
     atom    2 type  1   force =    -0.00000626   -0.00000867   -0.00000049
     atom    3 type  1   force =    -0.00001462   -0.00001946    0.00000448
     atom    4 type  1   force =    -0.00001488   -0.00001447   -0.00000443
     atom    5 type  1   force =    -0.00002253   -0.00000572    0.00000450
     atom    6 type  1   force =    -0.00001770   -0.00000973   -0.00000463
     atom    7 type  1   force =    -0.00001509    0.00000715    0.00000079
     atom    8 type  1   force =    -0.00001405    0.00000475   -0.00000136
     atom    9 type  1   force =     0.00000269    0.00000342   -0.00000468
     atom   10 type  1   force =     0.00000810    0.00000739    0.00000204
     atom   11 type  1   force =     0.00001448   -0.00001627    0.00000467
     atom   12 type  1   force =     0.00001492   -0.00001092   -0.00000438
     atom   13 type  1   force =     0.00000270   -0.00000018    0.00001431
     atom   14 type  1   force =     0.00000311   -0.00000023   -0.00001738
     atom   15 type  1   force =    -0.00000512    0.00002164    0.00000464
     atom   16 type  1   force =     0.00000100    0.00001932   -0.00000459
     atom   17 type  1   force =     0.00000279    0.00000918   -0.00000820
     atom   18 type  1   force =     0.00000292    0.00000850    0.00000936
     atom   19 type  1   force =     0.00000784   -0.00000311   -0.00000822
     atom   20 type  1   force =     0.00000710   -0.00000258    0.00000944
     atom   21 type  1   force =     0.00002272   -0.00000215    0.00000456
     atom   22 type  1   force =     0.00001886   -0.00000397   -0.00000415
     atom   23 type  1   force =     0.00001103    0.00002172    0.00000451
     atom   24 type  1   force =     0.00000775    0.00001925   -0.00000408
     atom   25 type  1   force =    -0.00000248   -0.00000008   -0.00000515
     atom   26 type  1   force =    -0.00000656    0.00000166    0.00000214
     atom   27 type  1   force =    -0.00000781   -0.00000625   -0.00000824
     atom   28 type  1   force =    -0.00000719   -0.00000600    0.00000923
     atom   29 type  1   force =    -0.00000286   -0.00000316   -0.00000496
     atom   30 type  1   force =    -0.00000416   -0.00000882    0.00000213
     atom   31 type  1   force =     0.00000919    0.00000718    0.00000041
     atom   32 type  1   force =     0.00000161    0.00000484    0.00000035
     atom   33 type  2   force =    -0.00000545    0.00000027    0.00000846
     atom   34 type  2   force =    -0.00001772   -0.00000398   -0.00000611
     atom   35 type  2   force =    -0.00000963   -0.00002061    0.00000383
     atom   36 type  2   force =    -0.00002064   -0.00001508    0.00001184
     atom   37 type  2   force =    -0.00002774   -0.00001900   -0.00000154
     atom   38 type  2   force =    -0.00001291   -0.00001600   -0.00000873
     atom   39 type  2   force =    -0.00002328    0.00000115    0.00000395
     atom   40 type  2   force =     0.00000849    0.00001653   -0.00000948
     atom   41 type  2   force =    -0.00001199    0.00001718    0.00000396
     atom   42 type  2   force =     0.00001399    0.00000137   -0.00000762
     atom   43 type  2   force =     0.00000600   -0.00001676    0.00000371
     atom   44 type  2   force =     0.00000107   -0.00001123   -0.00000290
     atom   45 type  2   force =     0.00000107   -0.00002849    0.00000100
     atom   46 type  2   force =    -0.00000603    0.00000393   -0.00000377
     atom   47 type  2   force =    -0.00002131    0.00001279    0.00000092
     atom   48 type  2   force =     0.00000494    0.00002424    0.00001192
     atom   49 type  2   force =     0.00000469    0.00003231   -0.00000151
     atom   50 type  2   force =     0.00000819    0.00000582    0.00001917
     atom   51 type  2   force =     0.00000619    0.00000436   -0.00000670
     atom   52 type  2   force =     0.00002095   -0.00000961    0.00001201
     atom   53 type  2   force =     0.00002772   -0.00001358   -0.00000162
     atom   54 type  2   force =     0.00001306    0.00000679   -0.00000211
     atom   55 type  2   force =     0.00002759    0.00001518    0.00000105
     atom   56 type  2   force =    -0.00000492    0.00001321   -0.00000456
     atom   57 type  2   force =     0.00001269    0.00001552    0.00000351
     atom   58 type  2   force =    -0.00000435    0.00000180    0.00001964
     atom   59 type  2   force =    -0.00000257    0.00000086   -0.00000633
     atom   60 type  2   force =    -0.00000162   -0.00000755    0.00001938
[...]
     atom   81 type  2   force =     0.00001400    0.00002701   -0.00000874
     atom   82 type  2   force =     0.00000636   -0.00000811   -0.00000197
     atom   83 type  2   force =     0.00002711   -0.00000082   -0.00000930
     atom   84 type  2   force =     0.00001673   -0.00000734    0.00001371
     atom   85 type  2   force =     0.00002645   -0.00001255   -0.00001117
     atom   86 type  2   force =     0.00000463    0.00001747    0.00001403
     atom   87 type  2   force =     0.00000555    0.00002825   -0.00001081
     atom   88 type  2   force =     0.00000910    0.00000994   -0.00000247
     atom   89 type  2   force =    -0.00000620    0.00002362   -0.00000983
     atom   90 type  2   force =     0.00000124   -0.00000004   -0.00000721
     atom   91 type  2   force =     0.00000115   -0.00000002   -0.00001184
     atom   92 type  2   force =     0.00001077    0.00000138   -0.00000223
     atom   93 type  2   force =     0.00001473   -0.00001926   -0.00000971
     atom   94 type  2   force =     0.00002000    0.00001228    0.00000346
     atom   95 type  2   force =     0.00001398    0.00000911   -0.00000294

     Total force =     0.003208     Total SCF correction =     0.000193

     Computing stress (Cartesian axis) and pressure

     Non-local corr. energy    =      45.46537079 Ry

          total   stress  (Ry/bohr**3)                   (kbar)     P=        4.53
   0.00002866  -0.00000000   0.00000000            4.22       -0.00        0.00
  -0.00000000   0.00002866  -0.00000000           -0.00        4.22       -0.00
   0.00000000  -0.00000000   0.00003506            0.00       -0.00        5.16

     kinetic stress (kbar)  14860.93      0.00      0.00
                                0.00  14860.93     -0.00
                                0.00     -0.00  14871.62

     local   stress (kbar)  -7758.23     -0.01     -0.01
                               -0.01  -7758.20     -0.01
                               -0.01     -0.01   1586.83

     nonloc. stress (kbar)  -1095.67      0.00      0.00
                                0.00  -1095.67     -0.00
                                0.00     -0.00  -1101.70

     hartree stress (kbar)  12042.74      0.01      0.00
                                0.01  12042.73      0.00
                                0.00      0.00   7829.46

     exc-cor stress (kbar)   6861.25     -0.00      0.00
                               -0.00   6861.25     -0.00
                                0.00     -0.00   6859.93

     corecor stress (kbar) -11175.07     -0.00     -0.00
                               -0.00 -11175.07     -0.00
                               -0.00     -0.00 -11174.99

     ewald   stress (kbar) -13813.97      0.00      0.01
                                0.00 -13813.99      0.00
                                0.01      0.00 -18949.67

     hubbard stress (kbar)      0.00      0.00      0.00
                                0.00      0.00      0.00
                                0.00      0.00      0.00

     DFT-D   stress (kbar)      0.00      0.00      0.00
                                0.00      0.00      0.00
                                0.00      0.00      0.00

     XDM     stress (kbar)      0.00      0.00      0.00
                                0.00      0.00      0.00
                                0.00      0.00      0.00

     dft-nl  stress (kbar)     82.23      0.00     -0.00
                                0.00     82.23      0.00
                               -0.00      0.00     83.67

     TS-vdW  stress (kbar)      0.00      0.00      0.00
                                0.00      0.00      0.00
                                0.00      0.00      0.00

     MDB     stress (kbar)      0.00      0.00      0.00
                                0.00      0.00      0.00
                                0.00      0.00      0.00

     3D-RISM stress (kbar)      0.00      0.00      0.00
                                0.00      0.00      0.00
                                0.00      0.00      0.00

     Energy error            =      2.7E-05 Ry
     Gradient error          =      8.9E-04 Ry/Bohr

     bfgs converged in  18 scf cycles and  17 bfgs steps
     (criteria: energy <  1.0E-04 Ry, force <  1.0E-03 Ry/Bohr)

     End of BFGS Geometry Optimization

     Final energy             =  -64192.1361389463 Ry

     File ./PbI2.bfgs deleted, as requested
Begin final coordinates

ATOMIC_POSITIONS (angstrom)
Pb            2.3557709866        4.0769364388       14.7731755183
Pb            2.3558795571        3.5386223403        7.2786458036
Pb            0.0044715219        8.1626465003       14.7508713841
Pb            0.0555608368        8.1001899069        7.3892108219
Pb           -2.3509864798       12.2424305648       14.7508164559
Pb           -2.3794465829       12.3177983352        7.3891586604
Pb           -4.7135702295       16.3212885711       14.7731235797
Pb           -5.1794672121       16.5903339372        7.2785226086
Pb            7.0630177538        4.0773640192       14.7746009295
Pb            7.0636957217        4.0777569447        7.3245722315
Pb            4.7069202608        8.1625650351       14.7511324981
Pb            4.6558482346        8.1001445178        7.3894035034
Pb            2.3556390284       12.2399380199       14.7375217066
Pb            2.3556593887       12.2399487757        7.3812707937
Pb            0.0001778650       16.3147369268       14.7510466521
Pb           -0.0793617807       16.3016684720        7.3893840266
Pb           11.7782121520        4.0714615206       14.7627852287
Pb           11.7782221525        4.0406157344        7.3848930828
Pb            9.4154942984        8.1639016568       14.7627501591
Pb            9.3887838270        8.1793482538        7.3849839086
Pb            7.0623862825       12.2423581536       14.7510438506
Pb            7.0909195570       12.3177297845        7.3894456571
Pb            4.7111253091       16.3147448705       14.7510554872
Pb            4.7907480357       16.3017195158        7.3894382458
Pb           16.4935136667        4.0774285299       14.7744070836
Pb           16.4927590680        4.0778357426        7.3242900321
Pb           14.1410195453        8.1639946798       14.7625189598
Pb           14.1677240379        8.1794001481        7.3846637931
Pb           11.7782974640       12.2444863722       14.7742524852
Pb           11.7782825744       12.2436483575        7.3243845057
Pb            9.4250754824       16.3212888556       14.7731325057
Pb            9.8913403900       16.5903922209        7.2786409823
I             2.3557677353        1.3597315943       12.8915121786
I             0.0136410038        5.3531537788        5.5120035851
I             0.0015798829        5.4330033944       12.8819058599
I            -2.3735836290        9.5095419390        5.4957306839
I            -2.3555981927        9.5199983758       12.8704376096
I            -4.7794227240       13.6550225264        5.5117465433
I            -4.7163400598       13.6047096762       12.8815636338
I             6.9851409257        1.3911674655        5.5118830829
I             7.0603377495        1.3618830037       12.8817958338
I             4.6979630865        5.3531095018        5.5120261605
I             4.7099642880        5.4329979834       12.8819305946
I             2.3557477462        9.5181786977        5.4720385439
I             2.3557479892        9.5203955277       12.8679017411
I            -0.0014368014       13.6009192602        5.4718337760
I             0.0004184763       13.5998468710       12.8677045669
I            11.7781715066        1.3804289282        5.4960798693
I            11.7781345960        1.3597463353       12.8707377007
I             9.4083856179        5.4316150180        5.4928199369
I             9.4109135740        5.4330226178       12.8880244410
I             7.0849584918        9.5094663986        5.4961551403
I             7.0669723641        9.5198617202       12.8707461490
I             4.7128792877       13.6008694687        5.4721600169
I             4.7108920958       13.5997546659       12.8679652463
I            16.5711902530        1.3912275779        5.5120920352
I            16.4961339710        1.3618340151       12.8819805797
I            14.1479745571        5.4316127964        5.4927442697
I            14.1454407120        5.4330684348       12.8880138693
I            11.7781674343        9.5362338460        5.4926290820
[...]
I             9.4241450189        2.7142949775        9.2662735467
I             7.0640461209        6.8027443669        1.8857562519
I             7.0630364096        6.8038146200        9.2661951754
I             4.7110341005       10.8801287867        1.8754468446
I             4.7160398889       10.8771388321        9.2321991251
I             2.3556073799       14.9597363560        1.8755582990
I             2.3556050249       14.9655571321        9.2323407081
I            14.1327955129        2.7157559025        1.8857080769
I            14.1323316387        2.7143844287        9.2661260266
I            11.7783106731        6.7998903571        1.8857295794
I            11.7782960807        6.7998699043        9.2586942533
I             9.4186939777       10.8810439318        1.8855451788
I             9.4172518314       10.8813245455        9.2661540562
I             7.0633075583       14.9578969433        1.8864646408
I             7.0214367133       14.9336445867        9.2415710271
End final coordinates

     Writing all to output data dir ./PbI2.save/

     General routines

     Parallel routines

     PAW routines

   This run was terminated on:  23:59: 4   8Mar2024

   JOB DONE.