     Program PWSCF v.7.1 starts on  9Mar2024 at  9:24: 6

     Reading input from espresso.pwi
Warning: card &CELL ignored
Warning: card    CELL_DYNAMICS    = 'BFGS' ignored
Warning: card / ignored

     Current dimensions of program PWSCF are:
     Max number of different atomic species (ntypx) = 10
     Max number of k-points (npk) =  40000
     Max angular momentum in pseudopotentials (lmaxx) =  4
     file Pb.pbe-dn-kjpaw_psl.1.0.0.UPF: wavefunction(s)  6S 6P 5D renormalized
     file I.pbe-dn-kjpaw_psl.1.0.0.UPF: wavefunction(s)  5S 5P renormalized

     IMPORTANT: XC functional enforced from input :
     Exchange-correlation= BEEF-VDW
                           (   1   4  43  14   2   0   0)
     Any further DFT definition will be discarded
     Please, verify this is what you really want

     R & G space division:  proc/nbgrp/npool/nimage =     128
     Subspace diagonalization in iterative solution of the eigenvalue problem:
     a serial algorithm will be used

     Using Slab Decomposition

     bravais-lattice index     =            4
     lattice parameter (alat)  =      35.6120  a.u.
     unit-cell volume          =   30624.9051 (a.u.)^3
     number of atoms/cell      =           95
     number of atomic types    =            2
     number of electrons       =      1520.00
     number of Kohn-Sham states=          912
     kinetic-energy cutoff     =      70.0000  Ry
     charge density cutoff     =     350.0000  Ry
     scf convergence threshold =      1.0E-07
     mixing beta               =       0.7000
     number of iterations used =            8  plain     mixing
     Exchange-correlation= BEEF-VDW
                           (   1   4  43  14   2   0   0)

     celldm(1)=  35.612033  celldm(2)=   0.000000  celldm(3)=   0.782986
     celldm(4)=   0.000000  celldm(5)=   0.000000  celldm(6)=   0.000000

     crystal axes: (cart. coord. in units of alat)
               a(1) = (   1.000000   0.000000   0.000000 )
               a(2) = (  -0.500000   0.866025   0.000000 )
               a(3) = (   0.000000   0.000000   0.782986 )

     reciprocal axes: (cart. coord. in units 2 pi/alat)
               b(1) = (  1.000000  0.577350 -0.000000 )
               b(2) = (  0.000000  1.154701  0.000000 )
               b(3) = (  0.000000 -0.000000  1.277163 )

     PseudoPot. # 1 for Pb read from file:
     /trace/group/acmegroup/atimmins/packages/espresso/pseudo/psl_1.0.0/pslibrary.1.0.0/pbe/PSEUDOPOTENTIALS/Pb.pbe-dn-kjpaw_psl.1.0.0.UPF
     MD5 check sum: 39ab5b8a6bbd56b7735ad9f188aac93a
     Pseudo is Projector augmented-wave + core cor, Zval = 14.0
     Generated using 'atomic' code by A. Dal Corso  v.7.1
     Shape of augmentation charge: PSQ
     Using radial grid of 1281 points,  6 beta functions with:
                l(1) =   0
                l(2) =   0
                l(3) =   1
                l(4) =   1
                l(5) =   2
                l(6) =   2
     Q(r) pseudized with 0 coefficients

     PseudoPot. # 2 for I  read from file:
     /trace/group/acmegroup/atimmins/packages/espresso/pseudo/psl_1.0.0/pslibrary.1.0.0/pbe/PSEUDOPOTENTIALS/I.pbe-dn-kjpaw_psl.1.0.0.UPF
     MD5 check sum: bfa8781bc1224d19af3f3980e3fab11e
     Pseudo is Projector augmented-wave + core cor, Zval = 17.0
     Generated using 'atomic' code by A. Dal Corso  v.7.1
     Shape of augmentation charge: PSQ
     Using radial grid of 1247 points,  6 beta functions with:
                l(1) =   0
                l(2) =   0
                l(3) =   1
                l(4) =   1
                l(5) =   2
                l(6) =   2
     Q(r) pseudized with 0 coefficients

     atomic species   valence    mass     pseudopotential
        Pb            14.00   207.20000     Pb( 1.00)
        I             17.00   126.90447     I ( 1.00)

     No symmetry found

                                    s                        frac. trans.

      isym =  1     identity

 cryst.   s( 1) = (     1          0          0      )
                  (     0          1          0      )
                  (     0          0          1      )

 cart.    s( 1) = (  1.0000000  0.0000000  0.0000000 )
                  (  0.0000000  1.0000000  0.0000000 )
                  (  0.0000000  0.0000000  1.0000000 )

     point group C_1 (1)
     there are  1 classes
     the character table:

       E
A      1.00

     the symmetry operations in each class and the name of the first element:

     E        1
          identity

   Cartesian axes

     site n.     atom                  positions (alat units)
         1           Pb  tau(   1) = (   0.1250085   0.2164873   0.7829825  )
         2           Pb  tau(   2) = (   0.1250034   0.2164918   0.3914896  )
         3           Pb  tau(   3) = (   0.0000077   0.4329926   0.7829784  )
         4           Pb  tau(   4) = (   0.0000026   0.4329971   0.3914855  )
         5           Pb  tau(   5) = (  -0.1249932   0.6494980   0.7829742  )
         6           Pb  tau(   6) = (  -0.1249983   0.6495025   0.3914814  )
         7           Pb  tau(   7) = (  -0.2499940   0.8660033   0.7829701  )
         8           Pb  tau(   8) = (  -0.2499991   0.8660078   0.3914773  )
         9           Pb  tau(   9) = (   0.3750085   0.2164863   0.7829857  )
        10           Pb  tau(  10) = (   0.3750034   0.2164908   0.3914929  )
        11           Pb  tau(  11) = (   0.2500077   0.4329916   0.7829816  )
        12           Pb  tau(  12) = (   0.2500026   0.4329962   0.3914888  )
        13           Pb  tau(  13) = (   0.1250068   0.6494970   0.7829775  )
        14           Pb  tau(  14) = (   0.1250017   0.6495015   0.3914847  )
        15           Pb  tau(  15) = (   0.0000060   0.8660024   0.7829734  )
        16           Pb  tau(  16) = (   0.0000009   0.8660069   0.3914805  )
        17           Pb  tau(  17) = (   0.6250085   0.2164853   0.7829890  )
        18           Pb  tau(  18) = (   0.6250034   0.2164898   0.3914962  )
        19           Pb  tau(  19) = (   0.5000077   0.4329907   0.7829849  )
        20           Pb  tau(  20) = (   0.5000026   0.4329952   0.3914920  )
        21           Pb  tau(  21) = (   0.3750068   0.6494960   0.7829808  )
        22           Pb  tau(  22) = (   0.3750017   0.6495006   0.3914879  )
        23           Pb  tau(  23) = (   0.2500060   0.8660014   0.7829766  )
        24           Pb  tau(  24) = (   0.2500009   0.8660059   0.3914838  )
        25           Pb  tau(  25) = (   0.8750085   0.2164844   0.7829923  )
        26           Pb  tau(  26) = (   0.8750034   0.2164889   0.3914994  )
        27           Pb  tau(  27) = (   0.7500077   0.4329897   0.7829881  )
        28           Pb  tau(  28) = (   0.7500026   0.4329942   0.3914953  )
        29           Pb  tau(  29) = (   0.6250068   0.6494951   0.7829840  )
        30           Pb  tau(  30) = (   0.6250017   0.6494996   0.3914912  )
        31           Pb  tau(  31) = (   0.5000060   0.8660004   0.7829799  )
        32           Pb  tau(  32) = (   0.5000009   0.8660050   0.3914870  )
        33           I   tau(  33) = (   0.1250105   0.0721505   0.6824253  )
        34           I   tau(  34) = (   0.0000045   0.2886603   0.2909283  )
        35           I   tau(  35) = (   0.0000096   0.2886558   0.6824212  )
        36           I   tau(  36) = (  -0.1249963   0.5051657   0.2909242  )
        37           I   tau(  37) = (  -0.1249912   0.5051612   0.6824171  )
        38           I   tau(  38) = (  -0.2499971   0.7216710   0.2909201  )
        39           I   tau(  39) = (  -0.2499920   0.7216665   0.6824129  )
        40           I   tau(  40) = (   0.3750054   0.0721540   0.2909357  )
        41           I   tau(  41) = (   0.3750105   0.0721495   0.6824286  )
        42           I   tau(  42) = (   0.2500045   0.2886594   0.2909316  )
        43           I   tau(  43) = (   0.2500096   0.2886548   0.6824244  )
        44           I   tau(  44) = (   0.1250037   0.5051647   0.2909275  )
        45           I   tau(  45) = (   0.1250088   0.5051602   0.6824203  )
        46           I   tau(  46) = (   0.0000029   0.7216701   0.2909233  )
        47           I   tau(  47) = (   0.0000080   0.7216656   0.6824162  )
        48           I   tau(  48) = (   0.6250054   0.0721530   0.2909390  )
        49           I   tau(  49) = (   0.6250105   0.0721485   0.6824318  )
        50           I   tau(  50) = (   0.5000045   0.2886584   0.2909348  )
        51           I   tau(  51) = (   0.5000096   0.2886539   0.6824277  )
        52           I   tau(  52) = (   0.3750037   0.5051638   0.2909307  )
        53           I   tau(  53) = (   0.3750088   0.5051592   0.6824236  )
        54           I   tau(  54) = (   0.2500029   0.7216691   0.2909266  )
        55           I   tau(  55) = (   0.2500080   0.7216646   0.6824194  )
        56           I   tau(  56) = (   0.8750054   0.0721521   0.2909422  )
        57           I   tau(  57) = (   0.8750105   0.0721476   0.6824351  )
        58           I   tau(  58) = (   0.7500045   0.2886574   0.2909381  )
        59           I   tau(  59) = (   0.7500096   0.2886529   0.6824310  )
        60           I   tau(  60) = (   0.6250037   0.5051628   0.2909340  )
[...]
        81           I   tau(  81) = (   0.5000034   0.1443233   0.4920548  )
        82           I   tau(  82) = (   0.3749975   0.3608332   0.1005579  )
        83           I   tau(  83) = (   0.3750026   0.3608286   0.4920507  )
        84           I   tau(  84) = (   0.2499966   0.5773385   0.1005537  )
        85           I   tau(  85) = (   0.2500017   0.5773340   0.4920466  )
        86           I   tau(  86) = (   0.1249958   0.7938439   0.1005496  )
        87           I   tau(  87) = (   0.1250009   0.7938394   0.4920425  )
        88           I   tau(  88) = (   0.7499983   0.1443268   0.1005653  )
        89           I   tau(  89) = (   0.7500034   0.1443223   0.4920581  )
        90           I   tau(  90) = (   0.6249975   0.3608322   0.1005611  )
        91           I   tau(  91) = (   0.6250026   0.3608277   0.4920540  )
        92           I   tau(  92) = (   0.4999966   0.5773376   0.1005570  )
        93           I   tau(  93) = (   0.5000017   0.5773330   0.4920499  )
        94           I   tau(  94) = (   0.3749958   0.7938429   0.1005529  )
        95           I   tau(  95) = (   0.3750009   0.7938384   0.4920457  )

   Crystallographic axes

     site n.     atom                  positions (cryst. coord.)
         1           Pb  tau(   1) = (  0.2499975  0.2499780  0.9999959  )
         2           Pb  tau(   2) = (  0.2499950  0.2499832  0.4999959  )
         3           Pb  tau(   3) = (  0.2499961  0.4999768  0.9999906  )
         4           Pb  tau(   4) = (  0.2499936  0.4999820  0.4999906  )
         5           Pb  tau(   5) = (  0.2499947  0.7499757  0.9999854  )
         6           Pb  tau(   6) = (  0.2499922  0.7499809  0.4999854  )
         7           Pb  tau(   7) = (  0.2499932  0.9999745  0.9999801  )
         8           Pb  tau(   8) = (  0.2499908  0.9999797  0.4999801  )
         9           Pb  tau(   9) = (  0.4999969  0.2499768  1.0000001  )
[...]
     atom   26 type  1   force =     0.00000000    0.00000000    0.00000000
     atom   27 type  1   force =     0.00000000    0.00000000    0.00000000
     atom   28 type  1   force =     0.00000000    0.00000000    0.00000000
     atom   29 type  1   force =     0.00000000    0.00000000    0.00000000
     atom   30 type  1   force =     0.00000000    0.00000000    0.00000000
     atom   31 type  1   force =     0.00000000    0.00000000    0.00000000
     atom   32 type  1   force =     0.00000000    0.00000000    0.00000000
     atom   33 type  2   force =     0.00000000    0.00000000    0.00000000
     atom   34 type  2   force =     0.00000000    0.00000000    0.00000000
     atom   35 type  2   force =     0.00000000    0.00000000    0.00000000
     atom   36 type  2   force =     0.00000000    0.00000000    0.00000000
     atom   37 type  2   force =     0.00000000    0.00000000    0.00000000
     atom   38 type  2   force =     0.00000000    0.00000000    0.00000000
     atom   39 type  2   force =     0.00000000    0.00000000    0.00000000
     atom   40 type  2   force =     0.00000000    0.00000000    0.00000000
     atom   41 type  2   force =     0.00000000    0.00000000    0.00000000
     atom   42 type  2   force =     0.00000000    0.00000000    0.00000000
     atom   43 type  2   force =     0.00000000    0.00000000    0.00000000
     atom   44 type  2   force =     0.00000000    0.00000000    0.00000000
     atom   45 type  2   force =     0.00000000    0.00000000    0.00000000
     atom   46 type  2   force =     0.00000000    0.00000000    0.00000000
     atom   47 type  2   force =     0.00000000    0.00000000    0.00000000
     atom   48 type  2   force =     0.00000000    0.00000000    0.00000000
     atom   49 type  2   force =     0.00000000    0.00000000    0.00000000
     atom   50 type  2   force =     0.00000000    0.00000000    0.00000000
     atom   51 type  2   force =     0.00000000    0.00000000    0.00000000
     atom   52 type  2   force =     0.00000000    0.00000000    0.00000000
     atom   53 type  2   force =     0.00000000    0.00000000    0.00000000
     atom   54 type  2   force =     0.00000000    0.00000000    0.00000000
     atom   55 type  2   force =     0.00000000    0.00000000    0.00000000
     atom   56 type  2   force =     0.00000000    0.00000000    0.00000000
     atom   57 type  2   force =     0.00000000    0.00000000    0.00000000
     atom   58 type  2   force =     0.00000000    0.00000000    0.00000000
     atom   59 type  2   force =     0.00000000    0.00000000    0.00000000
     atom   60 type  2   force =     0.00000000    0.00000000    0.00000000
[...]
     atom   81 type  2   force =     0.00000000    0.00000000    0.00000000
     atom   82 type  2   force =     0.00000000    0.00000000    0.00000000
     atom   83 type  2   force =     0.00000000    0.00000000    0.00000000
     atom   84 type  2   force =     0.00000000    0.00000000    0.00000000
     atom   85 type  2   force =     0.00000000    0.00000000    0.00000000
     atom   86 type  2   force =     0.00000000    0.00000000    0.00000000
     atom   87 type  2   force =     0.00000000    0.00000000    0.00000000
     atom   88 type  2   force =     0.00000000    0.00000000    0.00000000
     atom   89 type  2   force =     0.00000000    0.00000000    0.00000000
     atom   90 type  2   force =     0.00000000    0.00000000    0.00000000
     atom   91 type  2   force =     0.00000000    0.00000000    0.00000000
     atom   92 type  2   force =     0.00000000    0.00000000    0.00000000
     atom   93 type  2   force =     0.00000000    0.00000000    0.00000000
     atom   94 type  2   force =     0.00000000    0.00000000    0.00000000
     atom   95 type  2   force =     0.00000000    0.00000000    0.00000000
     The SCF correction term to forces
     atom    1 type  1   force =     0.00001387    0.00004957    0.00000446
     atom    2 type  1   force =     0.00002935    0.00001636   -0.00000549
     atom    3 type  1   force =     0.00005575    0.00008140   -0.00001425
     atom    4 type  1   force =     0.00005948    0.00006412    0.00001460
     atom    5 type  1   force =     0.00009090    0.00002072   -0.00001470
     atom    6 type  1   force =     0.00007434    0.00003860    0.00001572
     atom    7 type  1   force =     0.00005743   -0.00002586    0.00000355
     atom    8 type  1   force =     0.00004488   -0.00001031   -0.00000130
     atom    9 type  1   force =    -0.00000963   -0.00001423    0.00001250
     atom   10 type  1   force =    -0.00003839   -0.00003496   -0.00000760
     atom   11 type  1   force =    -0.00005556    0.00006651   -0.00001536
     atom   12 type  1   force =    -0.00005934    0.00004738    0.00001407
     atom   13 type  1   force =    -0.00001279    0.00000085   -0.00004666
     atom   14 type  1   force =    -0.00001469    0.00000097    0.00005090
     atom   15 type  1   force =     0.00002177   -0.00008573   -0.00001529
     atom   16 type  1   force =    -0.00000273   -0.00007959    0.00001546
     atom   17 type  1   force =    -0.00001293   -0.00004445    0.00002299
     atom   18 type  1   force =    -0.00001424   -0.00004922   -0.00002634
     atom   19 type  1   force =    -0.00003788    0.00001520    0.00002256
     atom   20 type  1   force =    -0.00004163    0.00001657   -0.00002683
     atom   21 type  1   force =    -0.00009170    0.00000401   -0.00001468
     atom   22 type  1   force =    -0.00007970    0.00001158    0.00001275
     atom   23 type  1   force =    -0.00004953   -0.00008563   -0.00001416
     atom   24 type  1   force =    -0.00003792   -0.00007937    0.00001288
     atom   25 type  1   force =     0.00000863    0.00000212    0.00001475
     atom   26 type  1   force =     0.00003084   -0.00000763   -0.00000833
     atom   27 type  1   force =     0.00003785    0.00002997    0.00002342
     atom   28 type  1   force =     0.00004185    0.00003309   -0.00002575
     atom   29 type  1   force =     0.00001357    0.00001137    0.00001375
     atom   30 type  1   force =     0.00001977    0.00004158   -0.00000799
     atom   31 type  1   force =    -0.00002958   -0.00002584    0.00000519
     atom   32 type  1   force =     0.00001378   -0.00001027   -0.00000926
     atom   33 type  2   force =     0.00002542   -0.00000122   -0.00002809
     atom   34 type  2   force =     0.00005607    0.00003204    0.00000334
     atom   35 type  2   force =     0.00004229    0.00007960   -0.00001077
     atom   36 type  2   force =     0.00008395    0.00006341   -0.00002738
     atom   37 type  2   force =     0.00011065    0.00007802    0.00000691
     atom   38 type  2   force =     0.00005902    0.00004508    0.00001639
     atom   39 type  2   force =     0.00009348    0.00000070   -0.00001196
     atom   40 type  2   force =    -0.00001469   -0.00006085    0.00001965
     atom   41 type  2   force =     0.00004309   -0.00007084   -0.00001194
     atom   42 type  2   force =    -0.00003818    0.00000718    0.00001083
     atom   43 type  2   force =    -0.00002578    0.00006229   -0.00001033
     atom   44 type  2   force =    -0.00000534    0.00005457    0.00001857
     atom   45 type  2   force =    -0.00000532    0.00010326    0.00000233
     atom   46 type  2   force =     0.00002914   -0.00001931    0.00002232
     atom   47 type  2   force =     0.00007345   -0.00004506    0.00000218
     atom   48 type  2   force =    -0.00002352   -0.00009883   -0.00002777
     atom   49 type  2   force =    -0.00002224   -0.00012912    0.00000687
     atom   50 type  2   force =    -0.00003772   -0.00002652   -0.00005387
     atom   51 type  2   force =    -0.00003249   -0.00002253    0.00001759
     atom   52 type  2   force =    -0.00008509    0.00003707   -0.00002855
     atom   53 type  2   force =    -0.00011090    0.00005245    0.00000760
     atom   54 type  2   force =    -0.00006299   -0.00003271    0.00001513
     atom   55 type  2   force =    -0.00010406   -0.00005665    0.00000246
     atom   56 type  2   force =    -0.00000187   -0.00004505   -0.00000379
     atom   57 type  2   force =    -0.00004639   -0.00006197   -0.00000930
     atom   58 type  2   force =     0.00001995   -0.00000821   -0.00005682
     atom   59 type  2   force =     0.00001597   -0.00000617    0.00001624
     atom   60 type  2   force =     0.00000703    0.00003464   -0.00005531
[...]
     atom   81 type  2   force =    -0.00004175   -0.00010490    0.00001937
     atom   82 type  2   force =    -0.00003955    0.00002831    0.00000771
     atom   83 type  2   force =    -0.00009586    0.00001368    0.00002197
     atom   84 type  2   force =    -0.00007354    0.00003144   -0.00004423
     atom   85 type  2   force =    -0.00010355    0.00004638    0.00003148
     atom   86 type  2   force =    -0.00002154   -0.00007610   -0.00004527
     atom   87 type  2   force =    -0.00002611   -0.00010881    0.00002980
     atom   88 type  2   force =    -0.00002917   -0.00005044    0.00000893
     atom   89 type  2   force =     0.00000492   -0.00008999    0.00002463
     atom   90 type  2   force =    -0.00000523    0.00000020    0.00002166
     atom   91 type  2   force =    -0.00000538    0.00000009    0.00003392
     atom   92 type  2   force =    -0.00004674    0.00000700    0.00000845
     atom   93 type  2   force =    -0.00006237    0.00005820    0.00002413
     atom   94 type  2   force =    -0.00007429   -0.00004642   -0.00001047
     atom   95 type  2   force =    -0.00006928   -0.00004437    0.00000923

     Total force =     0.003210     Total SCF correction =     0.000734
     SCF correction compared to forces is large: reduce conv_thr to get better values

     Computing stress (Cartesian axis) and pressure

[...]

          total   stress  (Ry/bohr**3)                   (kbar)     P=        4.53
   0.00002867  -0.00000000   0.00000000            4.22       -0.00        0.00
  -0.00000000   0.00002867  -0.00000000           -0.00        4.22       -0.00
   0.00000000  -0.00000000   0.00003507            0.00       -0.00        5.16

     kinetic stress (kbar)  14860.93      0.00      0.00
                                0.00  14860.93     -0.00
                                0.00     -0.00  14871.62

     local   stress (kbar)  -7758.24     -0.01     -0.01
                               -0.01  -7758.20     -0.01
                               -0.01     -0.01   1586.83

     nonloc. stress (kbar)  -1095.67      0.00      0.00
                                0.00  -1095.67     -0.00
                                0.00     -0.00  -1101.70

     hartree stress (kbar)  12042.74      0.01      0.00
                                0.01  12042.73      0.00
                                0.00      0.00   7829.46

     exc-cor stress (kbar)   6861.25     -0.00      0.00
                               -0.00   6861.25     -0.00
                                0.00     -0.00   6859.93

     corecor stress (kbar) -11175.07     -0.00     -0.00
                               -0.00 -11175.07     -0.00
                               -0.00     -0.00 -11174.99

     ewald   stress (kbar) -13813.97      0.00      0.01
                                0.00 -13813.99      0.00
                                0.01      0.00 -18949.67

     hubbard stress (kbar)      0.00      0.00      0.00
                                0.00      0.00      0.00
                                0.00      0.00      0.00

     DFT-D   stress (kbar)      0.00      0.00      0.00
                                0.00      0.00      0.00
                                0.00      0.00      0.00

     XDM     stress (kbar)      0.00      0.00      0.00
                                0.00      0.00      0.00
                                0.00      0.00      0.00

     dft-nl  stress (kbar)     82.23      0.00     -0.00
                                0.00     82.23      0.00
                               -0.00      0.00     83.67

     TS-vdW  stress (kbar)      0.00      0.00      0.00
                                0.00      0.00      0.00
                                0.00      0.00      0.00

     MDB     stress (kbar)      0.00      0.00      0.00
                                0.00      0.00      0.00
                                0.00      0.00      0.00

     3D-RISM stress (kbar)      0.00      0.00      0.00
                                0.00      0.00      0.00
                                0.00      0.00      0.00

[...]

     Non-local corr. energy    =      45.46536996 Ry

 BEEFens 2000 ensemble energies
             -0.382374200717679E+02
             -0.384654577734167E+03
             -0.175014332917995E+03
              0.134357270501699E+03
             -0.294001934118562E+03
             -0.359958164254102E+03
              0.184775155181127E+03
              0.757477561544192E+00
              0.311350997679704E+03
             -0.197030801138562E+02
              0.159436923907651E+03
              0.162545294926782E+02
             -0.122258034631055E+02
             -0.990405430230589E+01
              0.198674525460534E+03
             -0.149685128432854E+03
             -0.293803947559073E+03
             -0.948083593813321E+02
              0.849345741221561E+02
             -0.182917363407523E+01
              0.433140627618044E+03
              0.361541115934212E+03
             -0.222672195844630E+03
              0.769902840054233E+02
             -0.463978115656346E+03
              0.380851615814928E+03
              0.130268890206347E+03
              0.343890381213224E+03
              0.231770216396724E+03
             -0.107625764465137E+03
              0.848203167521965E+02
             -0.151610112096874E+03
              0.633005556877424E+02
              0.230572919117977E+03
              0.248162797416032E+03
             -0.107822633682369E+03
              0.547365238525919E+03
             -0.220299031653775E+03
             -0.146703548944195E+03
              0.218920955178554E+03
              0.965319486297103E+02
              0.166383918355100E+03
             -0.321328907652510E+03
             -0.209068506172102E+02
              0.308288626506944E+03
              0.402936901729556E+03
             -0.409121917945608E+03
              0.262432619925029E+02
              0.141905069745184E+03
              0.916109387505007E+02
              0.159957445130685E+03
              0.351294834310408E+03
             -0.228193818776564E+03
             -0.221448193397047E+03
             -0.308451329616317E+03
             -0.447417700163767E+02
             -0.263116964757589E+03
              0.339735534180456E+02
             -0.379579994550209E+02
             -0.208770855906541E+03
[...]
              0.260706271572875E+03
              0.166961120143674E+03
              0.170235543884632E+03
             -0.315058448018257E+03
             -0.325334401352326E+03
             -0.733674921763404E+02
             -0.290815295490538E+03
              0.461743274300750E+03
              0.388926297646980E+03
              0.183446426484676E+03
              0.505661159407061E+03
             -0.252651130766711E+03
             -0.108870797251331E+03
             -0.156907014260129E+03
              0.437478527742134E+03

 BEEF-vdW xc energy contributions
            1 :    -3954.585725482160
            2 :     3623.567633640316
            3 :    -3059.221804257469
            4 :     2412.049238745719
            5 :    -1823.698642762198
            6 :     1381.323263171476
            7 :    -1103.380461593208
            8 :     952.7471167752647
            9 :    -864.8343908232955
           10 :     778.6193762147277
           11 :    -659.9286764378840
           12 :     508.8894747993972
           13 :    -350.3414081948740
           14 :     214.7594824007720
           15 :    -121.1860990010891
           16 :     70.05174283178530
           17 :    -46.61003254186471
           18 :     30.61072476003210
           19 :    -6.596669231097621
           20 :    -29.67553631980263
           21 :     71.11970531804218
           22 :    -105.0912693959053
           23 :     121.6344752508085
           24 :    -119.4612707632868
           25 :     106.4771259663021
           26 :    -95.09003761592521
           27 :     95.38539788469097
           28 :    -109.9406107081422
           29 :     132.7770612475906
           30 :    -152.7548607791668
           31 :    -340.6800719222229
           32 :    -245.1312243599677

     Writing all to output data dir ./PbI2.save/

     General routines

     Parallel routines

     PAW routines

   This run was terminated on:   9:31:18   9Mar2024

   JOB DONE.