     Program PWSCF v.7.1 starts on 11Feb2024 at  7: 7:10

     Reading input from espresso.pwi
Warning: card &CELL ignored
Warning: card    CELL_DYNAMICS    = 'BFGS' ignored
Warning: card / ignored

     Current dimensions of program PWSCF are:
     Max number of different atomic species (ntypx) = 10
     Max number of k-points (npk) =  40000
     Max angular momentum in pseudopotentials (lmaxx) =  4
     file Pb.pbe-dn-kjpaw_psl.1.0.0.UPF: wavefunction(s)  6S 6P 5D renormalized
     file I.pbe-dn-kjpaw_psl.1.0.0.UPF: wavefunction(s)  5S 5P renormalized

     IMPORTANT: XC functional enforced from input :
     Exchange-correlation= BEEF-VDW
                           (   1   4  43  14   2   0   0)
     Any further DFT definition will be discarded
     Please, verify this is what you really want

     R & G space division:  proc/nbgrp/npool/nimage =     128
     Subspace diagonalization in iterative solution of the eigenvalue problem:
     a serial algorithm will be used

     Using Slab Decomposition

     bravais-lattice index     =            4
     lattice parameter (alat)  =      35.6120  a.u.
     unit-cell volume          =   30624.9051 (a.u.)^3
     number of atoms/cell      =           95
     number of atomic types    =            2
     number of electrons       =      1523.00
     number of Kohn-Sham states=          914
     kinetic-energy cutoff     =      70.0000  Ry
     charge density cutoff     =     350.0000  Ry
     scf convergence threshold =      1.0E-07
     mixing beta               =       0.7000
     number of iterations used =            8  plain     mixing
     energy convergence thresh.=      1.0E-04
     force convergence thresh. =      1.0E-03
     Exchange-correlation= BEEF-VDW
                           (   1   4  43  14   2   0   0)
     nstep                     =           50

     celldm(1)=  35.612033  celldm(2)=   0.000000  celldm(3)=   0.782986
     celldm(4)=   0.000000  celldm(5)=   0.000000  celldm(6)=   0.000000

     crystal axes: (cart. coord. in units of alat)
               a(1) = (   1.000000   0.000000   0.000000 )
               a(2) = (  -0.500000   0.866025   0.000000 )
               a(3) = (   0.000000   0.000000   0.782986 )

     reciprocal axes: (cart. coord. in units 2 pi/alat)
               b(1) = (  1.000000  0.577350 -0.000000 )
               b(2) = (  0.000000  1.154701  0.000000 )
               b(3) = (  0.000000 -0.000000  1.277163 )

     PseudoPot. # 1 for Pb read from file:
     //group///packages/espresso/pseudo/psl_1.0.0/pslibrary.1.0.0/pbe/PSEUDOPOTENTIALS/Pb.pbe-dn-kjpaw_psl.1.0.0.UPF
     MD5 check sum: 39ab5b8a6bbd56b7735ad9f188aac93a
     Pseudo is Projector augmented-wave + core cor, Zval = 14.0
     Generated using 'atomic' code by A. Dal Corso  v.7.1
     Shape of augmentation charge: PSQ
     Using radial grid of 1281 points,  6 beta functions with:
                l(1) =   0
                l(2) =   0
                l(3) =   1
                l(4) =   1
                l(5) =   2
                l(6) =   2
     Q(r) pseudized with 0 coefficients

     PseudoPot. # 2 for I  read from file:
     //group///packages/espresso/pseudo/psl_1.0.0/pslibrary.1.0.0/pbe/PSEUDOPOTENTIALS/I.pbe-dn-kjpaw_psl.1.0.0.UPF
     MD5 check sum: bfa8781bc1224d19af3f3980e3fab11e
     Pseudo is Projector augmented-wave + core cor, Zval = 17.0
     Generated using 'atomic' code by A. Dal Corso  v.7.1
     Shape of augmentation charge: PSQ
     Using radial grid of 1247 points,  6 beta functions with:
                l(1) =   0
                l(2) =   0
                l(3) =   1
                l(4) =   1
                l(5) =   2
                l(6) =   2
     Q(r) pseudized with 0 coefficients

     atomic species   valence    mass     pseudopotential
        Pb            14.00   207.20000     Pb( 1.00)
        I             17.00   126.90447     I ( 1.00)

     No symmetry found

                                    s                        frac. trans.

      isym =  1     identity

 cryst.   s( 1) = (     1          0          0      )
                  (     0          1          0      )
                  (     0          0          1      )

 cart.    s( 1) = (  1.0000000  0.0000000  0.0000000 )
                  (  0.0000000  1.0000000  0.0000000 )
                  (  0.0000000  0.0000000  1.0000000 )

     point group C_1 (1)
     there are  1 classes
     the character table:

       E
A      1.00

     the symmetry operations in each class and the name of the first element:

     E        1
          identity

   Cartesian axes

     site n.     atom                  positions (alat units)
         1           Pb  tau(   1) = (   0.1250034   0.2164918   0.3914896  )
         2           Pb  tau(   2) = (   0.0000077   0.4329926   0.7829784  )
         3           Pb  tau(   3) = (   0.0000026   0.4329971   0.3914855  )
         4           Pb  tau(   4) = (  -0.1249932   0.6494980   0.7829742  )
         5           Pb  tau(   5) = (  -0.1249983   0.6495025   0.3914814  )
         6           Pb  tau(   6) = (  -0.2499940   0.8660033   0.7829701  )
         7           Pb  tau(   7) = (  -0.2499991   0.8660078   0.3914773  )
         8           Pb  tau(   8) = (   0.3750085   0.2164863   0.7829857  )
         9           Pb  tau(   9) = (   0.3750034   0.2164908   0.3914929  )
        10           Pb  tau(  10) = (   0.2500077   0.4329916   0.7829816  )
        11           Pb  tau(  11) = (   0.2500026   0.4329962   0.3914888  )
        12           Pb  tau(  12) = (   0.1250068   0.6494970   0.7829775  )
        13           Pb  tau(  13) = (   0.1250017   0.6495015   0.3914847  )
        14           Pb  tau(  14) = (   0.0000060   0.8660024   0.7829734  )
        15           Pb  tau(  15) = (   0.0000009   0.8660069   0.3914805  )
        16           Pb  tau(  16) = (   0.6250085   0.2164853   0.7829890  )
        17           Pb  tau(  17) = (   0.6250034   0.2164898   0.3914962  )
        18           Pb  tau(  18) = (   0.5000077   0.4329907   0.7829849  )
        19           Pb  tau(  19) = (   0.5000026   0.4329952   0.3914920  )
        20           Pb  tau(  20) = (   0.3750068   0.6494960   0.7829808  )
        21           Pb  tau(  21) = (   0.3750017   0.6495006   0.3914879  )
        22           Pb  tau(  22) = (   0.2500060   0.8660014   0.7829766  )
        23           Pb  tau(  23) = (   0.2500009   0.8660059   0.3914838  )
        24           Pb  tau(  24) = (   0.8750085   0.2164844   0.7829923  )
        25           Pb  tau(  25) = (   0.8750034   0.2164889   0.3914994  )
        26           Pb  tau(  26) = (   0.7500077   0.4329897   0.7829881  )
        27           Pb  tau(  27) = (   0.7500026   0.4329942   0.3914953  )
        28           Pb  tau(  28) = (   0.6250068   0.6494951   0.7829840  )
        29           Pb  tau(  29) = (   0.6250017   0.6494996   0.3914912  )
        30           Pb  tau(  30) = (   0.5000060   0.8660004   0.7829799  )
        31           Pb  tau(  31) = (   0.5000009   0.8660050   0.3914870  )
        32           I   tau(  32) = (   0.1250054   0.0721550   0.2909325  )
        33           I   tau(  33) = (   0.1250105   0.0721505   0.6824253  )
        34           I   tau(  34) = (   0.0000045   0.2886603   0.2909283  )
        35           I   tau(  35) = (   0.0000096   0.2886558   0.6824212  )
        36           I   tau(  36) = (  -0.1249963   0.5051657   0.2909242  )
        37           I   tau(  37) = (  -0.1249912   0.5051612   0.6824171  )
        38           I   tau(  38) = (  -0.2499971   0.7216710   0.2909201  )
        39           I   tau(  39) = (  -0.2499920   0.7216665   0.6824129  )
        40           I   tau(  40) = (   0.3750054   0.0721540   0.2909357  )
        41           I   tau(  41) = (   0.3750105   0.0721495   0.6824286  )
        42           I   tau(  42) = (   0.2500045   0.2886594   0.2909316  )
        43           I   tau(  43) = (   0.2500096   0.2886548   0.6824244  )
        44           I   tau(  44) = (   0.1250037   0.5051647   0.2909275  )
        45           I   tau(  45) = (   0.1250088   0.5051602   0.6824203  )
        46           I   tau(  46) = (   0.0000029   0.7216701   0.2909233  )
        47           I   tau(  47) = (   0.0000080   0.7216656   0.6824162  )
        48           I   tau(  48) = (   0.6250054   0.0721530   0.2909390  )
        49           I   tau(  49) = (   0.6250105   0.0721485   0.6824318  )
        50           I   tau(  50) = (   0.5000045   0.2886584   0.2909348  )
        51           I   tau(  51) = (   0.5000096   0.2886539   0.6824277  )
        52           I   tau(  52) = (   0.3750037   0.5051638   0.2909307  )
        53           I   tau(  53) = (   0.3750088   0.5051592   0.6824236  )
        54           I   tau(  54) = (   0.2500029   0.7216691   0.2909266  )
        55           I   tau(  55) = (   0.2500080   0.7216646   0.6824194  )
        56           I   tau(  56) = (   0.8750054   0.0721521   0.2909422  )
        57           I   tau(  57) = (   0.8750105   0.0721476   0.6824351  )
        58           I   tau(  58) = (   0.7500045   0.2886574   0.2909381  )
        59           I   tau(  59) = (   0.7500096   0.2886529   0.6824310  )
        60           I   tau(  60) = (   0.6250037   0.5051628   0.2909340  )
[...]
        81           I   tau(  81) = (   0.5000034   0.1443233   0.4920548  )
        82           I   tau(  82) = (   0.3749975   0.3608332   0.1005579  )
        83           I   tau(  83) = (   0.3750026   0.3608286   0.4920507  )
        84           I   tau(  84) = (   0.2499966   0.5773385   0.1005537  )
        85           I   tau(  85) = (   0.2500017   0.5773340   0.4920466  )
        86           I   tau(  86) = (   0.1249958   0.7938439   0.1005496  )
        87           I   tau(  87) = (   0.1250009   0.7938394   0.4920425  )
        88           I   tau(  88) = (   0.7499983   0.1443268   0.1005653  )
        89           I   tau(  89) = (   0.7500034   0.1443223   0.4920581  )
        90           I   tau(  90) = (   0.6249975   0.3608322   0.1005611  )
        91           I   tau(  91) = (   0.6250026   0.3608277   0.4920540  )
        92           I   tau(  92) = (   0.4999966   0.5773376   0.1005570  )
        93           I   tau(  93) = (   0.5000017   0.5773330   0.4920499  )
        94           I   tau(  94) = (   0.3749958   0.7938429   0.1005529  )
        95           I   tau(  95) = (   0.3750009   0.7938384   0.4920457  )

   Crystallographic axes

     site n.     atom                  positions (cryst. coord.)
         1           Pb  tau(   1) = (  0.2499950  0.2499832  0.4999959  )
         2           Pb  tau(   2) = (  0.2499961  0.4999768  0.9999906  )
         3           Pb  tau(   3) = (  0.2499936  0.4999820  0.4999906  )
         4           Pb  tau(   4) = (  0.2499947  0.7499757  0.9999854  )
         5           Pb  tau(   5) = (  0.2499922  0.7499809  0.4999854  )
         6           Pb  tau(   6) = (  0.2499932  0.9999745  0.9999801  )
         7           Pb  tau(   7) = (  0.2499908  0.9999797  0.4999801  )
         8           Pb  tau(   8) = (  0.4999969  0.2499768  1.0000001  )
[...]
     atom   44 type  2   force =     0.00000000    0.00000000    0.00000000
     atom   45 type  2   force =     0.00000000    0.00000000    0.00000000
     atom   46 type  2   force =     0.00000000    0.00000000    0.00000000
     atom   47 type  2   force =     0.00000000    0.00000000    0.00000000
     atom   48 type  2   force =     0.00000000    0.00000000    0.00000000
     atom   49 type  2   force =     0.00000000    0.00000000    0.00000000
     atom   50 type  2   force =     0.00000000    0.00000000    0.00000000
     atom   51 type  2   force =     0.00000000    0.00000000    0.00000000
     atom   52 type  2   force =     0.00000000    0.00000000    0.00000000
     atom   53 type  2   force =     0.00000000    0.00000000    0.00000000
     atom   54 type  2   force =     0.00000000    0.00000000    0.00000000
     atom   55 type  2   force =     0.00000000    0.00000000    0.00000000
     atom   56 type  2   force =     0.00000000    0.00000000    0.00000000
     atom   57 type  2   force =     0.00000000    0.00000000    0.00000000
     atom   58 type  2   force =     0.00000000    0.00000000    0.00000000
     atom   59 type  2   force =     0.00000000    0.00000000    0.00000000
     atom   60 type  2   force =     0.00000000    0.00000000    0.00000000
[...]
     atom   81 type  2   force =     0.00000000    0.00000000    0.00000000
     atom   82 type  2   force =     0.00000000    0.00000000    0.00000000
     atom   83 type  2   force =     0.00000000    0.00000000    0.00000000
     atom   84 type  2   force =     0.00000000    0.00000000    0.00000000
     atom   85 type  2   force =     0.00000000    0.00000000    0.00000000
     atom   86 type  2   force =     0.00000000    0.00000000    0.00000000
     atom   87 type  2   force =     0.00000000    0.00000000    0.00000000
     atom   88 type  2   force =     0.00000000    0.00000000    0.00000000
     atom   89 type  2   force =     0.00000000    0.00000000    0.00000000
     atom   90 type  2   force =     0.00000000    0.00000000    0.00000000
     atom   91 type  2   force =     0.00000000    0.00000000    0.00000000
     atom   92 type  2   force =     0.00000000    0.00000000    0.00000000
     atom   93 type  2   force =     0.00000000    0.00000000    0.00000000
     atom   94 type  2   force =     0.00000000    0.00000000    0.00000000
     atom   95 type  2   force =     0.00000000    0.00000000    0.00000000
     The SCF correction term to forces
     atom    1 type  1   force =     0.00000115    0.00000022   -0.00000745
     atom    2 type  1   force =    -0.00000861   -0.00000451    0.00000340
     atom    3 type  1   force =     0.00000247   -0.00001872   -0.00000489
     atom    4 type  1   force =    -0.00001190   -0.00000681    0.00000642
     atom    5 type  1   force =    -0.00000971   -0.00000517   -0.00000640
     atom    6 type  1   force =    -0.00000036    0.00000029    0.00000991
     atom    7 type  1   force =    -0.00001117    0.00001366   -0.00000864
     atom    8 type  1   force =     0.00000265    0.00000657    0.00000725
     atom    9 type  1   force =    -0.00001513    0.00000565   -0.00000732
     atom   10 type  1   force =     0.00001048   -0.00000633    0.00000370
     atom   11 type  1   force =    -0.00000165   -0.00001930   -0.00000515
     atom   12 type  1   force =    -0.00000055   -0.00000660    0.00001773
     atom   13 type  1   force =    -0.00000050   -0.00001198   -0.00000826
     atom   14 type  1   force =    -0.00000776    0.00001006    0.00001950
     atom   15 type  1   force =    -0.00001132    0.00001009   -0.00000980
     atom   16 type  1   force =    -0.00000186    0.00001422    0.00000634
     atom   17 type  1   force =    -0.00000116    0.00001125   -0.00000646
     atom   18 type  1   force =     0.00000466   -0.00000369   -0.00000627
     atom   19 type  1   force =    -0.00000134   -0.00000443   -0.00000329
     atom   20 type  1   force =     0.00001186   -0.00000868    0.00000650
     atom   21 type  1   force =     0.00000977   -0.00000657   -0.00000633
     atom   22 type  1   force =     0.00000489    0.00000908    0.00001891
     atom   23 type  1   force =     0.00000965    0.00000973   -0.00000947
     atom   24 type  1   force =    -0.00000414    0.00000800    0.00000531
     atom   25 type  1   force =     0.00001505    0.00000627   -0.00000646
     atom   26 type  1   force =    -0.00000573   -0.00000235   -0.00000632
     atom   27 type  1   force =     0.00000063   -0.00000371   -0.00000310
     atom   28 type  1   force =     0.00000079   -0.00000790   -0.00000452
     atom   29 type  1   force =     0.00000050    0.00000061   -0.00000465
     atom   30 type  1   force =     0.00000330   -0.00000246    0.00000818
     atom   31 type  1   force =     0.00001263    0.00001322   -0.00000803
     atom   32 type  2   force =     0.00000203    0.00001207    0.00001736
     atom   33 type  2   force =     0.00000226    0.00000114   -0.00000242
     atom   34 type  2   force =     0.00000714   -0.00000654    0.00001954
     atom   35 type  2   force =    -0.00000555    0.00000156   -0.00000497
     atom   36 type  2   force =    -0.00000290   -0.00001148   -0.00000576
     atom   37 type  2   force =    -0.00002034   -0.00000947    0.00000369
     atom   38 type  2   force =    -0.00000823    0.00000507   -0.00000630
     atom   39 type  2   force =    -0.00001238   -0.00001556    0.00000480
     atom   40 type  2   force =    -0.00001501    0.00001211   -0.00000501
     atom   41 type  2   force =    -0.00000376    0.00000996    0.00000684
     atom   42 type  2   force =    -0.00000485   -0.00000783    0.00001846
     atom   43 type  2   force =     0.00000755    0.00000027   -0.00000304
     atom   44 type  2   force =     0.00000043   -0.00001960   -0.00000173
     atom   45 type  2   force =     0.00000047   -0.00001101    0.00000156
     atom   46 type  2   force =    -0.00000712   -0.00000103   -0.00002098
     atom   47 type  2   force =    -0.00001311   -0.00000519    0.00001103
     atom   48 type  2   force =    -0.00000125    0.00001098   -0.00002207
     atom   49 type  2   force =    -0.00000145    0.00002027    0.00001304
     atom   50 type  2   force =    -0.00000768    0.00000384   -0.00000774
     atom   51 type  2   force =     0.00000486    0.00001761    0.00000653
     atom   52 type  2   force =     0.00000292   -0.00001321   -0.00000580
     atom   53 type  2   force =     0.00002044   -0.00001181    0.00000429
     atom   54 type  2   force =     0.00000592   -0.00000198   -0.00002067
     atom   55 type  2   force =     0.00001170   -0.00000577    0.00001104
     atom   56 type  2   force =     0.00001450    0.00001159   -0.00000351
     atom   57 type  2   force =     0.00000283    0.00000912    0.00000428
     atom   58 type  2   force =     0.00000575    0.00000460   -0.00000719
     atom   59 type  2   force =    -0.00000666    0.00001808    0.00000566
     atom   60 type  2   force =    -0.00000025   -0.00000363   -0.00000651
[...]
     atom   81 type  2   force =    -0.00001192    0.00001800   -0.00000235
     atom   82 type  2   force =     0.00001017   -0.00000210    0.00000166
     atom   83 type  2   force =    -0.00000232   -0.00000476   -0.00000519
     atom   84 type  2   force =     0.00000665   -0.00000411    0.00000721
     atom   85 type  2   force =     0.00000756   -0.00002033   -0.00000293
     atom   86 type  2   force =    -0.00000119    0.00000546    0.00001446
     atom   87 type  2   force =    -0.00000095    0.00000310   -0.00000242
     atom   88 type  2   force =    -0.00000241    0.00000880    0.00000601
     atom   89 type  2   force =     0.00001011    0.00001826   -0.00000221
     atom   90 type  2   force =    -0.00000134    0.00000164   -0.00000943
     atom   91 type  2   force =    -0.00000058    0.00000834    0.00001213
     atom   92 type  2   force =     0.00000650   -0.00000753   -0.00000667
     atom   93 type  2   force =     0.00000975   -0.00000970    0.00000991
     atom   94 type  2   force =     0.00000267    0.00000019    0.00000916
     atom   95 type  2   force =     0.00001759    0.00000439   -0.00000389

     Total force =     0.005054     Total SCF correction =     0.000159

     Computing stress (Cartesian axis) and pressure

     Non-local corr. energy    =      45.78205940 Ry

          total   stress  (Ry/bohr**3)                   (kbar)     P=        4.76
   0.00003092   0.00000000  -0.00000000            4.55        0.00       -0.00
   0.00000000   0.00003092  -0.00000000            0.00        4.55       -0.00
  -0.00000000  -0.00000000   0.00003520           -0.00       -0.00        5.18

     kinetic stress (kbar)  14787.17      0.00      0.00
                                0.00  14787.17     -0.00
                                0.00     -0.00  14798.29

     local   stress (kbar)  -7476.87     -0.01     -0.01
                               -0.01  -7476.83     -0.02
                               -0.01     -0.02   1068.77

     nonloc. stress (kbar)   -987.96      0.00      0.00
                                0.00   -987.96     -0.00
                                0.00     -0.00   -993.11

     hartree stress (kbar)  11969.36      0.00      0.01
                                0.00  11969.35      0.01
                                0.01      0.01   8118.28

     exc-cor stress (kbar)   6897.70      0.00     -0.00
                                0.00   6897.70     -0.00
                               -0.00     -0.00   6896.68

     corecor stress (kbar) -11226.70      0.00      0.00
                                0.00 -11226.70      0.00
                                0.00      0.00 -11226.69

     ewald   stress (kbar) -14041.02      0.00      0.01
                                0.00 -14041.05      0.01
                                0.01      0.01 -18741.16

     hubbard stress (kbar)      0.00      0.00      0.00
                                0.00      0.00      0.00
                                0.00      0.00      0.00

     DFT-D   stress (kbar)      0.00      0.00      0.00
                                0.00      0.00      0.00
                                0.00      0.00      0.00

     XDM     stress (kbar)      0.00      0.00      0.00
                                0.00      0.00      0.00
                                0.00      0.00      0.00

     dft-nl  stress (kbar)     82.86     -0.00      0.00
                               -0.00     82.86      0.00
                                0.00      0.00     84.12

     TS-vdW  stress (kbar)      0.00      0.00      0.00
                                0.00      0.00      0.00
                                0.00      0.00      0.00

     MDB     stress (kbar)      0.00      0.00      0.00
                                0.00      0.00      0.00
                                0.00      0.00      0.00

     3D-RISM stress (kbar)      0.00      0.00      0.00
                                0.00      0.00      0.00
                                0.00      0.00      0.00

     Energy error            =      2.7E-05 Ry
     Gradient error          =      9.4E-04 Ry/Bohr

     bfgs converged in  13 scf cycles and  12 bfgs steps
     (criteria: energy <  1.0E-04 Ry, force <  1.0E-03 Ry/Bohr)

     End of BFGS Geometry Optimization

     Final energy             =  -63859.4333533682 Ry

     File ./PbI2.bfgs deleted, as requested
Begin final coordinates

ATOMIC_POSITIONS (angstrom)
Pb            2.3557068604        4.0797739490        7.3776660988
Pb            0.0698738893        8.0389562066       14.7552685232
Pb            0.0003418120        8.1593424028        7.3775770035
Pb           -2.3555507726       12.2398675914       14.7551869793
Pb           -2.3555900080       12.2398921116        7.3774734207
Pb           -4.7809522875       16.4408083247       14.7552554630
Pb           -4.7115060694       16.3204810367        7.3775093164
Pb            6.9274688027        4.0797003826       14.7554567034
Pb            7.0664158641        4.0797618196        7.3777593867
Pb            4.6415963193        8.0389461827       14.7553375500
Pb            4.7110512127        8.1593276591        7.3776698262
Pb            2.3557287059       12.2207641183       14.7793640258
Pb            2.3556831546       12.2385851448        7.3767855403
Pb           -0.0164421291       16.3294686682       14.7794197806
Pb           -0.0010799407       16.3206273552        7.3768066995
Pb           11.7782860702        4.0796930723       14.7555109033
Pb           11.7782456553        4.0797378030        7.3778123085
Pb            9.4061174760        8.1502277855       14.7312951187
Pb            9.4214571280        8.1591479636        7.3785037882
Pb            7.0669942736       12.2398337760       14.7553328241
Pb            7.0669476692       12.2398688800        7.3776234988
Pb            4.7278920742       16.3294459140       14.7794907328
Pb            4.7124481088       16.3206091388        7.3768691574
Pb           16.6291259780        4.0796951750       14.7554947360
Pb           16.4900701426        4.0797380389        7.3777682688
Pb           14.1504465393        8.1502271395       14.7312690289
Pb           14.1349963230        8.1591513520        7.3784622232
Pb           11.7782663441       12.2589249092       14.7311940929
Pb           11.7782151732       12.2411625949        7.3783652415
Pb            9.4924197437       16.4407835278       14.7553601998
Pb            9.4228606452       16.3204479112        7.3776044109
I             2.3556550263        1.3624444441        5.4898301670
I             2.3557299949        1.3260131083       12.9070349905
I             0.0023378618        5.4384587103        5.4899022327
I            -0.0290083671        5.4565429278       12.9070895443
I            -2.3537722099        9.5203559938        5.4956853191
I            -2.3756467688        9.5299982098       12.8741551194
I            -4.7099167516       13.6013478571        5.4956295221
I            -4.7124461828       13.5774007442       12.8740899836
I             7.0673461915        1.3595689990        5.4977675006
I             7.0673652376        1.3595875966       12.8569956431
I             4.7090457360        5.4384774241        5.4899354233
I             4.7406507952        5.4566109403       12.9070667618
I             2.3556977873        9.5203403956        5.4977311081
I             2.3557500771        9.5202563155       12.8569196140
I             0.0006663016       13.6003636703        5.4983115856
I            -0.0014899790       13.5990799605       12.8658486551
I            11.7782334074        1.3590757589        5.4985019990
I            11.7782303312        1.3615643471       12.8660513335
I             9.4221108916        5.4379739689        5.4958961014
I             9.4414248502        5.4520893262       12.8743544219
I             7.0651338967        9.5203479758        5.4957882158
I             7.0870480708        9.5299250548       12.8742388880
I             4.7107070366       13.6003514499        5.4983968403
I             4.7128936254       13.5990481148       12.8659169979
I            16.4890990591        1.3595502124        5.4978344026
I            16.4891233095        1.3595240269       12.8570900569
I            14.1343590591        5.4379558062        5.4958949727
I            14.1150494770        5.4520690342       12.8743755024
I            11.7782100255        9.5198617544        5.4962079220
[...]
I             9.4220388366        2.7215711345        9.2596042771
I             7.0673208361        6.8000533066        1.8982869854
I             7.0672984918        6.8000806939        9.2576168140
I             4.7100694212       10.9023544267        1.8810074844
I             4.7126284991       10.8785525176        9.2594868074
I             2.3556617788       14.9599409368        1.8814983281
I             2.3556325122       14.9599676872        9.2590329497
I            14.1150620448        2.7073761237        1.8811813471
I            14.1343677739        2.7215735576        9.2596191181
I            11.7782485308        6.7980771577        1.8894086121
I            11.7782108140        6.8006083702        9.2569583904
I             9.4210675202       10.8808247057        1.8893119381
I             9.4232091970       10.8795647735        9.2568457112
I             7.0468999168       14.9497656365        1.8810679676
I             7.0688069648       14.9594841388        9.2594807466
End final coordinates

     Writing all to output data dir ./PbI2.save/

     General routines

     Parallel routines

     PAW routines

   This run was terminated on:  19: 3:33  11Feb2024

   JOB DONE.