     Program PWSCF v.7.1 starts on 18Feb2024 at 10:11: 6

     Reading input from espresso.pwi
Warning: card &CELL ignored
Warning: card    CELL_DYNAMICS    = 'BFGS' ignored
Warning: card / ignored

     Current dimensions of program PWSCF are:
     Max number of different atomic species (ntypx) = 10
     Max number of k-points (npk) =  40000
     Max angular momentum in pseudopotentials (lmaxx) =  4
     file Pb.pbe-dn-kjpaw_psl.1.0.0.UPF: wavefunction(s)  6S 6P 5D renormalized
     file I.pbe-dn-kjpaw_psl.1.0.0.UPF: wavefunction(s)  5S 5P renormalized

     IMPORTANT: XC functional enforced from input :
     Exchange-correlation= BEEF-VDW
                           (   1   4  43  14   2   0   0)
     Any further DFT definition will be discarded
     Please, verify this is what you really want

     R & G space division:  proc/nbgrp/npool/nimage =     128
     Subspace diagonalization in iterative solution of the eigenvalue problem:
     a serial algorithm will be used

     Using Slab Decomposition

     bravais-lattice index     =            4
     lattice parameter (alat)  =      35.6120  a.u.
     unit-cell volume          =   30624.9051 (a.u.)^3
     number of atoms/cell      =           95
     number of atomic types    =            2
     number of electrons       =      1523.00
     number of Kohn-Sham states=          914
     kinetic-energy cutoff     =      70.0000  Ry
     charge density cutoff     =     350.0000  Ry
     scf convergence threshold =      1.0E-07
     mixing beta               =       0.7000
     number of iterations used =            8  plain     mixing
     Exchange-correlation= BEEF-VDW
                           (   1   4  43  14   2   0   0)

     celldm(1)=  35.612033  celldm(2)=   0.000000  celldm(3)=   0.782986
     celldm(4)=   0.000000  celldm(5)=   0.000000  celldm(6)=   0.000000

     crystal axes: (cart. coord. in units of alat)
               a(1) = (   1.000000   0.000000   0.000000 )
               a(2) = (  -0.500000   0.866025   0.000000 )
               a(3) = (   0.000000   0.000000   0.782986 )

     reciprocal axes: (cart. coord. in units 2 pi/alat)
               b(1) = (  1.000000  0.577350 -0.000000 )
               b(2) = (  0.000000  1.154701  0.000000 )
               b(3) = (  0.000000 -0.000000  1.277163 )

     PseudoPot. # 1 for Pb read from file:
     /trace/group/acmegroup/atimmins/packages/espresso/pseudo/psl_1.0.0/pslibrary.1.0.0/pbe/PSEUDOPOTENTIALS/Pb.pbe-dn-kjpaw_psl.1.0.0.UPF
     MD5 check sum: 39ab5b8a6bbd56b7735ad9f188aac93a
     Pseudo is Projector augmented-wave + core cor, Zval = 14.0
     Generated using 'atomic' code by A. Dal Corso  v.7.1
     Shape of augmentation charge: PSQ
     Using radial grid of 1281 points,  6 beta functions with:
                l(1) =   0
                l(2) =   0
                l(3) =   1
                l(4) =   1
                l(5) =   2
                l(6) =   2
     Q(r) pseudized with 0 coefficients

     PseudoPot. # 2 for I  read from file:
     /trace/group/acmegroup/atimmins/packages/espresso/pseudo/psl_1.0.0/pslibrary.1.0.0/pbe/PSEUDOPOTENTIALS/I.pbe-dn-kjpaw_psl.1.0.0.UPF
     MD5 check sum: bfa8781bc1224d19af3f3980e3fab11e
     Pseudo is Projector augmented-wave + core cor, Zval = 17.0
     Generated using 'atomic' code by A. Dal Corso  v.7.1
     Shape of augmentation charge: PSQ
     Using radial grid of 1247 points,  6 beta functions with:
                l(1) =   0
                l(2) =   0
                l(3) =   1
                l(4) =   1
                l(5) =   2
                l(6) =   2
     Q(r) pseudized with 0 coefficients

     atomic species   valence    mass     pseudopotential
        Pb            14.00   207.20000     Pb( 1.00)
        I             17.00   126.90447     I ( 1.00)

     No symmetry found

                                    s                        frac. trans.

      isym =  1     identity

 cryst.   s( 1) = (     1          0          0      )
                  (     0          1          0      )
                  (     0          0          1      )

 cart.    s( 1) = (  1.0000000  0.0000000  0.0000000 )
                  (  0.0000000  1.0000000  0.0000000 )
                  (  0.0000000  0.0000000  1.0000000 )

     point group C_1 (1)
     there are  1 classes
     the character table:

       E
A      1.00

     the symmetry operations in each class and the name of the first element:

     E        1
          identity

   Cartesian axes

     site n.     atom                  positions (alat units)
         1           Pb  tau(   1) = (   0.1250034   0.2164918   0.3914896  )
         2           Pb  tau(   2) = (   0.0000077   0.4329926   0.7829784  )
         3           Pb  tau(   3) = (   0.0000026   0.4329971   0.3914855  )
         4           Pb  tau(   4) = (  -0.1249932   0.6494980   0.7829742  )
         5           Pb  tau(   5) = (  -0.1249983   0.6495025   0.3914814  )
         6           Pb  tau(   6) = (  -0.2499940   0.8660033   0.7829701  )
         7           Pb  tau(   7) = (  -0.2499991   0.8660078   0.3914773  )
         8           Pb  tau(   8) = (   0.3750085   0.2164863   0.7829857  )
         9           Pb  tau(   9) = (   0.3750034   0.2164908   0.3914929  )
        10           Pb  tau(  10) = (   0.2500077   0.4329916   0.7829816  )
        11           Pb  tau(  11) = (   0.2500026   0.4329962   0.3914888  )
        12           Pb  tau(  12) = (   0.1250068   0.6494970   0.7829775  )
        13           Pb  tau(  13) = (   0.1250017   0.6495015   0.3914847  )
        14           Pb  tau(  14) = (   0.0000060   0.8660024   0.7829734  )
        15           Pb  tau(  15) = (   0.0000009   0.8660069   0.3914805  )
        16           Pb  tau(  16) = (   0.6250085   0.2164853   0.7829890  )
        17           Pb  tau(  17) = (   0.6250034   0.2164898   0.3914962  )
        18           Pb  tau(  18) = (   0.5000077   0.4329907   0.7829849  )
        19           Pb  tau(  19) = (   0.5000026   0.4329952   0.3914920  )
        20           Pb  tau(  20) = (   0.3750068   0.6494960   0.7829808  )
        21           Pb  tau(  21) = (   0.3750017   0.6495006   0.3914879  )
        22           Pb  tau(  22) = (   0.2500060   0.8660014   0.7829766  )
        23           Pb  tau(  23) = (   0.2500009   0.8660059   0.3914838  )
        24           Pb  tau(  24) = (   0.8750085   0.2164844   0.7829923  )
        25           Pb  tau(  25) = (   0.8750034   0.2164889   0.3914994  )
        26           Pb  tau(  26) = (   0.7500077   0.4329897   0.7829881  )
        27           Pb  tau(  27) = (   0.7500026   0.4329942   0.3914953  )
        28           Pb  tau(  28) = (   0.6250068   0.6494951   0.7829840  )
        29           Pb  tau(  29) = (   0.6250017   0.6494996   0.3914912  )
        30           Pb  tau(  30) = (   0.5000060   0.8660004   0.7829799  )
        31           Pb  tau(  31) = (   0.5000009   0.8660050   0.3914870  )
        32           I   tau(  32) = (   0.1250054   0.0721550   0.2909325  )
        33           I   tau(  33) = (   0.1250105   0.0721505   0.6824253  )
        34           I   tau(  34) = (   0.0000045   0.2886603   0.2909283  )
        35           I   tau(  35) = (   0.0000096   0.2886558   0.6824212  )
        36           I   tau(  36) = (  -0.1249963   0.5051657   0.2909242  )
        37           I   tau(  37) = (  -0.1249912   0.5051612   0.6824171  )
        38           I   tau(  38) = (  -0.2499971   0.7216710   0.2909201  )
        39           I   tau(  39) = (  -0.2499920   0.7216665   0.6824129  )
        40           I   tau(  40) = (   0.3750054   0.0721540   0.2909357  )
        41           I   tau(  41) = (   0.3750105   0.0721495   0.6824286  )
        42           I   tau(  42) = (   0.2500045   0.2886594   0.2909316  )
        43           I   tau(  43) = (   0.2500096   0.2886548   0.6824244  )
        44           I   tau(  44) = (   0.1250037   0.5051647   0.2909275  )
        45           I   tau(  45) = (   0.1250088   0.5051602   0.6824203  )
        46           I   tau(  46) = (   0.0000029   0.7216701   0.2909233  )
        47           I   tau(  47) = (   0.0000080   0.7216656   0.6824162  )
        48           I   tau(  48) = (   0.6250054   0.0721530   0.2909390  )
        49           I   tau(  49) = (   0.6250105   0.0721485   0.6824318  )
        50           I   tau(  50) = (   0.5000045   0.2886584   0.2909348  )
        51           I   tau(  51) = (   0.5000096   0.2886539   0.6824277  )
        52           I   tau(  52) = (   0.3750037   0.5051638   0.2909307  )
        53           I   tau(  53) = (   0.3750088   0.5051592   0.6824236  )
        54           I   tau(  54) = (   0.2500029   0.7216691   0.2909266  )
        55           I   tau(  55) = (   0.2500080   0.7216646   0.6824194  )
        56           I   tau(  56) = (   0.8750054   0.0721521   0.2909422  )
        57           I   tau(  57) = (   0.8750105   0.0721476   0.6824351  )
        58           I   tau(  58) = (   0.7500045   0.2886574   0.2909381  )
        59           I   tau(  59) = (   0.7500096   0.2886529   0.6824310  )
        60           I   tau(  60) = (   0.6250037   0.5051628   0.2909340  )
[...]
        81           I   tau(  81) = (   0.5000034   0.1443233   0.4920548  )
        82           I   tau(  82) = (   0.3749975   0.3608332   0.1005579  )
        83           I   tau(  83) = (   0.3750026   0.3608286   0.4920507  )
        84           I   tau(  84) = (   0.2499966   0.5773385   0.1005537  )
        85           I   tau(  85) = (   0.2500017   0.5773340   0.4920466  )
        86           I   tau(  86) = (   0.1249958   0.7938439   0.1005496  )
        87           I   tau(  87) = (   0.1250009   0.7938394   0.4920425  )
        88           I   tau(  88) = (   0.7499983   0.1443268   0.1005653  )
        89           I   tau(  89) = (   0.7500034   0.1443223   0.4920581  )
        90           I   tau(  90) = (   0.6249975   0.3608322   0.1005611  )
        91           I   tau(  91) = (   0.6250026   0.3608277   0.4920540  )
        92           I   tau(  92) = (   0.4999966   0.5773376   0.1005570  )
        93           I   tau(  93) = (   0.5000017   0.5773330   0.4920499  )
        94           I   tau(  94) = (   0.3749958   0.7938429   0.1005529  )
        95           I   tau(  95) = (   0.3750009   0.7938384   0.4920457  )

   Crystallographic axes

     site n.     atom                  positions (cryst. coord.)
         1           Pb  tau(   1) = (  0.2499950  0.2499832  0.4999959  )
         2           Pb  tau(   2) = (  0.2499961  0.4999768  0.9999906  )
         3           Pb  tau(   3) = (  0.2499936  0.4999820  0.4999906  )
         4           Pb  tau(   4) = (  0.2499947  0.7499757  0.9999854  )
         5           Pb  tau(   5) = (  0.2499922  0.7499809  0.4999854  )
         6           Pb  tau(   6) = (  0.2499932  0.9999745  0.9999801  )
         7           Pb  tau(   7) = (  0.2499908  0.9999797  0.4999801  )
         8           Pb  tau(   8) = (  0.4999969  0.2499768  1.0000001  )
         9           Pb  tau(   9) = (  0.4999944  0.2499821  0.5000001  )
[...]
     atom   26 type  1   force =     0.00000000    0.00000000    0.00000000
     atom   27 type  1   force =     0.00000000    0.00000000    0.00000000
     atom   28 type  1   force =     0.00000000    0.00000000    0.00000000
     atom   29 type  1   force =     0.00000000    0.00000000    0.00000000
     atom   30 type  1   force =     0.00000000    0.00000000    0.00000000
     atom   31 type  1   force =     0.00000000    0.00000000    0.00000000
     atom   32 type  2   force =     0.00000000    0.00000000    0.00000000
     atom   33 type  2   force =     0.00000000    0.00000000    0.00000000
     atom   34 type  2   force =     0.00000000    0.00000000    0.00000000
     atom   35 type  2   force =     0.00000000    0.00000000    0.00000000
     atom   36 type  2   force =     0.00000000    0.00000000    0.00000000
     atom   37 type  2   force =     0.00000000    0.00000000    0.00000000
     atom   38 type  2   force =     0.00000000    0.00000000    0.00000000
     atom   39 type  2   force =     0.00000000    0.00000000    0.00000000
     atom   40 type  2   force =     0.00000000    0.00000000    0.00000000
     atom   41 type  2   force =     0.00000000    0.00000000    0.00000000
     atom   42 type  2   force =     0.00000000    0.00000000    0.00000000
     atom   43 type  2   force =     0.00000000    0.00000000    0.00000000
     atom   44 type  2   force =     0.00000000    0.00000000    0.00000000
     atom   45 type  2   force =     0.00000000    0.00000000    0.00000000
     atom   46 type  2   force =     0.00000000    0.00000000    0.00000000
     atom   47 type  2   force =     0.00000000    0.00000000    0.00000000
     atom   48 type  2   force =     0.00000000    0.00000000    0.00000000
     atom   49 type  2   force =     0.00000000    0.00000000    0.00000000
     atom   50 type  2   force =     0.00000000    0.00000000    0.00000000
     atom   51 type  2   force =     0.00000000    0.00000000    0.00000000
     atom   52 type  2   force =     0.00000000    0.00000000    0.00000000
     atom   53 type  2   force =     0.00000000    0.00000000    0.00000000
     atom   54 type  2   force =     0.00000000    0.00000000    0.00000000
     atom   55 type  2   force =     0.00000000    0.00000000    0.00000000
     atom   56 type  2   force =     0.00000000    0.00000000    0.00000000
     atom   57 type  2   force =     0.00000000    0.00000000    0.00000000
     atom   58 type  2   force =     0.00000000    0.00000000    0.00000000
     atom   59 type  2   force =     0.00000000    0.00000000    0.00000000
     atom   60 type  2   force =     0.00000000    0.00000000    0.00000000
[...]
     atom   81 type  2   force =     0.00000000    0.00000000    0.00000000
     atom   82 type  2   force =     0.00000000    0.00000000    0.00000000
     atom   83 type  2   force =     0.00000000    0.00000000    0.00000000
     atom   84 type  2   force =     0.00000000    0.00000000    0.00000000
     atom   85 type  2   force =     0.00000000    0.00000000    0.00000000
     atom   86 type  2   force =     0.00000000    0.00000000    0.00000000
     atom   87 type  2   force =     0.00000000    0.00000000    0.00000000
     atom   88 type  2   force =     0.00000000    0.00000000    0.00000000
     atom   89 type  2   force =     0.00000000    0.00000000    0.00000000
     atom   90 type  2   force =     0.00000000    0.00000000    0.00000000
     atom   91 type  2   force =     0.00000000    0.00000000    0.00000000
     atom   92 type  2   force =     0.00000000    0.00000000    0.00000000
     atom   93 type  2   force =     0.00000000    0.00000000    0.00000000
     atom   94 type  2   force =     0.00000000    0.00000000    0.00000000
     atom   95 type  2   force =     0.00000000    0.00000000    0.00000000
     The SCF correction term to forces
     atom    1 type  1   force =    -0.00006738   -0.00002875   -0.00004657
     atom    2 type  1   force =    -0.00011085   -0.00010471    0.00000047
     atom    3 type  1   force =    -0.00006905   -0.00001021   -0.00002331
     atom    4 type  1   force =    -0.00002390   -0.00002961    0.00003209
     atom    5 type  1   force =    -0.00001814   -0.00001741   -0.00003342
     atom    6 type  1   force =    -0.00006647   -0.00001015    0.00004543
     atom    7 type  1   force =    -0.00000790   -0.00003814   -0.00004578
     atom    8 type  1   force =     0.00005011   -0.00005171    0.00005940
     atom    9 type  1   force =     0.00005632   -0.00001897   -0.00004371
     atom   10 type  1   force =    -0.00002791    0.00001458    0.00004144
     atom   11 type  1   force =     0.00000587    0.00002912   -0.00003262
     atom   12 type  1   force =    -0.00001707    0.00004829   -0.00000289
     atom   13 type  1   force =    -0.00000542    0.00004020   -0.00001184
     atom   14 type  1   force =     0.00004087    0.00001357    0.00000669
     atom   15 type  1   force =     0.00003799    0.00000408   -0.00002006
     atom   16 type  1   force =     0.00011199   -0.00000360    0.00003462
     atom   17 type  1   force =     0.00005694   -0.00000208   -0.00003337
     atom   18 type  1   force =     0.00009134   -0.00000085    0.00006394
     atom   19 type  1   force =     0.00006202    0.00000390   -0.00004976
     atom   20 type  1   force =     0.00004128    0.00008961    0.00003380
     atom   21 type  1   force =     0.00001913    0.00004610   -0.00003355
     atom   22 type  1   force =     0.00006612    0.00009591    0.00001663
     atom   23 type  1   force =     0.00001684    0.00004203   -0.00002404
     atom   24 type  1   force =     0.00003295   -0.00003752    0.00005265
     atom   25 type  1   force =    -0.00004453   -0.00001346   -0.00004025
     atom   26 type  1   force =     0.00003366   -0.00007637    0.00005212
     atom   27 type  1   force =     0.00000059   -0.00002907   -0.00004337
     atom   28 type  1   force =    -0.00000171    0.00001261    0.00006581
     atom   29 type  1   force =     0.00000234   -0.00001292   -0.00005291
     atom   30 type  1   force =    -0.00005025    0.00011462    0.00008006
     atom   31 type  1   force =    -0.00004534    0.00000630   -0.00005239
     atom   32 type  2   force =    -0.00009166   -0.00003004   -0.00018929
     atom   33 type  2   force =    -0.00013354    0.00005448    0.00003576
     atom   34 type  2   force =    -0.00010932   -0.00005434   -0.00018069
     atom   35 type  2   force =    -0.00009571   -0.00010771    0.00003095
     atom   36 type  2   force =    -0.00005195   -0.00002824   -0.00008952
     atom   37 type  2   force =    -0.00000025   -0.00008206   -0.00004084
     atom   38 type  2   force =    -0.00001276   -0.00003508   -0.00008575
     atom   39 type  2   force =    -0.00000749    0.00000199   -0.00004320
     atom   40 type  2   force =     0.00003919   -0.00003036   -0.00008360
     atom   41 type  2   force =     0.00002459   -0.00003294   -0.00004741
     atom   42 type  2   force =    -0.00000212   -0.00002113   -0.00013659
     atom   43 type  2   force =    -0.00011683   -0.00007445   -0.00003351
     atom   44 type  2   force =    -0.00004484    0.00003349   -0.00006835
     atom   45 type  2   force =    -0.00008643    0.00000444   -0.00007269
     atom   46 type  2   force =    -0.00000350    0.00000859   -0.00004327
     atom   47 type  2   force =     0.00001864    0.00002112   -0.00008029
     atom   48 type  2   force =     0.00006692    0.00003355   -0.00005607
     atom   49 type  2   force =     0.00008826    0.00001636   -0.00005494
     atom   50 type  2   force =     0.00009783   -0.00000092   -0.00008801
     atom   51 type  2   force =     0.00011297   -0.00004714   -0.00005451
     atom   52 type  2   force =     0.00005632    0.00004311   -0.00007476
     atom   53 type  2   force =     0.00003674    0.00005900   -0.00007084
     atom   54 type  2   force =     0.00002750    0.00007203   -0.00003948
     atom   55 type  2   force =     0.00000658    0.00010299   -0.00007907
     atom   56 type  2   force =    -0.00001333    0.00003086   -0.00014451
     atom   57 type  2   force =     0.00001402    0.00008849    0.00003113
     atom   58 type  2   force =     0.00001243   -0.00002519   -0.00010927
     atom   59 type  2   force =     0.00009359   -0.00006896   -0.00000783
     atom   60 type  2   force =     0.00003481   -0.00001391   -0.00008951
[...]
     atom   81 type  2   force =     0.00009567   -0.00002880    0.00003644
     atom   82 type  2   force =     0.00006564   -0.00001374    0.00013585
     atom   83 type  2   force =     0.00006564    0.00001092    0.00000867
     atom   84 type  2   force =     0.00002148    0.00005791    0.00011214
     atom   85 type  2   force =    -0.00000707    0.00007613    0.00002979
     atom   86 type  2   force =     0.00004428    0.00006184    0.00007455
     atom   87 type  2   force =     0.00002503    0.00003791    0.00004155
     atom   88 type  2   force =     0.00011590    0.00004615    0.00005299
     atom   89 type  2   force =     0.00001339   -0.00000143    0.00005929
     atom   90 type  2   force =     0.00009591   -0.00002580    0.00011234
     atom   91 type  2   force =     0.00007253   -0.00003998    0.00001353
     atom   92 type  2   force =     0.00006220    0.00003527    0.00012955
     atom   93 type  2   force =     0.00002156    0.00003103   -0.00000702
     atom   94 type  2   force =     0.00005380    0.00013512    0.00007368
     atom   95 type  2   force =    -0.00002690    0.00005020    0.00004637

     Total force =     0.005109     Total SCF correction =     0.001024
     SCF correction compared to forces is large: reduce conv_thr to get better values

     Computing stress (Cartesian axis) and pressure

[...]

          total   stress  (Ry/bohr**3)                   (kbar)     P=        4.76
   0.00003092   0.00000000  -0.00000000            4.55        0.00       -0.00
   0.00000000   0.00003092  -0.00000000            0.00        4.55       -0.00
  -0.00000000  -0.00000000   0.00003520           -0.00       -0.00        5.18

     kinetic stress (kbar)  14787.16      0.00      0.00
                                0.00  14787.16     -0.00
                                0.00     -0.00  14798.28

     local   stress (kbar)  -7476.88     -0.01     -0.01
                               -0.01  -7476.84     -0.02
                               -0.01     -0.02   1068.77

     nonloc. stress (kbar)   -987.93      0.00      0.00
                                0.00   -987.93      0.00
                                0.00      0.00   -993.09

     hartree stress (kbar)  11969.37      0.00      0.01
                                0.00  11969.34      0.01
                                0.01      0.01   8118.27

     exc-cor stress (kbar)   6897.70      0.00     -0.00
                                0.00   6897.70      0.00
                               -0.00      0.00   6896.68

     corecor stress (kbar) -11226.70      0.00      0.00
                                0.00 -11226.70     -0.00
                                0.00     -0.00 -11226.69

     ewald   stress (kbar) -14041.02      0.00      0.01
                                0.00 -14041.05      0.01
                                0.01      0.01 -18741.16

     hubbard stress (kbar)      0.00      0.00      0.00
                                0.00      0.00      0.00
                                0.00      0.00      0.00

     DFT-D   stress (kbar)      0.00      0.00      0.00
                                0.00      0.00      0.00
                                0.00      0.00      0.00

     XDM     stress (kbar)      0.00      0.00      0.00
                                0.00      0.00      0.00
                                0.00      0.00      0.00

     dft-nl  stress (kbar)     82.86     -0.00      0.00
                               -0.00     82.86     -0.00
                                0.00     -0.00     84.12

     TS-vdW  stress (kbar)      0.00      0.00      0.00
                                0.00      0.00      0.00
                                0.00      0.00      0.00

     MDB     stress (kbar)      0.00      0.00      0.00
                                0.00      0.00      0.00
                                0.00      0.00      0.00

     3D-RISM stress (kbar)      0.00      0.00      0.00
                                0.00      0.00      0.00
                                0.00      0.00      0.00

[...]

     Non-local corr. energy    =      45.78203558 Ry

 BEEFens 2000 ensemble energies
             -0.384148430232094E+02
             -0.386472964235151E+03
             -0.175839581448016E+03
              0.134949680950159E+03
             -0.295311605929164E+03
             -0.361632310940861E+03
              0.185612357113935E+03
              0.843251273284295E+00
              0.312832521440958E+03
             -0.198213392001719E+02
              0.160145723395668E+03
              0.163820624758837E+02
             -0.122535318094617E+02
             -0.988659148815623E+01
              0.199698661424801E+03
             -0.150295241558675E+03
             -0.295156258301331E+03
             -0.952697750768057E+02
              0.853929681505894E+02
             -0.176207866269942E+01
              0.435163314873599E+03
              0.363266017382812E+03
             -0.223730020372154E+03
              0.773555500959746E+02
             -0.466154137393512E+03
              0.382668511705857E+03
              0.130845841039526E+03
              0.345541624097635E+03
              0.232897074096632E+03
             -0.108146708613649E+03
              0.851908398903715E+02
             -0.152448517671842E+03
              0.636241236901662E+02
              0.231673244950277E+03
              0.249217918939528E+03
             -0.108406713212807E+03
              0.549985905636956E+03
             -0.221241362256940E+03
             -0.147484635985686E+03
              0.219986833063617E+03
              0.969731881153607E+02
              0.167073575370373E+03
             -0.322789631480349E+03
             -0.209862463134436E+02
              0.309708812079281E+03
              0.404782430690325E+03
             -0.410947854034766E+03
              0.264206330938674E+02
              0.142588801364502E+03
              0.920316690088976E+02
              0.160738634983540E+03
              0.352918171692872E+03
             -0.229178275487304E+03
             -0.222381460351579E+03
             -0.309903635417953E+03
             -0.450147033998910E+02
             -0.264415176131192E+03
              0.341479898861294E+02
             -0.381375779507007E+02
             -0.209699289752617E+03
[...]
              0.261874245049531E+03
              0.167777750708407E+03
              0.171037418149535E+03
             -0.316504644834224E+03
             -0.326860808344878E+03
             -0.736993576923765E+02
             -0.292195057249250E+03
              0.463893301104018E+03
              0.390794233492853E+03
              0.184298031060090E+03
              0.508077534027156E+03
             -0.253934266947629E+03
             -0.109336464266022E+03
             -0.157592559757705E+03
              0.439504002415178E+03

 BEEF-vdW xc energy contributions
            1 :    -3973.081055332503
            2 :     3640.632967580862
            3 :    -3073.829516323156
            4 :     2423.723547485306
            5 :    -1832.420116774740
            6 :     1387.400995285012
            7 :    -1107.412866015502
            8 :     955.5560167883109
            9 :    -867.2253628962808
           10 :     781.0550030207837
           11 :    -662.3779241912735
           12 :     510.9855882852698
           13 :    -351.7061067008353
           14 :     215.2536690404386
           15 :    -120.9760875882675
           16 :     69.52675678556625
           17 :    -46.22064910360768
           18 :     30.68617555268975
           19 :    -7.217705895470317
           20 :    -28.66935163962444
           21 :     69.98709799627795
           22 :    -104.0138871471172
           23 :     120.6311241553349
           24 :    -118.4277478250706
           25 :     105.2918494557252
           26 :    -93.70418610828710
           27 :     93.85412471158998
           28 :    -108.3902885468569
           29 :     131.3263798079770
           30 :    -151.4316151084486
           31 :    -341.6663241431652
           32 :    -245.7553860265571

     Writing all to output data dir ./PbI2.save/

     General routines

     Parallel routines

     PAW routines

   This run was terminated on:  10:42:33  18Feb2024

   JOB DONE.