     Program PWSCF v.7.1 starts on 19Feb2024 at 11:31:27

     Reading input from espresso.pwi
Warning: card &CELL ignored
Warning: card    CELL_DYNAMICS    = 'BFGS' ignored
Warning: card / ignored

     Current dimensions of program PWSCF are:
     Max number of different atomic species (ntypx) = 10
     Max number of k-points (npk) =  40000
     Max angular momentum in pseudopotentials (lmaxx) =  4
     file C.pbe-n-kjpaw_psl.1.0.0.UPF: wavefunction(s)  2S 2P renormalized

     IMPORTANT: XC functional enforced from input :
     Exchange-correlation= BEEF-VDW
                           (   1   4  43  14   2   0   0)
     Any further DFT definition will be discarded
     Please, verify this is what you really want

     K-points division:     npool     =       4
     R & G space division:  proc/nbgrp/npool/nimage =      64
     Subspace diagonalization in iterative solution of the eigenvalue problem:
     a serial algorithm will be used

     Using Slab Decomposition

     bravais-lattice index     =            1
     lattice parameter (alat)  =      20.2520  a.u.
     unit-cell volume          =    8306.2556 (a.u.)^3
     number of atoms/cell      =          215
     number of atomic types    =            1
     number of electrons       =       862.00
     number of Kohn-Sham states=          517
     kinetic-energy cutoff     =      70.0000  Ry
     charge density cutoff     =     350.0000  Ry
     scf convergence threshold =      1.0E-07
     mixing beta               =       0.7000
     number of iterations used =            8  plain     mixing
     energy convergence thresh.=      1.0E-04
     force convergence thresh. =      1.0E-03
     Exchange-correlation= BEEF-VDW
                           (   1   4  43  14   2   0   0)
     nstep                     =           50

     celldm(1)=  20.252024  celldm(2)=   0.000000  celldm(3)=   0.000000
     celldm(4)=   0.000000  celldm(5)=   0.000000  celldm(6)=   0.000000

     crystal axes: (cart. coord. in units of alat)
               a(1) = (   1.000000   0.000000   0.000000 )
               a(2) = (   0.000000   1.000000   0.000000 )
               a(3) = (   0.000000   0.000000   1.000000 )

     reciprocal axes: (cart. coord. in units 2 pi/alat)
               b(1) = (  1.000000  0.000000  0.000000 )
               b(2) = (  0.000000  1.000000  0.000000 )
               b(3) = (  0.000000  0.000000  1.000000 )

     PseudoPot. # 1 for C  read from file:
     //group///packages/espresso/pseudo/psl_1.0.0/pslibrary.1.0.0/pbe/PSEUDOPOTENTIALS/C.pbe-n-kjpaw_psl.1.0.0.UPF
     MD5 check sum: 5459cf7f2c8c37df2f7cde8914797f4d
     Pseudo is Projector augmented-wave + core cor, Zval =  4.0
     Generated using 'atomic' code by A. Dal Corso  v.7.1
     Shape of augmentation charge: PSQ
     Using radial grid of 1073 points,  4 beta functions with:
                l(1) =   0
                l(2) =   0
                l(3) =   1
                l(4) =   1
     Q(r) pseudized with 0 coefficients

     atomic species   valence    mass     pseudopotential
        C              4.00    12.01100     C ( 1.00)

      6 Sym. Ops. (no inversion) found ( 4 have fractional translation)

                                    s                        frac. trans.

      isym =  1     identity

 cryst.   s( 1) = (     1          0          0      )
                  (     0          1          0      )
                  (     0          0          1      )

 cart.    s( 1) = (  1.0000000  0.0000000  0.0000000 )
                  (  0.0000000  1.0000000  0.0000000 )
                  (  0.0000000  0.0000000  1.0000000 )

      isym =  2     120 deg rotation - cart. axis [1,-1,1]

 cryst.   s( 2) = (     0          0          1      )    f =( -0.3333333 )
                  (    -1          0          0      )       ( -0.3333333 )
                  (     0         -1          0      )       (  0.0000000 )

 cart.    s( 2) = (  0.0000000 -1.0000000  0.0000000 )    f =( -0.3333333 )
                  (  0.0000000  0.0000000 -1.0000000 )       ( -0.3333333 )
                  (  1.0000000  0.0000000  0.0000000 )       (  0.0000000 )

      isym =  3     120 deg rotation - cart. axis [-1,1,-1]

[...]

      isym =  4     inv. 180 deg rotation - cart. axis [1,1,0]

[...]

 cryst.   s( 5) = (     0          0          1      )
                  (     0          1          0      )
                  (     1          0          0      )

 cart.    s( 5) = (  0.0000000  0.0000000  1.0000000 )
                  (  0.0000000  1.0000000  0.0000000 )
                  (  1.0000000  0.0000000  0.0000000 )

      isym =  6     inv. 180 deg rotation - cart. axis [0,1,1]

 cryst.   s( 6) = (     1          0          0      )    f =(  0.0000000 )
                  (     0          0         -1      )       ( -0.3333333 )
                  (     0         -1          0      )       ( -0.3333333 )

 cart.    s( 6) = (  1.0000000  0.0000000  0.0000000 )    f =(  0.0000000 )
                  (  0.0000000  0.0000000 -1.0000000 )       ( -0.3333333 )
                  (  0.0000000 -1.0000000  0.0000000 )       ( -0.3333333 )

     point group C_3v (3m)
     there are  3 classes
     the character table:

       E     2C3   3s_v
A_1    1.00  1.00  1.00
A_2    1.00  1.00 -1.00
E      2.00 -1.00  0.00

     the symmetry operations in each class and the name of the first element:

     E        1
          identity
     2C3      2    3
          120 deg rotation - cart. axis [1,-1,1]
     3s_v     4    5    6
          inv. 180 deg rotation - cart. axis [1,1,0]

   Cartesian axes

     site n.     atom                  positions (alat units)
         1           C   tau(   1) = (   0.0833353   0.2499980   0.4166687  )
         2           C   tau(   2) = (   0.0833353   0.2499980   0.7500020  )
         3           C   tau(   3) = (   0.0833353   0.5833313   0.0833353  )
         4           C   tau(   4) = (   0.0833353   0.5833313   0.4166687  )
         5           C   tau(   5) = (   0.0833353   0.5833313   0.7500020  )
         6           C   tau(   6) = (   0.0833353   0.9166647   0.0833353  )
         7           C   tau(   7) = (   0.0833353   0.9166647   0.4166687  )
         8           C   tau(   8) = (   0.0833353   0.9166647   0.7500020  )
         9           C   tau(   9) = (   0.4166687   0.2499980   0.0833353  )
        10           C   tau(  10) = (   0.4166687   0.2499980   0.4166687  )
        11           C   tau(  11) = (   0.4166687   0.2499980   0.7500020  )
        12           C   tau(  12) = (   0.4166687   0.5833313   0.0833353  )
        13           C   tau(  13) = (   0.4166687   0.5833313   0.4166687  )
        14           C   tau(  14) = (   0.4166687   0.5833313   0.7500020  )
        15           C   tau(  15) = (   0.4166687   0.9166647   0.0833353  )
        16           C   tau(  16) = (   0.4166687   0.9166647   0.4166687  )
        17           C   tau(  17) = (   0.4166687   0.9166647   0.7500020  )
        18           C   tau(  18) = (   0.7500020   0.2499980   0.0833353  )
        19           C   tau(  19) = (   0.7500020   0.2499980   0.4166687  )
        20           C   tau(  20) = (   0.7500020   0.2499980   0.7500020  )
        21           C   tau(  21) = (   0.7500020   0.5833313   0.0833353  )
        22           C   tau(  22) = (   0.7500020   0.5833313   0.4166687  )
        23           C   tau(  23) = (   0.7500020   0.5833313   0.7500020  )
        24           C   tau(  24) = (   0.7500020   0.9166647   0.0833353  )
        25           C   tau(  25) = (   0.7500020   0.9166647   0.4166687  )
        26           C   tau(  26) = (   0.7500020   0.9166647   0.7500020  )
        27           C   tau(  27) = (   0.0000000   0.0000000   0.1666667  )
        28           C   tau(  28) = (   0.0000000   0.0000000   0.5000000  )
        29           C   tau(  29) = (   0.0000000   0.0000000   0.8333333  )
        30           C   tau(  30) = (   0.0000000   0.3333333   0.1666667  )
        31           C   tau(  31) = (   0.0000000   0.3333333   0.5000000  )
        32           C   tau(  32) = (   0.0000000   0.3333333   0.8333333  )
        33           C   tau(  33) = (   0.0000000   0.6666667   0.1666667  )
        34           C   tau(  34) = (   0.0000000   0.6666667   0.5000000  )
        35           C   tau(  35) = (   0.0000000   0.6666667   0.8333333  )
        36           C   tau(  36) = (   0.3333333   0.0000000   0.1666667  )
        37           C   tau(  37) = (   0.3333333   0.0000000   0.5000000  )
        38           C   tau(  38) = (   0.3333333   0.0000000   0.8333333  )
        39           C   tau(  39) = (   0.3333333   0.3333333   0.1666667  )
        40           C   tau(  40) = (   0.3333333   0.3333333   0.5000000  )
        41           C   tau(  41) = (   0.3333333   0.3333333   0.8333333  )
        42           C   tau(  42) = (   0.3333333   0.6666667   0.1666667  )
        43           C   tau(  43) = (   0.3333333   0.6666667   0.5000000  )
        44           C   tau(  44) = (   0.3333333   0.6666667   0.8333333  )
        45           C   tau(  45) = (   0.6666667   0.0000000   0.1666667  )
        46           C   tau(  46) = (   0.6666667   0.0000000   0.5000000  )
        47           C   tau(  47) = (   0.6666667   0.0000000   0.8333333  )
        48           C   tau(  48) = (   0.6666667   0.3333333   0.1666667  )
        49           C   tau(  49) = (   0.6666667   0.3333333   0.5000000  )
        50           C   tau(  50) = (   0.6666667   0.3333333   0.8333333  )
        51           C   tau(  51) = (   0.6666667   0.6666667   0.1666667  )
        52           C   tau(  52) = (   0.6666667   0.6666667   0.5000000  )
        53           C   tau(  53) = (   0.6666667   0.6666667   0.8333333  )
        54           C   tau(  54) = (   0.0833353   0.0833353   0.2499980  )
        55           C   tau(  55) = (   0.0833353   0.0833353   0.5833313  )
        56           C   tau(  56) = (   0.0833353   0.0833353   0.9166647  )
        57           C   tau(  57) = (   0.0833353   0.4166687   0.2499980  )
        58           C   tau(  58) = (   0.0833353   0.4166687   0.5833313  )
        59           C   tau(  59) = (   0.0833353   0.4166687   0.9166647  )
        60           C   tau(  60) = (   0.0833353   0.7500020   0.2499980  )
[...]
       201           C   tau( 201) = (   0.5000000   0.5000000   0.1666667  )
       202           C   tau( 202) = (   0.5000000   0.5000000   0.5000000  )
       203           C   tau( 203) = (   0.5000000   0.5000000   0.8333333  )
       204           C   tau( 204) = (   0.5000000   0.8333333   0.1666667  )
       205           C   tau( 205) = (   0.5000000   0.8333333   0.5000000  )
       206           C   tau( 206) = (   0.5000000   0.8333333   0.8333333  )
       207           C   tau( 207) = (   0.8333333   0.1666667   0.1666667  )
       208           C   tau( 208) = (   0.8333333   0.1666667   0.5000000  )
       209           C   tau( 209) = (   0.8333333   0.1666667   0.8333333  )
       210           C   tau( 210) = (   0.8333333   0.5000000   0.1666667  )
       211           C   tau( 211) = (   0.8333333   0.5000000   0.5000000  )
[...]
     atom   44 type  1   force =     0.00000000    0.00000000    0.00000000
     atom   45 type  1   force =     0.00000000    0.00000000    0.00000000
     atom   46 type  1   force =     0.00000000    0.00000000    0.00000000
     atom   47 type  1   force =     0.00000000    0.00000000    0.00000000
     atom   48 type  1   force =     0.00000000    0.00000000    0.00000000
     atom   49 type  1   force =     0.00000000    0.00000000    0.00000000
     atom   50 type  1   force =     0.00000000    0.00000000    0.00000000
     atom   51 type  1   force =     0.00000000    0.00000000    0.00000000
     atom   52 type  1   force =     0.00000000    0.00000000    0.00000000
     atom   53 type  1   force =     0.00000000    0.00000000    0.00000000
     atom   54 type  1   force =     0.00000000    0.00000000    0.00000000
     atom   55 type  1   force =     0.00000000    0.00000000    0.00000000
     atom   56 type  1   force =     0.00000000    0.00000000    0.00000000
     atom   57 type  1   force =     0.00000000    0.00000000    0.00000000
     atom   58 type  1   force =     0.00000000    0.00000000    0.00000000
     atom   59 type  1   force =     0.00000000    0.00000000    0.00000000
     atom   60 type  1   force =     0.00000000    0.00000000    0.00000000
[...]
     atom  201 type  1   force =     0.00000000    0.00000000    0.00000000
     atom  202 type  1   force =     0.00000000    0.00000000    0.00000000
     atom  203 type  1   force =     0.00000000    0.00000000    0.00000000
     atom  204 type  1   force =     0.00000000    0.00000000    0.00000000
     atom  205 type  1   force =     0.00000000    0.00000000    0.00000000
     atom  206 type  1   force =     0.00000000    0.00000000    0.00000000
     atom  207 type  1   force =     0.00000000    0.00000000    0.00000000
     atom  208 type  1   force =     0.00000000    0.00000000    0.00000000
     atom  209 type  1   force =     0.00000000    0.00000000    0.00000000
     atom  210 type  1   force =     0.00000000    0.00000000    0.00000000
     atom  211 type  1   force =     0.00000000    0.00000000    0.00000000
     atom  212 type  1   force =     0.00000000    0.00000000    0.00000000
     atom  213 type  1   force =     0.00000000    0.00000000    0.00000000
     atom  214 type  1   force =     0.00000000    0.00000000    0.00000000
     atom  215 type  1   force =     0.00000000    0.00000000    0.00000000
     The SCF correction term to forces
     atom    1 type  1   force =    -0.00000276    0.00000276    0.00000604
     atom    2 type  1   force =    -0.00000164    0.00000164   -0.00000417
     atom    3 type  1   force =    -0.00000164    0.00000417   -0.00000164
     atom    4 type  1   force =    -0.00000346    0.00000451    0.00000738
     atom    5 type  1   force =    -0.00000193    0.00000593   -0.00000593
     atom    6 type  1   force =    -0.00000276   -0.00000604   -0.00000276
     atom    7 type  1   force =    -0.00000164   -0.00000748    0.00000748
     atom    8 type  1   force =    -0.00000346   -0.00000738   -0.00000451
     atom    9 type  1   force =     0.00000604    0.00000276   -0.00000276
     atom   10 type  1   force =     0.00000748    0.00000164    0.00000748
     atom   11 type  1   force =     0.00000738    0.00000346   -0.00000451
     atom   12 type  1   force =     0.00000738    0.00000451   -0.00000346
     atom   13 type  1   force =     0.00000112   -0.00000108    0.00000112
     atom   14 type  1   force =     0.00000103   -0.00000269    0.00000269
     atom   15 type  1   force =     0.00000748   -0.00000748   -0.00000164
     atom   16 type  1   force =     0.00000007   -0.00000007    0.00000007
     atom   17 type  1   force =     0.00000112   -0.00000112    0.00000108
     atom   18 type  1   force =    -0.00000417    0.00000164   -0.00000164
     atom   19 type  1   force =    -0.00000451    0.00000346    0.00000738
     atom   20 type  1   force =    -0.00000593    0.00000193   -0.00000593
     atom   21 type  1   force =    -0.00000593    0.00000593   -0.00000193
     atom   22 type  1   force =     0.00000269   -0.00000269    0.00000103
     atom   23 type  1   force =     0.00000046   -0.00000046    0.00000046
     atom   24 type  1   force =    -0.00000451   -0.00000738   -0.00000346
     atom   25 type  1   force =     0.00000108   -0.00000112    0.00000112
     atom   26 type  1   force =     0.00000269   -0.00000103    0.00000269
     atom   27 type  1   force =    -0.00000200   -0.00000113   -0.00000283
     atom   28 type  1   force =    -0.00000393   -0.00000385    0.00000899
     atom   29 type  1   force =    -0.00000563   -0.00000584   -0.00000532
     atom   30 type  1   force =     0.00000114   -0.00000114   -0.00000394
     atom   31 type  1   force =    -0.00000533    0.00000533    0.00000748
     atom   32 type  1   force =    -0.00000072    0.00000072   -0.00000232
     atom   33 type  1   force =    -0.00000398    0.00000337    0.00000070
     atom   34 type  1   force =    -0.00000412   -0.00000113    0.00000405
     atom   35 type  1   force =    -0.00000408    0.00000588   -0.00000453
     atom   36 type  1   force =     0.00000443   -0.00000443    0.00000238
     atom   37 type  1   force =     0.00000155   -0.00000155    0.00000402
     atom   38 type  1   force =     0.00000509   -0.00000509   -0.00000619
     atom   39 type  1   force =     0.00000113    0.00000200   -0.00000283
     atom   40 type  1   force =     0.00000385    0.00000393    0.00000899
     atom   41 type  1   force =     0.00000584    0.00000563   -0.00000532
     atom   42 type  1   force =     0.00000385    0.00000340   -0.00000057
     atom   43 type  1   force =    -0.00000353   -0.00000235    0.00000165
     atom   44 type  1   force =     0.00000229   -0.00000064   -0.00000108
     atom   45 type  1   force =    -0.00000340   -0.00000385   -0.00000057
     atom   46 type  1   force =     0.00000235    0.00000353    0.00000165
     atom   47 type  1   force =     0.00000064   -0.00000229   -0.00000108
     atom   48 type  1   force =    -0.00000337    0.00000398    0.00000070
     atom   49 type  1   force =     0.00000113    0.00000412    0.00000405
     atom   50 type  1   force =    -0.00000588    0.00000408   -0.00000453
     atom   51 type  1   force =     0.00000004   -0.00000004   -0.00000119
     atom   52 type  1   force =     0.00000726   -0.00000726   -0.00000190
     atom   53 type  1   force =     0.00000170   -0.00000170    0.00000352
     atom   54 type  1   force =     0.00000002    0.00000436   -0.00000436
     atom   55 type  1   force =    -0.00000220   -0.00000234    0.00000315
     atom   56 type  1   force =    -0.00000365    0.00000290    0.00000051
     atom   57 type  1   force =    -0.00000365   -0.00000051   -0.00000290
     atom   58 type  1   force =    -0.00000313    0.00000521    0.00000179
     atom   59 type  1   force =     0.00000032   -0.00000114    0.00000114
     atom   60 type  1   force =    -0.00000220   -0.00000315    0.00000234
[...]
     atom  201 type  1   force =     0.00000770    0.00000441   -0.00000128
     atom  202 type  1   force =     0.00000261   -0.00000334    0.00000261
     atom  203 type  1   force =     0.00000414    0.00000143   -0.00000143
     atom  204 type  1   force =     0.00000424   -0.00000424   -0.00000039
     atom  205 type  1   force =    -0.00000260    0.00000260   -0.00000260
     atom  206 type  1   force =     0.00000261   -0.00000261    0.00000334
     atom  207 type  1   force =    -0.00000210    0.00000202   -0.00000202
     atom  208 type  1   force =    -0.00000441    0.00000128    0.00000770
     atom  209 type  1   force =    -0.00000503   -0.00000275   -0.00000503
     atom  210 type  1   force =    -0.00000503    0.00000503    0.00000275
     atom  211 type  1   force =    -0.00000143    0.00000143    0.00000414
     atom  212 type  1   force =    -0.00000665    0.00000665   -0.00000665
     atom  213 type  1   force =    -0.00000441   -0.00000770   -0.00000128
     atom  214 type  1   force =     0.00000334   -0.00000261    0.00000261
     atom  215 type  1   force =    -0.00000143   -0.00000414   -0.00000143

     Total force =     0.005877     Total SCF correction =     0.000102

     Computing stress (Cartesian axis) and pressure

     Non-local corr. energy    =       7.36169731 Ry

          total   stress  (Ry/bohr**3)                   (kbar)     P=       49.49
   0.00033639  -0.00000003   0.00000003           49.49       -0.00        0.00
  -0.00000003   0.00033639  -0.00000003           -0.00       49.49       -0.00
   0.00000003  -0.00000003   0.00033639            0.00       -0.00       49.49

     kinetic stress (kbar)  18957.68      0.01     -0.01
                                0.01  18957.68      0.01
                               -0.01      0.01  18957.68

     local   stress (kbar)  -3583.12      0.04     -0.04
                                0.04  -3583.12      0.04
                               -0.04      0.04  -3583.12

     nonloc. stress (kbar)   4311.39      0.00     -0.00
                                0.00   4311.39      0.00
                               -0.00      0.00   4311.39

     hartree stress (kbar)   1304.42     -0.01      0.01
                               -0.01   1304.42     -0.01
                                0.01     -0.01   1304.42

     exc-cor stress (kbar)   -421.96      0.00     -0.00
                                0.00   -421.96      0.00
                               -0.00      0.00   -421.96

     corecor stress (kbar)  -4415.58     -0.01      0.01
                               -0.01  -4415.58     -0.01
                                0.01     -0.01  -4415.58

     ewald   stress (kbar) -16128.20     -0.04      0.04
                               -0.04 -16128.20     -0.04
                                0.04     -0.04 -16128.20

     hubbard stress (kbar)      0.00      0.00      0.00
                                0.00      0.00      0.00
                                0.00      0.00      0.00

     DFT-D   stress (kbar)      0.00      0.00      0.00
                                0.00      0.00      0.00
                                0.00      0.00      0.00

     XDM     stress (kbar)      0.00      0.00      0.00
                                0.00      0.00      0.00
                                0.00      0.00      0.00

     dft-nl  stress (kbar)     24.85      0.00     -0.00
                                0.00     24.85      0.00
                               -0.00      0.00     24.85

     TS-vdW  stress (kbar)      0.00      0.00      0.00
                                0.00      0.00      0.00
                                0.00      0.00      0.00

     MDB     stress (kbar)      0.00      0.00      0.00
                                0.00      0.00      0.00
                                0.00      0.00      0.00

     3D-RISM stress (kbar)      0.00      0.00      0.00
                                0.00      0.00      0.00
                                0.00      0.00      0.00

     BFGS Geometry Optimization
     Energy error            =      0.0E+00 Ry
     Gradient error          =      5.5E-04 Ry/Bohr

     bfgs converged in   1 scf cycles and   0 bfgs steps
     (criteria: energy <  1.0E-04 Ry, force <  1.0E-03 Ry/Bohr)

     End of BFGS Geometry Optimization

     Final energy             =   -4080.7417595121 Ry
Begin final coordinates

ATOMIC_POSITIONS (angstrom)
C             0.8931596884        2.6791434646        4.4583231333
C             0.8930610886        2.6792420644        8.0447837706
C             0.8930610886        6.2444288359        0.8930610886
C             0.8910061049        6.2553147992        4.4692369255
C             0.8952126536        6.2553525023        8.0338601042
C             0.8931596884        9.8308894732        0.8931596884
C             0.8951232683        9.8200063584        4.4692062481
C             0.8910061049        9.8199756810        8.0338978073
C             4.4583231333        2.6791434646        0.8931596884
C             4.4692062481        2.6771798847        4.4692062481
C             4.4692369255        2.6812970481        8.0338978073
C             4.4692369255        6.2553147992        0.8910061049
C             4.4639215792        6.2500100447        4.4639215792
C             4.4645772400        6.2506754459        8.0385371606
C             4.4692062481        9.8200063584        0.8951232683
C             4.4645856697        9.8246269368        4.4645856697
C             4.4639215792        9.8252910273        8.0392025618
C             8.0447837706        2.6792420644        0.8930610886
C             8.0338978073        2.6812970481        4.4692369255
C             8.0338601042        2.6770904994        8.0338601042
C             8.0338601042        6.2553525023        0.8952126536
C             8.0385371606        6.2506754459        4.4645772400
C             8.0392006046        6.2500120019        8.0392006046
C             8.0338978073        9.8199756810        0.8910061049
C             8.0392025618        9.8252910273        4.4639215792
C             8.0385371606        9.8246353665        8.0385371606
C             0.0053768214        0.0107625352        1.7809077516
C             0.0005302584        0.0010703031        5.3570619712
C             0.0040692586       -0.0074854168        8.9234408601
C            -0.0624351735        3.6347383247        1.8486349373
C             0.0007252144        3.5715779368        5.3569408261
C             0.0053526829        3.5669504683        8.9414322573
C             0.0006980205        7.1430586078        1.7854675560
C             0.0013158279        7.1466267495        5.3604229044
C             0.0005581305        7.1432185655        8.9317761018
C             3.5798020787       -0.0074989275        1.7821162961
C             3.5715238978        0.0007792534        5.3588254515
C             3.5690722683        0.0032308829        8.9339265502
C             3.5615406160        3.5669263299        1.7809077516
C             3.5712328481        3.5717728928        5.3570619712
C             3.5797885680        3.5682338926        8.9234408601
C             3.5712498769        7.1431978267        1.7855852560
C             3.5717548064        7.1438102743        5.3576510747
C             3.5715307143        7.1449878978        8.9315244023
C             7.1460147779        0.0010532743        1.7855852560
C             7.1454023303        0.0005483448        5.3576510747
C             7.1442247068        0.0007724369        8.9315244023
C             7.1461539968        3.5716051307        1.7854675560
C             7.1425858551        3.5709873233        5.3604229044
C             7.1459940391        3.5717450207        8.9317761018
C             7.1425764917        7.1466361129        1.7848283611
C             7.1449524805        7.1442601241        5.3581010980
C             7.1454020405        7.1438105641        8.9312968320
C             0.9088104446        0.9050328220        2.6672703310
C             0.8931013455        0.8945961806        6.2515017800
C             0.8774176274        0.9052935999        9.8360220535
C             0.8774176274        4.4531905530        2.6670095531
C             0.8931189822        4.4639319788        6.2514934516
C             0.9088518355        4.4532900414        9.8359225651
C             0.8931013455        8.0377108265        2.6777069724
[...]
C             5.3570354610        5.3574152296        1.7855628796
C             5.3576382551        5.3579048644        5.3576382551
C             5.3588284084        5.3576779529        8.9315346536
C             5.3604818290        8.9287307775        1.7847644476
C             5.3580914462        8.9311211603        5.3580914462
C             5.3576382551        8.9315743514        8.9313077421
C             8.9417026795        1.7916126202        1.7806905328
C             8.9317973769        1.7867402734        5.3570354610
C             8.9232034697        1.7902571346        8.9232034697
C             8.9232034697        5.3660091368        1.7820460184
C             8.9315346536        5.3576779529        5.3588284084
C             8.9340442691        5.3551683374        8.9340442691
C             8.9317973769        8.9321771455        1.7855628796
C             8.9313077421        8.9315743514        5.3576382551
C             8.9315346536        8.9303841981        8.9315346536
End final coordinates

     Writing all to output data dir ./diamond.save/

     General routines

     Parallel routines

     PAW routines

   This run was terminated on:  11:38:17  19Feb2024

   JOB DONE.