     Program PWSCF v.7.1 starts on 19Feb2024 at 16:32:19

     Reading input from espresso.pwi
Warning: card &CELL ignored
Warning: card    CELL_DYNAMICS    = 'BFGS' ignored
Warning: card / ignored

     Current dimensions of program PWSCF are:
     Max number of different atomic species (ntypx) = 10
     Max number of k-points (npk) =  40000
     Max angular momentum in pseudopotentials (lmaxx) =  4
     file C.pbe-n-kjpaw_psl.1.0.0.UPF: wavefunction(s)  2S 2P renormalized

     IMPORTANT: XC functional enforced from input :
     Exchange-correlation= BEEF-VDW
                           (   1   4  43  14   2   0   0)
     Any further DFT definition will be discarded
     Please, verify this is what you really want

     K-points division:     npool     =       4
     R & G space division:  proc/nbgrp/npool/nimage =      64
     Subspace diagonalization in iterative solution of the eigenvalue problem:
     a serial algorithm will be used

     Using Slab Decomposition

     bravais-lattice index     =            1
     lattice parameter (alat)  =      20.2520  a.u.
     unit-cell volume          =    8306.2556 (a.u.)^3
     number of atoms/cell      =          215
     number of atomic types    =            1
     number of electrons       =       862.00
     number of Kohn-Sham states=          517
     kinetic-energy cutoff     =      70.0000  Ry
     charge density cutoff     =     350.0000  Ry
     scf convergence threshold =      1.0E-07
     mixing beta               =       0.7000
     number of iterations used =            8  plain     mixing
     Exchange-correlation= BEEF-VDW
                           (   1   4  43  14   2   0   0)

     celldm(1)=  20.252024  celldm(2)=   0.000000  celldm(3)=   0.000000
     celldm(4)=   0.000000  celldm(5)=   0.000000  celldm(6)=   0.000000

     crystal axes: (cart. coord. in units of alat)
               a(1) = (   1.000000   0.000000   0.000000 )
               a(2) = (   0.000000   1.000000   0.000000 )
               a(3) = (   0.000000   0.000000   1.000000 )

     reciprocal axes: (cart. coord. in units 2 pi/alat)
               b(1) = (  1.000000  0.000000  0.000000 )
               b(2) = (  0.000000  1.000000  0.000000 )
               b(3) = (  0.000000  0.000000  1.000000 )

     PseudoPot. # 1 for C  read from file:
     //group///packages/espresso/pseudo/psl_1.0.0/pslibrary.1.0.0/pbe/PSEUDOPOTENTIALS/C.pbe-n-kjpaw_psl.1.0.0.UPF
     MD5 check sum: 5459cf7f2c8c37df2f7cde8914797f4d
     Pseudo is Projector augmented-wave + core cor, Zval =  4.0
     Generated using 'atomic' code by A. Dal Corso  v.7.1
     Shape of augmentation charge: PSQ
     Using radial grid of 1073 points,  4 beta functions with:
                l(1) =   0
                l(2) =   0
                l(3) =   1
                l(4) =   1
     Q(r) pseudized with 0 coefficients

     atomic species   valence    mass     pseudopotential
        C              4.00    12.01100     C ( 1.00)

      6 Sym. Ops. (no inversion) found ( 4 have fractional translation)

                                    s                        frac. trans.

      isym =  1     identity

 cryst.   s( 1) = (     1          0          0      )
                  (     0          1          0      )
                  (     0          0          1      )

 cart.    s( 1) = (  1.0000000  0.0000000  0.0000000 )
                  (  0.0000000  1.0000000  0.0000000 )
                  (  0.0000000  0.0000000  1.0000000 )

      isym =  2     120 deg rotation - cart. axis [1,-1,1]

 cryst.   s( 2) = (     0          0          1      )    f =( -0.3333333 )
                  (    -1          0          0      )       ( -0.3333333 )
                  (     0         -1          0      )       (  0.0000000 )

 cart.    s( 2) = (  0.0000000 -1.0000000  0.0000000 )    f =( -0.3333333 )
                  (  0.0000000  0.0000000 -1.0000000 )       ( -0.3333333 )
                  (  1.0000000  0.0000000  0.0000000 )       (  0.0000000 )

      isym =  3     120 deg rotation - cart. axis [-1,1,-1]

[...]

      isym =  4     inv. 180 deg rotation - cart. axis [1,1,0]

[...]

 cryst.   s( 5) = (     0          0          1      )
                  (     0          1          0      )
                  (     1          0          0      )

 cart.    s( 5) = (  0.0000000  0.0000000  1.0000000 )
                  (  0.0000000  1.0000000  0.0000000 )
                  (  1.0000000  0.0000000  0.0000000 )

      isym =  6     inv. 180 deg rotation - cart. axis [0,1,1]

 cryst.   s( 6) = (     1          0          0      )    f =(  0.0000000 )
                  (     0          0         -1      )       ( -0.3333333 )
                  (     0         -1          0      )       ( -0.3333333 )

 cart.    s( 6) = (  1.0000000  0.0000000  0.0000000 )    f =(  0.0000000 )
                  (  0.0000000  0.0000000 -1.0000000 )       ( -0.3333333 )
                  (  0.0000000 -1.0000000  0.0000000 )       ( -0.3333333 )

     point group C_3v (3m)
     there are  3 classes
     the character table:

       E     2C3   3s_v
A_1    1.00  1.00  1.00
A_2    1.00  1.00 -1.00
E      2.00 -1.00  0.00

     the symmetry operations in each class and the name of the first element:

     E        1
          identity
     2C3      2    3
          120 deg rotation - cart. axis [1,-1,1]
     3s_v     4    5    6
          inv. 180 deg rotation - cart. axis [1,1,0]

   Cartesian axes

     site n.     atom                  positions (alat units)
         1           C   tau(   1) = (   0.0833353   0.2499980   0.4166687  )
         2           C   tau(   2) = (   0.0833353   0.2499980   0.7500020  )
         3           C   tau(   3) = (   0.0833353   0.5833313   0.0833353  )
         4           C   tau(   4) = (   0.0833353   0.5833313   0.4166687  )
         5           C   tau(   5) = (   0.0833353   0.5833313   0.7500020  )
         6           C   tau(   6) = (   0.0833353   0.9166647   0.0833353  )
         7           C   tau(   7) = (   0.0833353   0.9166647   0.4166687  )
         8           C   tau(   8) = (   0.0833353   0.9166647   0.7500020  )
         9           C   tau(   9) = (   0.4166687   0.2499980   0.0833353  )
        10           C   tau(  10) = (   0.4166687   0.2499980   0.4166687  )
        11           C   tau(  11) = (   0.4166687   0.2499980   0.7500020  )
        12           C   tau(  12) = (   0.4166687   0.5833313   0.0833353  )
        13           C   tau(  13) = (   0.4166687   0.5833313   0.4166687  )
        14           C   tau(  14) = (   0.4166687   0.5833313   0.7500020  )
        15           C   tau(  15) = (   0.4166687   0.9166647   0.0833353  )
        16           C   tau(  16) = (   0.4166687   0.9166647   0.4166687  )
        17           C   tau(  17) = (   0.4166687   0.9166647   0.7500020  )
        18           C   tau(  18) = (   0.7500020   0.2499980   0.0833353  )
        19           C   tau(  19) = (   0.7500020   0.2499980   0.4166687  )
        20           C   tau(  20) = (   0.7500020   0.2499980   0.7500020  )
        21           C   tau(  21) = (   0.7500020   0.5833313   0.0833353  )
        22           C   tau(  22) = (   0.7500020   0.5833313   0.4166687  )
        23           C   tau(  23) = (   0.7500020   0.5833313   0.7500020  )
        24           C   tau(  24) = (   0.7500020   0.9166647   0.0833353  )
        25           C   tau(  25) = (   0.7500020   0.9166647   0.4166687  )
        26           C   tau(  26) = (   0.7500020   0.9166647   0.7500020  )
        27           C   tau(  27) = (   0.0000000   0.0000000   0.1666667  )
        28           C   tau(  28) = (   0.0000000   0.0000000   0.5000000  )
        29           C   tau(  29) = (   0.0000000   0.0000000   0.8333333  )
        30           C   tau(  30) = (   0.0000000   0.3333333   0.1666667  )
        31           C   tau(  31) = (   0.0000000   0.3333333   0.5000000  )
        32           C   tau(  32) = (   0.0000000   0.3333333   0.8333333  )
        33           C   tau(  33) = (   0.0000000   0.6666667   0.1666667  )
        34           C   tau(  34) = (   0.0000000   0.6666667   0.5000000  )
        35           C   tau(  35) = (   0.0000000   0.6666667   0.8333333  )
        36           C   tau(  36) = (   0.3333333   0.0000000   0.1666667  )
        37           C   tau(  37) = (   0.3333333   0.0000000   0.5000000  )
        38           C   tau(  38) = (   0.3333333   0.0000000   0.8333333  )
        39           C   tau(  39) = (   0.3333333   0.3333333   0.1666667  )
        40           C   tau(  40) = (   0.3333333   0.3333333   0.5000000  )
        41           C   tau(  41) = (   0.3333333   0.3333333   0.8333333  )
        42           C   tau(  42) = (   0.3333333   0.6666667   0.1666667  )
        43           C   tau(  43) = (   0.3333333   0.6666667   0.5000000  )
        44           C   tau(  44) = (   0.3333333   0.6666667   0.8333333  )
        45           C   tau(  45) = (   0.6666667   0.0000000   0.1666667  )
        46           C   tau(  46) = (   0.6666667   0.0000000   0.5000000  )
        47           C   tau(  47) = (   0.6666667   0.0000000   0.8333333  )
        48           C   tau(  48) = (   0.6666667   0.3333333   0.1666667  )
        49           C   tau(  49) = (   0.6666667   0.3333333   0.5000000  )
        50           C   tau(  50) = (   0.6666667   0.3333333   0.8333333  )
        51           C   tau(  51) = (   0.6666667   0.6666667   0.1666667  )
        52           C   tau(  52) = (   0.6666667   0.6666667   0.5000000  )
        53           C   tau(  53) = (   0.6666667   0.6666667   0.8333333  )
        54           C   tau(  54) = (   0.0833353   0.0833353   0.2499980  )
        55           C   tau(  55) = (   0.0833353   0.0833353   0.5833313  )
        56           C   tau(  56) = (   0.0833353   0.0833353   0.9166647  )
        57           C   tau(  57) = (   0.0833353   0.4166687   0.2499980  )
        58           C   tau(  58) = (   0.0833353   0.4166687   0.5833313  )
        59           C   tau(  59) = (   0.0833353   0.4166687   0.9166647  )
        60           C   tau(  60) = (   0.0833353   0.7500020   0.2499980  )
[...]
       201           C   tau( 201) = (   0.5000000   0.5000000   0.1666667  )
       202           C   tau( 202) = (   0.5000000   0.5000000   0.5000000  )
       203           C   tau( 203) = (   0.5000000   0.5000000   0.8333333  )
       204           C   tau( 204) = (   0.5000000   0.8333333   0.1666667  )
       205           C   tau( 205) = (   0.5000000   0.8333333   0.5000000  )
       206           C   tau( 206) = (   0.5000000   0.8333333   0.8333333  )
       207           C   tau( 207) = (   0.8333333   0.1666667   0.1666667  )
       208           C   tau( 208) = (   0.8333333   0.1666667   0.5000000  )
       209           C   tau( 209) = (   0.8333333   0.1666667   0.8333333  )
       210           C   tau( 210) = (   0.8333333   0.5000000   0.1666667  )
       211           C   tau( 211) = (   0.8333333   0.5000000   0.5000000  )
       212           C   tau( 212) = (   0.8333333   0.5000000   0.8333333  )
[...]
     atom   25 type  1   force =     0.00000000    0.00000000    0.00000000
     atom   26 type  1   force =     0.00000000    0.00000000    0.00000000
     atom   27 type  1   force =     0.00000000    0.00000000    0.00000000
     atom   28 type  1   force =     0.00000000    0.00000000    0.00000000
     atom   29 type  1   force =     0.00000000    0.00000000    0.00000000
     atom   30 type  1   force =     0.00000000    0.00000000    0.00000000
     atom   31 type  1   force =     0.00000000    0.00000000    0.00000000
     atom   32 type  1   force =     0.00000000    0.00000000    0.00000000
     atom   33 type  1   force =     0.00000000    0.00000000    0.00000000
     atom   34 type  1   force =     0.00000000    0.00000000    0.00000000
     atom   35 type  1   force =     0.00000000    0.00000000    0.00000000
     atom   36 type  1   force =     0.00000000    0.00000000    0.00000000
     atom   37 type  1   force =     0.00000000    0.00000000    0.00000000
     atom   38 type  1   force =     0.00000000    0.00000000    0.00000000
     atom   39 type  1   force =     0.00000000    0.00000000    0.00000000
     atom   40 type  1   force =     0.00000000    0.00000000    0.00000000
     atom   41 type  1   force =     0.00000000    0.00000000    0.00000000
     atom   42 type  1   force =     0.00000000    0.00000000    0.00000000
     atom   43 type  1   force =     0.00000000    0.00000000    0.00000000
     atom   44 type  1   force =     0.00000000    0.00000000    0.00000000
     atom   45 type  1   force =     0.00000000    0.00000000    0.00000000
     atom   46 type  1   force =     0.00000000    0.00000000    0.00000000
     atom   47 type  1   force =     0.00000000    0.00000000    0.00000000
     atom   48 type  1   force =     0.00000000    0.00000000    0.00000000
     atom   49 type  1   force =     0.00000000    0.00000000    0.00000000
     atom   50 type  1   force =     0.00000000    0.00000000    0.00000000
     atom   51 type  1   force =     0.00000000    0.00000000    0.00000000
     atom   52 type  1   force =     0.00000000    0.00000000    0.00000000
     atom   53 type  1   force =     0.00000000    0.00000000    0.00000000
     atom   54 type  1   force =     0.00000000    0.00000000    0.00000000
     atom   55 type  1   force =     0.00000000    0.00000000    0.00000000
     atom   56 type  1   force =     0.00000000    0.00000000    0.00000000
     atom   57 type  1   force =     0.00000000    0.00000000    0.00000000
     atom   58 type  1   force =     0.00000000    0.00000000    0.00000000
     atom   59 type  1   force =     0.00000000    0.00000000    0.00000000
     atom   60 type  1   force =     0.00000000    0.00000000    0.00000000
[...]
     atom  201 type  1   force =     0.00000000    0.00000000    0.00000000
     atom  202 type  1   force =     0.00000000    0.00000000    0.00000000
     atom  203 type  1   force =     0.00000000    0.00000000    0.00000000
     atom  204 type  1   force =     0.00000000    0.00000000    0.00000000
     atom  205 type  1   force =     0.00000000    0.00000000    0.00000000
     atom  206 type  1   force =     0.00000000    0.00000000    0.00000000
     atom  207 type  1   force =     0.00000000    0.00000000    0.00000000
     atom  208 type  1   force =     0.00000000    0.00000000    0.00000000
     atom  209 type  1   force =     0.00000000    0.00000000    0.00000000
     atom  210 type  1   force =     0.00000000    0.00000000    0.00000000
     atom  211 type  1   force =     0.00000000    0.00000000    0.00000000
     atom  212 type  1   force =     0.00000000    0.00000000    0.00000000
     atom  213 type  1   force =     0.00000000    0.00000000    0.00000000
     atom  214 type  1   force =     0.00000000    0.00000000    0.00000000
     atom  215 type  1   force =     0.00000000    0.00000000    0.00000000
     The SCF correction term to forces
     atom    1 type  1   force =     0.00001954   -0.00001954   -0.00002723
     atom    2 type  1   force =     0.00000946   -0.00000946    0.00000457
     atom    3 type  1   force =     0.00000946   -0.00000457    0.00000946
     atom    4 type  1   force =     0.00001562   -0.00000905   -0.00002153
     atom    5 type  1   force =     0.00000817   -0.00001248    0.00001248
     atom    6 type  1   force =     0.00001954    0.00002723    0.00001954
     atom    7 type  1   force =     0.00001318    0.00002933   -0.00002933
     atom    8 type  1   force =     0.00001562    0.00002153    0.00000905
     atom    9 type  1   force =    -0.00002723   -0.00001954    0.00001954
     atom   10 type  1   force =    -0.00002933   -0.00001318   -0.00002933
     atom   11 type  1   force =    -0.00002153   -0.00001562    0.00000905
     atom   12 type  1   force =    -0.00002153   -0.00000905    0.00001562
     atom   13 type  1   force =    -0.00000774    0.00000256   -0.00000774
     atom   14 type  1   force =    -0.00000603    0.00000801   -0.00000801
     atom   15 type  1   force =    -0.00002933    0.00002933    0.00001318
     atom   16 type  1   force =    -0.00000842    0.00000842   -0.00000842
     atom   17 type  1   force =    -0.00000774    0.00000774   -0.00000256
     atom   18 type  1   force =     0.00000457   -0.00000946    0.00000946
     atom   19 type  1   force =     0.00000905   -0.00001562   -0.00002153
     atom   20 type  1   force =     0.00001248   -0.00000817    0.00001248
     atom   21 type  1   force =     0.00001248   -0.00001248    0.00000817
     atom   22 type  1   force =    -0.00000801    0.00000801   -0.00000603
     atom   23 type  1   force =    -0.00000171    0.00000171   -0.00000171
     atom   24 type  1   force =     0.00000905    0.00002153    0.00001562
     atom   25 type  1   force =    -0.00000256    0.00000774   -0.00000774
     atom   26 type  1   force =    -0.00000801    0.00000603   -0.00000801
     atom   27 type  1   force =     0.00002785    0.00001316    0.00001729
     atom   28 type  1   force =     0.00001807    0.00001350   -0.00003216
     atom   29 type  1   force =     0.00002044    0.00001280    0.00001297
     atom   30 type  1   force =     0.00001164   -0.00001164    0.00001756
     atom   31 type  1   force =     0.00002130   -0.00002130   -0.00002293
     atom   32 type  1   force =     0.00000521   -0.00000521    0.00000356
     atom   33 type  1   force =     0.00001625   -0.00000002    0.00000136
     atom   34 type  1   force =     0.00001448    0.00000710   -0.00001561
     atom   35 type  1   force =     0.00001389   -0.00000988    0.00001389
     atom   36 type  1   force =    -0.00002774    0.00002774   -0.00000110
     atom   37 type  1   force =    -0.00000860    0.00000860   -0.00002119
     atom   38 type  1   force =    -0.00001420    0.00001420    0.00002045
     atom   39 type  1   force =    -0.00001316   -0.00002785    0.00001729
     atom   40 type  1   force =    -0.00001350   -0.00001807   -0.00003216
     atom   41 type  1   force =    -0.00001280   -0.00002044    0.00001297
     atom   42 type  1   force =    -0.00001258   -0.00000122    0.00000674
     atom   43 type  1   force =     0.00000688    0.00000909   -0.00001101
     atom   44 type  1   force =    -0.00000710    0.00000740    0.00000439
     atom   45 type  1   force =     0.00000122    0.00001258    0.00000674
     atom   46 type  1   force =    -0.00000909   -0.00000688   -0.00001101
     atom   47 type  1   force =    -0.00000740    0.00000710    0.00000439
     atom   48 type  1   force =     0.00000002   -0.00001625    0.00000136
     atom   49 type  1   force =    -0.00000710   -0.00001448   -0.00001561
     atom   50 type  1   force =     0.00000988   -0.00001389    0.00001389
     atom   51 type  1   force =    -0.00000359    0.00000359    0.00000739
     atom   52 type  1   force =    -0.00002076    0.00002076   -0.00000091
     atom   53 type  1   force =    -0.00000656    0.00000656   -0.00000726
     atom   54 type  1   force =     0.00003655    0.00000662   -0.00000662
     atom   55 type  1   force =     0.00001245    0.00000572   -0.00001842
     atom   56 type  1   force =     0.00002743   -0.00001191    0.00000976
     atom   57 type  1   force =     0.00002743   -0.00000976    0.00001191
     atom   58 type  1   force =     0.00001302   -0.00001913   -0.00001054
     atom   59 type  1   force =    -0.00000154    0.00000238   -0.00000238
     atom   60 type  1   force =     0.00001245    0.00001842   -0.00000572
[...]
     atom  201 type  1   force =    -0.00002426   -0.00001525    0.00000850
     atom  202 type  1   force =    -0.00001314    0.00000586   -0.00001314
     atom  203 type  1   force =    -0.00001316   -0.00000493    0.00000493
     atom  204 type  1   force =    -0.00002010    0.00002010    0.00000553
     atom  205 type  1   force =    -0.00000074    0.00000074   -0.00000074
     atom  206 type  1   force =    -0.00001314    0.00001314   -0.00000586
     atom  207 type  1   force =     0.00000844   -0.00001195    0.00001195
     atom  208 type  1   force =     0.00001525   -0.00000850   -0.00002426
     atom  209 type  1   force =     0.00001076    0.00000383    0.00001076
     atom  210 type  1   force =     0.00001076   -0.00001076   -0.00000383
     atom  211 type  1   force =     0.00000493   -0.00000493   -0.00001316
     atom  212 type  1   force =     0.00001689   -0.00001689    0.00001689
     atom  213 type  1   force =     0.00001525    0.00002426    0.00000850
     atom  214 type  1   force =    -0.00000586    0.00001314   -0.00001314
     atom  215 type  1   force =     0.00000493    0.00001316    0.00000493

     Total force =     0.005882     Total SCF correction =     0.000371

     Computing stress (Cartesian axis) and pressure

[...]

          total   stress  (Ry/bohr**3)                   (kbar)     P=       49.48
   0.00033639  -0.00000003   0.00000003           49.48       -0.00        0.00
  -0.00000003   0.00033639  -0.00000003           -0.00       49.48       -0.00
   0.00000003  -0.00000003   0.00033639            0.00       -0.00       49.48

     kinetic stress (kbar)  18957.68      0.01     -0.01
                                0.01  18957.68      0.01
                               -0.01      0.01  18957.68

     local   stress (kbar)  -3583.12      0.04     -0.04
                                0.04  -3583.12      0.04
                               -0.04      0.04  -3583.12

     nonloc. stress (kbar)   4311.39      0.00     -0.00
                                0.00   4311.39      0.00
                               -0.00      0.00   4311.39

     hartree stress (kbar)   1304.42     -0.01      0.01
                               -0.01   1304.42     -0.01
                                0.01     -0.01   1304.42

     exc-cor stress (kbar)   -421.96      0.00     -0.00
                                0.00   -421.96      0.00
                               -0.00      0.00   -421.96

     corecor stress (kbar)  -4415.58     -0.01      0.01
                               -0.01  -4415.58     -0.01
                                0.01     -0.01  -4415.58

     ewald   stress (kbar) -16128.20     -0.04      0.04
                               -0.04 -16128.20     -0.04
                                0.04     -0.04 -16128.20

     hubbard stress (kbar)      0.00      0.00      0.00
                                0.00      0.00      0.00
                                0.00      0.00      0.00

     DFT-D   stress (kbar)      0.00      0.00      0.00
                                0.00      0.00      0.00
                                0.00      0.00      0.00

     XDM     stress (kbar)      0.00      0.00      0.00
                                0.00      0.00      0.00
                                0.00      0.00      0.00

     dft-nl  stress (kbar)     24.85      0.00     -0.00
                                0.00     24.85      0.00
                               -0.00      0.00     24.85

     TS-vdW  stress (kbar)      0.00      0.00      0.00
                                0.00      0.00      0.00
                                0.00      0.00      0.00

     MDB     stress (kbar)      0.00      0.00      0.00
                                0.00      0.00      0.00
                                0.00      0.00      0.00

     3D-RISM stress (kbar)      0.00      0.00      0.00
                                0.00      0.00      0.00
                                0.00      0.00      0.00

[...]

     Non-local corr. energy    =       7.36169706 Ry

 BEEFens 2000 ensemble energies
             -0.130234511771978E+02
             -0.907938727125245E+02
             -0.322352467019416E+02
              0.356313419896618E+02
             -0.600334535873890E+02
             -0.839778925669168E+02
              0.496986745185554E+02
             -0.102679378950447E+02
              0.690372323635883E+02
             -0.114591589766866E+01
              0.280311748136786E+02
              0.143571689791378E+01
              0.388155113567998E+01
             -0.814130812094572E+01
              0.467392573071872E+02
             -0.349161430295478E+02
             -0.801572907385008E+02
             -0.222223208480116E+02
              0.181366232926245E+02
              0.197443671274402E+01
              0.959064642227910E+02
              0.869965952214496E+02
             -0.427493792615417E+02
              0.240080500478931E+02
             -0.108961477064056E+03
              0.877768690694200E+02
              0.314169535833537E+02
              0.923911948293428E+02
              0.583085901168783E+02
             -0.364106480638329E+02
              0.227247833710383E+02
             -0.473236589601131E+02
              0.142225365821540E+01
              0.464855680230837E+02
              0.599716371925401E+02
             -0.148146141178476E+02
              0.129341735478269E+03
             -0.452501040772386E+02
             -0.327615096833275E+02
              0.501287575067755E+02
              0.172768912955012E+02
              0.421473178797989E+02
             -0.737036448781278E+02
             -0.304853046185144E+01
              0.781029834555129E+02
              0.952649381663375E+02
             -0.863278001548735E+02
              0.717240140289322E+01
              0.340564431864993E+02
              0.795618269432680E+01
              0.416508546846407E+02
              0.835416586466762E+02
             -0.559526001788958E+02
             -0.588174562824465E+02
             -0.746243111525206E+02
             -0.205875369855720E+02
             -0.623112033698156E+02
              0.334619574203020E+01
             -0.165670412862725E+02
             -0.565085486617039E+02
[...]
              0.733018271113848E+02
              0.300184634445562E+02
              0.511072760625651E+02
             -0.731890676214732E+02
             -0.570574884279063E+02
             -0.232024995017437E+02
             -0.627264047916341E+02
              0.113044302482412E+03
              0.969802386167003E+02
              0.421456309669700E+02
              0.114329301548005E+03
             -0.613338779469831E+02
             -0.295001878089141E+02
             -0.304399300549348E+02
              0.902070592069786E+02

 BEEF-vdW xc energy contributions
            1 :    -881.8632147264410
            2 :     778.2723149299993
            3 :    -599.5689294102668
            4 :     391.9892981200720
            5 :    -202.7962591909617
            6 :     64.69593475761940
            7 :     12.36349918524263
            8 :    -39.49482469613542
            9 :     39.34570959874964
           10 :    -34.01909809798315
           11 :     36.12667145495345
           12 :    -46.35356784054841
           13 :     57.30503211249595
           14 :    -60.42955825372280
           15 :     51.87280457076383
           16 :    -34.41576719552233
           17 :     15.21047004137154
           18 :    -1.329234277025876
           19 :    -3.998608704365324
           20 :     2.433570564571028
           21 :     1.328417932981097
           22 :    -2.816928041664482
           23 :    0.3674767480932815
           24 :     4.377666030942237
           25 :    -8.040723922827851
           26 :     7.924888657794213
           27 :    -3.706995815087680
           28 :    -2.531585197431355
           29 :     7.757675578929366
           30 :    -9.864845962248523
           31 :    -115.3790330766495
           32 :    -83.75923239883878

     Writing all to output data dir ./diamond.save/

     General routines

     Parallel routines

     PAW routines

   This run was terminated on:  16:34: 5  19Feb2024

   JOB DONE.