     Program PWSCF v.7.1 starts on 27Mar2024 at  9:49:37

     Reading input from espresso.pwi
Warning: card &CELL ignored
Warning: card    CELL_DYNAMICS    = 'BFGS' ignored
Warning: card / ignored

     Current dimensions of program PWSCF are:
     Max number of different atomic species (ntypx) = 10
     Max number of k-points (npk) =  40000
     Max angular momentum in pseudopotentials (lmaxx) =  4
     file Pb.pbe-dn-kjpaw_psl.1.0.0.UPF: wavefunction(s)  6S 6P 5D renormalized
     file I.pbe-dn-kjpaw_psl.1.0.0.UPF: wavefunction(s)  5S 5P renormalized

     IMPORTANT: XC functional enforced from input :
     Exchange-correlation= BEEF-VDW
                           (   1   4  43  14   2   0   0)
     Any further DFT definition will be discarded
     Please, verify this is what you really want

     R & G space division:  proc/nbgrp/npool/nimage =     128
     Subspace diagonalization in iterative solution of the eigenvalue problem:
     a serial algorithm will be used

     Using Slab Decomposition

     bravais-lattice index     =            4
     lattice parameter (alat)  =      35.6120  a.u.
     unit-cell volume          =   45937.3577 (a.u.)^3
     number of atoms/cell      =          144
     number of atomic types    =            2
     number of electrons       =      2298.00
     number of Kohn-Sham states=         1379
     kinetic-energy cutoff     =      70.0000  Ry
     charge density cutoff     =     350.0000  Ry
     scf convergence threshold =      1.0E-07
     mixing beta               =       0.7000
     number of iterations used =            8  plain     mixing
     energy convergence thresh.=      1.0E-04
     force convergence thresh. =      1.0E-03
     Exchange-correlation= BEEF-VDW
                           (   1   4  43  14   2   0   0)
     nstep                     =           50

     celldm(1)=  35.612033  celldm(2)=   0.000000  celldm(3)=   1.174479
     celldm(4)=   0.000000  celldm(5)=   0.000000  celldm(6)=   0.000000

     crystal axes: (cart. coord. in units of alat)
               a(1) = (   1.000000   0.000000   0.000000 )
               a(2) = (  -0.500000   0.866025   0.000000 )
               a(3) = (   0.000000   0.000000   1.174479 )

     reciprocal axes: (cart. coord. in units 2 pi/alat)
               b(1) = (  1.000000  0.577350 -0.000000 )
               b(2) = (  0.000000  1.154701  0.000000 )
               b(3) = (  0.000000 -0.000000  0.851442 )

     PseudoPot. # 1 for Pb read from file:
     //group///packages/espresso/pseudo/psl_1.0.0/pslibrary.1.0.0/pbe/PSEUDOPOTENTIALS/Pb.pbe-dn-kjpaw_psl.1.0.0.UPF
     MD5 check sum: 39ab5b8a6bbd56b7735ad9f188aac93a
     Pseudo is Projector augmented-wave + core cor, Zval = 14.0
     Generated using 'atomic' code by A. Dal Corso  v.7.1
     Shape of augmentation charge: PSQ
     Using radial grid of 1281 points,  6 beta functions with:
                l(1) =   0
                l(2) =   0
                l(3) =   1
                l(4) =   1
                l(5) =   2
                l(6) =   2
     Q(r) pseudized with 0 coefficients

     PseudoPot. # 2 for I  read from file:
     //group///packages/espresso/pseudo/psl_1.0.0/pslibrary.1.0.0/pbe/PSEUDOPOTENTIALS/I.pbe-dn-kjpaw_psl.1.0.0.UPF
     MD5 check sum: bfa8781bc1224d19af3f3980e3fab11e
     Pseudo is Projector augmented-wave + core cor, Zval = 17.0
     Generated using 'atomic' code by A. Dal Corso  v.7.1
     Shape of augmentation charge: PSQ
     Using radial grid of 1247 points,  6 beta functions with:
                l(1) =   0
                l(2) =   0
                l(3) =   1
                l(4) =   1
                l(5) =   2
                l(6) =   2
     Q(r) pseudized with 0 coefficients

     atomic species   valence    mass     pseudopotential
        Pb            14.00   207.20000     Pb( 1.00)
        I             17.00   126.90447     I ( 1.00)

     No symmetry found

                                    s                        frac. trans.

      isym =  1     identity

 cryst.   s( 1) = (     1          0          0      )
                  (     0          1          0      )
                  (     0          0          1      )

 cart.    s( 1) = (  1.0000000  0.0000000  0.0000000 )
                  (  0.0000000  1.0000000  0.0000000 )
                  (  0.0000000  0.0000000  1.0000000 )

     point group C_1 (1)
     there are  1 classes
     the character table:

       E
A      1.00

     the symmetry operations in each class and the name of the first element:

     E        1
          identity

   Cartesian axes

     site n.     atom                  positions (alat units)
         1           Pb  tau(   1) = (   0.1250136   0.2164827   1.1744753  )
         2           Pb  tau(   2) = (   0.1250034   0.2164918   0.3914896  )
         3           Pb  tau(   3) = (   0.1250085   0.2164873   0.7829825  )
         4           Pb  tau(   4) = (   0.0000128   0.4329881   1.1744712  )
         5           Pb  tau(   5) = (   0.0000026   0.4329971   0.3914855  )
         6           Pb  tau(   6) = (   0.0000077   0.4329926   0.7829784  )
         7           Pb  tau(   7) = (  -0.1249881   0.6494934   1.1744671  )
         8           Pb  tau(   8) = (  -0.1249983   0.6495025   0.3914814  )
         9           Pb  tau(   9) = (  -0.1249932   0.6494980   0.7829742  )
        10           Pb  tau(  10) = (  -0.2499889   0.8659988   1.1744630  )
        11           Pb  tau(  11) = (  -0.2499991   0.8660078   0.3914773  )
        12           Pb  tau(  12) = (  -0.2499940   0.8660033   0.7829701  )
        13           Pb  tau(  13) = (   0.3750136   0.2164818   1.1744786  )
        14           Pb  tau(  14) = (   0.3750034   0.2164908   0.3914929  )
        15           Pb  tau(  15) = (   0.3750085   0.2164863   0.7829857  )
        16           Pb  tau(  16) = (   0.2500128   0.4329871   1.1744745  )
        17           Pb  tau(  17) = (   0.2500026   0.4329962   0.3914888  )
        18           Pb  tau(  18) = (   0.2500077   0.4329916   0.7829816  )
        19           Pb  tau(  19) = (   0.1250119   0.6494925   1.1744703  )
        20           Pb  tau(  20) = (   0.1250017   0.6495015   0.3914847  )
        21           Pb  tau(  21) = (   0.1250068   0.6494970   0.7829775  )
        22           Pb  tau(  22) = (   0.0000111   0.8659978   1.1744662  )
        23           Pb  tau(  23) = (   0.0000009   0.8660069   0.3914805  )
        24           Pb  tau(  24) = (   0.0000060   0.8660024   0.7829734  )
        25           Pb  tau(  25) = (   0.6250136   0.2164808   1.1744818  )
        26           Pb  tau(  26) = (   0.6250034   0.2164898   0.3914962  )
        27           Pb  tau(  27) = (   0.6250085   0.2164853   0.7829890  )
        28           Pb  tau(  28) = (   0.5000128   0.4329862   1.1744777  )
        29           Pb  tau(  29) = (   0.5000026   0.4329952   0.3914920  )
        30           Pb  tau(  30) = (   0.5000077   0.4329907   0.7829849  )
        31           Pb  tau(  31) = (   0.3750119   0.6494915   1.1744736  )
        32           Pb  tau(  32) = (   0.3750017   0.6495006   0.3914879  )
        33           Pb  tau(  33) = (   0.3750068   0.6494960   0.7829808  )
        34           Pb  tau(  34) = (   0.2500111   0.8659969   1.1744695  )
        35           Pb  tau(  35) = (   0.2500009   0.8660059   0.3914838  )
        36           Pb  tau(  36) = (   0.2500060   0.8660014   0.7829766  )
        37           Pb  tau(  37) = (   0.8750136   0.2164798   1.1744851  )
        38           Pb  tau(  38) = (   0.8750034   0.2164889   0.3914994  )
        39           Pb  tau(  39) = (   0.8750085   0.2164844   0.7829923  )
        40           Pb  tau(  40) = (   0.7500128   0.4329852   1.1744810  )
        41           Pb  tau(  41) = (   0.7500026   0.4329942   0.3914953  )
        42           Pb  tau(  42) = (   0.7500077   0.4329897   0.7829881  )
        43           Pb  tau(  43) = (   0.6250119   0.6494906   1.1744769  )
        44           Pb  tau(  44) = (   0.6250017   0.6494996   0.3914912  )
        45           Pb  tau(  45) = (   0.6250068   0.6494951   0.7829840  )
        46           Pb  tau(  46) = (   0.5000111   0.8659959   1.1744727  )
        47           Pb  tau(  47) = (   0.5000009   0.8660050   0.3914870  )
        48           Pb  tau(  48) = (   0.5000060   0.8660004   0.7829799  )
        49           I   tau(  49) = (   0.1250105   0.0721505   0.6824253  )
        50           I   tau(  50) = (   0.1250156   0.0721459   1.0739182  )
        51           I   tau(  51) = (   0.0000045   0.2886603   0.2909283  )
        52           I   tau(  52) = (   0.0000096   0.2886558   0.6824212  )
        53           I   tau(  53) = (   0.0000147   0.2886513   1.0739140  )
        54           I   tau(  54) = (  -0.1249963   0.5051657   0.2909242  )
        55           I   tau(  55) = (  -0.1249912   0.5051612   0.6824171  )
        56           I   tau(  56) = (  -0.1249861   0.5051566   1.0739099  )
        57           I   tau(  57) = (  -0.2499971   0.7216710   0.2909201  )
        58           I   tau(  58) = (  -0.2499920   0.7216665   0.6824129  )
        59           I   tau(  59) = (  -0.2499869   0.7216620   1.0739058  )
        60           I   tau(  60) = (   0.3750054   0.0721540   0.2909357  )
[...]
       130           I   tau( 130) = (   0.1250009   0.7938394   0.4920425  )
       131           I   tau( 131) = (   0.1250060   0.7938348   0.8835353  )
       132           I   tau( 132) = (   0.7499983   0.1443268   0.1005653  )
       133           I   tau( 133) = (   0.7500034   0.1443223   0.4920581  )
       134           I   tau( 134) = (   0.7500085   0.1443178   0.8835509  )
       135           I   tau( 135) = (   0.6249975   0.3608322   0.1005611  )
       136           I   tau( 136) = (   0.6250026   0.3608277   0.4920540  )
       137           I   tau( 137) = (   0.6250077   0.3608232   0.8835468  )
       138           I   tau( 138) = (   0.4999966   0.5773376   0.1005570  )
       139           I   tau( 139) = (   0.5000017   0.5773330   0.4920499  )
       140           I   tau( 140) = (   0.5000068   0.5773285   0.8835427  )
       141           I   tau( 141) = (   0.3749958   0.7938429   0.1005529  )
       142           I   tau( 142) = (   0.3750009   0.7938384   0.4920457  )
       143           I   tau( 143) = (   0.3750060   0.7938339   0.8835386  )
       144           Pb  tau( 144) = (   0.1250054   0.0721550   0.2909325  )

   Crystallographic axes

     site n.     atom                  positions (cryst. coord.)
         1           Pb  tau(   1) = (  0.2500000  0.2499727  0.9999973  )
         2           Pb  tau(   2) = (  0.2499950  0.2499832  0.3333306  )
         3           Pb  tau(   3) = (  0.2499975  0.2499780  0.6666639  )
         4           Pb  tau(   4) = (  0.2499986  0.4999716  0.9999938  )
         5           Pb  tau(   5) = (  0.2499936  0.4999820  0.3333271  )
         6           Pb  tau(   6) = (  0.2499961  0.4999768  0.6666604  )
         7           Pb  tau(   7) = (  0.2499972  0.7499704  0.9999902  )
         8           Pb  tau(   8) = (  0.2499922  0.7499809  0.3333236  )
[...]
     atom   44 type  1   force =     0.00000000    0.00000000    0.00000000
     atom   45 type  1   force =     0.00000000    0.00000000    0.00000000
     atom   46 type  1   force =     0.00000000    0.00000000    0.00000000
     atom   47 type  1   force =     0.00000000    0.00000000    0.00000000
     atom   48 type  1   force =     0.00000000    0.00000000    0.00000000
     atom   49 type  2   force =     0.00000000    0.00000000    0.00000000
     atom   50 type  2   force =     0.00000000    0.00000000    0.00000000
     atom   51 type  2   force =     0.00000000    0.00000000    0.00000000
     atom   52 type  2   force =     0.00000000    0.00000000    0.00000000
     atom   53 type  2   force =     0.00000000    0.00000000    0.00000000
     atom   54 type  2   force =     0.00000000    0.00000000    0.00000000
     atom   55 type  2   force =     0.00000000    0.00000000    0.00000000
     atom   56 type  2   force =     0.00000000    0.00000000    0.00000000
     atom   57 type  2   force =     0.00000000    0.00000000    0.00000000
     atom   58 type  2   force =     0.00000000    0.00000000    0.00000000
     atom   59 type  2   force =     0.00000000    0.00000000    0.00000000
     atom   60 type  2   force =     0.00000000    0.00000000    0.00000000
[...]
     atom  130 type  2   force =     0.00000000    0.00000000    0.00000000
     atom  131 type  2   force =     0.00000000    0.00000000    0.00000000
     atom  132 type  2   force =     0.00000000    0.00000000    0.00000000
     atom  133 type  2   force =     0.00000000    0.00000000    0.00000000
     atom  134 type  2   force =     0.00000000    0.00000000    0.00000000
     atom  135 type  2   force =     0.00000000    0.00000000    0.00000000
     atom  136 type  2   force =     0.00000000    0.00000000    0.00000000
     atom  137 type  2   force =     0.00000000    0.00000000    0.00000000
     atom  138 type  2   force =     0.00000000    0.00000000    0.00000000
     atom  139 type  2   force =     0.00000000    0.00000000    0.00000000
     atom  140 type  2   force =     0.00000000    0.00000000    0.00000000
     atom  141 type  2   force =     0.00000000    0.00000000    0.00000000
     atom  142 type  2   force =     0.00000000    0.00000000    0.00000000
     atom  143 type  2   force =     0.00000000    0.00000000    0.00000000
     atom  144 type  1   force =     0.00000000    0.00000000    0.00000000
     The SCF correction term to forces
     atom    1 type  1   force =    -0.00000002   -0.00000004    0.00001459
     atom    2 type  1   force =     0.00000002   -0.00001550   -0.00000810
     atom    3 type  1   force =     0.00000001   -0.00000601   -0.00000806
     atom    4 type  1   force =     0.00001102    0.00000262   -0.00000394
     atom    5 type  1   force =     0.00000684   -0.00000535   -0.00001271
     atom    6 type  1   force =    -0.00000103    0.00000121    0.00001315
     atom    7 type  1   force =     0.00000775    0.00000820   -0.00000391
     atom    8 type  1   force =    -0.00000123    0.00000858   -0.00001273
     atom    9 type  1   force =     0.00000056   -0.00000146    0.00001307
     atom   10 type  1   force =    -0.00000016    0.00000007    0.00001466
     atom   11 type  1   force =    -0.00001344    0.00000778   -0.00000812
     atom   12 type  1   force =    -0.00000518    0.00000298   -0.00000811
     atom   13 type  1   force =    -0.00000273   -0.00000156   -0.00001065
     atom   14 type  1   force =    -0.00001684   -0.00000980    0.00000265
     atom   15 type  1   force =     0.00000386    0.00000215    0.00000221
     atom   16 type  1   force =    -0.00001101    0.00000264   -0.00000395
     atom   17 type  1   force =    -0.00000684   -0.00000538   -0.00001273
     atom   18 type  1   force =     0.00000094    0.00000121    0.00001315
     atom   19 type  1   force =     0.00000000   -0.00000002   -0.00000214
     atom   20 type  1   force =    -0.00000003    0.00000004   -0.00002571
     atom   21 type  1   force =     0.00000007   -0.00000007    0.00002548
     atom   22 type  1   force =    -0.00000319   -0.00001081   -0.00000395
     atom   23 type  1   force =    -0.00000805   -0.00000322   -0.00001272
     atom   24 type  1   force =     0.00000152    0.00000028    0.00001310
     atom   25 type  1   force =     0.00000000   -0.00000583   -0.00001807
     atom   26 type  1   force =    -0.00000001   -0.00001157   -0.00000198
     atom   27 type  1   force =    -0.00000003    0.00000953    0.00001644
     atom   28 type  1   force =    -0.00000505    0.00000287   -0.00001806
     atom   29 type  1   force =    -0.00000994    0.00000572   -0.00000199
     atom   30 type  1   force =     0.00000834   -0.00000483    0.00001642
     atom   31 type  1   force =    -0.00000779    0.00000820   -0.00000397
     atom   32 type  1   force =     0.00000123    0.00000856   -0.00001273
     atom   33 type  1   force =    -0.00000060   -0.00000141    0.00001308
     atom   34 type  1   force =     0.00000320   -0.00001082   -0.00000395
     atom   35 type  1   force =     0.00000801   -0.00000320   -0.00001269
     atom   36 type  1   force =    -0.00000158    0.00000029    0.00001317
     atom   37 type  1   force =     0.00000274   -0.00000156   -0.00001067
     atom   38 type  1   force =     0.00001686   -0.00000973    0.00000268
     atom   39 type  1   force =    -0.00000383    0.00000219    0.00000218
     atom   40 type  1   force =     0.00000501    0.00000289   -0.00001809
     atom   41 type  1   force =     0.00000995    0.00000574   -0.00000195
     atom   42 type  1   force =    -0.00000829   -0.00000478    0.00001642
     atom   43 type  1   force =     0.00000007    0.00000315   -0.00001068
     atom   44 type  1   force =     0.00000003    0.00001952    0.00000271
     atom   45 type  1   force =     0.00000005   -0.00000440    0.00000218
     atom   46 type  1   force =     0.00000010    0.00000010    0.00001463
     atom   47 type  1   force =     0.00001346    0.00000775   -0.00000812
     atom   48 type  1   force =     0.00000520    0.00000300   -0.00000806
     atom   49 type  2   force =     0.00000004   -0.00000007   -0.00000860
     atom   50 type  2   force =     0.00000002   -0.00000002    0.00002911
     atom   51 type  2   force =     0.00001977   -0.00001278    0.00000030
     atom   52 type  2   force =     0.00000161   -0.00001012   -0.00000355
     atom   53 type  2   force =     0.00000228    0.00000168    0.00001376
     atom   54 type  2   force =     0.00001638    0.00000943   -0.00000666
     atom   55 type  2   force =    -0.00000632   -0.00000354    0.00001332
     atom   56 type  2   force =     0.00000433    0.00000244   -0.00000869
     atom   57 type  2   force =    -0.00000130    0.00002353    0.00000042
     atom   58 type  2   force =    -0.00000790    0.00000653   -0.00000352
     atom   59 type  2   force =     0.00000297    0.00000066    0.00001327
     atom   60 type  2   force =    -0.00002107   -0.00001064    0.00000049
[...]
     atom  130 type  2   force =     0.00000001    0.00000018   -0.00001744
     atom  131 type  2   force =    -0.00000001   -0.00000573    0.00001731
     atom  132 type  2   force =     0.00001035   -0.00001201   -0.00000849
     atom  133 type  2   force =     0.00001769   -0.00000620    0.00000161
     atom  134 type  2   force =    -0.00001133    0.00000734    0.00000745
     atom  135 type  2   force =     0.00000003   -0.00000007   -0.00001110
     atom  136 type  2   force =    -0.00000001    0.00000000    0.00002104
     atom  137 type  2   force =     0.00000001   -0.00000008   -0.00000177
     atom  138 type  2   force =    -0.00000513    0.00001497   -0.00000844
     atom  139 type  2   force =     0.00000355    0.00001857    0.00000166
     atom  140 type  2   force =     0.00000081   -0.00001353    0.00000744
     atom  141 type  2   force =     0.00000620    0.00000365   -0.00000467
     atom  142 type  2   force =     0.00002368    0.00001379   -0.00001400
     atom  143 type  2   force =    -0.00000888   -0.00000506    0.00000703
     atom  144 type  1   force =     0.00000001   -0.00000006    0.00000147

     Total force =     0.004245     Total SCF correction =     0.000203

     Computing stress (Cartesian axis) and pressure

     Non-local corr. energy    =      68.74102917 Ry

          total   stress  (Ry/bohr**3)                   (kbar)     P=       -5.33
  -0.00003609  -0.00000000  -0.00000000           -5.31       -0.00       -0.00
  -0.00000000  -0.00003609   0.00000000           -0.00       -5.31        0.00
  -0.00000000   0.00000000  -0.00003645           -0.00        0.00       -5.36

     kinetic stress (kbar)  15037.05     -0.00     -0.00
                               -0.00  15037.05      0.00
                               -0.00      0.00  15048.15

     local   stress (kbar)  -7368.55     -0.03     -0.00
                               -0.03  -7368.69      0.01
                               -0.00      0.01   1233.51

     nonloc. stress (kbar)  -1147.29     -0.00     -0.00
                               -0.00  -1147.29      0.00
                               -0.00      0.00  -1153.29

     hartree stress (kbar)  11932.49      0.01      0.00
                                0.01  11932.55     -0.01
                                0.00     -0.01   8061.69

     exc-cor stress (kbar)   6923.93      0.00     -0.00
                                0.00   6923.93      0.00
                               -0.00      0.00   6922.80

     corecor stress (kbar) -11275.50     -0.00      0.00
                               -0.00 -11275.50     -0.00
                                0.00     -0.00 -11275.43

     ewald   stress (kbar) -14190.35      0.02     -0.00
                                0.02 -14190.27     -0.00
                               -0.00     -0.00 -18927.01

     hubbard stress (kbar)      0.00      0.00      0.00
                                0.00      0.00      0.00
                                0.00      0.00      0.00

     DFT-D   stress (kbar)      0.00      0.00      0.00
                                0.00      0.00      0.00
                                0.00      0.00      0.00

     XDM     stress (kbar)      0.00      0.00      0.00
                                0.00      0.00      0.00
                                0.00      0.00      0.00

     dft-nl  stress (kbar)     82.93     -0.00      0.00
                               -0.00     82.93     -0.00
                                0.00     -0.00     84.22

     TS-vdW  stress (kbar)      0.00      0.00      0.00
                                0.00      0.00      0.00
                                0.00      0.00      0.00

     MDB     stress (kbar)      0.00      0.00      0.00
                                0.00      0.00      0.00
                                0.00      0.00      0.00

     3D-RISM stress (kbar)      0.00      0.00      0.00
                                0.00      0.00      0.00
                                0.00      0.00      0.00

     Energy error            =      6.1E-05 Ry
     Gradient error          =      9.8E-04 Ry/Bohr

     bfgs converged in  28 scf cycles and  27 bfgs steps
     (criteria: energy <  1.0E-04 Ry, force <  1.0E-03 Ry/Bohr)

     End of BFGS Geometry Optimization

     Final energy             =  -97468.0048510713 Ry

     File ./PbI2.bfgs deleted, as requested
Begin final coordinates

ATOMIC_POSITIONS (angstrom)
Pb            2.3558245167        4.2160755046       21.9281338912
Pb            2.3557455991        4.3331672272        7.6399186977
Pb            2.3557200432        4.0776788521       14.7718774546
Pb            0.0113549628        8.2145503401       22.1331752130
Pb           -0.0487152262        8.1986750120        7.3620319603
Pb            0.0024581188        8.1622254806       14.7601989018
Pb           -2.3024060707       12.2220669971       22.1331047700
Pb           -2.3461366938       12.1780648225        7.3620834625
Pb           -2.3523069383       12.2408240629       14.7601786373
Pb           -4.5928723109       16.2514799567       21.9278107841
Pb           -4.4914942179       16.1931339704        7.6399985506
Pb           -4.7130285855       16.3211169783       14.7718750844
Pb            7.2225718155        4.1693386507       22.0574102723
Pb            7.0942476010        4.0953599454        7.4249098116
Pb            7.0663484407        4.0794302360       14.7731663958
Pb            4.7001791814        8.2145616373       22.1331236788
Pb            4.7602210972        8.1986665830        7.3619807924
Pb            4.7089999284        8.1622146471       14.7601938550
Pb            2.3557524066       12.2398670544       22.1099199727
Pb            2.3557643862       12.2398268185        7.3336556710
Pb            2.3557465703       12.2398897817       14.7336368674
Pb            0.0420324178       16.2828147753       22.1331992255
Pb            0.0583311312       16.3426936384        7.3621836496
Pb            0.0009628725       16.3167742274       14.7601531821
Pb           11.7783570489        4.0364170834       22.2060332605
Pb           11.7782759848        4.1096552440        7.4176463023
Pb           11.7782591458        4.0768594060       14.7692492965
Pb            9.3852071884        8.1812338300       22.2058291625
Pb            9.4485929878        8.1448479095        7.4175558727
Pb            9.4200913337        8.1613408514       14.7692645603
Pb            7.0139359050       12.2220817010       22.1330758861
Pb            7.0576838452       12.1780839409        7.3620224933
Pb            7.0637750094       12.2408201419       14.7601884414
Pb            4.6695220913       16.2828092679       22.1332174415
Pb            4.6532039382       16.3427173745        7.3621742830
Pb            4.7104881535       16.3167761030       14.7601694119
Pb           16.3342150850        4.1692790202       22.0576739911
Pb           16.4623235610        4.0953830397        7.4249486445
Pb           16.4901688217        4.0794331213       14.7731878896
Pb           14.1714468107        8.1812002637       22.2059040138
Pb           14.1079759675        8.1448567601        7.4175900668
Pb           14.1364366675        8.1613458608       14.7692663575
Pb           11.7783413576       12.0598723163       22.0568334159
Pb           11.7783070554       12.2084856999        7.4248630701
Pb           11.7782622378       12.2407141384       14.7731725773
Pb            9.3044941743       16.2514672199       21.9279125844
Pb            9.2030232575       16.1931555957        7.6399899736
Pb            9.4244695816       16.3211160759       14.7718849219
I             2.3556992040        1.3598154502       12.8905138139
I             2.3557454180        1.3596831966       20.2581247675
I             0.0525565465        5.3967542723        5.5288026869
I            -0.0036931490        5.4359589381       12.8864394902
I            -0.0177384044        5.4412735531       20.2328022146
I            -2.3570933635        9.5189629490        5.4834352603
I            -2.3618884207        9.5163008473       12.8787568920
I            -2.3599586317        9.5172221974       20.2609356551
I            -4.7218615609       13.6667175465        5.5287396536
I            -4.7164705614       13.5987625585       12.8864378517
I            -4.7186847255       13.5834948599       20.2323314781
I             7.0038828611        1.3355003200        5.5288408715
[...]
I             2.3557627633       14.9722668796        9.2446599443
I             2.3557063644       14.9455977377       16.6412925944
I            14.1432084589        2.7302529736        1.8957249637
I            14.1305706110        2.7116536987        9.2730657359
I            14.1316978107        2.7105908442       16.6590307903
I            11.7782686595        6.7998226150        1.8909033921
I            11.7782523781        6.7998680709        9.2900564101
I            11.7782544147        6.7998661412       16.6788584498
I             9.4365341124       10.8826401496        1.8952382757
I             9.4139964885       10.8811314144        9.2729450236
I             9.4135872264       10.8826798550       16.6590484875
I             7.0817145142       14.9683651576        1.8610204205
I             7.0118395323       14.9280009502        9.3659149134
I             7.0613661428       14.9568264947       16.6531532018
Pb            2.3560414560        1.3587582884        3.5999941801
End final coordinates

     Writing all to output data dir ./PbI2.save/

     General routines

     Parallel routines

     PAW routines

   This run was terminated on:  10:29:25  28Mar2024

   JOB DONE.