     Program PWSCF v.7.1 starts on 28Mar2024 at  6: 0:40

     Reading input from espresso.pwi
Warning: card &CELL ignored
Warning: card    CELL_DYNAMICS    = 'BFGS' ignored
Warning: card / ignored

     Current dimensions of program PWSCF are:
     Max number of different atomic species (ntypx) = 10
     Max number of k-points (npk) =  40000
     Max angular momentum in pseudopotentials (lmaxx) =  4
     file Ga.pbe-dn-kjpaw_psl.1.0.0.UPF: wavefunction(s)  4S renormalized
     file N.pbe-n-kjpaw_psl.1.0.0.UPF: wavefunction(s)  2S renormalized

     IMPORTANT: XC functional enforced from input :
     Exchange-correlation= BEEF-VDW
                           (   1   4  43  14   2   0   0)
     Any further DFT definition will be discarded
     Please, verify this is what you really want

     R & G space division:  proc/nbgrp/npool/nimage =      27
     Subspace diagonalization in iterative solution of the eigenvalue problem:
     a serial algorithm will be used

     Using Slab Decomposition

     bravais-lattice index     =            4
     lattice parameter (alat)  =      12.2626  a.u.
     unit-cell volume          =    2602.7676 (a.u.)^3
     number of atoms/cell      =           32
     number of atomic types    =            2
     number of electrons       =       295.00
     number of Kohn-Sham states=          178
     kinetic-energy cutoff     =      70.0000  Ry
     charge density cutoff     =     350.0000  Ry
     scf convergence threshold =      1.0E-07
     mixing beta               =       0.7000
     number of iterations used =            8  plain     mixing
     Exchange-correlation= BEEF-VDW
                           (   1   4  43  14   2   0   0)

     celldm(1)=  12.262616  celldm(2)=   0.000000  celldm(3)=   1.629879
     celldm(4)=   0.000000  celldm(5)=   0.000000  celldm(6)=   0.000000

     crystal axes: (cart. coord. in units of alat)
               a(1) = (   1.000000   0.000000   0.000000 )
               a(2) = (  -0.500000   0.866025   0.000000 )
               a(3) = (   0.000000   0.000000   1.629879 )

     reciprocal axes: (cart. coord. in units 2 pi/alat)
               b(1) = (  1.000000  0.577350 -0.000000 )
               b(2) = (  0.000000  1.154701  0.000000 )
               b(3) = (  0.000000 -0.000000  0.613542 )

     PseudoPot. # 1 for Ga read from file:
     /trace/group/acmegroup/atimmins/packages/espresso/pseudo/psl_1.0.0/pslibrary.1.0.0/pbe/PSEUDOPOTENTIALS/Ga.pbe-dn-kjpaw_psl.1.0.0.UPF
     MD5 check sum: cd2a01e492f15b435d17032472d8505c
     Pseudo is Projector augmented-wave + core cor, Zval = 13.0
     Generated using 'atomic' code by A. Dal Corso  v.7.1
     Shape of augmentation charge: PSQ
     Using radial grid of 1205 points,  6 beta functions with:
                l(1) =   0
                l(2) =   0
                l(3) =   1
                l(4) =   1
                l(5) =   2
                l(6) =   2
     Q(r) pseudized with 0 coefficients

     PseudoPot. # 2 for N  read from file:
     /trace/group/acmegroup/atimmins/packages/espresso/pseudo/psl_1.0.0/pslibrary.1.0.0/pbe/PSEUDOPOTENTIALS/N.pbe-n-kjpaw_psl.1.0.0.UPF
     MD5 check sum: f77f775694dac7e2c3fe1c82443d1a16
     Pseudo is Projector augmented-wave + core cor, Zval =  5.0
     Generated using 'atomic' code by A. Dal Corso  v.7.1
     Shape of augmentation charge: PSQ
     Using radial grid of 1085 points,  4 beta functions with:
                l(1) =   0
                l(2) =   0
                l(3) =   1
                l(4) =   1
     Q(r) pseudized with 0 coefficients

     atomic species   valence    mass     pseudopotential
        Ga            13.00    69.72300     Ga( 1.00)
        N              5.00    14.00700     N ( 1.00)

      6 Sym. Ops. (no inversion) found ( 4 have fractional translation)

                                    s                        frac. trans.

      isym =  1     identity

 cryst.   s( 1) = (     1          0          0      )
                  (     0          1          0      )
                  (     0          0          1      )

 cart.    s( 1) = (  1.0000000  0.0000000  0.0000000 )
                  (  0.0000000  1.0000000  0.0000000 )
                  (  0.0000000  0.0000000  1.0000000 )

      isym =  2     120 deg rotation - cryst. axis [0,0,1]

 cryst.   s( 2) = (     0          1          0      )    f =(  0.4999999 )
                  (    -1         -1          0      )       (  0.0000004 )
                  (     0          0          1      )       (  0.0000000 )

 cart.    s( 2) = ( -0.5000000 -0.8660254  0.0000000 )    f =(  0.4999998 )
                  (  0.8660254 -0.5000000  0.0000000 )       (  0.0000003 )
                  (  0.0000000  0.0000000  1.0000000 )       (  0.0000000 )

      isym =  3     120 deg rotation - cryst. axis [0,0,-1]

[...]

      isym =  4     inv. 180 deg rotation - cart. axis [1,0,0]

[...]

      isym =  5     inv. 180 deg rotation - cryst. axis [0,1,0]

 cryst.   s( 5) = (     1          1          0      )
                  (     0         -1          0      )
                  (     0          0          1      )

 cart.    s( 5) = (  0.5000000  0.8660254  0.0000000 )
                  (  0.8660254 -0.5000000  0.0000000 )
                  (  0.0000000  0.0000000  1.0000000 )

      isym =  6     inv. 180 deg rotation - cryst. axis [1,1,0]

 cryst.   s( 6) = (     0         -1          0      )    f =(  0.4999999 )
                  (    -1          0          0      )       (  0.4999999 )
                  (     0          0          1      )       (  0.0000000 )

 cart.    s( 6) = (  0.5000000 -0.8660254  0.0000000 )    f =(  0.2500000 )
                  ( -0.8660254 -0.5000000  0.0000000 )       (  0.4330127 )
                  (  0.0000000  0.0000000  1.0000000 )       (  0.0000000 )

     point group C_3v (3m)
     there are  3 classes
     the character table:

       E     2C3   3s_v
A_1    1.00  1.00  1.00
A_2    1.00  1.00 -1.00
E      2.00 -1.00  0.00

     the symmetry operations in each class and the name of the first element:

     E        1
          identity
     2C3      2    3
          120 deg rotation - cryst. axis [0,0,1]
     3s_v     4    5    6
          inv. 180 deg rotation - cart. axis [1,0,0]

   Cartesian axes

     site n.     atom                  positions (alat units)
         1           Ga  tau(   1) = (   0.2500002   0.1443375   0.4067871  )
         2           Ga  tau(   2) = (   0.2500002   0.1443375   1.2217266  )
         3           Ga  tau(   3) = (   0.0000002   0.5773502   0.4067871  )
         4           Ga  tau(   4) = (   0.0000002   0.5773502   1.2217266  )
         5           Ga  tau(   5) = (   0.7500002   0.1443375   0.4067871  )
         6           Ga  tau(   6) = (   0.7500002   0.1443375   1.2217266  )
         7           Ga  tau(   7) = (   0.5000002   0.5773502   0.4067871  )
         8           Ga  tau(   8) = (   0.5000002   0.5773502   1.2217266  )
         9           Ga  tau(   9) = (  -0.0000003   0.2886754   0.8142568  )
        10           Ga  tau(  10) = (  -0.0000003   0.2886754   1.6291964  )
        11           Ga  tau(  11) = (  -0.2500003   0.7216881   0.8142568  )
        12           Ga  tau(  12) = (  -0.2500003   0.7216881   1.6291964  )
        13           Ga  tau(  13) = (   0.4999997   0.2886754   0.8142568  )
        14           Ga  tau(  14) = (   0.4999997   0.2886754   1.6291964  )
        15           Ga  tau(  15) = (   0.2499997   0.7216881   0.8142568  )
        16           Ga  tau(  16) = (   0.2499997   0.7216881   1.6291964  )
        17           N   tau(  17) = (   0.2500002   0.1443375   1.5286943  )
        18           N   tau(  18) = (   0.0000002   0.5773502   0.7137548  )
        19           N   tau(  19) = (   0.0000002   0.5773502   1.5286943  )
        20           N   tau(  20) = (   0.7500002   0.1443375   0.7137548  )
        21           N   tau(  21) = (   0.7500002   0.1443375   1.5286943  )
        22           N   tau(  22) = (   0.5000002   0.5773502   0.7137548  )
        23           N   tau(  23) = (   0.5000002   0.5773502   1.5286943  )
        24           N   tau(  24) = (  -0.0000003   0.2886754   0.3062850  )
        25           N   tau(  25) = (  -0.0000003   0.2886754   1.1212245  )
        26           N   tau(  26) = (  -0.2500003   0.7216881   0.3062850  )
        27           N   tau(  27) = (  -0.2500003   0.7216881   1.1212245  )
        28           N   tau(  28) = (   0.4999997   0.2886754   0.3062850  )
        29           N   tau(  29) = (   0.4999997   0.2886754   1.1212245  )
        30           N   tau(  30) = (   0.2499997   0.7216881   0.3062850  )
        31           N   tau(  31) = (   0.2499997   0.7216881   1.1212245  )
        32           Ga  tau(  32) = (   0.2500002   0.1443375   0.7137548  )

   Crystallographic axes

     site n.     atom                  positions (cryst. coord.)
         1           Ga  tau(   1) = (  0.3333335  0.1666666  0.2495811  )
         2           Ga  tau(   2) = (  0.3333335  0.1666666  0.7495811  )
         3           Ga  tau(   3) = (  0.3333335  0.6666666  0.2495811  )
         4           Ga  tau(   4) = (  0.3333335  0.6666666  0.7495811  )
         5           Ga  tau(   5) = (  0.8333335  0.1666666  0.2495811  )
         6           Ga  tau(   6) = (  0.8333335  0.1666666  0.7495811  )
         7           Ga  tau(   7) = (  0.8333335  0.6666666  0.2495811  )
         8           Ga  tau(   8) = (  0.8333335  0.6666666  0.7495811  )
         9           Ga  tau(   9) = (  0.1666665  0.3333336  0.4995811  )
        10           Ga  tau(  10) = (  0.1666665  0.3333336  0.9995811  )
        11           Ga  tau(  11) = (  0.1666665  0.8333336  0.4995811  )
        12           Ga  tau(  12) = (  0.1666665  0.8333336  0.9995811  )
        13           Ga  tau(  13) = (  0.6666665  0.3333336  0.4995811  )
        14           Ga  tau(  14) = (  0.6666665  0.3333336  0.9995811  )
        15           Ga  tau(  15) = (  0.6666665  0.8333336  0.4995811  )
        16           Ga  tau(  16) = (  0.6666665  0.8333336  0.9995811  )
        17           N   tau(  17) = (  0.3333335  0.1666666  0.9379189  )
        18           N   tau(  18) = (  0.3333335  0.6666666  0.4379189  )
        19           N   tau(  19) = (  0.3333335  0.6666666  0.9379189  )
        20           N   tau(  20) = (  0.8333335  0.1666666  0.4379189  )
        21           N   tau(  21) = (  0.8333335  0.1666666  0.9379189  )
        22           N   tau(  22) = (  0.8333335  0.6666666  0.4379189  )
        23           N   tau(  23) = (  0.8333335  0.6666666  0.9379189  )
        24           N   tau(  24) = (  0.1666665  0.3333336  0.1879189  )
        25           N   tau(  25) = (  0.1666665  0.3333336  0.6879189  )
        26           N   tau(  26) = (  0.1666665  0.8333336  0.1879189  )
        27           N   tau(  27) = (  0.1666665  0.8333336  0.6879189  )
        28           N   tau(  28) = (  0.6666665  0.3333336  0.1879189  )
        29           N   tau(  29) = (  0.6666665  0.3333336  0.6879189  )
        30           N   tau(  30) = (  0.6666665  0.8333336  0.1879189  )
[...]
     atom    5 type  1   force =    -0.00008330    0.53605516   -3.05651821
     atom    6 type  1   force =    -0.00007052    1.19918174    0.95195737
     atom    7 type  1   force =     0.46394898   -0.26764561   -3.05651989
     atom    8 type  1   force =     1.03823735   -0.59921890    0.95195693
     atom    9 type  1   force =    -1.17690577    0.67957665    1.21984836
     atom   10 type  1   force =     0.09376223   -0.05400354   -0.01658990
     atom   11 type  1   force =     0.00112608   -1.36079495    1.21983958
     atom   12 type  1   force =     0.00108884    0.10650763   -0.01658249
     atom   13 type  1   force =     1.17909270    0.67963437    1.21983612
     atom   14 type  1   force =    -0.09156925   -0.05400545   -0.01658069
     atom   15 type  1   force =     0.00109014   -0.00050331    2.25946104
     atom   16 type  1   force =     0.00109574   -0.00049734   -1.86746764
     atom   17 type  2   force =    -0.00001069    0.00002248    0.08583817
     atom   18 type  2   force =    -1.08323398   -0.62531908    2.07977515
     atom   19 type  2   force =    -0.47814266   -0.27602782   -0.60153580
     atom   20 type  2   force =     0.00000785    1.25079313    2.07977403
     atom   21 type  2   force =    -0.00001001    0.55212231   -0.60153753
     atom   22 type  2   force =     1.08320041   -0.62538000    2.07977568
     atom   23 type  2   force =     0.47811942   -0.27602544   -0.60153352
     atom   24 type  2   force =     0.74416063   -0.42963098   -1.35157998
     atom   25 type  2   force =    -0.74269314    0.42880439   -0.32781123
     atom   26 type  2   force =     0.00008539    0.85913742   -1.35158942
     atom   27 type  2   force =     0.00008247   -0.85772835   -0.32780826
     atom   28 type  2   force =    -0.74399201   -0.42962062   -1.35159007
     atom   29 type  2   force =     0.74286579    0.42880820   -0.32780670
     atom   30 type  2   force =     0.00007847   -0.00003673   -1.17030702
     atom   31 type  2   force =     0.00008695   -0.00003837    1.10272045
     atom   32 type  1   force =    -0.00007556    0.00018938    1.00812226
     The core correction contribution to forces
     atom    1 type  1   force =    -0.00000619    0.00001561    0.01561695
     atom    2 type  1   force =    -0.00000631    0.00001821    0.00253397
     atom    3 type  1   force =    -0.00009186   -0.00003585   -0.00261702
     atom    4 type  1   force =     0.00037064    0.00023637    0.00153413
     atom    5 type  1   force =    -0.00000724    0.00011914   -0.00261698
     atom    6 type  1   force =    -0.00000565   -0.00041758    0.00153415
     atom    7 type  1   force =     0.00008096   -0.00003044   -0.00261708
     atom    8 type  1   force =    -0.00038329    0.00023614    0.00153414
     atom    9 type  1   force =     0.00838747   -0.00483692   -0.00291539
     atom   10 type  1   force =    -0.00087871    0.00051667    0.00143030
     atom   11 type  1   force =     0.00008317    0.00955019   -0.00291603
     atom   12 type  1   force =     0.00008023   -0.00114448    0.00143042
     atom   13 type  1   force =    -0.00822776   -0.00483154   -0.00291599
     atom   14 type  1   force =     0.00104016    0.00051635    0.00143044
     atom   15 type  1   force =     0.00007996   -0.00003737    0.00231204
     atom   16 type  1   force =     0.00008067   -0.00003695   -0.00002795
     atom   17 type  2   force =     0.00000023   -0.00000033    0.00087579
     atom   18 type  2   force =     0.00148272    0.00085580   -0.00313699
     atom   19 type  2   force =     0.00064311    0.00037084    0.00103914
     atom   20 type  2   force =     0.00000043   -0.00171223   -0.00313696
     atom   21 type  2   force =     0.00000024   -0.00074262    0.00103911
     atom   22 type  2   force =    -0.00148269    0.00085590   -0.00313701
     atom   23 type  2   force =    -0.00064264    0.00037084    0.00103919
     atom   24 type  2   force =    -0.00093257    0.00053820    0.00063918
     atom   25 type  2   force =     0.00023168   -0.00013380    0.00223597
     atom   26 type  2   force =    -0.00000241   -0.00107304    0.00063913
     atom   27 type  2   force =    -0.00000236    0.00027153    0.00223581
     atom   28 type  2   force =     0.00092781    0.00053878    0.00063938
     atom   29 type  2   force =    -0.00023638   -0.00013376    0.00223582
     atom   30 type  2   force =    -0.00000244    0.00000175    0.00056452
     atom   31 type  2   force =    -0.00000235    0.00000132   -0.00072106
     atom   32 type  1   force =    -0.00000579    0.00001333   -0.00425758
     The Hubbard contrib.    to forces
     atom    1 type  1   force =     0.00000000    0.00000000    0.00000000
     atom    2 type  1   force =     0.00000000    0.00000000    0.00000000
     atom    3 type  1   force =     0.00000000    0.00000000    0.00000000
     atom    4 type  1   force =     0.00000000    0.00000000    0.00000000
     atom    5 type  1   force =     0.00000000    0.00000000    0.00000000
     atom    6 type  1   force =     0.00000000    0.00000000    0.00000000
     atom    7 type  1   force =     0.00000000    0.00000000    0.00000000
     atom    8 type  1   force =     0.00000000    0.00000000    0.00000000
     atom    9 type  1   force =     0.00000000    0.00000000    0.00000000
     atom   10 type  1   force =     0.00000000    0.00000000    0.00000000
     atom   11 type  1   force =     0.00000000    0.00000000    0.00000000
     atom   12 type  1   force =     0.00000000    0.00000000    0.00000000
     atom   13 type  1   force =     0.00000000    0.00000000    0.00000000
     atom   14 type  1   force =     0.00000000    0.00000000    0.00000000
     atom   15 type  1   force =     0.00000000    0.00000000    0.00000000
     atom   16 type  1   force =     0.00000000    0.00000000    0.00000000
     atom   17 type  2   force =     0.00000000    0.00000000    0.00000000
     atom   18 type  2   force =     0.00000000    0.00000000    0.00000000
     atom   19 type  2   force =     0.00000000    0.00000000    0.00000000
     atom   20 type  2   force =     0.00000000    0.00000000    0.00000000
     atom   21 type  2   force =     0.00000000    0.00000000    0.00000000
     atom   22 type  2   force =     0.00000000    0.00000000    0.00000000
     atom   23 type  2   force =     0.00000000    0.00000000    0.00000000
     atom   24 type  2   force =     0.00000000    0.00000000    0.00000000
     atom   25 type  2   force =     0.00000000    0.00000000    0.00000000
     atom   26 type  2   force =     0.00000000    0.00000000    0.00000000
     atom   27 type  2   force =     0.00000000    0.00000000    0.00000000
     atom   28 type  2   force =     0.00000000    0.00000000    0.00000000
     atom   29 type  2   force =     0.00000000    0.00000000    0.00000000
     atom   30 type  2   force =     0.00000000    0.00000000    0.00000000
     atom   31 type  2   force =     0.00000000    0.00000000    0.00000000
     atom   32 type  1   force =     0.00000000    0.00000000    0.00000000
     The SCF correction term to forces
     atom    1 type  1   force =    -0.00000000    0.00000000    0.00000327
     atom    2 type  1   force =    -0.00000000    0.00000000    0.00003325
     atom    3 type  1   force =     0.00001127    0.00000651   -0.00003466
     atom    4 type  1   force =     0.00000600    0.00000346    0.00001586
     atom    5 type  1   force =    -0.00000000   -0.00001302   -0.00003466
     atom    6 type  1   force =    -0.00000000   -0.00000692    0.00001586
     atom    7 type  1   force =    -0.00001128    0.00000651   -0.00003466
     atom    8 type  1   force =    -0.00000600    0.00000346    0.00001586
     atom    9 type  1   force =    -0.00000578    0.00000333   -0.00002753
     atom   10 type  1   force =     0.00003012   -0.00001739    0.00005335
     atom   11 type  1   force =     0.00000000   -0.00000667   -0.00002753
     atom   12 type  1   force =     0.00000000    0.00003478    0.00005335
     atom   13 type  1   force =     0.00000578    0.00000334   -0.00002753
     atom   14 type  1   force =    -0.00003011   -0.00001739    0.00005335
     atom   15 type  1   force =     0.00000000   -0.00000000   -0.00002116
     atom   16 type  1   force =     0.00000000   -0.00000000    0.00007301
     atom   17 type  2   force =    -0.00000000   -0.00000000    0.00002620
     atom   18 type  2   force =    -0.00000041   -0.00000023   -0.00001784
     atom   19 type  2   force =    -0.00000118   -0.00000068    0.00001841
     atom   20 type  2   force =    -0.00000000    0.00000047   -0.00001784
     atom   21 type  2   force =     0.00000000    0.00000136    0.00001841
     atom   22 type  2   force =     0.00000041   -0.00000023   -0.00001784
     atom   23 type  2   force =     0.00000118   -0.00000068    0.00001841
     atom   24 type  2   force =     0.00001284   -0.00000741   -0.00001143
     atom   25 type  2   force =    -0.00000461    0.00000266    0.00000713
     atom   26 type  2   force =    -0.00000000    0.00001482   -0.00001143
     atom   27 type  2   force =    -0.00000000   -0.00000533    0.00000713
     atom   28 type  2   force =    -0.00001284   -0.00000741   -0.00001143
     atom   29 type  2   force =     0.00000461    0.00000266    0.00000713
     atom   30 type  2   force =     0.00000000   -0.00000000   -0.00001901
     atom   31 type  2   force =     0.00000000   -0.00000000    0.00000068
     atom   32 type  1   force =     0.00000000   -0.00000000   -0.00013972

     Total force =     0.002143     Total SCF correction =     0.000224
     SCF correction compared to forces is large: reduce conv_thr to get better values

     Computing stress (Cartesian axis) and pressure

[...]

          total   stress  (Ry/bohr**3)                   (kbar)     P=       22.54
   0.00003615  -0.00000000   0.00000000            5.32       -0.00        0.00
   0.00000000   0.00003615   0.00000000            0.00        5.32        0.00
   0.00000000  -0.00000000   0.00038745            0.00       -0.00       57.00

     kinetic stress (kbar)  18542.89      0.00      0.00
                                0.00  18542.89     -0.00
                                0.00      0.00  18638.79

     local   stress (kbar)   6975.96     -0.08     -0.00
                               -0.08   6975.86      0.00
                               -0.00      0.00   3067.11

     nonloc. stress (kbar)    258.16      0.00      0.00
                                0.00    258.16      0.00
                                0.00      0.00    229.66

     hartree stress (kbar)  20292.63     -0.00     -0.00
                               -0.00  20292.63     -0.00
                               -0.00     -0.00  21879.78

     exc-cor stress (kbar)   5679.33      0.00     -0.00
                                0.00   5679.33      0.00
                               -0.00      0.00   5685.51

     corecor stress (kbar) -14915.02     -0.00     -0.00
                               -0.00 -14915.02     -0.00
                               -0.00     -0.00 -14916.54

     ewald   stress (kbar) -36998.86      0.10      0.00
                                0.10 -36998.74     -0.00
                                0.00     -0.00 -34694.96

     hubbard stress (kbar)      0.00      0.00      0.00
                                0.00      0.00      0.00
                                0.00      0.00      0.00

     DFT-D   stress (kbar)      0.00      0.00      0.00
                                0.00      0.00      0.00
                                0.00      0.00      0.00

     XDM     stress (kbar)      0.00      0.00      0.00
                                0.00      0.00      0.00
                                0.00      0.00      0.00

     dft-nl  stress (kbar)    170.22     -0.00      0.00
                               -0.00    170.22     -0.00
                                0.00     -0.00    167.64

     TS-vdW  stress (kbar)      0.00      0.00      0.00
                                0.00      0.00      0.00
                                0.00      0.00      0.00

     MDB     stress (kbar)      0.00      0.00      0.00
                                0.00      0.00      0.00
                                0.00      0.00      0.00

     3D-RISM stress (kbar)      0.00      0.00      0.00
                                0.00      0.00      0.00
                                0.00      0.00      0.00

[...]

     Non-local corr. energy    =       9.09233645 Ry

 BEEFens 2000 ensemble energies
             -0.732297222479787E+01
             -0.663700593128982E+02
             -0.286075247194773E+02
              0.233310326091014E+02
             -0.478687991276936E+02
             -0.614556599709498E+02
              0.314561059101286E+02
             -0.321568169279084E+01
              0.526284440756854E+02
             -0.228474005340593E+01
              0.259166095345029E+02
              0.110579106444342E+01
              0.949715146247570E+00
             -0.222177534025167E+01
              0.343894768682675E+02
             -0.250536702914433E+02
             -0.515067461406534E+02
             -0.167994191889572E+02
              0.126467099752892E+02
             -0.117442208301986E+01
              0.754535094644738E+02
              0.640802257149788E+02
             -0.368747048292986E+02
              0.132093151672557E+02
             -0.805553848645427E+02
              0.645998866257527E+02
              0.210704991864244E+02
              0.626186527679987E+02
              0.411926946186825E+02
             -0.199381771359839E+02
              0.151590045725191E+02
             -0.295079996378137E+02
              0.842868676532161E+01
              0.404625096119803E+02
              0.427574217804168E+02
             -0.155129735017181E+02
              0.950678824730412E+02
             -0.362105590119770E+02
             -0.259784662999392E+02
              0.381238880879840E+02
              0.171035813249561E+02
              0.285073003019040E+02
             -0.543805453160206E+02
             -0.154005643455821E+01
              0.532835108704318E+02
              0.693205191241312E+02
             -0.691232321827312E+02
              0.488517002450110E+01
              0.259891936940077E+02
              0.128752486678287E+02
              0.287628972671729E+02
              0.611101205601410E+02
             -0.369467403879579E+02
             -0.405542260737772E+02
             -0.526990874640018E+02
             -0.802831458398038E+01
             -0.480639721641846E+02
              0.475929871474506E+01
             -0.877240167835481E+01
             -0.374043512434835E+02
[...]
              0.466006841512277E+02
              0.258931192581832E+02
              0.327120872064568E+02
             -0.530216257708444E+02
             -0.509852609054728E+02
             -0.127579122260277E+02
             -0.498301812568152E+02
              0.795878245057222E+02
              0.681722984393225E+02
              0.326027679133248E+02
              0.883876477325727E+02
             -0.459121463095239E+02
             -0.186723233016120E+02
             -0.261496975845595E+02
              0.731871282691624E+02

 BEEF-vdW xc energy contributions
            1 :    -669.9178618572366
            2 :     603.8777154571270
            3 :    -493.1547866168810
            4 :     370.0688242080035
            5 :    -263.1639864584697
            6 :     186.3613390168807
            7 :    -137.2953483666895
            8 :     104.2135851113983
            9 :    -75.90096455928619
           10 :     48.20317146189996
           11 :    -23.99261921276377
           12 :     8.204824066480114
           13 :    -2.508816481772669
           14 :     3.545688536436160
           15 :    -5.418848936574477
           16 :     3.900203709538573
           17 :     1.079768303601895
           18 :    -6.329586997561591
           19 :     8.577856844190819
           20 :    -7.234716413156775
           21 :     4.669528841020792
           22 :    -4.080381362444996
           23 :     6.879441096336677
           24 :    -11.69262512900934
           25 :     15.60911583003542
           26 :    -16.50551770421021
           27 :     14.54418227979374
           28 :    -11.76517403449725
           29 :     10.27660156878392
           30 :    -10.59471958551330
           31 :    -56.95524325815541
           32 :    -39.07792635068859

     Writing all to output data dir ./GaN.save/

     General routines

     Parallel routines

     PAW routines

   This run was terminated on:   6: 2: 6  28Mar2024

   JOB DONE.