     Program PWSCF v.7.1 starts on  8Oct2023 at 10:46:33

     Reading input from espresso.pwi
Warning: card &CELL ignored
Warning: card    CELL_DYNAMICS    = 'BFGS' ignored
Warning: card / ignored

     Current dimensions of program PWSCF are:
     Max number of different atomic species (ntypx) = 10
     Max number of k-points (npk) =  40000
     Max angular momentum in pseudopotentials (lmaxx) =  4
     file C.pbe-n-kjpaw_psl.1.0.0.UPF: wavefunction(s)  2S 2P renormalized

     IMPORTANT: XC functional enforced from input :
     Exchange-correlation= BEEF-VDW
                           (   1   4  43  14   2   0   0)
     Any further DFT definition will be discarded
     Please, verify this is what you really want

     K-points division:     npool     =       4
     R & G space division:  proc/nbgrp/npool/nimage =      64
     Subspace diagonalization in iterative solution of the eigenvalue problem:
     a serial algorithm will be used

     Using Slab Decomposition

     bravais-lattice index     =            1
     lattice parameter (alat)  =      20.2520  a.u.
     unit-cell volume          =    8306.2556 (a.u.)^3
     number of atoms/cell      =          215
     number of atomic types    =            1
     number of electrons       =       861.00
     number of Kohn-Sham states=          517
     kinetic-energy cutoff     =      70.0000  Ry
     charge density cutoff     =     350.0000  Ry
     scf convergence threshold =      1.0E-08
     mixing beta               =       0.7000
     number of iterations used =            8  plain     mixing
     Exchange-correlation= BEEF-VDW
                           (   1   4  43  14   2   0   0)

     celldm(1)=  20.252024  celldm(2)=   0.000000  celldm(3)=   0.000000
     celldm(4)=   0.000000  celldm(5)=   0.000000  celldm(6)=   0.000000

     crystal axes: (cart. coord. in units of alat)
               a(1) = (   1.000000   0.000000   0.000000 )
               a(2) = (   0.000000   1.000000   0.000000 )
               a(3) = (   0.000000   0.000000   1.000000 )

     reciprocal axes: (cart. coord. in units 2 pi/alat)
               b(1) = (  1.000000  0.000000  0.000000 )
               b(2) = (  0.000000  1.000000  0.000000 )
               b(3) = (  0.000000  0.000000  1.000000 )

     PseudoPot. # 1 for C  read from file:
     /trace/group/acmegroup/atimmins/packages/espresso/pseudo/psl_1.0.0/pslibrary.1.0.0/pbe/PSEUDOPOTENTIALS/C.pbe-n-kjpaw_psl.1.0.0.UPF
     MD5 check sum: 5459cf7f2c8c37df2f7cde8914797f4d
     Pseudo is Projector augmented-wave + core cor, Zval =  4.0
     Generated using 'atomic' code by A. Dal Corso  v.7.1
     Shape of augmentation charge: PSQ
     Using radial grid of 1073 points,  4 beta functions with:
                l(1) =   0
                l(2) =   0
                l(3) =   1
                l(4) =   1
     Q(r) pseudized with 0 coefficients

     atomic species   valence    mass     pseudopotential
        C              4.00    12.01100     C ( 1.00)

      6 Sym. Ops. (no inversion) found ( 4 have fractional translation)

                                    s                        frac. trans.

      isym =  1     identity

 cryst.   s( 1) = (     1          0          0      )
                  (     0          1          0      )
                  (     0          0          1      )

 cart.    s( 1) = (  1.0000000  0.0000000  0.0000000 )
                  (  0.0000000  1.0000000  0.0000000 )
                  (  0.0000000  0.0000000  1.0000000 )

      isym =  2     120 deg rotation - cart. axis [1,-1,1]

 cryst.   s( 2) = (     0          0          1      )    f =( -0.3333333 )
                  (    -1          0          0      )       ( -0.3333333 )
                  (     0         -1          0      )       (  0.0000000 )

 cart.    s( 2) = (  0.0000000 -1.0000000  0.0000000 )    f =( -0.3333333 )
                  (  0.0000000  0.0000000 -1.0000000 )       ( -0.3333333 )
                  (  1.0000000  0.0000000  0.0000000 )       (  0.0000000 )

      isym =  3     120 deg rotation - cart. axis [-1,1,-1]

[...]

      isym =  4     inv. 180 deg rotation - cart. axis [1,1,0]

[...]

 cryst.   s( 5) = (     0          0          1      )
                  (     0          1          0      )
                  (     1          0          0      )

 cart.    s( 5) = (  0.0000000  0.0000000  1.0000000 )
                  (  0.0000000  1.0000000  0.0000000 )
                  (  1.0000000  0.0000000  0.0000000 )

      isym =  6     inv. 180 deg rotation - cart. axis [0,1,1]

 cryst.   s( 6) = (     1          0          0      )    f =(  0.0000000 )
                  (     0          0         -1      )       ( -0.3333333 )
                  (     0         -1          0      )       ( -0.3333333 )

 cart.    s( 6) = (  1.0000000  0.0000000  0.0000000 )    f =(  0.0000000 )
                  (  0.0000000  0.0000000 -1.0000000 )       ( -0.3333333 )
                  (  0.0000000 -1.0000000  0.0000000 )       ( -0.3333333 )

     point group C_3v (3m)
     there are  3 classes
     the character table:

       E     2C3   3s_v
A_1    1.00  1.00  1.00
A_2    1.00  1.00 -1.00
E      2.00 -1.00  0.00

     the symmetry operations in each class and the name of the first element:

     E        1
          identity
     2C3      2    3
          120 deg rotation - cart. axis [1,-1,1]
     3s_v     4    5    6
          inv. 180 deg rotation - cart. axis [1,1,0]

   Cartesian axes

     site n.     atom                  positions (alat units)
         1           C   tau(   1) = (   0.0833353   0.2499980   0.4166687  )
         2           C   tau(   2) = (   0.0833353   0.2499980   0.7500020  )
         3           C   tau(   3) = (   0.0833353   0.5833313   0.0833353  )
         4           C   tau(   4) = (   0.0833353   0.5833313   0.4166687  )
         5           C   tau(   5) = (   0.0833353   0.5833313   0.7500020  )
         6           C   tau(   6) = (   0.0833353   0.9166647   0.0833353  )
         7           C   tau(   7) = (   0.0833353   0.9166647   0.4166687  )
         8           C   tau(   8) = (   0.0833353   0.9166647   0.7500020  )
         9           C   tau(   9) = (   0.4166687   0.2499980   0.0833353  )
        10           C   tau(  10) = (   0.4166687   0.2499980   0.4166687  )
        11           C   tau(  11) = (   0.4166687   0.2499980   0.7500020  )
        12           C   tau(  12) = (   0.4166687   0.5833313   0.0833353  )
        13           C   tau(  13) = (   0.4166687   0.5833313   0.4166687  )
        14           C   tau(  14) = (   0.4166687   0.5833313   0.7500020  )
        15           C   tau(  15) = (   0.4166687   0.9166647   0.0833353  )
        16           C   tau(  16) = (   0.4166687   0.9166647   0.4166687  )
        17           C   tau(  17) = (   0.4166687   0.9166647   0.7500020  )
        18           C   tau(  18) = (   0.7500020   0.2499980   0.0833353  )
        19           C   tau(  19) = (   0.7500020   0.2499980   0.4166687  )
        20           C   tau(  20) = (   0.7500020   0.2499980   0.7500020  )
        21           C   tau(  21) = (   0.7500020   0.5833313   0.0833353  )
        22           C   tau(  22) = (   0.7500020   0.5833313   0.4166687  )
        23           C   tau(  23) = (   0.7500020   0.5833313   0.7500020  )
        24           C   tau(  24) = (   0.7500020   0.9166647   0.0833353  )
        25           C   tau(  25) = (   0.7500020   0.9166647   0.4166687  )
        26           C   tau(  26) = (   0.7500020   0.9166647   0.7500020  )
        27           C   tau(  27) = (   0.0000000   0.0000000   0.1666667  )
        28           C   tau(  28) = (   0.0000000   0.0000000   0.5000000  )
        29           C   tau(  29) = (   0.0000000   0.0000000   0.8333333  )
        30           C   tau(  30) = (   0.0000000   0.3333333   0.1666667  )
        31           C   tau(  31) = (   0.0000000   0.3333333   0.5000000  )
        32           C   tau(  32) = (   0.0000000   0.3333333   0.8333333  )
        33           C   tau(  33) = (   0.0000000   0.6666667   0.1666667  )
        34           C   tau(  34) = (   0.0000000   0.6666667   0.5000000  )
        35           C   tau(  35) = (   0.0000000   0.6666667   0.8333333  )
        36           C   tau(  36) = (   0.3333333   0.0000000   0.1666667  )
        37           C   tau(  37) = (   0.3333333   0.0000000   0.5000000  )
        38           C   tau(  38) = (   0.3333333   0.0000000   0.8333333  )
        39           C   tau(  39) = (   0.3333333   0.3333333   0.1666667  )
        40           C   tau(  40) = (   0.3333333   0.3333333   0.5000000  )
        41           C   tau(  41) = (   0.3333333   0.3333333   0.8333333  )
        42           C   tau(  42) = (   0.3333333   0.6666667   0.1666667  )
        43           C   tau(  43) = (   0.3333333   0.6666667   0.5000000  )
        44           C   tau(  44) = (   0.3333333   0.6666667   0.8333333  )
        45           C   tau(  45) = (   0.6666667   0.0000000   0.1666667  )
        46           C   tau(  46) = (   0.6666667   0.0000000   0.5000000  )
        47           C   tau(  47) = (   0.6666667   0.0000000   0.8333333  )
        48           C   tau(  48) = (   0.6666667   0.3333333   0.1666667  )
        49           C   tau(  49) = (   0.6666667   0.3333333   0.5000000  )
        50           C   tau(  50) = (   0.6666667   0.3333333   0.8333333  )
        51           C   tau(  51) = (   0.6666667   0.6666667   0.1666667  )
        52           C   tau(  52) = (   0.6666667   0.6666667   0.5000000  )
        53           C   tau(  53) = (   0.6666667   0.6666667   0.8333333  )
        54           C   tau(  54) = (   0.0833353   0.0833353   0.2499980  )
        55           C   tau(  55) = (   0.0833353   0.0833353   0.5833313  )
        56           C   tau(  56) = (   0.0833353   0.0833353   0.9166647  )
        57           C   tau(  57) = (   0.0833353   0.4166687   0.2499980  )
        58           C   tau(  58) = (   0.0833353   0.4166687   0.5833313  )
        59           C   tau(  59) = (   0.0833353   0.4166687   0.9166647  )
        60           C   tau(  60) = (   0.0833353   0.7500020   0.2499980  )
[...]
       201           C   tau( 201) = (   0.5000000   0.5000000   0.1666667  )
       202           C   tau( 202) = (   0.5000000   0.5000000   0.5000000  )
       203           C   tau( 203) = (   0.5000000   0.5000000   0.8333333  )
       204           C   tau( 204) = (   0.5000000   0.8333333   0.1666667  )
       205           C   tau( 205) = (   0.5000000   0.8333333   0.5000000  )
       206           C   tau( 206) = (   0.5000000   0.8333333   0.8333333  )
       207           C   tau( 207) = (   0.8333333   0.1666667   0.1666667  )
       208           C   tau( 208) = (   0.8333333   0.1666667   0.5000000  )
       209           C   tau( 209) = (   0.8333333   0.1666667   0.8333333  )
       210           C   tau( 210) = (   0.8333333   0.5000000   0.1666667  )
       211           C   tau( 211) = (   0.8333333   0.5000000   0.5000000  )
       212           C   tau( 212) = (   0.8333333   0.5000000   0.8333333  )
[...]
     atom   25 type  1   force =     0.00000000    0.00000000    0.00000000
     atom   26 type  1   force =     0.00000000    0.00000000    0.00000000
     atom   27 type  1   force =     0.00000000    0.00000000    0.00000000
     atom   28 type  1   force =     0.00000000    0.00000000    0.00000000
     atom   29 type  1   force =     0.00000000    0.00000000    0.00000000
     atom   30 type  1   force =     0.00000000    0.00000000    0.00000000
     atom   31 type  1   force =     0.00000000    0.00000000    0.00000000
     atom   32 type  1   force =     0.00000000    0.00000000    0.00000000
     atom   33 type  1   force =     0.00000000    0.00000000    0.00000000
     atom   34 type  1   force =     0.00000000    0.00000000    0.00000000
     atom   35 type  1   force =     0.00000000    0.00000000    0.00000000
     atom   36 type  1   force =     0.00000000    0.00000000    0.00000000
     atom   37 type  1   force =     0.00000000    0.00000000    0.00000000
     atom   38 type  1   force =     0.00000000    0.00000000    0.00000000
     atom   39 type  1   force =     0.00000000    0.00000000    0.00000000
     atom   40 type  1   force =     0.00000000    0.00000000    0.00000000
     atom   41 type  1   force =     0.00000000    0.00000000    0.00000000
     atom   42 type  1   force =     0.00000000    0.00000000    0.00000000
     atom   43 type  1   force =     0.00000000    0.00000000    0.00000000
     atom   44 type  1   force =     0.00000000    0.00000000    0.00000000
     atom   45 type  1   force =     0.00000000    0.00000000    0.00000000
     atom   46 type  1   force =     0.00000000    0.00000000    0.00000000
     atom   47 type  1   force =     0.00000000    0.00000000    0.00000000
     atom   48 type  1   force =     0.00000000    0.00000000    0.00000000
     atom   49 type  1   force =     0.00000000    0.00000000    0.00000000
     atom   50 type  1   force =     0.00000000    0.00000000    0.00000000
     atom   51 type  1   force =     0.00000000    0.00000000    0.00000000
     atom   52 type  1   force =     0.00000000    0.00000000    0.00000000
     atom   53 type  1   force =     0.00000000    0.00000000    0.00000000
     atom   54 type  1   force =     0.00000000    0.00000000    0.00000000
     atom   55 type  1   force =     0.00000000    0.00000000    0.00000000
     atom   56 type  1   force =     0.00000000    0.00000000    0.00000000
     atom   57 type  1   force =     0.00000000    0.00000000    0.00000000
     atom   58 type  1   force =     0.00000000    0.00000000    0.00000000
     atom   59 type  1   force =     0.00000000    0.00000000    0.00000000
     atom   60 type  1   force =     0.00000000    0.00000000    0.00000000
[...]
     atom  201 type  1   force =     0.00000000    0.00000000    0.00000000
     atom  202 type  1   force =     0.00000000    0.00000000    0.00000000
     atom  203 type  1   force =     0.00000000    0.00000000    0.00000000
     atom  204 type  1   force =     0.00000000    0.00000000    0.00000000
     atom  205 type  1   force =     0.00000000    0.00000000    0.00000000
     atom  206 type  1   force =     0.00000000    0.00000000    0.00000000
     atom  207 type  1   force =     0.00000000    0.00000000    0.00000000
     atom  208 type  1   force =     0.00000000    0.00000000    0.00000000
     atom  209 type  1   force =     0.00000000    0.00000000    0.00000000
     atom  210 type  1   force =     0.00000000    0.00000000    0.00000000
     atom  211 type  1   force =     0.00000000    0.00000000    0.00000000
     atom  212 type  1   force =     0.00000000    0.00000000    0.00000000
     atom  213 type  1   force =     0.00000000    0.00000000    0.00000000
     atom  214 type  1   force =     0.00000000    0.00000000    0.00000000
     atom  215 type  1   force =     0.00000000    0.00000000    0.00000000
     The SCF correction term to forces
     atom    1 type  1   force =    -0.00000742    0.00000742    0.00000718
     atom    2 type  1   force =    -0.00000556    0.00000556    0.00000250
     atom    3 type  1   force =    -0.00000556   -0.00000250   -0.00000556
     atom    4 type  1   force =    -0.00000422    0.00000706    0.00001189
     atom    5 type  1   force =    -0.00000677    0.00000659   -0.00000659
     atom    6 type  1   force =    -0.00000742   -0.00000718   -0.00000742
     atom    7 type  1   force =    -0.00000907   -0.00001473    0.00001473
     atom    8 type  1   force =    -0.00000422   -0.00001189   -0.00000706
     atom    9 type  1   force =     0.00000718    0.00000742   -0.00000742
     atom   10 type  1   force =     0.00001473    0.00000907    0.00001473
     atom   11 type  1   force =     0.00001189    0.00000422   -0.00000706
     atom   12 type  1   force =     0.00001189    0.00000706   -0.00000422
     atom   13 type  1   force =    -0.00000603   -0.00001117   -0.00000603
     atom   14 type  1   force =    -0.00000412   -0.00000877    0.00000877
     atom   15 type  1   force =     0.00001473   -0.00001473   -0.00000907
     atom   16 type  1   force =    -0.00000174    0.00000174   -0.00000174
     atom   17 type  1   force =    -0.00000603    0.00000603    0.00001117
     atom   18 type  1   force =     0.00000250    0.00000556   -0.00000556
     atom   19 type  1   force =    -0.00000706    0.00000422    0.00001189
     atom   20 type  1   force =    -0.00000659    0.00000677   -0.00000659
     atom   21 type  1   force =    -0.00000659    0.00000659   -0.00000677
     atom   22 type  1   force =     0.00000877   -0.00000877   -0.00000412
     atom   23 type  1   force =     0.00001194   -0.00001194    0.00001194
     atom   24 type  1   force =    -0.00000706   -0.00001189   -0.00000422
     atom   25 type  1   force =     0.00001117    0.00000603   -0.00000603
     atom   26 type  1   force =     0.00000877    0.00000412    0.00000877
     atom   27 type  1   force =    -0.00001191   -0.00000517   -0.00000561
     atom   28 type  1   force =    -0.00000056   -0.00001024    0.00001034
     atom   29 type  1   force =    -0.00000101   -0.00000359   -0.00000462
     atom   30 type  1   force =    -0.00000760    0.00000760   -0.00000603
     atom   31 type  1   force =    -0.00000765    0.00000765    0.00000641
     atom   32 type  1   force =    -0.00000562    0.00000562   -0.00000098
     atom   33 type  1   force =    -0.00000744   -0.00000450   -0.00000211
     atom   34 type  1   force =     0.00001040    0.00000185    0.00001150
     atom   35 type  1   force =     0.00000141   -0.00000190   -0.00001037
     atom   36 type  1   force =     0.00000962   -0.00000962   -0.00000833
     atom   37 type  1   force =    -0.00000590    0.00000590    0.00000852
     atom   38 type  1   force =    -0.00000091    0.00000091   -0.00000062
     atom   39 type  1   force =     0.00000517    0.00001191   -0.00000561
     atom   40 type  1   force =     0.00001024    0.00000056    0.00001034
     atom   41 type  1   force =     0.00000359    0.00000101   -0.00000462
     atom   42 type  1   force =     0.00001034   -0.00000241   -0.00001071
     atom   43 type  1   force =    -0.00002289   -0.00000624    0.00000376
     atom   44 type  1   force =    -0.00000728   -0.00000380    0.00000686
     atom   45 type  1   force =     0.00000241   -0.00001034   -0.00001071
     atom   46 type  1   force =     0.00000624    0.00002289    0.00000376
     atom   47 type  1   force =     0.00000380    0.00000728    0.00000686
     atom   48 type  1   force =     0.00000450    0.00000744   -0.00000211
     atom   49 type  1   force =    -0.00000185   -0.00001040    0.00001150
     atom   50 type  1   force =     0.00000190   -0.00000141   -0.00001037
     atom   51 type  1   force =    -0.00000197    0.00000197   -0.00001950
     atom   52 type  1   force =     0.00001330   -0.00001330   -0.00000490
     atom   53 type  1   force =     0.00000605   -0.00000605    0.00002361
     atom   54 type  1   force =    -0.00001856   -0.00000648    0.00000648
     atom   55 type  1   force =    -0.00000580   -0.00000660    0.00000738
     atom   56 type  1   force =    -0.00000908    0.00000254   -0.00000664
     atom   57 type  1   force =    -0.00000908    0.00000664   -0.00000254
     atom   58 type  1   force =    -0.00000536    0.00001267    0.00000636
     atom   59 type  1   force =    -0.00000449    0.00000313   -0.00000313
     atom   60 type  1   force =    -0.00000580   -0.00000738    0.00000660
[...]
     atom  201 type  1   force =     0.00000848    0.00001123   -0.00001061
     atom  202 type  1   force =     0.00000339   -0.00002269    0.00000339
     atom  203 type  1   force =     0.00000550   -0.00000690    0.00000690
     atom  204 type  1   force =     0.00001361   -0.00001361   -0.00001926
     atom  205 type  1   force =    -0.00000362    0.00000362   -0.00000362
     atom  206 type  1   force =     0.00000339   -0.00000339    0.00002269
     atom  207 type  1   force =    -0.00000254    0.00000434   -0.00000434
     atom  208 type  1   force =    -0.00001123    0.00001061    0.00000848
     atom  209 type  1   force =    -0.00000410    0.00000851   -0.00000410
     atom  210 type  1   force =    -0.00000410    0.00000410   -0.00000851
     atom  211 type  1   force =     0.00000690   -0.00000690    0.00000550
     atom  212 type  1   force =     0.00000134   -0.00000134    0.00000134
     atom  213 type  1   force =    -0.00001123   -0.00000848   -0.00001061
     atom  214 type  1   force =     0.00002269   -0.00000339    0.00000339
     atom  215 type  1   force =     0.00000690   -0.00000550    0.00000690

     Total force =     0.002825     Total SCF correction =     0.000221

     Computing stress (Cartesian axis) and pressure

[...]

          total   stress  (Ry/bohr**3)                   (kbar)     P=       25.33
   0.00017222  -0.00000003   0.00000003           25.33       -0.00        0.00
  -0.00000003   0.00017222  -0.00000003           -0.00       25.33       -0.00
   0.00000003  -0.00000003   0.00017222            0.00       -0.00       25.33

     kinetic stress (kbar)  18928.99      0.00     -0.00
                                0.00  18928.99      0.00
                               -0.00      0.00  18928.99

     local   stress (kbar)  -3586.33      0.06     -0.06
                                0.06  -3586.33      0.06
                               -0.06      0.06  -3586.33

     nonloc. stress (kbar)   4309.98      0.00     -0.00
                                0.00   4309.98      0.00
                               -0.00      0.00   4309.98

     hartree stress (kbar)   1305.87     -0.02      0.02
                               -0.02   1305.87     -0.02
                                0.02     -0.02   1305.87

     exc-cor stress (kbar)   -416.10      0.00     -0.00
                                0.00   -416.10      0.00
                               -0.00      0.00   -416.10

     corecor stress (kbar)  -4415.02     -0.00      0.00
                               -0.00  -4415.02     -0.00
                                0.00     -0.00  -4415.02

     ewald   stress (kbar) -16126.88     -0.05      0.05
                               -0.05 -16126.88     -0.05
                                0.05     -0.05 -16126.88

     hubbard stress (kbar)      0.00      0.00      0.00
                                0.00      0.00      0.00
                                0.00      0.00      0.00

     DFT-D   stress (kbar)      0.00      0.00      0.00
                                0.00      0.00      0.00
                                0.00      0.00      0.00

     XDM     stress (kbar)      0.00      0.00      0.00
                                0.00      0.00      0.00
                                0.00      0.00      0.00

     dft-nl  stress (kbar)     24.82      0.00     -0.00
                                0.00     24.82      0.00
                               -0.00      0.00     24.82

     TS-vdW  stress (kbar)      0.00      0.00      0.00
                                0.00      0.00      0.00
                                0.00      0.00      0.00

     MDB     stress (kbar)      0.00      0.00      0.00
                                0.00      0.00      0.00
                                0.00      0.00      0.00

     3D-RISM stress (kbar)      0.00      0.00      0.00
                                0.00      0.00      0.00
                                0.00      0.00      0.00

[...]

     Non-local corr. energy    =       7.36225489 Ry

 BEEFens 2000 ensemble energies
             -0.130208823946637E+02
             -0.906980903071139E+02
             -0.321940355303913E+02
              0.356159301755071E+02
             -0.599829382182288E+02
             -0.839215381079777E+02
              0.496843297013409E+02
             -0.102972486601342E+02
              0.689545761299374E+02
             -0.113600985846045E+01
              0.280205198231074E+02
              0.141584563971448E+01
              0.387436473568610E+01
             -0.817307629005717E+01
              0.466821177729237E+02
             -0.348979246551791E+02
             -0.800944826218357E+02
             -0.221975868435276E+02
              0.181062696932926E+02
              0.196128633739261E+01
              0.958234134068855E+02
              0.869048532138364E+02
             -0.426938121576204E+02
              0.239875354685072E+02
             -0.108871623677938E+03
              0.876959748762090E+02
              0.313977523522469E+02
              0.923200902849661E+02
              0.582423264759427E+02
             -0.363862743805619E+02
              0.227185202412797E+02
             -0.472684552345126E+02
              0.139160056976586E+01
              0.464381980818875E+02
              0.599412165789689E+02
             -0.147648260293044E+02
              0.129215337868578E+03
             -0.452282987751429E+02
             -0.327118975102151E+02
              0.500807268230974E+02
              0.172396412628487E+02
              0.421397223276480E+02
             -0.736464273307256E+02
             -0.303560756327056E+01
              0.780522879491562E+02
              0.952039599375989E+02
             -0.862620198965177E+02
              0.715196052160567E+01
              0.340147271819096E+02
              0.793987820006532E+01
              0.416103622854076E+02
              0.834667336768531E+02
             -0.559250919105381E+02
             -0.588185716131011E+02
             -0.745752590527266E+02
             -0.205743653952491E+02
             -0.622540910096166E+02
              0.333090390314152E+01
             -0.165525305622102E+02
             -0.564793918126450E+02
[...]
              0.732639329710878E+02
              0.299693380083650E+02
              0.510694042935684E+02
             -0.731252453524141E+02
             -0.569841296267998E+02
             -0.231962390024084E+02
             -0.626648073541295E+02
              0.112953222846316E+03
              0.968935844996950E+02
              0.421022367299346E+02
              0.114218513272061E+03
             -0.612696152801550E+02
             -0.294767093781713E+02
             -0.304143050938521E+02
              0.901225715342247E+02

 BEEF-vdW xc energy contributions
            1 :    -880.8784265401025
            2 :     777.2655664043129
            3 :    -598.5651426941574
            4 :     391.0753240973669
            5 :    -202.0918276681291
            6 :     64.29558232131694
            7 :     12.44386503173519
            8 :    -39.33448168395580
            9 :     39.08722828661575
           10 :    -33.80413986951055
           11 :     36.03402935234476
           12 :    -46.37244366630853
           13 :     57.35622231194293
           14 :    -60.42029193065241
           15 :     51.75311767331175
           16 :    -34.20539869454331
           17 :     14.98383028950309
           18 :    -1.170460106245969
           19 :    -4.042537665645341
           20 :     2.374881304051087
           21 :     1.431357820269795
           22 :    -2.896982941110991
           23 :    0.3865847242693690
           24 :     4.411989147741565
           25 :    -8.087377600887294
           26 :     7.939333874898580
           27 :    -3.669538371213662
           28 :    -2.606129871025246
           29 :     7.832648985786363
           30 :    -9.906469316953917
           31 :    -115.2561630712494
           32 :    -83.63954530186504

     Writing all to output data dir ./diamond.save/

     General routines

     Parallel routines

     PAW routines

   This run was terminated on:  10:50:33   8Oct2023

   JOB DONE.