     Program PWSCF v.7.1 starts on 28Feb2024 at 21: 1: 2

     Reading input from espresso.pwi
Warning: card &CELL ignored
Warning: card    CELL_DYNAMICS    = 'BFGS' ignored
Warning: card / ignored

     Current dimensions of program PWSCF are:
     Max number of different atomic species (ntypx) = 10
     Max number of k-points (npk) =  40000
     Max angular momentum in pseudopotentials (lmaxx) =  4
     file Pb.pbe-dn-kjpaw_psl.1.0.0.UPF: wavefunction(s)  6S 6P 5D renormalized
     file I.pbe-dn-kjpaw_psl.1.0.0.UPF: wavefunction(s)  5S 5P renormalized

     IMPORTANT: XC functional enforced from input :
     Exchange-correlation= BEEF-VDW
                           (   1   4  43  14   2   0   0)
     Any further DFT definition will be discarded
     Please, verify this is what you really want

     R & G space division:  proc/nbgrp/npool/nimage =     128
     Subspace diagonalization in iterative solution of the eigenvalue problem:
     a serial algorithm will be used

     Using Slab Decomposition

     bravais-lattice index     =            4
     lattice parameter (alat)  =      35.6073  a.u.
     unit-cell volume          =   30614.2220 (a.u.)^3
     number of atoms/cell      =           96
     number of atomic types    =            2
     number of electrons       =      1532.00
     number of Kohn-Sham states=          919
     kinetic-energy cutoff     =      70.0000  Ry
     charge density cutoff     =     350.0000  Ry
     scf convergence threshold =      1.0E-07
     mixing beta               =       0.7000
     number of iterations used =            8  plain     mixing
     energy convergence thresh.=      1.0E-04
     force convergence thresh. =      1.0E-03
     Exchange-correlation= BEEF-VDW
                           (   1   4  43  14   2   0   0)
     nstep                     =           50

     celldm(1)=  35.607290  celldm(2)=   0.000000  celldm(3)=   0.783025
     celldm(4)=   0.000000  celldm(5)=   0.000000  celldm(6)=   0.000000

     crystal axes: (cart. coord. in units of alat)
               a(1) = (   1.000000   0.000000   0.000000 )
               a(2) = (  -0.500000   0.866025   0.000000 )
               a(3) = (   0.000000   0.000000   0.783025 )

     reciprocal axes: (cart. coord. in units 2 pi/alat)
               b(1) = (  1.000000  0.577350 -0.000000 )
               b(2) = (  0.000000  1.154701  0.000000 )
               b(3) = (  0.000000 -0.000000  1.277098 )

     PseudoPot. # 1 for Pb read from file:
     //group///packages/espresso/pseudo/psl_1.0.0/pslibrary.1.0.0/pbe/PSEUDOPOTENTIALS/Pb.pbe-dn-kjpaw_psl.1.0.0.UPF
     MD5 check sum: 39ab5b8a6bbd56b7735ad9f188aac93a
     Pseudo is Projector augmented-wave + core cor, Zval = 14.0
     Generated using 'atomic' code by A. Dal Corso  v.7.1
     Shape of augmentation charge: PSQ
     Using radial grid of 1281 points,  6 beta functions with:
                l(1) =   0
                l(2) =   0
                l(3) =   1
                l(4) =   1
                l(5) =   2
                l(6) =   2
     Q(r) pseudized with 0 coefficients

     PseudoPot. # 2 for I  read from file:
     //group///packages/espresso/pseudo/psl_1.0.0/pslibrary.1.0.0/pbe/PSEUDOPOTENTIALS/I.pbe-dn-kjpaw_psl.1.0.0.UPF
     MD5 check sum: bfa8781bc1224d19af3f3980e3fab11e
     Pseudo is Projector augmented-wave + core cor, Zval = 17.0
     Generated using 'atomic' code by A. Dal Corso  v.7.1
     Shape of augmentation charge: PSQ
     Using radial grid of 1247 points,  6 beta functions with:
                l(1) =   0
                l(2) =   0
                l(3) =   1
                l(4) =   1
                l(5) =   2
                l(6) =   2
     Q(r) pseudized with 0 coefficients

     atomic species   valence    mass     pseudopotential
        Pb            14.00   207.20000     Pb( 1.00)
        I             17.00   126.90447     I ( 1.00)

     No symmetry found

                                    s                        frac. trans.

      isym =  1     identity

 cryst.   s( 1) = (     1          0          0      )
                  (     0          1          0      )
                  (     0          0          1      )

 cart.    s( 1) = (  1.0000000  0.0000000  0.0000000 )
                  (  0.0000000  1.0000000  0.0000000 )
                  (  0.0000000  0.0000000  1.0000000 )

     point group C_1 (1)
     there are  1 classes
     the character table:

       E
A      1.00

     the symmetry operations in each class and the name of the first element:

     E        1
          identity

   Cartesian axes

     site n.     atom                  positions (alat units)
         1           Pb  tau(   1) = (   0.1250086   0.2164870   0.7830203  )
         2           Pb  tau(   2) = (   0.1250034   0.2164916   0.3915076  )
         3           Pb  tau(   3) = (   0.0000077   0.4329922   0.7830161  )
         4           Pb  tau(   4) = (   0.0000025   0.4329968   0.3915034  )
         5           Pb  tau(   5) = (  -0.1249932   0.6494975   0.7830119  )
         6           Pb  tau(   6) = (  -0.1249984   0.6495021   0.3914992  )
         7           Pb  tau(   7) = (  -0.2499941   0.8660028   0.7830077  )
         8           Pb  tau(   8) = (  -0.2499993   0.8660074   0.3914950  )
         9           Pb  tau(   9) = (   0.3750086   0.2164859   0.7830237  )
        10           Pb  tau(  10) = (   0.3750034   0.2164905   0.3915110  )
        11           Pb  tau(  11) = (   0.2500077   0.4329912   0.7830194  )
        12           Pb  tau(  12) = (   0.2500025   0.4329958   0.3915068  )
        13           Pb  tau(  13) = (   0.1250068   0.6494965   0.7830152  )
        14           Pb  tau(  14) = (   0.1250016   0.6495011   0.3915026  )
        15           Pb  tau(  15) = (   0.0000059   0.8660017   0.7830110  )
        16           Pb  tau(  16) = (   0.0000007   0.8660063   0.3914983  )
        17           Pb  tau(  17) = (   0.6250086   0.2164849   0.7830270  )
        18           Pb  tau(  18) = (   0.6250034   0.2164895   0.3915143  )
        19           Pb  tau(  19) = (   0.5000077   0.4329901   0.7830228  )
        20           Pb  tau(  20) = (   0.5000025   0.4329947   0.3915101  )
        21           Pb  tau(  21) = (   0.3750068   0.6494954   0.7830186  )
        22           Pb  tau(  22) = (   0.3750016   0.6495000   0.3915059  )
        23           Pb  tau(  23) = (   0.2500059   0.8660007   0.7830144  )
        24           Pb  tau(  24) = (   0.2500007   0.8660053   0.3915017  )
        25           Pb  tau(  25) = (   0.8750086   0.2164838   0.7830303  )
        26           Pb  tau(  26) = (   0.8750034   0.2164884   0.3915177  )
        27           Pb  tau(  27) = (   0.7500077   0.4329891   0.7830261  )
        28           Pb  tau(  28) = (   0.7500025   0.4329937   0.3915135  )
        29           Pb  tau(  29) = (   0.6250068   0.6494944   0.7830219  )
        30           Pb  tau(  30) = (   0.6250016   0.6494990   0.3915092  )
        31           Pb  tau(  31) = (   0.5000059   0.8659996   0.7830177  )
        32           Pb  tau(  32) = (   0.5000007   0.8660042   0.3915050  )
        33           I   tau(  33) = (   0.1250108   0.0721500   0.6824290  )
        34           I   tau(  34) = (   0.0000047   0.2886599   0.2909121  )
        35           I   tau(  35) = (   0.0000099   0.2886553   0.6824248  )
        36           I   tau(  36) = (  -0.1249962   0.5051652   0.2909079  )
        37           I   tau(  37) = (  -0.1249910   0.5051606   0.6824206  )
        38           I   tau(  38) = (  -0.2499972   0.7216704   0.2909037  )
        39           I   tau(  39) = (  -0.2499919   0.7216658   0.6824164  )
        40           I   tau(  40) = (   0.3750056   0.0721536   0.2909197  )
        41           I   tau(  41) = (   0.3750108   0.0721490   0.6824324  )
        42           I   tau(  42) = (   0.2500047   0.2886589   0.2909155  )
        43           I   tau(  43) = (   0.2500099   0.2886543   0.6824282  )
        44           I   tau(  44) = (   0.1250038   0.5051641   0.2909113  )
        45           I   tau(  45) = (   0.1250090   0.5051595   0.6824240  )
        46           I   tau(  46) = (   0.0000028   0.7216694   0.2909071  )
        47           I   tau(  47) = (   0.0000081   0.7216648   0.6824197  )
        48           I   tau(  48) = (   0.6250056   0.0721525   0.2909230  )
        49           I   tau(  49) = (   0.6250108   0.0721479   0.6824357  )
        50           I   tau(  50) = (   0.5000047   0.2886578   0.2909188  )
        51           I   tau(  51) = (   0.5000099   0.2886532   0.6824315  )
        52           I   tau(  52) = (   0.3750038   0.5051631   0.2909146  )
        53           I   tau(  53) = (   0.3750090   0.5051585   0.6824273  )
        54           I   tau(  54) = (   0.2500028   0.7216683   0.2909104  )
        55           I   tau(  55) = (   0.2500081   0.7216637   0.6824231  )
        56           I   tau(  56) = (   0.8750056   0.0721515   0.2909264  )
        57           I   tau(  57) = (   0.8750108   0.0721469   0.6824391  )
        58           I   tau(  58) = (   0.7500047   0.2886567   0.2909222  )
        59           I   tau(  59) = (   0.7500099   0.2886521   0.6824348  )
        60           I   tau(  60) = (   0.6250038   0.5051620   0.2909180  )
[...]
        82           I   tau(  82) = (   0.3749973   0.3608329   0.1005958  )
        83           I   tau(  83) = (   0.3750025   0.3608283   0.4921084  )
        84           I   tau(  84) = (   0.2499964   0.5773382   0.1005915  )
        85           I   tau(  85) = (   0.2500016   0.5773336   0.4921042  )
        86           I   tau(  86) = (   0.1249955   0.7938434   0.1005873  )
        87           I   tau(  87) = (   0.1250007   0.7938388   0.4921000  )
        88           I   tau(  88) = (   0.7499982   0.1443266   0.1006033  )
        89           I   tau(  89) = (   0.7500034   0.1443220   0.4921160  )
        90           I   tau(  90) = (   0.6249973   0.3608319   0.1005991  )
        91           I   tau(  91) = (   0.6250025   0.3608273   0.4921118  )
        92           I   tau(  92) = (   0.4999964   0.5773371   0.1005949  )
        93           I   tau(  93) = (   0.5000016   0.5773325   0.4921076  )
        94           I   tau(  94) = (   0.3749955   0.7938424   0.1005907  )
        95           I   tau(  95) = (   0.3750007   0.7938378   0.4921034  )
        96           Pb  tau(  96) = (   0.1250056   0.0721546   0.2909163  )

   Crystallographic axes

     site n.     atom                  positions (cryst. coord.)
         1           Pb  tau(   1) = (  0.2499975  0.2499776  0.9999935  )
         2           Pb  tau(   2) = (  0.2499949  0.2499829  0.4999935  )
         3           Pb  tau(   3) = (  0.2499959  0.4999764  0.9999882  )
         4           Pb  tau(   4) = (  0.2499933  0.4999817  0.4999882  )
         5           Pb  tau(   5) = (  0.2499944  0.7499751  0.9999828  )
         6           Pb  tau(   6) = (  0.2499918  0.7499804  0.4999828  )
         7           Pb  tau(   7) = (  0.2499928  0.9999739  0.9999774  )
         8           Pb  tau(   8) = (  0.2499903  0.9999792  0.4999774  )
[...]
     atom   44 type  2   force =     0.00000000    0.00000000    0.00000000
     atom   45 type  2   force =     0.00000000    0.00000000    0.00000000
     atom   46 type  2   force =     0.00000000    0.00000000    0.00000000
     atom   47 type  2   force =     0.00000000    0.00000000    0.00000000
     atom   48 type  2   force =     0.00000000    0.00000000    0.00000000
     atom   49 type  2   force =     0.00000000    0.00000000    0.00000000
     atom   50 type  2   force =     0.00000000    0.00000000    0.00000000
     atom   51 type  2   force =     0.00000000    0.00000000    0.00000000
     atom   52 type  2   force =     0.00000000    0.00000000    0.00000000
     atom   53 type  2   force =     0.00000000    0.00000000    0.00000000
     atom   54 type  2   force =     0.00000000    0.00000000    0.00000000
     atom   55 type  2   force =     0.00000000    0.00000000    0.00000000
     atom   56 type  2   force =     0.00000000    0.00000000    0.00000000
     atom   57 type  2   force =     0.00000000    0.00000000    0.00000000
     atom   58 type  2   force =     0.00000000    0.00000000    0.00000000
     atom   59 type  2   force =     0.00000000    0.00000000    0.00000000
     atom   60 type  2   force =     0.00000000    0.00000000    0.00000000
[...]
     atom   82 type  2   force =     0.00000000    0.00000000    0.00000000
     atom   83 type  2   force =     0.00000000    0.00000000    0.00000000
     atom   84 type  2   force =     0.00000000    0.00000000    0.00000000
     atom   85 type  2   force =     0.00000000    0.00000000    0.00000000
     atom   86 type  2   force =     0.00000000    0.00000000    0.00000000
     atom   87 type  2   force =     0.00000000    0.00000000    0.00000000
     atom   88 type  2   force =     0.00000000    0.00000000    0.00000000
     atom   89 type  2   force =     0.00000000    0.00000000    0.00000000
     atom   90 type  2   force =     0.00000000    0.00000000    0.00000000
     atom   91 type  2   force =     0.00000000    0.00000000    0.00000000
     atom   92 type  2   force =     0.00000000    0.00000000    0.00000000
     atom   93 type  2   force =     0.00000000    0.00000000    0.00000000
     atom   94 type  2   force =     0.00000000    0.00000000    0.00000000
     atom   95 type  2   force =     0.00000000    0.00000000    0.00000000
     atom   96 type  1   force =     0.00000000    0.00000000    0.00000000
     The SCF correction term to forces
     atom    1 type  1   force =    -0.00000730    0.00001388    0.00000017
     atom    2 type  1   force =    -0.00001075   -0.00000121   -0.00000213
     atom    3 type  1   force =     0.00001315    0.00000012    0.00000075
     atom    4 type  1   force =     0.00001180   -0.00000400   -0.00000095
     atom    5 type  1   force =     0.00001270    0.00000159    0.00000061
     atom    6 type  1   force =     0.00001037   -0.00000138   -0.00000159
     atom    7 type  1   force =     0.00000381   -0.00000287   -0.00000003
     atom    8 type  1   force =    -0.00001564    0.00000795   -0.00000262
     atom    9 type  1   force =    -0.00000430    0.00000318   -0.00000061
     atom   10 type  1   force =    -0.00000789    0.00000380    0.00000315
     atom   11 type  1   force =    -0.00001367    0.00000715    0.00000083
     atom   12 type  1   force =    -0.00001242    0.00000377   -0.00000002
     atom   13 type  1   force =     0.00000558   -0.00000249    0.00000516
     atom   14 type  1   force =     0.00000671   -0.00000306   -0.00000289
     atom   15 type  1   force =     0.00000559   -0.00001199    0.00000055
     atom   16 type  1   force =     0.00000693   -0.00000857   -0.00000150
     atom   17 type  1   force =     0.00000625   -0.00000799   -0.00000457
     atom   18 type  1   force =     0.00000695    0.00000187    0.00000478
     atom   19 type  1   force =    -0.00000877    0.00000566   -0.00000446
     atom   20 type  1   force =    -0.00000063    0.00000116    0.00000560
     atom   21 type  1   force =    -0.00001248    0.00000930    0.00000080
     atom   22 type  1   force =    -0.00000878    0.00001043    0.00000010
     atom   23 type  1   force =     0.00000700   -0.00001171    0.00000064
     atom   24 type  1   force =     0.00001051   -0.00000868   -0.00000075
     atom   25 type  1   force =     0.00000580   -0.00000407   -0.00000025
     atom   26 type  1   force =     0.00001041   -0.00000700    0.00000220
     atom   27 type  1   force =     0.00000943   -0.00000119   -0.00000460
     atom   28 type  1   force =     0.00000116   -0.00000666    0.00000463
     atom   29 type  1   force =    -0.00000559    0.00000260   -0.00000064
     atom   30 type  1   force =    -0.00000822    0.00000574    0.00000302
     atom   31 type  1   force =    -0.00001634   -0.00000161    0.00000014
     atom   32 type  1   force =    -0.00000543    0.00000815   -0.00000208
     atom   33 type  2   force =    -0.00001136    0.00000545   -0.00000074
     atom   34 type  2   force =     0.00000988   -0.00000440    0.00000683
     atom   35 type  2   force =     0.00000762    0.00000654    0.00000193
     atom   36 type  2   force =     0.00001677   -0.00000201   -0.00000016
     atom   37 type  2   force =     0.00001306   -0.00000314   -0.00000294
     atom   38 type  2   force =    -0.00000017    0.00000379   -0.00000013
     atom   39 type  2   force =     0.00000764    0.00000129    0.00000140
     atom   40 type  2   force =    -0.00000292   -0.00000285   -0.00000015
     atom   41 type  2   force =     0.00000313   -0.00000830    0.00000141
     atom   42 type  2   force =    -0.00001924    0.00000586    0.00000481
     atom   43 type  2   force =    -0.00001556    0.00001402    0.00000031
     atom   44 type  2   force =     0.00000180    0.00000407    0.00000087
     atom   45 type  2   force =     0.00000189   -0.00000285    0.00000254
     atom   46 type  2   force =     0.00001629   -0.00000904   -0.00000211
     atom   47 type  2   force =     0.00000806   -0.00000426    0.00000272
     atom   48 type  2   force =     0.00001109   -0.00001399   -0.00000021
     atom   49 type  2   force =     0.00001023   -0.00001028   -0.00000304
     atom   50 type  2   force =     0.00000181    0.00000363    0.00000638
     atom   51 type  2   force =     0.00000084    0.00000299   -0.00001051
     atom   52 type  2   force =    -0.00001618    0.00001057    0.00000071
     atom   53 type  2   force =    -0.00001262    0.00000840   -0.00000396
     atom   54 type  2   force =    -0.00000126   -0.00000264    0.00000118
     atom   55 type  2   force =     0.00000435    0.00000076    0.00000246
     atom   56 type  2   force =     0.00000879   -0.00000845    0.00000746
     atom   57 type  2   force =    -0.00000218   -0.00001116    0.00000175
     atom   58 type  2   force =     0.00000697   -0.00000442    0.00000756
     atom   59 type  2   force =     0.00000727   -0.00000456   -0.00000908
     atom   60 type  2   force =    -0.00000249   -0.00000231    0.00000638
[...]
     atom   82 type  2   force =    -0.00001470    0.00001188    0.00000177
     atom   83 type  2   force =    -0.00000779    0.00000549    0.00000065
     atom   84 type  2   force =    -0.00000856    0.00000609    0.00000340
     atom   85 type  2   force =    -0.00000662    0.00000523   -0.00000304
     atom   86 type  2   force =     0.00000992   -0.00001188    0.00000385
     atom   87 type  2   force =     0.00001179   -0.00001044   -0.00000181
     atom   88 type  2   force =     0.00000796   -0.00001434    0.00000206
     atom   89 type  2   force =     0.00001086   -0.00000529   -0.00000078
     atom   90 type  2   force =     0.00000295   -0.00000160    0.00000555
     atom   91 type  2   force =     0.00000269   -0.00000126   -0.00000262
     atom   92 type  2   force =    -0.00001738    0.00000824    0.00000161
     atom   93 type  2   force =    -0.00000849    0.00000565    0.00000029
     atom   94 type  2   force =    -0.00000961   -0.00000144   -0.00000301
     atom   95 type  2   force =    -0.00000368    0.00000179   -0.00000934
     atom   96 type  1   force =    -0.00001308    0.00000607    0.00002415

     Total force =     0.004386     Total SCF correction =     0.000127

     Computing stress (Cartesian axis) and pressure

     Non-local corr. energy    =      45.71461553 Ry

          total   stress  (Ry/bohr**3)                   (kbar)     P=       -2.68
  -0.00001892  -0.00000000   0.00000000           -2.78       -0.00        0.00
  -0.00000000  -0.00001892  -0.00000000           -0.00       -2.78       -0.00
   0.00000000  -0.00000000  -0.00001688            0.00       -0.00       -2.48

     kinetic stress (kbar)  15067.65      0.00     -0.00
                                0.00  15067.65      0.00
                               -0.00      0.00  15079.79

     local   stress (kbar)  -7294.75      0.05     -0.02
                                0.05  -7294.49      0.03
                               -0.02      0.03   1280.37

     nonloc. stress (kbar)  -1183.38      0.00     -0.00
                                0.00  -1183.38      0.00
                               -0.00      0.00  -1187.39

     hartree stress (kbar)  11883.19     -0.02      0.00
                               -0.02  11883.09     -0.01
                                0.00     -0.01   8019.83

     exc-cor stress (kbar)   6913.47     -0.00      0.00
                               -0.00   6913.47     -0.00
                                0.00     -0.00   6912.48

     corecor stress (kbar) -11262.24     -0.00      0.00
                               -0.00 -11262.24     -0.00
                                0.00     -0.00 -11262.20

     ewald   stress (kbar) -14209.48     -0.03      0.01
                               -0.03 -14209.64     -0.03
                                0.01     -0.03 -18929.38

     hubbard stress (kbar)      0.00      0.00      0.00
                                0.00      0.00      0.00
                                0.00      0.00      0.00

     DFT-D   stress (kbar)      0.00      0.00      0.00
                                0.00      0.00      0.00
                                0.00      0.00      0.00

     XDM     stress (kbar)      0.00      0.00      0.00
                                0.00      0.00      0.00
                                0.00      0.00      0.00

     dft-nl  stress (kbar)     82.77      0.00     -0.00
                                0.00     82.77      0.00
                               -0.00      0.00     84.02

     TS-vdW  stress (kbar)      0.00      0.00      0.00
                                0.00      0.00      0.00
                                0.00      0.00      0.00

     MDB     stress (kbar)      0.00      0.00      0.00
                                0.00      0.00      0.00
                                0.00      0.00      0.00

     3D-RISM stress (kbar)      0.00      0.00      0.00
                                0.00      0.00      0.00
                                0.00      0.00      0.00

     Energy error            =      3.9E-05 Ry
     Gradient error          =      8.7E-04 Ry/Bohr

     bfgs converged in  25 scf cycles and  24 bfgs steps
     (criteria: energy <  1.0E-04 Ry, force <  1.0E-03 Ry/Bohr)

     End of BFGS Geometry Optimization

     Final energy             =  -65089.1336973798 Ry

     File ./PbI2.bfgs deleted, as requested
Begin final coordinates

ATOMIC_POSITIONS (angstrom)
Pb            2.3554221076        4.1499294374       14.7142911867
Pb            2.3553016636        3.7635553062        7.3953505219
Pb            0.0102735167        8.1934872512       14.7693624145
Pb            0.0368716456        8.1310656685        7.3677868200
Pb           -2.3200548366       12.2297861403       14.7693782379
Pb           -2.3608174756       12.2838250221        7.3675970310
Pb           -4.6492992300       16.2823602866       14.7142317371
Pb           -4.9834250657       16.4752910350        7.3957215995
Pb            7.1586798512        4.1326484113       14.7670959139
Pb            7.0702641928        4.0816516117        7.3741888198
Pb            4.7005092851        8.1934964475       14.7693560433
Pb            4.6738627585        8.1310203520        7.3677770559
Pb            2.3553842108       12.2383253322       14.7513768122
Pb            2.3553970288       12.2382904055        7.3377598458
Pb            0.0250293095       16.2916025296       14.7696197835
Pb           -0.0422533143       16.2998101189        7.3677690269
Pb           11.7766790931        4.0465138784       14.8113802991
Pb           11.7766863350        4.0589578415        7.3807718315
Pb            9.3930814080        8.1750663834       14.8110785810
Pb            9.4038006975        8.1688506009        7.3805881423
Pb            7.0308634925       12.2297902915       14.7695128607
Pb            7.0716014032       12.2838910172        7.3677870502
Pb            4.6857807380       16.2916269492       14.7697591045
Pb            4.7530474912       16.2998008838        7.3679866217
Pb           16.3946960573        4.1326498124       14.7672525456
Pb           16.4830586590        4.0816434237        7.3744595930
Pb           14.1603079700        8.1750841459       14.8111107197
Pb           14.1495389153        8.1688420478        7.3805154082
Pb           11.7766869641       12.1312593271       14.7668678537
Pb           11.7766497778       12.2332792567        7.3741236187
Pb            9.3600989257       16.2823301050       14.7143426160
Pb            9.6943273534       16.4754693103        7.3957079670
I             2.3553958342        1.3595204215       12.9315261864
I             0.0592685723        5.3442724054        5.5261412203
I             0.0155486182        5.4130747043       12.9098930011
I            -2.3705271319        9.5098658612        5.4856079777
I            -2.3545301253        9.5191361826       12.8842836644
I            -4.7630534782       13.6967654091        5.5260199643
I            -4.7251657241       13.6243494016       12.9097425190
I             6.9543340028        1.3556060073        5.5260967574
I             7.0360007739        1.3590725789       12.9098896816
I             4.6513845033        5.3441991673        5.5260617751
I             4.6952393634        5.4130938546       12.9098281442
I             2.3553757929        9.5120720678        5.4600911016
I             2.3553720170        9.5196773050       12.8752800262
I            -0.0056541353       13.6015135475        5.4600979497
I             0.0008730381       13.5978170597       12.8753359578
I            11.7766390724        1.3771355000        5.4859170503
I            11.7766676691        1.3586928284       12.8846202119
I             9.4014161806        5.4275562167        5.5073507701
I             9.3751071066        5.4121427265       12.8947851010
I             7.0812909197        9.5098217804        5.4857500091
I             7.0652972691        9.5191377445       12.8843348137
I             4.7164229396       13.6015281386        5.4601717196
I             4.7098810004       13.5978206707       12.8754806186
I            16.5989826782        1.3556177793        5.5262324701
I            16.5174270115        1.3590635808       12.9100015533
I            14.1519801708        5.4274755314        5.5074149865
I            14.1783535366        5.4121279416       12.8948340354
I            11.7766244405        9.5415742185        5.5072182625
[...]
I             7.0716453907        6.8046171002        1.9099226757
I             7.0537852339        6.7992721676        9.2625602907
I             4.7099779013       10.8788621063        1.9004124881
I             4.7171467876       10.8747302165        9.2203584453
I             2.3553197892       14.9571873488        1.9006216955
I             2.3552720592       14.9654473846        9.2204508719
I            14.1242621674        2.7215261022        1.9102349464
I            14.1377117245        2.7086327374        9.2628684540
I            11.7766687273        6.7990493430        1.8900402864
I            11.7766924268        6.7989935119        9.2819920138
I             9.4193431724       10.8707510334        1.9099040013
I             9.4149563012       10.8888357811        9.2626075376
I             7.0609945966       14.9550319290        1.8961411723
I             7.0785468481       14.9651931831        9.2138052364
Pb            2.3554443956        1.3592883786        3.9003133284
End final coordinates

     Writing all to output data dir ./PbI2.save/

     General routines

     Parallel routines

     PAW routines

   This run was terminated on:  15: 6:12  29Feb2024

   JOB DONE.