     Program PWSCF v.7.1 starts on 12Feb2024 at 12:12:40

     Reading input from espresso.pwi
Warning: card &CELL ignored
Warning: card    CELL_DYNAMICS    = 'BFGS' ignored
Warning: card / ignored

     Current dimensions of program PWSCF are:
     Max number of different atomic species (ntypx) = 10
     Max number of k-points (npk) =  40000
     Max angular momentum in pseudopotentials (lmaxx) =  4
     file Pb.pbe-dn-kjpaw_psl.1.0.0.UPF: wavefunction(s)  6S 6P 5D renormalized
     file I.pbe-dn-kjpaw_psl.1.0.0.UPF: wavefunction(s)  5S 5P renormalized

     IMPORTANT: XC functional enforced from input :
     Exchange-correlation= BEEF-VDW
                           (   1   4  43  14   2   0   0)
     Any further DFT definition will be discarded
     Please, verify this is what you really want

     R & G space division:  proc/nbgrp/npool/nimage =     128
     Subspace diagonalization in iterative solution of the eigenvalue problem:
     a serial algorithm will be used

     Using Slab Decomposition

     bravais-lattice index     =            4
     lattice parameter (alat)  =      35.6073  a.u.
     unit-cell volume          =   30614.2220 (a.u.)^3
     number of atoms/cell      =           96
     number of atomic types    =            2
     number of electrons       =      1539.00
     number of Kohn-Sham states=          924
     kinetic-energy cutoff     =      70.0000  Ry
     charge density cutoff     =     350.0000  Ry
     scf convergence threshold =      1.0E-07
     mixing beta               =       0.7000
     number of iterations used =            8  plain     mixing
     energy convergence thresh.=      1.0E-04
     force convergence thresh. =      1.0E-03
     Exchange-correlation= BEEF-VDW
                           (   1   4  43  14   2   0   0)
     nstep                     =           50

     celldm(1)=  35.607290  celldm(2)=   0.000000  celldm(3)=   0.783025
     celldm(4)=   0.000000  celldm(5)=   0.000000  celldm(6)=   0.000000

     crystal axes: (cart. coord. in units of alat)
               a(1) = (   1.000000   0.000000   0.000000 )
               a(2) = (  -0.500000   0.866025   0.000000 )
               a(3) = (   0.000000   0.000000   0.783025 )

     reciprocal axes: (cart. coord. in units 2 pi/alat)
               b(1) = (  1.000000  0.577350 -0.000000 )
               b(2) = (  0.000000  1.154701  0.000000 )
               b(3) = (  0.000000 -0.000000  1.277098 )

     PseudoPot. # 1 for Pb read from file:
     /trace/group/acmegroup/atimmins/packages/espresso/pseudo/psl_1.0.0/pslibrary.1.0.0/pbe/PSEUDOPOTENTIALS/Pb.pbe-dn-kjpaw_psl.1.0.0.UPF
     MD5 check sum: 39ab5b8a6bbd56b7735ad9f188aac93a
     Pseudo is Projector augmented-wave + core cor, Zval = 14.0
     Generated using 'atomic' code by A. Dal Corso  v.7.1
     Shape of augmentation charge: PSQ
     Using radial grid of 1281 points,  6 beta functions with:
                l(1) =   0
                l(2) =   0
                l(3) =   1
                l(4) =   1
                l(5) =   2
                l(6) =   2
     Q(r) pseudized with 0 coefficients

     PseudoPot. # 2 for I  read from file:
     /trace/group/acmegroup/atimmins/packages/espresso/pseudo/psl_1.0.0/pslibrary.1.0.0/pbe/PSEUDOPOTENTIALS/I.pbe-dn-kjpaw_psl.1.0.0.UPF
     MD5 check sum: bfa8781bc1224d19af3f3980e3fab11e
     Pseudo is Projector augmented-wave + core cor, Zval = 17.0
     Generated using 'atomic' code by A. Dal Corso  v.7.1
     Shape of augmentation charge: PSQ
     Using radial grid of 1247 points,  6 beta functions with:
                l(1) =   0
                l(2) =   0
                l(3) =   1
                l(4) =   1
                l(5) =   2
                l(6) =   2
     Q(r) pseudized with 0 coefficients

     atomic species   valence    mass     pseudopotential
        Pb            14.00   207.20000     Pb( 1.00)
        I             17.00   126.90447     I ( 1.00)

     No symmetry found

                                    s                        frac. trans.

      isym =  1     identity

 cryst.   s( 1) = (     1          0          0      )
                  (     0          1          0      )
                  (     0          0          1      )

 cart.    s( 1) = (  1.0000000  0.0000000  0.0000000 )
                  (  0.0000000  1.0000000  0.0000000 )
                  (  0.0000000  0.0000000  1.0000000 )

     point group C_1 (1)
     there are  1 classes
     the character table:

       E
A      1.00

     the symmetry operations in each class and the name of the first element:

     E        1
          identity

   Cartesian axes

     site n.     atom                  positions (alat units)
         1           Pb  tau(   1) = (   0.1250034   0.2164916   0.3915076  )
         2           Pb  tau(   2) = (   0.0000077   0.4329922   0.7830161  )
         3           Pb  tau(   3) = (   0.0000025   0.4329968   0.3915034  )
         4           Pb  tau(   4) = (  -0.1249932   0.6494975   0.7830119  )
         5           Pb  tau(   5) = (  -0.1249984   0.6495021   0.3914992  )
         6           Pb  tau(   6) = (  -0.2499941   0.8660028   0.7830077  )
         7           Pb  tau(   7) = (  -0.2499993   0.8660074   0.3914950  )
         8           Pb  tau(   8) = (   0.3750086   0.2164859   0.7830237  )
         9           Pb  tau(   9) = (   0.3750034   0.2164905   0.3915110  )
        10           Pb  tau(  10) = (   0.2500077   0.4329912   0.7830194  )
        11           Pb  tau(  11) = (   0.2500025   0.4329958   0.3915068  )
        12           Pb  tau(  12) = (   0.1250068   0.6494965   0.7830152  )
        13           Pb  tau(  13) = (   0.1250016   0.6495011   0.3915026  )
        14           Pb  tau(  14) = (   0.0000059   0.8660017   0.7830110  )
        15           Pb  tau(  15) = (   0.0000007   0.8660063   0.3914983  )
        16           Pb  tau(  16) = (   0.6250086   0.2164849   0.7830270  )
        17           Pb  tau(  17) = (   0.6250034   0.2164895   0.3915143  )
        18           Pb  tau(  18) = (   0.5000077   0.4329901   0.7830228  )
        19           Pb  tau(  19) = (   0.5000025   0.4329947   0.3915101  )
        20           Pb  tau(  20) = (   0.3750068   0.6494954   0.7830186  )
        21           Pb  tau(  21) = (   0.3750016   0.6495000   0.3915059  )
        22           Pb  tau(  22) = (   0.2500059   0.8660007   0.7830144  )
        23           Pb  tau(  23) = (   0.2500007   0.8660053   0.3915017  )
        24           Pb  tau(  24) = (   0.8750086   0.2164838   0.7830303  )
        25           Pb  tau(  25) = (   0.8750034   0.2164884   0.3915177  )
        26           Pb  tau(  26) = (   0.7500077   0.4329891   0.7830261  )
        27           Pb  tau(  27) = (   0.7500025   0.4329937   0.3915135  )
        28           Pb  tau(  28) = (   0.6250068   0.6494944   0.7830219  )
        29           Pb  tau(  29) = (   0.6250016   0.6494990   0.3915092  )
        30           Pb  tau(  30) = (   0.5000059   0.8659996   0.7830177  )
        31           Pb  tau(  31) = (   0.5000007   0.8660042   0.3915050  )
        32           I   tau(  32) = (   0.1250056   0.0721546   0.2909163  )
        33           I   tau(  33) = (   0.1250108   0.0721500   0.6824290  )
        34           I   tau(  34) = (   0.0000047   0.2886599   0.2909121  )
        35           I   tau(  35) = (   0.0000099   0.2886553   0.6824248  )
        36           I   tau(  36) = (  -0.1249962   0.5051652   0.2909079  )
        37           I   tau(  37) = (  -0.1249910   0.5051606   0.6824206  )
        38           I   tau(  38) = (  -0.2499972   0.7216704   0.2909037  )
        39           I   tau(  39) = (  -0.2499919   0.7216658   0.6824164  )
        40           I   tau(  40) = (   0.3750056   0.0721536   0.2909197  )
        41           I   tau(  41) = (   0.3750108   0.0721490   0.6824324  )
        42           I   tau(  42) = (   0.2500047   0.2886589   0.2909155  )
        43           I   tau(  43) = (   0.2500099   0.2886543   0.6824282  )
        44           I   tau(  44) = (   0.1250038   0.5051641   0.2909113  )
        45           I   tau(  45) = (   0.1250090   0.5051595   0.6824240  )
        46           I   tau(  46) = (   0.0000028   0.7216694   0.2909071  )
        47           I   tau(  47) = (   0.0000081   0.7216648   0.6824197  )
        48           I   tau(  48) = (   0.6250056   0.0721525   0.2909230  )
        49           I   tau(  49) = (   0.6250108   0.0721479   0.6824357  )
        50           I   tau(  50) = (   0.5000047   0.2886578   0.2909188  )
        51           I   tau(  51) = (   0.5000099   0.2886532   0.6824315  )
        52           I   tau(  52) = (   0.3750038   0.5051631   0.2909146  )
        53           I   tau(  53) = (   0.3750090   0.5051585   0.6824273  )
        54           I   tau(  54) = (   0.2500028   0.7216683   0.2909104  )
        55           I   tau(  55) = (   0.2500081   0.7216637   0.6824231  )
        56           I   tau(  56) = (   0.8750056   0.0721515   0.2909264  )
        57           I   tau(  57) = (   0.8750108   0.0721469   0.6824391  )
        58           I   tau(  58) = (   0.7500047   0.2886567   0.2909222  )
        59           I   tau(  59) = (   0.7500099   0.2886521   0.6824348  )
        60           I   tau(  60) = (   0.6250038   0.5051620   0.2909180  )
[...]
        82           I   tau(  82) = (   0.3749973   0.3608329   0.1005958  )
        83           I   tau(  83) = (   0.3750025   0.3608283   0.4921084  )
        84           I   tau(  84) = (   0.2499964   0.5773382   0.1005915  )
        85           I   tau(  85) = (   0.2500016   0.5773336   0.4921042  )
        86           I   tau(  86) = (   0.1249955   0.7938434   0.1005873  )
        87           I   tau(  87) = (   0.1250007   0.7938388   0.4921000  )
        88           I   tau(  88) = (   0.7499982   0.1443266   0.1006033  )
        89           I   tau(  89) = (   0.7500034   0.1443220   0.4921160  )
        90           I   tau(  90) = (   0.6249973   0.3608319   0.1005991  )
        91           I   tau(  91) = (   0.6250025   0.3608273   0.4921118  )
        92           I   tau(  92) = (   0.4999964   0.5773371   0.1005949  )
        93           I   tau(  93) = (   0.5000016   0.5773325   0.4921076  )
        94           I   tau(  94) = (   0.3749955   0.7938424   0.1005907  )
        95           I   tau(  95) = (   0.3750007   0.7938378   0.4921034  )
        96           I   tau(  96) = (   0.1250086   0.2164870   0.7830203  )

   Crystallographic axes

     site n.     atom                  positions (cryst. coord.)
         1           Pb  tau(   1) = (  0.2499949  0.2499829  0.4999935  )
         2           Pb  tau(   2) = (  0.2499959  0.4999764  0.9999882  )
         3           Pb  tau(   3) = (  0.2499933  0.4999817  0.4999882  )
         4           Pb  tau(   4) = (  0.2499944  0.7499751  0.9999828  )
         5           Pb  tau(   5) = (  0.2499918  0.7499804  0.4999828  )
         6           Pb  tau(   6) = (  0.2499928  0.9999739  0.9999774  )
         7           Pb  tau(   7) = (  0.2499903  0.9999792  0.4999774  )
[...]
     atom   44 type  2   force =     0.00000000    0.00000000    0.00000000
     atom   45 type  2   force =     0.00000000    0.00000000    0.00000000
     atom   46 type  2   force =     0.00000000    0.00000000    0.00000000
     atom   47 type  2   force =     0.00000000    0.00000000    0.00000000
     atom   48 type  2   force =     0.00000000    0.00000000    0.00000000
     atom   49 type  2   force =     0.00000000    0.00000000    0.00000000
     atom   50 type  2   force =     0.00000000    0.00000000    0.00000000
     atom   51 type  2   force =     0.00000000    0.00000000    0.00000000
     atom   52 type  2   force =     0.00000000    0.00000000    0.00000000
     atom   53 type  2   force =     0.00000000    0.00000000    0.00000000
     atom   54 type  2   force =     0.00000000    0.00000000    0.00000000
     atom   55 type  2   force =     0.00000000    0.00000000    0.00000000
     atom   56 type  2   force =     0.00000000    0.00000000    0.00000000
     atom   57 type  2   force =     0.00000000    0.00000000    0.00000000
     atom   58 type  2   force =     0.00000000    0.00000000    0.00000000
     atom   59 type  2   force =     0.00000000    0.00000000    0.00000000
     atom   60 type  2   force =     0.00000000    0.00000000    0.00000000
[...]
     atom   82 type  2   force =     0.00000000    0.00000000    0.00000000
     atom   83 type  2   force =     0.00000000    0.00000000    0.00000000
     atom   84 type  2   force =     0.00000000    0.00000000    0.00000000
     atom   85 type  2   force =     0.00000000    0.00000000    0.00000000
     atom   86 type  2   force =     0.00000000    0.00000000    0.00000000
     atom   87 type  2   force =     0.00000000    0.00000000    0.00000000
     atom   88 type  2   force =     0.00000000    0.00000000    0.00000000
     atom   89 type  2   force =     0.00000000    0.00000000    0.00000000
     atom   90 type  2   force =     0.00000000    0.00000000    0.00000000
     atom   91 type  2   force =     0.00000000    0.00000000    0.00000000
     atom   92 type  2   force =     0.00000000    0.00000000    0.00000000
     atom   93 type  2   force =     0.00000000    0.00000000    0.00000000
     atom   94 type  2   force =     0.00000000    0.00000000    0.00000000
     atom   95 type  2   force =     0.00000000    0.00000000    0.00000000
     atom   96 type  2   force =     0.00000000    0.00000000    0.00000000
     The SCF correction term to forces
     atom    1 type  1   force =    -0.00000157    0.00000017    0.00000229
     atom    2 type  1   force =    -0.00001635    0.00000891   -0.00001233
     atom    3 type  1   force =    -0.00001278    0.00001467    0.00000454
     atom    4 type  1   force =    -0.00000011   -0.00000146   -0.00000422
     atom    5 type  1   force =    -0.00000026   -0.00000105    0.00000266
     atom    6 type  1   force =     0.00001142   -0.00001396    0.00000053
     atom    7 type  1   force =     0.00001079   -0.00001604    0.00000084
     atom    8 type  1   force =     0.00001908   -0.00000087   -0.00000286
     atom    9 type  1   force =     0.00002192   -0.00000008    0.00000169
     atom   10 type  1   force =     0.00001229    0.00001476   -0.00000827
     atom   11 type  1   force =     0.00001047    0.00001545    0.00000333
     atom   12 type  1   force =    -0.00000077    0.00001709    0.00000956
     atom   13 type  1   force =    -0.00000090    0.00000420   -0.00000741
     atom   14 type  1   force =     0.00001482   -0.00000530    0.00001023
     atom   15 type  1   force =     0.00000401    0.00000079   -0.00000794
     atom   16 type  1   force =     0.00000173    0.00000027   -0.00000437
     atom   17 type  1   force =     0.00000100    0.00000041    0.00000302
     atom   18 type  1   force =     0.00001513    0.00000487   -0.00001816
     atom   19 type  1   force =     0.00000467   -0.00000126    0.00001385
     atom   20 type  1   force =    -0.00000000    0.00000046   -0.00000381
     atom   21 type  1   force =     0.00000017    0.00000002    0.00000277
     atom   22 type  1   force =    -0.00001356   -0.00000360    0.00001058
     atom   23 type  1   force =    -0.00000353    0.00000219   -0.00000823
     atom   24 type  1   force =    -0.00001377    0.00000263   -0.00000642
     atom   25 type  1   force =    -0.00002113    0.00000125    0.00000294
     atom   26 type  1   force =    -0.00001124    0.00000347   -0.00001953
     atom   27 type  1   force =    -0.00000256   -0.00000136    0.00001452
     atom   28 type  1   force =     0.00000080   -0.00001657   -0.00001763
     atom   29 type  1   force =     0.00000102   -0.00000478    0.00001334
     atom   30 type  1   force =    -0.00001244   -0.00001034    0.00000060
     atom   31 type  1   force =    -0.00001094   -0.00001447    0.00000092
     atom   32 type  2   force =    -0.00000170   -0.00001303   -0.00000296
     atom   33 type  2   force =    -0.00000431   -0.00002318   -0.00001737
     atom   34 type  2   force =    -0.00001743    0.00000422    0.00000005
     atom   35 type  2   force =    -0.00002969    0.00001313   -0.00001808
     atom   36 type  2   force =     0.00000026    0.00000943    0.00001051
     atom   37 type  2   force =    -0.00001784   -0.00000394   -0.00001254
     atom   38 type  2   force =     0.00001217   -0.00000437    0.00000917
     atom   39 type  2   force =    -0.00000469   -0.00002065   -0.00001121
     atom   40 type  2   force =     0.00001836   -0.00000843   -0.00000348
     atom   41 type  2   force =     0.00001649   -0.00000558   -0.00000377
     atom   42 type  2   force =     0.00001426    0.00000445    0.00000124
     atom   43 type  2   force =     0.00002290    0.00001401   -0.00002124
     atom   44 type  2   force =    -0.00000156    0.00002069    0.00000082
     atom   45 type  2   force =    -0.00000341    0.00001237   -0.00000699
     atom   46 type  2   force =     0.00000077    0.00000236   -0.00000601
     atom   47 type  2   force =     0.00000455    0.00000314    0.00000675
     atom   48 type  2   force =     0.00000089    0.00000198   -0.00000568
     atom   49 type  2   force =     0.00000145   -0.00000097    0.00000730
     atom   50 type  2   force =     0.00001229   -0.00000935    0.00001043
     atom   51 type  2   force =     0.00001584    0.00001240   -0.00001103
     atom   52 type  2   force =    -0.00000027    0.00001032    0.00001012
     atom   53 type  2   force =     0.00001942    0.00000166   -0.00001166
     atom   54 type  2   force =    -0.00000150    0.00000376   -0.00000657
     atom   55 type  2   force =    -0.00000489    0.00000516    0.00000700
     atom   56 type  2   force =    -0.00001793   -0.00000571   -0.00000575
     atom   57 type  2   force =    -0.00001393   -0.00000010   -0.00000167
     atom   58 type  2   force =    -0.00000978   -0.00000942    0.00000984
     atom   59 type  2   force =    -0.00000808    0.00001347   -0.00001170
     atom   60 type  2   force =     0.00000147   -0.00000363    0.00001004
[...]
     atom   82 type  2   force =     0.00001734    0.00000501   -0.00000107
     atom   83 type  2   force =     0.00001976    0.00000834    0.00000730
     atom   84 type  2   force =    -0.00000497    0.00002059    0.00000632
     atom   85 type  2   force =     0.00001157    0.00000403   -0.00000456
     atom   86 type  2   force =     0.00000025    0.00000350    0.00000198
     atom   87 type  2   force =    -0.00000030    0.00000348   -0.00000427
     atom   88 type  2   force =    -0.00000981   -0.00001232    0.00000605
     atom   89 type  2   force =    -0.00001032    0.00001136   -0.00000433
     atom   90 type  2   force =     0.00000195    0.00000086   -0.00001201
     atom   91 type  2   force =     0.00000197   -0.00000111    0.00001046
     atom   92 type  2   force =     0.00000466   -0.00000365   -0.00001113
     atom   93 type  2   force =     0.00000252   -0.00000353    0.00001063
     atom   94 type  2   force =    -0.00001843    0.00000234    0.00000734
     atom   95 type  2   force =     0.00000039   -0.00000960   -0.00000501
     atom   96 type  2   force =    -0.00000920   -0.00000045   -0.00000748

     Total force =     0.004257     Total SCF correction =     0.000173

     Computing stress (Cartesian axis) and pressure

     Non-local corr. energy    =      46.32623049 Ry

          total   stress  (Ry/bohr**3)                   (kbar)     P=        2.14
   0.00001417   0.00000001  -0.00000002            2.08        0.00       -0.00
   0.00000001   0.00001418   0.00000001            0.00        2.09        0.00
  -0.00000002   0.00000001   0.00001530           -0.00        0.00        2.25

     kinetic stress (kbar)  14923.51      0.00     -0.01
                                0.00  14923.51      0.00
                               -0.01      0.00  14934.12

     local   stress (kbar)  -7502.95      0.00      0.01
                                0.00  -7503.05     -0.05
                                0.01     -0.05   1470.51

     nonloc. stress (kbar)   -965.27      0.00     -0.00
                                0.00   -965.26      0.00
                               -0.00      0.00   -970.73

     hartree stress (kbar)  12095.21     -0.00     -0.00
                               -0.00  12095.25      0.02
                               -0.00      0.02   8044.69

     exc-cor stress (kbar)   6985.73      0.00     -0.00
                                0.00   6985.73      0.00
                               -0.00      0.00   6984.75

     corecor stress (kbar) -11365.68     -0.00      0.00
                               -0.00 -11365.68     -0.00
                                0.00     -0.00 -11365.69

     ewald   stress (kbar) -14252.37     -0.01      0.00
                               -0.01 -14252.31      0.03
                                0.00      0.03 -19180.58

     hubbard stress (kbar)      0.00      0.00      0.00
                                0.00      0.00      0.00
                                0.00      0.00      0.00

     DFT-D   stress (kbar)      0.00      0.00      0.00
                                0.00      0.00      0.00
                                0.00      0.00      0.00

     XDM     stress (kbar)      0.00      0.00      0.00
                                0.00      0.00      0.00
                                0.00      0.00      0.00

     dft-nl  stress (kbar)     83.90     -0.00      0.00
                               -0.00     83.90     -0.00
                                0.00     -0.00     85.19

     TS-vdW  stress (kbar)      0.00      0.00      0.00
                                0.00      0.00      0.00
                                0.00      0.00      0.00

     MDB     stress (kbar)      0.00      0.00      0.00
                                0.00      0.00      0.00
                                0.00      0.00      0.00

     3D-RISM stress (kbar)      0.00      0.00      0.00
                                0.00      0.00      0.00
                                0.00      0.00      0.00

     Energy error            =      4.0E-05 Ry
     Gradient error          =      9.6E-04 Ry/Bohr

     bfgs converged in  10 scf cycles and   9 bfgs steps
     (criteria: energy <  1.0E-04 Ry, force <  1.0E-03 Ry/Bohr)

     End of BFGS Geometry Optimization

     Final energy             =  -64423.2485114634 Ry

     File ./PbI2.bfgs deleted, as requested
Begin final coordinates

ATOMIC_POSITIONS (angstrom)
Pb            2.3554211838        4.0792241209        7.3770530865
Pb            0.0050569938        8.1502067485       14.7541645067
Pb            0.0004020726        8.1581542585        7.3769277257
Pb           -2.3552216762       12.2382336348       14.7540177222
Pb           -2.3552643842       12.2382635082        7.3768553416
Pb           -4.7155082152       16.3262394455       14.7540141675
Pb           -4.7108955111       16.3183816331        7.3768936501
Pb            7.0562830573        4.0792015566       14.7542499283
Pb            7.0653542948        4.0791813770        7.3771365532
Pb            4.7057892597        8.1500820668       14.7541876688
Pb            4.7103529437        8.1581132099        7.3770195008
Pb            2.3553928426       12.2360812364       14.7539482162
Pb            2.3553310618       12.2389234645        7.3773780692
Pb           -0.0017827008       16.3188039077       14.7540353386
Pb            0.0006333609       16.3174267848        7.3774438650
Pb           11.7767037993        4.0791233914       14.7543853613
Pb           11.7766563465        4.0791671109        7.3772255074
Pb            9.4195371651        8.1575869120       14.7544241760
Pb            9.4219479604        8.1590098859        7.3766527313
Pb            7.0660327300       12.2381847992       14.7541676544
Pb            7.0659953504       12.2382099509        7.3770151678
Pb            4.7125425710       16.3187729925       14.7540817890
Pb            4.7100466366       16.3174157589        7.3775096094
Pb           16.4972165359        4.0790730815       14.7544291390
Pb           16.4879877124        4.0791972715        7.3771660273
Pb           14.1338796429        8.1575814486       14.7543463952
Pb           14.1313780470        8.1590420758        7.3766137940
Pb           11.7766906314       12.2402979164       14.7542917669
Pb           11.7766724813       12.2375210546        7.3765127927
Pb            9.4263531165       16.3263700092       14.7542019466
Pb            9.4216698911       16.3183393989        7.3770176977
I             2.3554190493        1.3593874513        5.4968515374
I             2.3555015054        1.1804796540       12.7743042154
I            -0.0001042598        5.4392909930        5.4969053469
I            -0.1544465914        5.5283218903       12.7745575652
I            -2.3555702160        9.5181065921        5.4968372048
I            -2.3564496010        9.5215965428       12.8737674953
I            -4.7111621876       13.5981593420        5.4967244489
I            -4.7086364596       13.5957045497       12.8737147344
I             7.0645917857        1.3604573119        5.4915581748
I             7.0667641726        1.3591680232       12.8719136164
I             4.7109143085        5.4392461190        5.4968404545
I             4.8659516439        5.5285744246       12.7743068194
I             2.3553791685        9.5168652339        5.4915245230
I             2.3554035540        9.5195133103       12.8719639506
I             0.0003990194       13.5984130597        5.4967623685
I             0.0003983374       13.5983724731       12.8728894859
I            11.7765800617        1.3591682251        5.4969477140
I            11.7766181433        1.3591839690       12.8730209274
I             9.4210353230        5.4395629906        5.4969786544
I             9.4244729310        5.4385803885       12.8739807348
I             7.0662863960        9.5180242203        5.4968817058
I             7.0671670796        9.5214968130       12.8738802191
I             4.7102629462       13.5983316501        5.4968639641
I             4.7102886860       13.5983489968       12.8729397407
I            16.4886767571        1.3604409046        5.4917625016
I            16.4864430036        1.3591072067       12.8719417306
I            14.1322037401        5.4395963001        5.4970415787
I            14.1287504611        5.4385849522       12.8739621745
I            11.7766487115        9.5185356108        5.4974815520
[...]
I             7.0667300344        6.7993386609        1.8822233672
I             7.0645366275        6.7980917724        9.2622955807
I             4.7125972495       10.8808131117        1.8802000953
I             4.7100552980       10.8784865737        9.2570350047
I             2.3553134292       14.9578886683        1.8804142993
I             2.3552959603       14.9579467931        9.2564404086
I            14.1288092965        2.7197657355        1.8803642947
I            14.1321988261        2.7188136849        9.2571913630
I            11.7766648029        6.7993162188        1.8812244814
I            11.7766819168        6.7993562300        9.2571550498
I             9.4217042748       10.8782011549        1.8811162957
I             9.4217113632       10.8782436601        9.2570398304
I             7.0648480443       14.9549035516        1.8802358639
I             7.0656926546       14.9584434201        9.2570926920
I             2.3556697479        4.0793679074       14.7544744909
End final coordinates

     Writing all to output data dir ./PbI2.save/

     General routines

     Parallel routines

     PAW routines

   This run was terminated on:  20: 3: 6  12Feb2024

   JOB DONE.