     Program PWSCF v.7.1 starts on 20Feb2024 at 16:25:51

     Reading input from espresso.pwi

     Current dimensions of program PWSCF are:
     Max number of different atomic species (ntypx) = 10
     Max number of k-points (npk) =  40000
     Max angular momentum in pseudopotentials (lmaxx) =  4
     file Pb.pbe-dn-kjpaw_psl.1.0.0.UPF: wavefunction(s)  6S 6P 5D renormalized
     file I.pbe-dn-kjpaw_psl.1.0.0.UPF: wavefunction(s)  5S 5P renormalized

     IMPORTANT: XC functional enforced from input :
     Exchange-correlation= BEEF-VDW
                           (   1   4  43  14   2   0   0)
     Any further DFT definition will be discarded
     Please, verify this is what you really want

     R & G space division:  proc/nbgrp/npool/nimage =     128
     Subspace diagonalization in iterative solution of the eigenvalue problem:
     a serial algorithm will be used

     Using Slab Decomposition

     bravais-lattice index     =            4
     lattice parameter (alat)  =       8.7451  a.u.
     unit-cell volume          =    4589.8988 (a.u.)^3
     number of atoms/cell      =           15
     number of atomic types    =            2
     number of electrons       =       240.00
     number of Kohn-Sham states=          144
     kinetic-energy cutoff     =      70.0000  Ry
     charge density cutoff     =     350.0000  Ry
     scf convergence threshold =      1.0E-07
     mixing beta               =       0.7000
     number of iterations used =            8  plain     mixing
     energy convergence thresh.=      1.0E-04
     force convergence thresh. =      1.0E-03
     press convergence thresh. =      5.0E-01
     Exchange-correlation= BEEF-VDW
                           (   1   4  43  14   2   0   0)
     nstep                     =           50

     celldm(1)=   8.745061  celldm(2)=   0.000000  celldm(3)=   7.924721
     celldm(4)=   0.000000  celldm(5)=   0.000000  celldm(6)=   0.000000

     crystal axes: (cart. coord. in units of alat)
               a(1) = (   1.000000   0.000000   0.000000 )
               a(2) = (  -0.500000   0.866025   0.000000 )
               a(3) = (   0.000000   0.000000   7.924721 )

     reciprocal axes: (cart. coord. in units 2 pi/alat)
               b(1) = (  1.000000  0.577350 -0.000000 )
               b(2) = (  0.000000  1.154701  0.000000 )
               b(3) = (  0.000000 -0.000000  0.126187 )

     PseudoPot. # 1 for Pb read from file:
     /trace/group/acmegroup/atimmins/packages/espresso/pseudo/psl_1.0.0/pslibrary.1.0.0/pbe/PSEUDOPOTENTIALS/Pb.pbe-dn-kjpaw_psl.1.0.0.UPF
     MD5 check sum: 39ab5b8a6bbd56b7735ad9f188aac93a
     Pseudo is Projector augmented-wave + core cor, Zval = 14.0
     Generated using 'atomic' code by A. Dal Corso  v.7.1
     Shape of augmentation charge: PSQ
     Using radial grid of 1281 points,  6 beta functions with:
                l(1) =   0
                l(2) =   0
                l(3) =   1
                l(4) =   1
                l(5) =   2
                l(6) =   2
     Q(r) pseudized with 0 coefficients

     PseudoPot. # 2 for I  read from file:
     /trace/group/acmegroup/atimmins/packages/espresso/pseudo/psl_1.0.0/pslibrary.1.0.0/pbe/PSEUDOPOTENTIALS/I.pbe-dn-kjpaw_psl.1.0.0.UPF
     MD5 check sum: bfa8781bc1224d19af3f3980e3fab11e
     Pseudo is Projector augmented-wave + core cor, Zval = 17.0
     Generated using 'atomic' code by A. Dal Corso  v.7.1
     Shape of augmentation charge: PSQ
     Using radial grid of 1247 points,  6 beta functions with:
                l(1) =   0
                l(2) =   0
                l(3) =   1
                l(4) =   1
                l(5) =   2
                l(6) =   2
     Q(r) pseudized with 0 coefficients

     atomic species   valence    mass     pseudopotential
        Pb            14.00   207.20000     Pb( 1.00)
        I             17.00   126.90447     I ( 1.00)

      6 Sym. Ops. (no inversion) found

                                    s                        frac. trans.

      isym =  1     identity

 cryst.   s( 1) = (     1          0          0      )
                  (     0          1          0      )
                  (     0          0          1      )

 cart.    s( 1) = (  1.0000000  0.0000000  0.0000000 )
                  (  0.0000000  1.0000000  0.0000000 )
                  (  0.0000000  0.0000000  1.0000000 )

      isym =  2     120 deg rotation - cryst. axis [0,0,1]

[...]

      isym =  4     inv. 180 deg rotation - cart. axis [1,0,0]

[...]

      isym =  5     inv. 180 deg rotation - cryst. axis [0,1,0]

[...]

     point group C_3v (3m)
     there are  3 classes
     the character table:

       E     2C3   3s_v
A_1    1.00  1.00  1.00
A_2    1.00  1.00 -1.00
E      2.00 -1.00  0.00

     the symmetry operations in each class and the name of the first element:

     E        1
          identity
     2C3      2    3
          120 deg rotation - cryst. axis [0,0,1]
     3s_v     4    5    6
          inv. 180 deg rotation - cart. axis [1,0,0]

   Cartesian axes

     site n.     atom                  positions (alat units)
         1           Pb  tau(   1) = (   0.0000000   0.0000000   6.7576318  )
         2           Pb  tau(   2) = (  -0.0000006   0.5773506   3.5902471  )
         3           Pb  tau(   3) = (  -0.0000006   0.5773506   5.1774541  )
         4           Pb  tau(   4) = (  -0.0000006   0.5773506   2.0049924  )
         5           Pb  tau(   5) = (  -0.0000006   0.5773506   0.4199058  )
         6           I   tau(   6) = (   0.5000005   0.2886749   0.8225918  )
         7           I   tau(   7) = (   0.5000005   0.2886749   5.5787617  )
         8           I   tau(   8) = (   0.0000000   0.0000000   1.6016422  )
         9           I   tau(   9) = (  -0.0000006   0.5773506   6.3549089  )
        10           I   tau(  10) = (   0.5000005   0.2886749   3.9931127  )
        11           I   tau(  11) = (   0.0000000   0.0000000   0.0169121  )
        12           I   tau(  12) = (   0.5000005   0.2886749   2.4074792  )
        13           I   tau(  13) = (   0.5000005   0.2886749   7.1601768  )
        14           I   tau(  14) = (   0.0000000   0.0000000   3.1867515  )
        15           I   tau(  15) = (   0.0000000   0.0000000   4.7758879  )

   Crystallographic axes

     site n.     atom                  positions (cryst. coord.)
         1           Pb  tau(   1) = (  0.0000000  0.0000000  0.8527280  )
         2           Pb  tau(   2) = (  0.3333330  0.6666671  0.4530440  )
         3           Pb  tau(   3) = (  0.3333330  0.6666671  0.6533295  )
         4           Pb  tau(   4) = (  0.3333330  0.6666671  0.2530048  )
         5           Pb  tau(   5) = (  0.3333330  0.6666671  0.0529868  )
         6           I   tau(   6) = (  0.6666670  0.3333330  0.1038007  )
         7           I   tau(   7) = (  0.6666670  0.3333330  0.7039695  )
         8           I   tau(   8) = (  0.0000000  0.0000000  0.2021071  )
         9           I   tau(   9) = (  0.3333330  0.6666671  0.8019095  )
        10           I   tau(  10) = (  0.6666670  0.3333330  0.5038805  )
        11           I   tau(  11) = (  0.0000000  0.0000000  0.0021341  )
        12           I   tau(  12) = (  0.6666670  0.3333330  0.3037935  )
        13           I   tau(  13) = (  0.6666670  0.3333330  0.9035241  )
        14           I   tau(  14) = (  0.0000000  0.0000000  0.4021279  )
        15           I   tau(  15) = (  0.0000000  0.0000000  0.6026569  )

     number of k points=     4  Gaussian smearing, width (Ry)=  0.0100
                       cart. coord. in units 2pi/alat
        k(    1) = (   0.0000000   0.0000000   0.0000000), wk =   0.1250000
        k(    2) = (   0.0000000   0.2886751   0.0000000), wk =   0.7500000
        k(    3) = (   0.0000000  -0.5773503   0.0000000), wk =   0.3750000
        k(    4) = (   0.2500000   0.4330127   0.0000000), wk =   0.7500000

                       cryst. coord.
        k(    1) = (   0.0000000   0.0000000   0.0000000), wk =   0.1250000
        k(    2) = (   0.0000000   0.2500000   0.0000000), wk =   0.7500000
        k(    3) = (   0.0000000  -0.5000000   0.0000000), wk =   0.3750000
        k(    4) = (   0.2500000   0.2500000   0.0000000), wk =   0.7500000

     Check: negative core charge=   -0.000001

     Initial potential from superposition of free atoms

     starting charge     239.9875, renormalised to     240.0000

     %%%%%%%%%%%%%%%%%%%%%%%%%%%%%%%%%%%%%%%%%%%%%%%%%%%%%%%%%%%%%%%%%%%%%%%%
     %                                                                      %
     % You are using vdW-DF, which was implemented by the Thonhauser group. %
     % Please cite the following two papers that made this development      %
     % possible and the two reviews that describe the various versions:     %
     %                                                                      %
     %   T. Thonhauser et al., PRL 115, 136402 (2015).                      %
     %   T. Thonhauser et al., PRB 76, 125112 (2007).                       %
     %   K. Berland et al., Rep. Prog. Phys. 78, 066501 (2015).             %
     %   D.C. Langreth et al., J. Phys.: Condens. Matter 21, 084203 (2009). %
     %                                                                      %
     % If you are calculating stress with vdW-DF, please also cite:         %
     %                                                                      %
     %   R. Sabatini et al., J. Phys.: Condens. Matter 24, 424209 (2012).   %
     %                                                                      %
     %%%%%%%%%%%%%%%%%%%%%%%%%%%%%%%%%%%%%%%%%%%%%%%%%%%%%%%%%%%%%%%%%%%%%%%%

     %%%%%%%%%%%%%%%%%%%%%%%%%%%%%%%%%%%%%%%%%%%%%%%%%%%%%%%%%%%%%%%%%%%%%%%%
     %                                                                      %
     %  vdW-DF NEWS:                                                        %
     %                                                                      %
     %  * vdW-DF3 is now available. DOI: 10.1021/acs.jctc.0c00471           %
     %    use with input_dft = 'vdW-DF3-opt1' or 'vdW-DF3-opt2'             %
     %                                                                      %
     %  * Unscreened and range-separated vdW-DF hybrid functionals          %
     %    DOI: 10.1063/1.4986522 and 10.1088/1361-648X/ac2ad2               %
     %    use with input_dft = 'vdW-DF-cx0' (etc) and 'vdW-DF-ahcx'         %
     %                                                                      %
     %%%%%%%%%%%%%%%%%%%%%%%%%%%%%%%%%%%%%%%%%%%%%%%%%%%%%%%%%%%%%%%%%%%%%%%%

     Carrying out vdW-DF run using the following parameters:
     Nqs    =  20  Npoints =  1024  r_max =  100.000
     q_mesh =  0.00001000  0.04494208  0.09755937  0.15916263
               0.23128650  0.31572767  0.41458969  0.53033537
               0.66584808  0.82450364  1.01025438  1.22772762
               1.48234092  1.78043706  2.12944203  2.53805004
               3.01644009  3.57652955  4.23227104  5.00000000

     Non-local corr. energy    =       7.12808153 Ry

     Starting wfcs are  135 randomized atomic wfcs +    9 random wfcs
[...]
                       cart. coord. in units 2pi/alat
        k(    1) = (   0.0000000   0.0000000   0.0000000), wk =   0.1250000
        k(    2) = (   0.0000000   0.2833945  -0.0000000), wk =   0.7500000
        k(    3) = (  -0.0000000  -0.5667890   0.0000000), wk =   0.3750000
        k(    4) = (   0.2454268   0.4250917  -0.0000000), wk =   0.7500000

                       cryst. coord.
        k(    1) = (   0.0000000   0.0000000   0.0000000), wk =   0.1250000
        k(    2) = (  -0.0000000   0.2500000   0.0000000), wk =   0.7500000
        k(    3) = (   0.0000000  -0.5000000  -0.0000000), wk =   0.3750000
        k(    4) = (   0.2500000   0.2500000   0.0000000), wk =   0.7500000

     Check: negative core charge=   -0.000001

     Initial potential from superposition of free atoms

     starting charge     239.9875, renormalised to     240.0000

[...]

     Starting wfcs are  135 randomized atomic wfcs +    9 random wfcs
     Checking if some PAW data can be deallocated...

     Self-consistent Calculation

[...]

     c_bands:  1 eigenvalues not converged
     c_bands:  2 eigenvalues not converged
     ethr =  9.00E-12,  avg # of iterations = 18.3

[...]

     total energy              =  -10118.16520960 Ry
     estimated scf accuracy    <          3.7E-09 Ry

     iteration # 19     ecut=    70.00 Ry     beta= 0.70
     Davidson diagonalization with overlap

     ethr =  8.71E-13,  avg # of iterations = 15.3

[...]

     End of self-consistent calculation

[...]

          k =-0.0000-0.5668 0.0000 ( 47692 PWs)   bands (ev):

[...]

          k = 0.2454 0.4251-0.0000 ( 47760 PWs)   bands (ev):

   -40.8484 -40.8484 -40.8481 -40.8481 -40.8480 -40.8478 -40.8478 -40.8475
   -40.8473 -40.8472 -40.8460 -40.8460 -40.8455 -40.8455 -40.8454 -40.8454
   -40.8453 -40.8449 -40.8448 -40.8448 -40.8434 -40.8434 -40.8432 -40.8432
   -40.8431 -40.8431 -40.8430 -40.8428 -40.8428 -40.8427 -40.8426 -40.8424
   -40.8424 -40.8424 -40.8423 -40.8422 -40.8422 -40.8421 -40.8420 -40.8418
   -40.8417 -40.8417 -40.8416 -40.8414 -40.8414 -40.8413 -40.8412 -40.8412
   -40.8410 -40.8410 -13.0215 -13.0189 -13.0153 -13.0146 -13.0143 -13.0098
   -13.0072 -13.0036 -13.0029 -13.0025 -12.9997 -12.9991 -12.9969 -12.9966
   -12.9934 -12.9932 -12.9928 -12.9924 -12.9921 -12.9917 -12.9916 -12.9906
   -12.9869 -12.9861 -12.9853  -7.7087  -7.6998  -7.6963  -7.6778  -7.6765
    -7.5725  -7.5708  -7.5517  -7.5497  -7.5402  -3.7031  -3.6997  -3.6989
    -3.6980  -3.6969   1.1286   1.1342   1.1928   1.1938   1.3090   1.3434
     1.3653   1.3840   1.4437   1.4491   1.7649   1.7993   1.8630   1.8674
     1.9435   2.2692   2.3506   2.3521   2.5959   2.6328   2.7005   2.7950
     2.7967   2.8314   2.8687   3.1434   3.2056   3.2105   3.3034   3.3164
     6.9147   6.9361   7.0507   7.0710   7.2203   7.2353   7.2626   7.3210
     7.3407   7.3490   7.5490   7.5716   7.6217   7.6599   7.6657  10.0136
    10.1072  10.2215  10.2727  10.3584  10.3800  10.4349  10.5164  10.7316

     occupation numbers
     1.0000   1.0000   1.0000   1.0000   1.0000   1.0000   1.0000   1.0000
     1.0000   1.0000   1.0000   1.0000   1.0000   1.0000   1.0000   1.0000
     1.0000   1.0000   1.0000   1.0000   1.0000   1.0000   1.0000   1.0000
     1.0000   1.0000   1.0000   1.0000   1.0000   1.0000   1.0000   1.0000
     1.0000   1.0000   1.0000   1.0000   1.0000   1.0000   1.0000   1.0000
     1.0000   1.0000   1.0000   1.0000   1.0000   1.0000   1.0000   1.0000
     1.0000   1.0000   1.0000   1.0000   1.0000   1.0000   1.0000   1.0000
     1.0000   1.0000   1.0000   1.0000   1.0000   1.0000   1.0000   1.0000
     1.0000   1.0000   1.0000   1.0000   1.0000   1.0000   1.0000   1.0000
     1.0000   1.0000   1.0000   1.0000   1.0000   1.0000   1.0000   1.0000
     1.0000   1.0000   1.0000   1.0000   1.0000   1.0000   1.0000   1.0000
     1.0000   1.0000   1.0000   1.0000   1.0000   1.0000   1.0000   1.0000
     1.0000   1.0000   1.0000   1.0000   1.0000   1.0000   1.0000   1.0000
     1.0000   1.0000   1.0000   1.0000   1.0000   1.0000   1.0000   1.0000
     1.0000   1.0000   1.0000   1.0000   1.0000   1.0000   1.0000   1.0000
     0.0000   0.0000   0.0000   0.0000   0.0000   0.0000   0.0000   0.0000
     0.0000   0.0000   0.0000   0.0000   0.0000   0.0000   0.0000   0.0000
     0.0000   0.0000   0.0000   0.0000   0.0000   0.0000   0.0000   0.0000

     the Fermi energy is     4.1127 ev

!    total energy              =  -10118.16520960 Ry
     total all-electron energy =   -351401.617420 Ry
     estimated scf accuracy    <          7.2E-10 Ry
     smearing contrib. (-TS)   =      -0.00000000 Ry
     internal energy E=F+TS    =  -10118.16520960 Ry

     The total energy is F=E-TS. E is the sum of the following terms:
     one-electron contribution =   -1878.43660483 Ry
     hartree contribution      =    1048.05053202 Ry
     xc contribution           =    -708.83202460 Ry
     ewald contribution        =   -1536.66439666 Ry
     one-center paw contrib.   =   -7042.28271554 Ry
      -> PAW hartree energy AE =      95.90844040 Ry
      -> PAW hartree energy PS =     -96.14518664 Ry
      -> PAW xc energy AE      =    -798.43042291 Ry
      -> PAW xc energy PS      =      33.31034877 Ry
      -> total E_H with PAW    =    1047.81378578 Ry
      -> total E_XC with PAW   =   -1473.95209873 Ry

     convergence has been achieved in  19 iterations

[...]

     Forces acting on atoms (cartesian axes, Ry/au):

     atom    1 type  1   force =    -0.00000000    0.00000000    0.00003041
     atom    2 type  1   force =    -0.00000000    0.00000000    0.00020222
     atom    3 type  1   force =     0.00000000   -0.00000000   -0.00022327
     atom    4 type  1   force =     0.00000000   -0.00000000   -0.00018738
     atom    5 type  1   force =    -0.00000000    0.00000000    0.00017756
     atom    6 type  2   force =     0.00000000   -0.00000000   -0.00105650
     atom    7 type  2   force =     0.00000000   -0.00000000   -0.00031989
     atom    8 type  2   force =    -0.00000000    0.00000000    0.00053650
     atom    9 type  2   force =     0.00000000   -0.00000000   -0.00005681
     atom   10 type  2   force =     0.00000000   -0.00000000   -0.00050102
     atom   11 type  2   force =    -0.00000000    0.00000000    0.00021581
     atom   12 type  2   force =    -0.00000000    0.00000000    0.00031547
     atom   13 type  2   force =    -0.00000000    0.00000000    0.00049938
     atom   14 type  2   force =     0.00000000   -0.00000000   -0.00045747
     atom   15 type  2   force =    -0.00000000    0.00000000    0.00082498
     The non-local contrib.  to forces
     atom    1 type  1   force =    -0.00000000   -0.00000000   -0.00032562
     atom    2 type  1   force =     0.00000000    0.00000000   -0.00008417
     atom    3 type  1   force =     0.00000000    0.00000000   -0.00031982
     atom    4 type  1   force =     0.00000000    0.00000000    0.00003785
     atom    5 type  1   force =     0.00000000    0.00000000   -0.00003672
     atom    6 type  2   force =     0.00000000    0.00000000   -0.24672336
     atom    7 type  2   force =    -0.00000000   -0.00000000   -0.24610169
     atom    8 type  2   force =    -0.00000000    0.00000000    0.24630537
     atom    9 type  2   force =    -0.00000000    0.00000000    0.24559626
     atom   10 type  2   force =    -0.00000000   -0.00000000   -0.24610803
     atom   11 type  2   force =     0.00000000    0.00000000    0.24519225
     atom   12 type  2   force =     0.00000000    0.00000000   -0.24571800
     atom   13 type  2   force =    -0.00000000   -0.00000000   -0.24561630
     atom   14 type  2   force =    -0.00000000    0.00000000    0.24568944
     atom   15 type  2   force =    -0.00000000   -0.00000000    0.24654869
     The ionic contribution  to forces
     atom    1 type  1   force =    -0.00000213    0.00000217    0.17674460
     atom    2 type  1   force =     0.00003028   -0.00001851    0.04576109
     atom    3 type  1   force =     0.00003012   -0.00001841   -0.44256371
     atom    4 type  1   force =     0.00003028   -0.00001851   -0.02188773
     atom    5 type  1   force =     0.00003012   -0.00001841    0.09828787
     atom    6 type  2   force =    -0.00002101    0.00001245   14.70413632
     atom    7 type  2   force =    -0.00002222    0.00001322   14.20557032
     atom    8 type  2   force =    -0.00000913    0.00000598  -14.73982237
     atom    9 type  2   force =     0.00001465   -0.00000919  -14.45423372
     atom   10 type  2   force =    -0.00002111    0.00001251   14.76316051
     atom   11 type  2   force =    -0.00000907    0.00000594  -14.41757652
     atom   12 type  2   force =    -0.00002115    0.00001253   14.70198629
     atom   13 type  2   force =    -0.00001136    0.00000629   15.11816568
     atom   14 type  2   force =    -0.00000916    0.00000599  -14.68708103
     atom   15 type  2   force =    -0.00000911    0.00000597  -15.05064761
     The local contribution  to forces
     atom    1 type  1   force =     0.00000000    0.00000000   -0.17631069
     atom    2 type  1   force =     0.00028214   -0.00017995   -0.04546581
     atom    3 type  1   force =     0.00028238   -0.00018011    0.44272716
     atom    4 type  1   force =     0.00028214   -0.00017996    0.02165842
     atom    5 type  1   force =     0.00028224   -0.00018002   -0.09804049
     atom    6 type  2   force =    -0.00064593    0.00035201  -14.46371533
     atom    7 type  2   force =    -0.00064587    0.00035198  -13.96514207
     atom    8 type  2   force =     0.00000000   -0.00000000   14.49927467
     atom    9 type  2   force =     0.00080704   -0.00051475   14.21396552
     atom   10 type  2   force =    -0.00064589    0.00035199  -14.52276408
     atom   11 type  2   force =    -0.00000000   -0.00000000   14.17802381
     atom   12 type  2   force =    -0.00064587    0.00035198  -14.46130662
     atom   13 type  2   force =    -0.00064584    0.00035197  -14.87739675
     atom   14 type  2   force =     0.00000000   -0.00000000   14.44633405
     atom   15 type  2   force =    -0.00000000   -0.00000000   14.81023608
     The core correction contribution to forces
     atom    1 type  1   force =     0.00000000   -0.00000000   -0.00001051
     atom    2 type  1   force =     0.00001899   -0.00001211   -0.00001581
     atom    3 type  1   force =     0.00001899   -0.00001211    0.00001542
     atom    4 type  1   force =     0.00001899   -0.00001211    0.00000489
     atom    5 type  1   force =     0.00001899   -0.00001211   -0.00001838
     atom    6 type  2   force =    -0.00005319    0.00002898    0.00527669
     atom    7 type  2   force =    -0.00005319    0.00002898    0.00544447
     atom    8 type  2   force =    -0.00000000    0.00000000   -0.00523246
     atom    9 type  2   force =     0.00006646   -0.00004239   -0.00529751
     atom   10 type  2   force =    -0.00005319    0.00002899    0.00523066
     atom   11 type  2   force =    -0.00000000    0.00000000   -0.00539997
     atom   12 type  2   force =    -0.00005319    0.00002899    0.00540765
     atom   13 type  2   force =    -0.00005319    0.00002899    0.00538895
     atom   14 type  2   force =    -0.00000000    0.00000000   -0.00539481
     atom   15 type  2   force =    -0.00000000    0.00000000   -0.00523717
     The Hubbard contrib.    to forces
     atom    1 type  1   force =     0.00000000    0.00000000    0.00000000
     atom    2 type  1   force =     0.00000000    0.00000000    0.00000000
     atom    3 type  1   force =     0.00000000    0.00000000    0.00000000
     atom    4 type  1   force =     0.00000000    0.00000000    0.00000000
     atom    5 type  1   force =     0.00000000    0.00000000    0.00000000
     atom    6 type  2   force =     0.00000000    0.00000000    0.00000000
     atom    7 type  2   force =     0.00000000    0.00000000    0.00000000
     atom    8 type  2   force =     0.00000000    0.00000000    0.00000000
     atom    9 type  2   force =     0.00000000    0.00000000    0.00000000
     atom   10 type  2   force =     0.00000000    0.00000000    0.00000000
     atom   11 type  2   force =     0.00000000    0.00000000    0.00000000
     atom   12 type  2   force =     0.00000000    0.00000000    0.00000000
     atom   13 type  2   force =     0.00000000    0.00000000    0.00000000
     atom   14 type  2   force =     0.00000000    0.00000000    0.00000000
     atom   15 type  2   force =     0.00000000    0.00000000    0.00000000
     The SCF correction term to forces
     atom    1 type  1   force =    -0.00000000    0.00000000   -0.00002531
     atom    2 type  1   force =     0.00000000   -0.00000000    0.00004897
     atom    3 type  1   force =     0.00000000   -0.00000000   -0.00004025
     atom    4 type  1   force =     0.00000000   -0.00000000    0.00004126
     atom    5 type  1   force =     0.00000000   -0.00000000    0.00002734
     atom    6 type  2   force =    -0.00000000    0.00000000    0.00001124
     atom    7 type  2   force =    -0.00000000    0.00000000   -0.00004886
     atom    8 type  2   force =    -0.00000000    0.00000000    0.00005334
     atom    9 type  2   force =     0.00000000   -0.00000000   -0.00004531
     atom   10 type  2   force =    -0.00000000    0.00000000    0.00002198
     atom   11 type  2   force =    -0.00000000    0.00000000    0.00001829
     atom   12 type  2   force =    -0.00000000    0.00000000   -0.00001179
     atom   13 type  2   force =    -0.00000000    0.00000000   -0.00000015
     atom   14 type  2   force =    -0.00000000    0.00000000    0.00003693
     atom   15 type  2   force =    -0.00000000    0.00000000   -0.00003295

     Total force =     0.001790     Total SCF correction =     0.000134

     Computing stress (Cartesian axis) and pressure

     Non-local corr. energy    =       7.19507791 Ry

          total   stress  (Ry/bohr**3)                   (kbar)     P=        0.68
   0.00000445   0.00000000   0.00000000            0.65        0.00        0.00
   0.00000000   0.00000445   0.00000000            0.00        0.65        0.00
  -0.00000000   0.00000000   0.00000500           -0.00        0.00        0.74

     kinetic stress (kbar)  14876.84      0.00      0.00
                                0.00  14876.84      0.00
                                0.00      0.00  14887.48

     local   stress (kbar)  -7749.80     -0.00      0.00
                               -0.00  -7749.80     -0.00
                                0.00     -0.00   1709.38

     nonloc. stress (kbar)  -1064.44     -0.00      0.00
                               -0.00  -1064.44     -0.00
                                0.00     -0.00  -1070.56

     hartree stress (kbar)  12081.93     -0.00      0.00
                               -0.00  12081.93     -0.00
                                0.00     -0.00   7810.71

     exc-cor stress (kbar)   6893.88      0.00     -0.00
                                0.00   6893.88      0.00
                               -0.00      0.00   6892.71

     corecor stress (kbar) -11224.14     -0.00     -0.00
                               -0.00 -11224.14      0.00
                               -0.00      0.00 -11224.08

     ewald   stress (kbar) -13896.28      0.00     -0.01
                                0.00 -13896.28      0.00
                               -0.01      0.00 -19088.96

     hubbard stress (kbar)      0.00      0.00      0.00
                                0.00      0.00      0.00
                                0.00      0.00      0.00

     DFT-D   stress (kbar)      0.00      0.00      0.00
                                0.00      0.00      0.00
                                0.00      0.00      0.00

     XDM     stress (kbar)      0.00      0.00      0.00
                                0.00      0.00      0.00
                                0.00      0.00      0.00

     dft-nl  stress (kbar)     82.66     -0.00      0.00
                               -0.00     82.66     -0.00
                                0.00     -0.00     84.05

     TS-vdW  stress (kbar)      0.00      0.00      0.00
                                0.00      0.00      0.00
                                0.00      0.00      0.00

     MDB     stress (kbar)      0.00      0.00      0.00
                                0.00      0.00      0.00
                                0.00      0.00      0.00

     3D-RISM stress (kbar)      0.00      0.00      0.00
                                0.00      0.00      0.00
                                0.00      0.00      0.00

     Writing all to output data dir ./PbI2.save/

     General routines

     Parallel routines

     PAW routines

   This run was terminated on:  16:49:33  20Feb2024

   JOB DONE.