     Program PWSCF v.7.1 starts on 18Feb2024 at 21:24:56

     Reading input from espresso.pwi
Warning: card &CELL ignored
Warning: card    CELL_DYNAMICS    = 'BFGS' ignored
Warning: card / ignored

     Current dimensions of program PWSCF are:
     Max number of different atomic species (ntypx) = 10
     Max number of k-points (npk) =  40000
     Max angular momentum in pseudopotentials (lmaxx) =  4
     file Ga.pbe-dn-kjpaw_psl.1.0.0.UPF: wavefunction(s)  4S renormalized
     file N.pbe-n-kjpaw_psl.1.0.0.UPF: wavefunction(s)  2S renormalized

     IMPORTANT: XC functional enforced from input :
     Exchange-correlation= BEEF-VDW
                           (   1   4  43  14   2   0   0)
     Any further DFT definition will be discarded
     Please, verify this is what you really want

     Found identity + (  0.0000  0.0000  0.5000) symmetry
     This is a supercell, fractional translations are disabled

     K-points division:     npool     =       4
     R & G space division:  proc/nbgrp/npool/nimage =      32
     Subspace diagonalization in iterative solution of the eigenvalue problem:
     a serial algorithm will be used

     Using Slab Decomposition

     bravais-lattice index     =            4
     lattice parameter (alat)  =      18.3939  a.u.
     unit-cell volume          =    5856.2271 (a.u.)^3
     number of atoms/cell      =           72
     number of atomic types    =            2
     number of electrons       =       648.00
     number of Kohn-Sham states=          389
     kinetic-energy cutoff     =      70.0000  Ry
     charge density cutoff     =     350.0000  Ry
     scf convergence threshold =      1.0E-07
     mixing beta               =       0.7000
     number of iterations used =            8  plain     mixing
     energy convergence thresh.=      1.0E-04
     force convergence thresh. =      1.0E-03
     Exchange-correlation= BEEF-VDW
                           (   1   4  43  14   2   0   0)
     nstep                     =           50

     celldm(1)=  18.393924  celldm(2)=   0.000000  celldm(3)=   1.086586
     celldm(4)=   0.000000  celldm(5)=   0.000000  celldm(6)=   0.000000

     crystal axes: (cart. coord. in units of alat)
               a(1) = (   1.000000   0.000000   0.000000 )
               a(2) = (  -0.500000   0.866025   0.000000 )
               a(3) = (   0.000000   0.000000   1.086586 )

     reciprocal axes: (cart. coord. in units 2 pi/alat)
               b(1) = (  1.000000  0.577350 -0.000000 )
               b(2) = (  0.000000  1.154701  0.000000 )
               b(3) = (  0.000000 -0.000000  0.920314 )

     PseudoPot. # 1 for Ga read from file:
     //group///packages/espresso/pseudo/psl_1.0.0/pslibrary.1.0.0/pbe/PSEUDOPOTENTIALS/Ga.pbe-dn-kjpaw_psl.1.0.0.UPF
     MD5 check sum: cd2a01e492f15b435d17032472d8505c
     Pseudo is Projector augmented-wave + core cor, Zval = 13.0
     Generated using 'atomic' code by A. Dal Corso  v.7.1
     Shape of augmentation charge: PSQ
     Using radial grid of 1205 points,  6 beta functions with:
                l(1) =   0
                l(2) =   0
                l(3) =   1
                l(4) =   1
                l(5) =   2
                l(6) =   2
     Q(r) pseudized with 0 coefficients

     PseudoPot. # 2 for N  read from file:
     //group///packages/espresso/pseudo/psl_1.0.0/pslibrary.1.0.0/pbe/PSEUDOPOTENTIALS/N.pbe-n-kjpaw_psl.1.0.0.UPF
     MD5 check sum: f77f775694dac7e2c3fe1c82443d1a16
     Pseudo is Projector augmented-wave + core cor, Zval =  5.0
     Generated using 'atomic' code by A. Dal Corso  v.7.1
     Shape of augmentation charge: PSQ
     Using radial grid of 1085 points,  4 beta functions with:
                l(1) =   0
                l(2) =   0
                l(3) =   1
                l(4) =   1
     Q(r) pseudized with 0 coefficients

     atomic species   valence    mass     pseudopotential
        Ga            13.00    69.72300     Ga( 1.00)
        N              5.00    14.00700     N ( 1.00)

      6 Sym. Ops. (no inversion) found

                                    s                        frac. trans.

      isym =  1     identity

 cryst.   s( 1) = (     1          0          0      )
                  (     0          1          0      )
                  (     0          0          1      )

 cart.    s( 1) = (  1.0000000  0.0000000  0.0000000 )
                  (  0.0000000  1.0000000  0.0000000 )
                  (  0.0000000  0.0000000  1.0000000 )

      isym =  2     120 deg rotation - cryst. axis [0,0,1]

[...]

      isym =  3     120 deg rotation - cryst. axis [0,0,-1]

[...]

      isym =  4     inv. 180 deg rotation - cart. axis [1,0,0]

[...]

      isym =  5     inv. 180 deg rotation - cryst. axis [0,1,0]

[...]

      isym =  6     inv. 180 deg rotation - cryst. axis [1,1,0]

 cryst.   s( 6) = (     0         -1          0      )
                  (    -1          0          0      )
                  (     0          0          1      )

 cart.    s( 6) = (  0.5000000 -0.8660254  0.0000000 )
                  ( -0.8660254 -0.5000000  0.0000000 )
                  (  0.0000000  0.0000000  1.0000000 )

     point group C_3v (3m)
     there are  3 classes
     the character table:

       E     2C3   3s_v
A_1    1.00  1.00  1.00
A_2    1.00  1.00 -1.00
E      2.00 -1.00  0.00

     the symmetry operations in each class and the name of the first element:

     E        1
          identity
     2C3      2    3
          120 deg rotation - cryst. axis [0,0,1]
     3s_v     4    5    6
          inv. 180 deg rotation - cart. axis [1,0,0]

   Cartesian axes

     site n.     atom                  positions (alat units)
         1           Ga  tau(   1) = (   0.1666668   0.0962250   0.2711914  )
         2           Ga  tau(   2) = (   0.1666668   0.0962250   0.8144844  )
         3           Ga  tau(   3) = (   0.0000001   0.3849001   0.2711914  )
         4           Ga  tau(   4) = (   0.0000001   0.3849001   0.8144844  )
         5           Ga  tau(   5) = (  -0.1666665   0.6735752   0.2711914  )
         6           Ga  tau(   6) = (  -0.1666665   0.6735752   0.8144844  )
         7           Ga  tau(   7) = (   0.5000001   0.0962250   0.2711914  )
         8           Ga  tau(   8) = (   0.5000001   0.0962250   0.8144844  )
         9           Ga  tau(   9) = (   0.3333335   0.3849001   0.2711914  )
        10           Ga  tau(  10) = (   0.3333335   0.3849001   0.8144844  )
        11           Ga  tau(  11) = (   0.1666668   0.6735752   0.2711914  )
        12           Ga  tau(  12) = (   0.1666668   0.6735752   0.8144844  )
        13           Ga  tau(  13) = (   0.8333335   0.0962250   0.2711914  )
        14           Ga  tau(  14) = (   0.8333335   0.0962250   0.8144844  )
        15           Ga  tau(  15) = (   0.6666668   0.3849001   0.2711914  )
        16           Ga  tau(  16) = (   0.6666668   0.3849001   0.8144844  )
        17           Ga  tau(  17) = (   0.5000001   0.6735752   0.2711914  )
        18           Ga  tau(  18) = (   0.5000001   0.6735752   0.8144844  )
        19           Ga  tau(  19) = (  -0.0000002   0.1924502   0.5428379  )
        20           Ga  tau(  20) = (  -0.0000002   0.1924502   1.0861309  )
        21           Ga  tau(  21) = (  -0.1666669   0.4811254   0.5428379  )
        22           Ga  tau(  22) = (  -0.1666669   0.4811254   1.0861309  )
        23           Ga  tau(  23) = (  -0.3333335   0.7698005   0.5428379  )
        24           Ga  tau(  24) = (  -0.3333335   0.7698005   1.0861309  )
        25           Ga  tau(  25) = (   0.3333331   0.1924502   0.5428379  )
        26           Ga  tau(  26) = (   0.3333331   0.1924502   1.0861309  )
        27           Ga  tau(  27) = (   0.1666665   0.4811254   0.5428379  )
        28           Ga  tau(  28) = (   0.1666665   0.4811254   1.0861309  )
        29           Ga  tau(  29) = (  -0.0000002   0.7698005   0.5428379  )
        30           Ga  tau(  30) = (  -0.0000002   0.7698005   1.0861309  )
        31           Ga  tau(  31) = (   0.6666665   0.1924502   0.5428379  )
        32           Ga  tau(  32) = (   0.6666665   0.1924502   1.0861309  )
        33           Ga  tau(  33) = (   0.4999998   0.4811254   0.5428379  )
        34           Ga  tau(  34) = (   0.4999998   0.4811254   1.0861309  )
        35           Ga  tau(  35) = (   0.3333331   0.7698005   0.5428379  )
        36           Ga  tau(  36) = (   0.3333331   0.7698005   1.0861309  )
        37           N   tau(  37) = (   0.1666668   0.0962250   0.4758365  )
        38           N   tau(  38) = (   0.1666668   0.0962250   1.0191295  )
        39           N   tau(  39) = (   0.0000001   0.3849001   0.4758365  )
        40           N   tau(  40) = (   0.0000001   0.3849001   1.0191295  )
        41           N   tau(  41) = (  -0.1666665   0.6735752   0.4758365  )
        42           N   tau(  42) = (  -0.1666665   0.6735752   1.0191295  )
        43           N   tau(  43) = (   0.5000001   0.0962250   0.4758365  )
        44           N   tau(  44) = (   0.5000001   0.0962250   1.0191295  )
        45           N   tau(  45) = (   0.3333335   0.3849001   0.4758365  )
        46           N   tau(  46) = (   0.3333335   0.3849001   1.0191295  )
        47           N   tau(  47) = (   0.1666668   0.6735752   0.4758365  )
        48           N   tau(  48) = (   0.1666668   0.6735752   1.0191295  )
        49           N   tau(  49) = (   0.8333335   0.0962250   0.4758365  )
        50           N   tau(  50) = (   0.8333335   0.0962250   1.0191295  )
        51           N   tau(  51) = (   0.6666668   0.3849001   0.4758365  )
        52           N   tau(  52) = (   0.6666668   0.3849001   1.0191295  )
        53           N   tau(  53) = (   0.5000001   0.6735752   0.4758365  )
        54           N   tau(  54) = (   0.5000001   0.6735752   1.0191295  )
        55           N   tau(  55) = (  -0.0000002   0.1924502   0.2041900  )
        56           N   tau(  56) = (  -0.0000002   0.1924502   0.7474830  )
        57           N   tau(  57) = (  -0.1666669   0.4811254   0.2041900  )
        58           N   tau(  58) = (  -0.1666669   0.4811254   0.7474830  )
        59           N   tau(  59) = (  -0.3333335   0.7698005   0.2041900  )
        60           N   tau(  60) = (  -0.3333335   0.7698005   0.7474830  )
        61           N   tau(  61) = (   0.3333331   0.1924502   0.2041900  )
        62           N   tau(  62) = (   0.3333331   0.1924502   0.7474830  )
        63           N   tau(  63) = (   0.1666665   0.4811254   0.2041900  )
        64           N   tau(  64) = (   0.1666665   0.4811254   0.7474830  )
        65           N   tau(  65) = (  -0.0000002   0.7698005   0.2041900  )
        66           N   tau(  66) = (  -0.0000002   0.7698005   0.7474830  )
        67           N   tau(  67) = (   0.6666665   0.1924502   0.2041900  )
        68           N   tau(  68) = (   0.6666665   0.1924502   0.7474830  )
        69           N   tau(  69) = (   0.4999998   0.4811254   0.2041900  )
        70           N   tau(  70) = (   0.4999998   0.4811254   0.7474830  )
[...]
     atom   36 type  1   force =     0.00000000    0.00000000    0.00000000
     atom   37 type  2   force =     0.00000000    0.00000000    0.00000000
     atom   38 type  2   force =     0.00000000    0.00000000    0.00000000
     atom   39 type  2   force =     0.00000000    0.00000000    0.00000000
     atom   40 type  2   force =     0.00000000    0.00000000    0.00000000
     atom   41 type  2   force =     0.00000000    0.00000000    0.00000000
     atom   42 type  2   force =     0.00000000    0.00000000    0.00000000
     atom   43 type  2   force =     0.00000000    0.00000000    0.00000000
     atom   44 type  2   force =     0.00000000    0.00000000    0.00000000
     atom   45 type  2   force =     0.00000000    0.00000000    0.00000000
     atom   46 type  2   force =     0.00000000    0.00000000    0.00000000
     atom   47 type  2   force =     0.00000000    0.00000000    0.00000000
     atom   48 type  2   force =     0.00000000    0.00000000    0.00000000
     atom   49 type  2   force =     0.00000000    0.00000000    0.00000000
     atom   50 type  2   force =     0.00000000    0.00000000    0.00000000
     atom   51 type  2   force =     0.00000000    0.00000000    0.00000000
     atom   52 type  2   force =     0.00000000    0.00000000    0.00000000
     atom   53 type  2   force =     0.00000000    0.00000000    0.00000000
     atom   54 type  2   force =     0.00000000    0.00000000    0.00000000
     atom   55 type  2   force =     0.00000000    0.00000000    0.00000000
     atom   56 type  2   force =     0.00000000    0.00000000    0.00000000
     atom   57 type  2   force =     0.00000000    0.00000000    0.00000000
     atom   58 type  2   force =     0.00000000    0.00000000    0.00000000
     atom   59 type  2   force =     0.00000000    0.00000000    0.00000000
     atom   60 type  2   force =     0.00000000    0.00000000    0.00000000
     atom   61 type  2   force =     0.00000000    0.00000000    0.00000000
     atom   62 type  2   force =     0.00000000    0.00000000    0.00000000
     atom   63 type  2   force =     0.00000000    0.00000000    0.00000000
     atom   64 type  2   force =     0.00000000    0.00000000    0.00000000
     atom   65 type  2   force =     0.00000000    0.00000000    0.00000000
     atom   66 type  2   force =     0.00000000    0.00000000    0.00000000
     atom   67 type  2   force =     0.00000000    0.00000000    0.00000000
     atom   68 type  2   force =     0.00000000    0.00000000    0.00000000
     atom   69 type  2   force =     0.00000000    0.00000000    0.00000000
     atom   70 type  2   force =     0.00000000    0.00000000    0.00000000
     atom   71 type  2   force =     0.00000000    0.00000000    0.00000000
     atom   72 type  2   force =     0.00000000    0.00000000    0.00000000
     The SCF correction term to forces
     atom    1 type  1   force =     0.00002329    0.00001345    0.00003223
     atom    2 type  1   force =    -0.00000884   -0.00000510   -0.00004116
     atom    3 type  1   force =    -0.00000000   -0.00002434    0.00002648
     atom    4 type  1   force =    -0.00000000   -0.00004556    0.00000742
     atom    5 type  1   force =    -0.00002108    0.00001217    0.00002648
     atom    6 type  1   force =    -0.00003946    0.00002278    0.00000742
     atom    7 type  1   force =    -0.00000000    0.00006192    0.00002068
     atom    8 type  1   force =    -0.00000000    0.00003936   -0.00001841
     atom    9 type  1   force =     0.00005363   -0.00003096    0.00002068
     atom   10 type  1   force =     0.00003408   -0.00001968   -0.00001841
     atom   11 type  1   force =     0.00002108    0.00001217    0.00002648
     atom   12 type  1   force =     0.00003945    0.00002278    0.00000742
     atom   13 type  1   force =    -0.00002330    0.00001345    0.00003223
     atom   14 type  1   force =     0.00000884   -0.00000510   -0.00004116
     atom   15 type  1   force =    -0.00005363   -0.00003096    0.00002068
     atom   16 type  1   force =    -0.00003409   -0.00001968   -0.00001841
     atom   17 type  1   force =    -0.00000000   -0.00002690    0.00003223
     atom   18 type  1   force =    -0.00000000    0.00001021   -0.00004116
     atom   19 type  1   force =     0.00000000   -0.00001233    0.00002306
     atom   20 type  1   force =     0.00000000    0.00002907   -0.00003666
     atom   21 type  1   force =    -0.00004079   -0.00002356   -0.00001195
     atom   22 type  1   force =    -0.00001474   -0.00000851   -0.00002768
     atom   23 type  1   force =    -0.00001067    0.00000616    0.00002306
     atom   24 type  1   force =     0.00002518   -0.00001454   -0.00003666
     atom   25 type  1   force =     0.00003517    0.00002030   -0.00000951
     atom   26 type  1   force =     0.00003990    0.00002304   -0.00000462
     atom   27 type  1   force =     0.00004080   -0.00002356   -0.00001195
     atom   28 type  1   force =     0.00001475   -0.00000851   -0.00002768
     atom   29 type  1   force =     0.00000000    0.00004711   -0.00001195
     atom   30 type  1   force =     0.00000000    0.00001702   -0.00002768
     atom   31 type  1   force =    -0.00003516    0.00002030   -0.00000951
     atom   32 type  1   force =    -0.00003990    0.00002304   -0.00000462
     atom   33 type  1   force =     0.00000000   -0.00004060   -0.00000951
     atom   34 type  1   force =     0.00000000   -0.00004608   -0.00000462
     atom   35 type  1   force =     0.00001067    0.00000616    0.00002306
     atom   36 type  1   force =    -0.00002518   -0.00001454   -0.00003666
     atom   37 type  2   force =     0.00000553    0.00000319    0.00000876
     atom   38 type  2   force =     0.00000743    0.00000429   -0.00001484
     atom   39 type  2   force =     0.00000000   -0.00001422    0.00000110
     atom   40 type  2   force =     0.00000000   -0.00000899   -0.00000921
     atom   41 type  2   force =    -0.00001231    0.00000711    0.00000110
     atom   42 type  2   force =    -0.00000778    0.00000449   -0.00000921
     atom   43 type  2   force =     0.00000000    0.00002630   -0.00000012
     atom   44 type  2   force =     0.00000000    0.00001578   -0.00000419
     atom   45 type  2   force =     0.00002278   -0.00001315   -0.00000012
     atom   46 type  2   force =     0.00001367   -0.00000789   -0.00000419
     atom   47 type  2   force =     0.00001231    0.00000711    0.00000110
     atom   48 type  2   force =     0.00000778    0.00000449   -0.00000921
     atom   49 type  2   force =    -0.00000553    0.00000319    0.00000876
     atom   50 type  2   force =    -0.00000743    0.00000429   -0.00001484
     atom   51 type  2   force =    -0.00002278   -0.00001315   -0.00000012
     atom   52 type  2   force =    -0.00001367   -0.00000789   -0.00000419
     atom   53 type  2   force =     0.00000000   -0.00000639    0.00000876
     atom   54 type  2   force =     0.00000000   -0.00000857   -0.00001484
     atom   55 type  2   force =    -0.00000000    0.00000268    0.00000777
     atom   56 type  2   force =    -0.00000000   -0.00001054   -0.00001269
     atom   57 type  2   force =    -0.00001657   -0.00000957    0.00000374
     atom   58 type  2   force =    -0.00001681   -0.00000971   -0.00000417
     atom   59 type  2   force =     0.00000232   -0.00000134    0.00000777
     atom   60 type  2   force =    -0.00000912    0.00000527   -0.00001269
     atom   61 type  2   force =     0.00001969    0.00001137    0.00000889
     atom   62 type  2   force =     0.00001247    0.00000720   -0.00001300
     atom   63 type  2   force =     0.00001657   -0.00000957    0.00000374
     atom   64 type  2   force =     0.00001681   -0.00000971   -0.00000417
     atom   65 type  2   force =    -0.00000000    0.00001913    0.00000374
     atom   66 type  2   force =    -0.00000000    0.00001941   -0.00000417
     atom   67 type  2   force =    -0.00001969    0.00001137    0.00000889
     atom   68 type  2   force =    -0.00001247    0.00000720   -0.00001300
     atom   69 type  2   force =    -0.00000000   -0.00002273    0.00000889
     atom   70 type  2   force =    -0.00000000   -0.00001440   -0.00001300
     atom   71 type  2   force =    -0.00000232   -0.00000134    0.00000777
     atom   72 type  2   force =     0.00000912    0.00000527   -0.00001269

     Total force =     0.001325     Total SCF correction =     0.000285
     SCF correction compared to forces is large: reduce conv_thr to get better values

     Computing stress (Cartesian axis) and pressure

     Non-local corr. energy    =      19.62263868 Ry

          total   stress  (Ry/bohr**3)                   (kbar)     P=        0.86
   0.00000366  -0.00000000   0.00000000            0.54       -0.00        0.00
   0.00000000   0.00000366   0.00000000            0.00        0.54        0.00
   0.00000000   0.00000000   0.00001014            0.00        0.00        1.49

     kinetic stress (kbar)  18451.84      0.00      0.00
                                0.00  18451.84      0.00
                                0.00     -0.00  18443.53

     local   stress (kbar)   5446.33     -0.07     -0.00
                               -0.07   5446.23      0.00
                               -0.00      0.00   3812.94

     nonloc. stress (kbar)     59.00      0.00      0.00
                                0.00     59.00      0.00
                                0.00      0.00     71.55

     hartree stress (kbar)  19596.61      0.00     -0.00
                                0.00  19596.61     -0.00
                               -0.00     -0.00  20346.55

     exc-cor stress (kbar)   5217.92      0.00      0.00
                                0.00   5217.92     -0.00
                                0.00     -0.00   5218.14

     corecor stress (kbar) -14110.22     -0.00     -0.00
                               -0.00 -14110.22      0.00
                               -0.00      0.00 -14109.63

     ewald   stress (kbar) -34823.05      0.10      0.00
                                0.10 -34822.93     -0.00
                                0.00     -0.00 -33942.83

     hubbard stress (kbar)      0.00      0.00      0.00
                                0.00      0.00      0.00
                                0.00      0.00      0.00

     DFT-D   stress (kbar)      0.00      0.00      0.00
                                0.00      0.00      0.00
                                0.00      0.00      0.00

     XDM     stress (kbar)      0.00      0.00      0.00
                                0.00      0.00      0.00
                                0.00      0.00      0.00

     dft-nl  stress (kbar)    162.09     -0.00     -0.00
                               -0.00    162.09      0.00
                               -0.00      0.00    161.25

     TS-vdW  stress (kbar)      0.00      0.00      0.00
                                0.00      0.00      0.00
                                0.00      0.00      0.00

     MDB     stress (kbar)      0.00      0.00      0.00
                                0.00      0.00      0.00
                                0.00      0.00      0.00

     3D-RISM stress (kbar)      0.00      0.00      0.00
                                0.00      0.00      0.00
                                0.00      0.00      0.00

     BFGS Geometry Optimization
     Energy error            =      0.0E+00 Ry
     Gradient error          =      1.8E-04 Ry/Bohr

     bfgs converged in   1 scf cycles and   0 bfgs steps
     (criteria: energy <  1.0E-04 Ry, force <  1.0E-03 Ry/Bohr)

     End of BFGS Geometry Optimization

     Final energy             =  -11242.4442555349 Ry
Begin final coordinates

ATOMIC_POSITIONS (angstrom)
Ga            1.6222756606        0.9366198184        2.6396807677
Ga            1.6222756606        0.9366198184        7.9279023555
Ga            0.0000014521        3.7464811715        2.6396807677
Ga            0.0000014521        3.7464811715        7.9279023555
Ga           -1.6222727565        6.5563425246        2.6396807677
Ga           -1.6222727565        6.5563425246        7.9279023555
Ga            4.8668240777        0.9366198184        2.6396807677
Ga            4.8668240777        0.9366198184        7.9279023555
Ga            3.2445498691        3.7464811715        2.6396807677
Ga            3.2445498691        3.7464811715        7.9279023555
Ga            1.6222756606        6.5563425246        2.6396807677
Ga            1.6222756606        6.5563425246        7.9279023555
Ga            8.1113724947        0.9366198184        2.6396807677
Ga            8.1113724947        0.9366198184        7.9279023555
Ga            6.4890982862        3.7464811715        2.6396807677
Ga            6.4890982862        3.7464811715        7.9279023555
Ga            4.8668240777        6.5563425246        2.6396807677
Ga            4.8668240777        6.5563425246        7.9279023555
Ga           -0.0000019648        1.8732424465        5.2837915627
Ga           -0.0000019648        1.8732424465       10.5720131505
Ga           -1.6222761733        4.6831037996        5.2837915627
Ga           -1.6222761733        4.6831037996       10.5720131505
Ga           -3.2445503819        7.4929651527        5.2837915627
Ga           -3.2445503819        7.4929651527       10.5720131505
Ga            3.2445464523        1.8732424465        5.2837915627
Ga            3.2445464523        1.8732424465       10.5720131505
Ga            1.6222722437        4.6831037996        5.2837915627
Ga            1.6222722437        4.6831037996       10.5720131505
Ga           -0.0000019648        7.4929651527        5.2837915627
Ga           -0.0000019648        7.4929651527       10.5720131505
Ga            6.4890948693        1.8732424465        5.2837915627
Ga            6.4890948693        1.8732424465       10.5720131505
Ga            4.8668206608        4.6831037996        5.2837915627
Ga            4.8668206608        4.6831037996       10.5720131505
Ga            3.2445464523        7.4929651527        5.2837915627
Ga            3.2445464523        7.4929651527       10.5720131505
N             1.6222756606        0.9366198184        4.6316239188
N             1.6222756606        0.9366198184        9.9198455066
N             0.0000014521        3.7464811715        4.6316239188
N             0.0000014521        3.7464811715        9.9198455066
N            -1.6222727565        6.5563425246        4.6316239188
N            -1.6222727565        6.5563425246        9.9198455066
N             4.8668240777        0.9366198184        4.6316239188
N             4.8668240777        0.9366198184        9.9198455066
N             3.2445498691        3.7464811715        4.6316239188
N             3.2445498691        3.7464811715        9.9198455066
N             1.6222756606        6.5563425246        4.6316239188
N             1.6222756606        6.5563425246        9.9198455066
N             8.1113724947        0.9366198184        4.6316239188
N             8.1113724947        0.9366198184        9.9198455066
N             6.4890982862        3.7464811715        4.6316239188
N             6.4890982862        3.7464811715        9.9198455066
N             4.8668240777        6.5563425246        4.6316239188
N             4.8668240777        6.5563425246        9.9198455066
N            -0.0000019648        1.8732424465        1.9875131237
N            -0.0000019648        1.8732424465        7.2757347115
N            -1.6222761733        4.6831037996        1.9875131237
N            -1.6222761733        4.6831037996        7.2757347115
N            -3.2445503819        7.4929651527        1.9875131237
N            -3.2445503819        7.4929651527        7.2757347115
N             3.2445464523        1.8732424465        1.9875131237
N             3.2445464523        1.8732424465        7.2757347115
N             1.6222722437        4.6831037996        1.9875131237
N             1.6222722437        4.6831037996        7.2757347115
N            -0.0000019648        7.4929651527        1.9875131237
N            -0.0000019648        7.4929651527        7.2757347115
N             6.4890948693        1.8732424465        1.9875131237
N             6.4890948693        1.8732424465        7.2757347115
N             4.8668206608        4.6831037996        1.9875131237
N             4.8668206608        4.6831037996        7.2757347115
N             3.2445464523        7.4929651527        1.9875131237
N             3.2445464523        7.4929651527        7.2757347115
End final coordinates

     Writing all to output data dir ./GaN.save/

     General routines

     Parallel routines

     PAW routines

   This run was terminated on:  21:26:39  18Feb2024

   JOB DONE.