     Program PWSCF v.7.2 starts on 27Mar2024 at 22:22: 0

     Reading input from espresso.pwi
Warning: card &CELL ignored
Warning: card    CELL_DYNAMICS    = 'BFGS' ignored
Warning: card / ignored

     Current dimensions of program PWSCF are:
     Max number of different atomic species (ntypx) = 10
     Max number of k-points (npk) =  40000
     Max angular momentum in pseudopotentials (lmaxx) =  4
     file C.pbe-n-kjpaw_psl.1.0.0.UPF: wavefunction(s)  2S 2P renormalized

     IMPORTANT: XC functional enforced from input :
     Exchange-correlation= BEEF-VDW
                           (   1   4  43  14   2   0   0)
     Any further DFT definition will be discarded
     Please, verify this is what you really want

     R & G space division:  proc/nbgrp/npool/nimage =      10
     Subspace diagonalization in iterative solution of the eigenvalue problem:
     a serial algorithm will be used

     Using Slab Decomposition

     bravais-lattice index     =            1
     lattice parameter (alat)  =       6.7507  a.u.
     unit-cell volume          =     307.6390 (a.u.)^3
     number of atoms/cell      =            8
     number of atomic types    =            1
     number of electrons       =        32.00
     number of Kohn-Sham states=           20
     kinetic-energy cutoff     =      70.0000  Ry
     charge density cutoff     =     350.0000  Ry
     scf convergence threshold =      1.0E-07
     mixing beta               =       0.7000
     number of iterations used =            8  plain     mixing
     Exchange-correlation= BEEF-VDW
                           (   1   4  43  14   2   0   0)

     celldm(1)=   6.750674  celldm(2)=   0.000000  celldm(3)=   0.000000
     celldm(4)=   0.000000  celldm(5)=   0.000000  celldm(6)=   0.000000

     crystal axes: (cart. coord. in units of alat)
               a(1) = (   1.000000   0.000000   0.000000 )
               a(2) = (   0.000000   1.000000   0.000000 )
               a(3) = (   0.000000   0.000000   1.000000 )

     reciprocal axes: (cart. coord. in units 2 pi/alat)
               b(1) = (  1.000000  0.000000  0.000000 )
               b(2) = (  0.000000  1.000000  0.000000 )
               b(3) = (  0.000000  0.000000  1.000000 )

     PseudoPot. # 1 for C  read from file:
     /trace/group/acmegroup/atimmins/packages/espresso/pseudo/psl_1.0.0/pslibrary.1.0.0/pbe/PSEUDOPOTENTIALS/C.pbe-n-kjpaw_psl.1.0.0.UPF
     MD5 check sum: 5459cf7f2c8c37df2f7cde8914797f4d
     Pseudo is Projector augmented-wave + core cor, Zval =  4.0
     Generated using 'atomic' code by A. Dal Corso  v.7.1
     Shape of augmentation charge: PSQ
     Using radial grid of 1073 points,  4 beta functions with:
                l(1) =   0
                l(2) =   0
                l(3) =   1
                l(4) =   1
     Q(r) pseudized with 0 coefficients

     atomic species   valence    mass     pseudopotential
        C              4.00    12.01100     C ( 1.00)

     24 Sym. Ops. (no inversion) found

                                    s                        frac. trans.

      isym =  1     identity

 cryst.   s( 1) = (     1          0          0      )
                  (     0          1          0      )
                  (     0          0          1      )

 cart.    s( 1) = (  1.0000000  0.0000000  0.0000000 )
                  (  0.0000000  1.0000000  0.0000000 )
                  (  0.0000000  0.0000000  1.0000000 )

      isym =  2     180 deg rotation - cart. axis [0,0,1]

[...]

 cryst.   s( 9) = (     0          1          0      )
                  (     0          0          1      )
                  (     1          0          0      )

 cart.    s( 9) = (  0.0000000  0.0000000  1.0000000 )
                  (  1.0000000  0.0000000  0.0000000 )
                  (  0.0000000  1.0000000  0.0000000 )

[...]

 cryst.   s(10) = (     0         -1          0      )
                  (     0          0         -1      )
                  (     1          0          0      )

 cart.    s(10) = (  0.0000000  0.0000000  1.0000000 )
                  ( -1.0000000  0.0000000  0.0000000 )
                  (  0.0000000 -1.0000000  0.0000000 )

[...]

      isym = 12     120 deg rotation - cart. axis [-1,-1,1]

[...]

      isym = 13     inv. 180 deg rotation - cart. axis [1,1,0]

[...]

      isym = 24     inv.  90 deg rotation - cart. axis [1,0,0]

 cryst.   s(24) = (    -1          0          0      )
                  (     0          0         -1      )
                  (     0          1          0      )

 cart.    s(24) = ( -1.0000000  0.0000000  0.0000000 )
                  (  0.0000000  0.0000000  1.0000000 )
                  (  0.0000000 -1.0000000  0.0000000 )

     point group T_d (-43m)
     there are  5 classes
     the character table:

       E     8C3   3C2   6S4   6s_d
A_1    1.00  1.00  1.00  1.00  1.00
A_2    1.00  1.00  1.00 -1.00 -1.00
E      2.00 -1.00  2.00  0.00  0.00
T_1    3.00  0.00 -1.00  1.00 -1.00
T_2    3.00  0.00 -1.00 -1.00  1.00

     the symmetry operations in each class and the name of the first element:

     E        1
          identity
     8C3      5    7    8    6   12    9   10   11
          120 deg rotation - cart. axis [-1,-1,-1]
     3C2      2    3    4
          180 deg rotation - cart. axis [0,0,1]
     6S4     15   16   20   19   23   24
          inv.  90 deg rotation - cart. axis [0,0,-1]
     6s_d    13   14   17   18   21   22
          inv. 180 deg rotation - cart. axis [1,1,0]

   Cartesian axes

     site n.     atom                  positions (alat units)
         1           C   tau(   1) = (   0.2500061   0.7499939   0.2500061  )
         2           C   tau(   2) = (   0.0000000   0.0000000   0.5000000  )
         3           C   tau(   3) = (   0.2500061   0.2500061   0.7499939  )
         4           C   tau(   4) = (   0.0000000   0.5000000   0.0000000  )
         5           C   tau(   5) = (   0.7499939   0.7499939   0.7499939  )
         6           C   tau(   6) = (   0.5000000   0.0000000   0.0000000  )
         7           C   tau(   7) = (   0.7499939   0.2500061   0.2500061  )
         8           C   tau(   8) = (   0.5000000   0.5000000   0.5000000  )

   Crystallographic axes

     site n.     atom                  positions (cryst. coord.)
         1           C   tau(   1) = (  0.2500061  0.7499939  0.2500061  )
         2           C   tau(   2) = (  0.0000000  0.0000000  0.5000000  )
         3           C   tau(   3) = (  0.2500061  0.2500061  0.7499939  )
         4           C   tau(   4) = (  0.0000000  0.5000000  0.0000000  )
         5           C   tau(   5) = (  0.7499939  0.7499939  0.7499939  )
         6           C   tau(   6) = (  0.5000000  0.0000000  0.0000000  )
         7           C   tau(   7) = (  0.7499939  0.2500061  0.2500061  )
         8           C   tau(   8) = (  0.5000000  0.5000000  0.5000000  )

     number of k points=    10  Gaussian smearing, width (Ry)=  0.0100
                       cart. coord. in units 2pi/alat
        k(    1) = (   0.0000000   0.0000000   0.0000000), wk =   0.0312500
        k(    2) = (   0.0000000   0.0000000   0.2500000), wk =   0.1875000
        k(    3) = (   0.0000000   0.0000000  -0.5000000), wk =   0.0937500
        k(    4) = (   0.0000000   0.2500000   0.2500000), wk =   0.3750000
        k(    5) = (   0.0000000   0.2500000  -0.5000000), wk =   0.3750000
        k(    6) = (   0.0000000  -0.5000000  -0.5000000), wk =   0.0937500
        k(    7) = (   0.2500000   0.2500000   0.2500000), wk =   0.2500000
        k(    8) = (   0.2500000   0.2500000  -0.5000000), wk =   0.3750000
        k(    9) = (   0.2500000  -0.5000000  -0.5000000), wk =   0.1875000
        k(   10) = (  -0.5000000  -0.5000000  -0.5000000), wk =   0.0312500

                       cryst. coord.
        k(    1) = (   0.0000000   0.0000000   0.0000000), wk =   0.0312500
        k(    2) = (   0.0000000   0.0000000   0.2500000), wk =   0.1875000
        k(    3) = (   0.0000000   0.0000000  -0.5000000), wk =   0.0937500
        k(    4) = (   0.0000000   0.2500000   0.2500000), wk =   0.3750000
        k(    5) = (   0.0000000   0.2500000  -0.5000000), wk =   0.3750000
        k(    6) = (   0.0000000  -0.5000000  -0.5000000), wk =   0.0937500
        k(    7) = (   0.2500000   0.2500000   0.2500000), wk =   0.2500000
        k(    8) = (   0.2500000   0.2500000  -0.5000000), wk =   0.3750000
        k(    9) = (   0.2500000  -0.5000000  -0.5000000), wk =   0.1875000
        k(   10) = (  -0.5000000  -0.5000000  -0.5000000), wk =   0.0312500

     Atomic positions and unit cell read from directory:
     ./diamond.save/

     Check: negative core charge=   -0.000014

     The initial density is read from file :
     ./diamond.save/charge-density

     %%%%%%%%%%%%%%%%%%%%%%%%%%%%%%%%%%%%%%%%%%%%%%%%%%%%%%%%%%%%%%%%%%%%%%%%
     %                                                                      %
     % You are using vdW-DF, which was implemented by the Thonhauser group. %
     % Please cite the following two papers that made this development      %
     % possible and the two reviews that describe the various versions:     %
     %                                                                      %
     %   T. Thonhauser et al., PRL 115, 136402 (2015).                      %
     %   T. Thonhauser et al., PRB 76, 125112 (2007).                       %
     %   K. Berland et al., Rep. Prog. Phys. 78, 066501 (2015).             %
     %   D.C. Langreth et al., J. Phys.: Condens. Matter 21, 084203 (2009). %
     %                                                                      %
     % If you are calculating stress with vdW-DF, please also cite:         %
     %                                                                      %
     %   R. Sabatini et al., J. Phys.: Condens. Matter 24, 424209 (2012).   %
     %                                                                      %
     %%%%%%%%%%%%%%%%%%%%%%%%%%%%%%%%%%%%%%%%%%%%%%%%%%%%%%%%%%%%%%%%%%%%%%%%

     %%%%%%%%%%%%%%%%%%%%%%%%%%%%%%%%%%%%%%%%%%%%%%%%%%%%%%%%%%%%%%%%%%%%%%%%
     %                                                                      %
     %  vdW-DF NEWS:                                                        %
     %                                                                      %
     %  * vdW-DF3 is now available. DOI: 10.1021/acs.jctc.0c00471           %
     %    use with input_dft = 'vdW-DF3-opt1' or 'vdW-DF3-opt2'             %
     %                                                                      %
     %  * Unscreened and range-separated hybrid vdW-DF-cx functionals       %
     %    DOI: 10.1063/1.4986522 and 10.1088/1361-648X/ac2ad2               %
     %    use with input_dft = 'vdW-DF-cx0'    and 'vdW-DF-ahcx'            %
     %  * Unscreened and range-separated hybrid vdW-DF2-b86r functionals    %
     %    DOI: 10.1063/1.4986522 and DOI: 10.1103/PhysRevX.12.041003        %
     %    use with input_dft = 'vdW-DF2-br0' and 'vdW-DF2-ahbr'             %
     %                                                                      %
     %%%%%%%%%%%%%%%%%%%%%%%%%%%%%%%%%%%%%%%%%%%%%%%%%%%%%%%%%%%%%%%%%%%%%%%%

     Carrying out vdW-DF run using the following parameters:
     Nqs    =  20  Npoints =  1024  r_max =  100.000
     q_mesh =  0.00001000  0.04494208  0.09755937  0.15916263
               0.23128650  0.31572767  0.41458969  0.53033537
               0.66584808  0.82450364  1.01025438  1.22772762
               1.48234092  1.78043706  2.12944203  2.53805004
               3.01644009  3.57652955  4.23227104  5.00000000

     Non-local corr. energy    =       0.27348373 Ry

     Starting wfcs from file
     Checking if some PAW data can be deallocated...

     Self-consistent Calculation

     iteration #  1     ecut=    70.00 Ry     beta= 0.70
     Davidson diagonalization with overlap

     ethr =  1.00E-05,  avg # of iterations =  1.6

     Threshold (ethr) on eigenvalues was too large:
     Diagonalizing with lowered threshold

     Davidson diagonalization with overlap

     c_bands:  1 eigenvalues not converged
     c_bands:  1 eigenvalues not converged
     c_bands:  4 eigenvalues not converged
     ethr =  3.40E-11,  avg # of iterations = 10.1

[...]

     End of self-consistent calculation

          k = 0.0000 0.0000 0.0000 (  2969 PWs)   bands (ev):

    -8.4621   0.1814   0.1819   0.1819   0.1819   0.1821   0.1821   6.7175
     6.7175   6.7175   6.7176   6.7176   6.7176  12.9574  12.9574  12.9574
    17.9335  17.9335  17.9338  17.9338

     occupation numbers
     1.0000   1.0000   1.0000   1.0000   1.0000   1.0000   1.0000   1.0000
     1.0000   1.0000   1.0000   1.0000   1.0000   1.0000   1.0000   1.0000
     0.0000   0.0000   0.0000   0.0000

[...]

          k = 0.2500-0.5000-0.5000 (  3060 PWs)   bands (ev):

[...]

          k =-0.5000-0.5000-0.5000 (  3112 PWs)   bands (ev):

    -2.7978  -2.7970  -2.7970  -2.7970  -0.2751  -0.2751  -0.2751  -0.2747
    10.1708  10.1708  10.1708  10.1710  10.1710  10.1710  10.1716  10.1716
    21.5280  21.5283  21.5285  21.5286

     occupation numbers
     1.0000   1.0000   1.0000   1.0000   1.0000   1.0000   1.0000   1.0000
     1.0000   1.0000   1.0000   1.0000   1.0000   1.0000   1.0000   1.0000
     0.0000   0.0000   0.0000   0.0000

     the Fermi energy is    16.1135 ev

!    total energy              =    -151.94218855 Ry
     total all-electron energy =      -614.054965 Ry
     estimated scf accuracy    <       0.00000002 Ry
     smearing contrib. (-TS)   =      -0.00000000 Ry
     internal energy E=F+TS    =    -151.94218855 Ry

     The total energy is F=E-TS. E is the sum of the following terms:
     one-electron contribution =      33.58036824 Ry
     hartree contribution      =       7.95041268 Ry
     xc contribution           =     -39.00435217 Ry
     ewald contribution        =    -102.13945302 Ry
     one-center paw contrib.   =     -52.32916429 Ry
      -> PAW hartree energy AE =       8.97854519 Ry
      -> PAW hartree energy PS =      -8.97023569 Ry
      -> PAW xc energy AE      =     -11.11065420 Ry
      -> PAW xc energy PS      =       4.56119847 Ry
      -> total E_H with PAW    =       7.95872219 Ry
      -> total E_XC with PAW   =     -45.55380790 Ry

     convergence has been achieved in   1 iterations

[...]

     Forces acting on atoms (cartesian axes, Ry/au):

     atom    1 type  1   force =     0.00003555   -0.00003555    0.00003555
     atom    2 type  1   force =     0.00000000    0.00000000    0.00000000
     atom    3 type  1   force =     0.00003555    0.00003555   -0.00003555
     atom    4 type  1   force =     0.00000000    0.00000000    0.00000000
     atom    5 type  1   force =    -0.00003555   -0.00003555   -0.00003555
     atom    6 type  1   force =     0.00000000    0.00000000    0.00000000
     atom    7 type  1   force =    -0.00003555    0.00003555    0.00003555
     atom    8 type  1   force =     0.00000000    0.00000000    0.00000000
     The non-local contrib.  to forces
     atom    1 type  1   force =     0.00012229   -0.00012229    0.00012229
     atom    2 type  1   force =     0.00000000    0.00000000    0.00000000
     atom    3 type  1   force =     0.00012229    0.00012229   -0.00012229
     atom    4 type  1   force =     0.00000000    0.00000000    0.00000000
     atom    5 type  1   force =    -0.00012229   -0.00012229   -0.00012229
     atom    6 type  1   force =     0.00000000    0.00000000    0.00000000
     atom    7 type  1   force =    -0.00012229    0.00012229    0.00012229
     atom    8 type  1   force =     0.00000000    0.00000000    0.00000000
     The ionic contribution  to forces
     atom    1 type  1   force =    -0.00021943    0.00021946   -0.00021943
     atom    2 type  1   force =    -0.00000006   -0.00000006    0.00000003
     atom    3 type  1   force =    -0.00021943   -0.00021943    0.00021946
     atom    4 type  1   force =    -0.00000006    0.00000003   -0.00000006
     atom    5 type  1   force =     0.00021946    0.00021946    0.00021946
     atom    6 type  1   force =     0.00000003   -0.00000006   -0.00000006
     atom    7 type  1   force =     0.00021946   -0.00021943   -0.00021943
     atom    8 type  1   force =     0.00000003    0.00000003    0.00000003
     The local contribution  to forces
     atom    1 type  1   force =     0.00010557   -0.00010542    0.00010557
     atom    2 type  1   force =     0.00000000   -0.00000000    0.00000008
     atom    3 type  1   force =     0.00010557    0.00010557   -0.00010542
     atom    4 type  1   force =    -0.00000000    0.00000008    0.00000000
     atom    5 type  1   force =    -0.00010542   -0.00010542   -0.00010542
     atom    6 type  1   force =     0.00000008    0.00000000    0.00000000
     atom    7 type  1   force =    -0.00010542    0.00010557    0.00010557
     atom    8 type  1   force =     0.00000008    0.00000008    0.00000008
     The core correction contribution to forces
     atom    1 type  1   force =     0.00010815   -0.00010815    0.00010815
     atom    2 type  1   force =    -0.00000000   -0.00000000   -0.00000000
     atom    3 type  1   force =     0.00010815    0.00010815   -0.00010815
     atom    4 type  1   force =    -0.00000000   -0.00000000   -0.00000000
     atom    5 type  1   force =    -0.00010815   -0.00010815   -0.00010815
     atom    6 type  1   force =    -0.00000000   -0.00000000   -0.00000000
     atom    7 type  1   force =    -0.00010815    0.00010815    0.00010815
     atom    8 type  1   force =    -0.00000000   -0.00000000   -0.00000000
     The Hubbard contrib.    to forces
     atom    1 type  1   force =     0.00000000    0.00000000    0.00000000
     atom    2 type  1   force =     0.00000000    0.00000000    0.00000000
     atom    3 type  1   force =     0.00000000    0.00000000    0.00000000
     atom    4 type  1   force =     0.00000000    0.00000000    0.00000000
     atom    5 type  1   force =     0.00000000    0.00000000    0.00000000
     atom    6 type  1   force =     0.00000000    0.00000000    0.00000000
     atom    7 type  1   force =     0.00000000    0.00000000    0.00000000
     atom    8 type  1   force =     0.00000000    0.00000000    0.00000000
     The SCF correction term to forces
     atom    1 type  1   force =    -0.00008093    0.00008093   -0.00008093
     atom    2 type  1   force =    -0.00000000   -0.00000000   -0.00000000
     atom    3 type  1   force =    -0.00008093   -0.00008093    0.00008093
     atom    4 type  1   force =    -0.00000000   -0.00000000   -0.00000000
     atom    5 type  1   force =     0.00008093    0.00008093    0.00008093
     atom    6 type  1   force =    -0.00000000   -0.00000000   -0.00000000
     atom    7 type  1   force =     0.00008093   -0.00008093   -0.00008093
     atom    8 type  1   force =    -0.00000000   -0.00000000   -0.00000000

     Total force =     0.000123     Total SCF correction =     0.000280
     SCF correction compared to forces is large: reduce conv_thr to get better values

     Computing stress (Cartesian axis) and pressure

[...]

          total   stress  (Ry/bohr**3)                   (kbar)     P=        0.02
   0.00000013   0.00000000   0.00000000            0.02        0.00        0.00
   0.00000000   0.00000013   0.00000000            0.00        0.02        0.00
   0.00000000   0.00000000   0.00000013            0.00        0.00        0.02

     kinetic stress (kbar)  18999.88      0.00      0.00
                                0.00  18999.88      0.00
                                0.00      0.00  18999.88

     local   stress (kbar)  -3484.16     -0.00     -0.00
                               -0.00  -3484.16     -0.00
                               -0.00     -0.00  -3484.16

     nonloc. stress (kbar)   4322.10      0.00      0.00
                                0.00   4322.10      0.00
                                0.00      0.00   4322.10

     hartree stress (kbar)   1267.23      0.00      0.00
                                0.00   1267.23     -0.00
                                0.00     -0.00   1267.23

     exc-cor stress (kbar)   -414.49      0.00      0.00
                                0.00   -414.49      0.00
                                0.00      0.00   -414.49

     corecor stress (kbar)  -4435.20     -0.00     -0.00
                               -0.00  -4435.20     -0.00
                               -0.00     -0.00  -4435.20

     ewald   stress (kbar) -16280.16      0.00      0.00
                                0.00 -16280.16      0.00
                                0.00      0.00 -16280.16

     hubbard stress (kbar)      0.00      0.00      0.00
                                0.00      0.00      0.00
                                0.00      0.00      0.00

     DFT-D   stress (kbar)      0.00      0.00      0.00
                                0.00      0.00      0.00
                                0.00      0.00      0.00

     XDM     stress (kbar)      0.00      0.00      0.00
                                0.00      0.00      0.00
                                0.00      0.00      0.00

     dft-nl  stress (kbar)     24.82     -0.00     -0.00
                               -0.00     24.82     -0.00
                               -0.00     -0.00     24.82

     TS-vdW  stress (kbar)      0.00      0.00      0.00
                                0.00      0.00      0.00
                                0.00      0.00      0.00

     MDB     stress (kbar)      0.00      0.00      0.00
                                0.00      0.00      0.00
                                0.00      0.00      0.00

     3D-RISM stress (kbar)      0.00      0.00      0.00
                                0.00      0.00      0.00
                                0.00      0.00      0.00

[...]

     Non-local corr. energy    =       0.27348990 Ry

 BEEFens 2000 ensemble energies
             -0.284277145174810E+01
             -0.190856120626291E+00
             -0.642178229890465E+00
              0.195842261662792E+01
             -0.860850798599477E+00
             -0.733491242845677E+00
             -0.197812878649460E+01
             -0.426318536442096E+01
             -0.158642086607118E+01
             -0.165561810963244E+01
             -0.170237045931410E+01
              0.236707205187030E+00
              0.247807017442074E+00
             -0.211449033478649E+00
              0.187945332348500E+00
              0.209896377118717E+01
             -0.847237097157917E+00
             -0.551210364914605E+00
              0.107420472019397E+01
             -0.485835744845167E+01
              0.254256152351745E+01
             -0.885697025279068E+00
             -0.261002207917171E+00
             -0.345415037673773E+00
             -0.189541948877192E-02
             -0.259845556694769E+00
              0.381712117949466E+01
             -0.102668425302629E+01
             -0.397209878602865E+00
             -0.254784745952836E+01
              0.309188866848491E+01
             -0.287410643398852E+00
             -0.185099780864769E+01
              0.886273071118593E+00
             -0.102584464231086E+00
              0.126484733174237E+01
              0.103178043010468E+00
              0.603521295364828E-02
              0.162596166793158E+01
             -0.442493015563913E+01
              0.234659093355956E+01
              0.567228201427763E+00
             -0.452793600436220E+00
             -0.143139488175502E+01
              0.509885484216705E+00
             -0.742637330870451E+00
              0.221931114962568E+01
              0.154149300737516E+01
             -0.853353041760229E+00
             -0.146446016978339E+01
             -0.141993529338479E+01
             -0.157685701477308E+01
              0.839830643713810E+00
             -0.234985865044024E+01
              0.684802031747658E+00
              0.270654238848392E+01
              0.331354781374631E+01
              0.134308362391530E+01
              0.703776247115437E+00
              0.138631249471690E+01
[...]
             -0.332713228006714E+01
              0.932390027727834E-01
              0.445420407664203E-01
             -0.497407802045405E+00
              0.218079476421273E+00
             -0.285592029485156E+01
             -0.481922746990641E+00
              0.506164663211853E+00
              0.543606902810248E+00
              0.223025306560693E+01
             -0.193345586371948E+01
              0.233100745862124E+01
             -0.172950634610875E+01
              0.115553878815737E+01
              0.191435226477443E+01

 BEEF-vdW xc energy contributions
            1 :    -32.75638944630512
            2 :     28.90331263547746
            3 :    -22.25857775394665
            4 :     14.54459297625687
            5 :    -7.520183891026868
            6 :     2.399649301867711
            7 :    0.4517126852610289
            8 :    -1.452226069914616
            9 :     1.446842498571215
           10 :    -1.256337908613062
           11 :     1.345144524062022
           12 :    -1.733178304159267
           13 :     2.141783836610330
           14 :    -2.252964216708733
           15 :     1.926774832861135
           16 :    -1.271289260492097
           17 :    0.5557567517122024
           18 :   -4.3436923194249744E-002
           19 :   -0.1481640259610302
           20 :    8.4468086460709912E-002
           21 :    5.7308842719521635E-002
           22 :   -0.1107152508490969
           23 :    1.5776773850049608E-002
           24 :    0.1638464455129878
           25 :   -0.3009496929176194
           26 :    0.2954559321360151
           27 :   -0.1369115068660776
           28 :   -9.5648975423173965E-002
           29 :    0.2889157351005807
           30 :   -0.3654661696355106
           31 :    -4.285138180627222
           32 :    -3.109674600685096

     Writing all to output data dir ./diamond.save/

     General routines

     Parallel routines

     PAW routines

   This run was terminated on:  22:22: 4  27Mar2024

   JOB DONE.