     Program PWSCF v.7.1 starts on 21Feb2024 at  8:30:52

     Reading input from espresso.pwi
Warning: card &CELL ignored
Warning: card    CELL_DYNAMICS    = 'BFGS' ignored
Warning: card / ignored

     Current dimensions of program PWSCF are:
     Max number of different atomic species (ntypx) = 10
     Max number of k-points (npk) =  40000
     Max angular momentum in pseudopotentials (lmaxx) =  4
     file Ga.pbe-dn-kjpaw_psl.1.0.0.UPF: wavefunction(s)  4S renormalized
     file N.pbe-n-kjpaw_psl.1.0.0.UPF: wavefunction(s)  2S renormalized

     IMPORTANT: XC functional enforced from input :
     Exchange-correlation= BEEF-VDW
                           (   1   4  43  14   2   0   0)
     Any further DFT definition will be discarded
     Please, verify this is what you really want

     Found identity + (  0.0000  0.5000  0.5000) symmetry
     This is a supercell, fractional translations are disabled

     K-points division:     npool     =       8
     R & G space division:  proc/nbgrp/npool/nimage =      16
     Subspace diagonalization in iterative solution of the eigenvalue problem:
     a serial algorithm will be used

     Using Slab Decomposition

     bravais-lattice index     =            1
     lattice parameter (alat)  =       8.6574  a.u.
     unit-cell volume          =     648.8699 (a.u.)^3
     number of atoms/cell      =            8
     number of atomic types    =            2
     number of electrons       =        72.00
     number of Kohn-Sham states=           43
     kinetic-energy cutoff     =      70.0000  Ry
     charge density cutoff     =     350.0000  Ry
     scf convergence threshold =      1.0E-07
     mixing beta               =       0.7000
     number of iterations used =            8  plain     mixing
     energy convergence thresh.=      1.0E-04
     force convergence thresh. =      1.0E-03
     Exchange-correlation= BEEF-VDW
                           (   1   4  43  14   2   0   0)
     nstep                     =           50

     celldm(1)=   8.657368  celldm(2)=   0.000000  celldm(3)=   0.000000
     celldm(4)=   0.000000  celldm(5)=   0.000000  celldm(6)=   0.000000

     crystal axes: (cart. coord. in units of alat)
               a(1) = (   1.000000   0.000000   0.000000 )
               a(2) = (   0.000000   1.000000   0.000000 )
               a(3) = (   0.000000   0.000000   1.000000 )

     reciprocal axes: (cart. coord. in units 2 pi/alat)
               b(1) = (  1.000000  0.000000  0.000000 )
               b(2) = (  0.000000  1.000000  0.000000 )
               b(3) = (  0.000000  0.000000  1.000000 )

     PseudoPot. # 1 for Ga read from file:
     /trace/group/acmegroup/atimmins/packages/espresso/pseudo/psl_1.0.0/pslibrary.1.0.0/pbe/PSEUDOPOTENTIALS/Ga.pbe-dn-kjpaw_psl.1.0.0.UPF
     MD5 check sum: cd2a01e492f15b435d17032472d8505c
     Pseudo is Projector augmented-wave + core cor, Zval = 13.0
     Generated using 'atomic' code by A. Dal Corso  v.7.1
     Shape of augmentation charge: PSQ
     Using radial grid of 1205 points,  6 beta functions with:
                l(1) =   0
                l(2) =   0
                l(3) =   1
                l(4) =   1
                l(5) =   2
                l(6) =   2
     Q(r) pseudized with 0 coefficients

     PseudoPot. # 2 for N  read from file:
     /trace/group/acmegroup/atimmins/packages/espresso/pseudo/psl_1.0.0/pslibrary.1.0.0/pbe/PSEUDOPOTENTIALS/N.pbe-n-kjpaw_psl.1.0.0.UPF
     MD5 check sum: f77f775694dac7e2c3fe1c82443d1a16
     Pseudo is Projector augmented-wave + core cor, Zval =  5.0
     Generated using 'atomic' code by A. Dal Corso  v.7.1
     Shape of augmentation charge: PSQ
     Using radial grid of 1085 points,  4 beta functions with:
                l(1) =   0
                l(2) =   0
                l(3) =   1
                l(4) =   1
     Q(r) pseudized with 0 coefficients

     atomic species   valence    mass     pseudopotential
        Ga            13.00    69.72300     Ga( 1.00)
        N              5.00    14.00700     N ( 1.00)

     24 Sym. Ops. (no inversion) found

                                    s                        frac. trans.

      isym =  1     identity

 cryst.   s( 1) = (     1          0          0      )
                  (     0          1          0      )
                  (     0          0          1      )

 cart.    s( 1) = (  1.0000000  0.0000000  0.0000000 )
                  (  0.0000000  1.0000000  0.0000000 )
                  (  0.0000000  0.0000000  1.0000000 )

      isym =  2     180 deg rotation - cart. axis [0,0,1]

[...]

 cryst.   s( 9) = (     0          1          0      )
                  (     0          0          1      )
                  (     1          0          0      )

 cart.    s( 9) = (  0.0000000  0.0000000  1.0000000 )
                  (  1.0000000  0.0000000  0.0000000 )
                  (  0.0000000  1.0000000  0.0000000 )

[...]

 cryst.   s(10) = (     0         -1          0      )
                  (     0          0         -1      )
                  (     1          0          0      )

 cart.    s(10) = (  0.0000000  0.0000000  1.0000000 )
                  ( -1.0000000  0.0000000  0.0000000 )
                  (  0.0000000 -1.0000000  0.0000000 )

[...]

      isym = 12     120 deg rotation - cart. axis [-1,-1,1]

[...]

      isym = 13     inv. 180 deg rotation - cart. axis [1,1,0]

[...]

      isym = 24     inv.  90 deg rotation - cart. axis [1,0,0]

 cryst.   s(24) = (    -1          0          0      )
                  (     0          0         -1      )
                  (     0          1          0      )

 cart.    s(24) = ( -1.0000000  0.0000000  0.0000000 )
                  (  0.0000000  0.0000000  1.0000000 )
                  (  0.0000000 -1.0000000  0.0000000 )

     point group T_d (-43m)
     there are  5 classes
     the character table:

       E     8C3   3C2   6S4   6s_d
A_1    1.00  1.00  1.00  1.00  1.00
A_2    1.00  1.00  1.00 -1.00 -1.00
E      2.00 -1.00  2.00  0.00  0.00
T_1    3.00  0.00 -1.00  1.00 -1.00
T_2    3.00  0.00 -1.00 -1.00  1.00

     the symmetry operations in each class and the name of the first element:

     E        1
          identity
     8C3      5    7    8    6   12    9   10   11
          120 deg rotation - cart. axis [-1,-1,-1]
     3C2      2    3    4
          180 deg rotation - cart. axis [0,0,1]
     6S4     15   16   20   19   23   24
          inv.  90 deg rotation - cart. axis [0,0,-1]
     6s_d    13   14   17   18   21   22
          inv. 180 deg rotation - cart. axis [1,1,0]

   Cartesian axes

     site n.     atom                  positions (alat units)
         1           Ga  tau(   1) = (   0.0000000   0.0000000   0.0000000  )
         2           Ga  tau(   2) = (   0.0000000   0.5000000   0.5000000  )
         3           Ga  tau(   3) = (   0.5000000   0.0000000   0.5000000  )
         4           Ga  tau(   4) = (   0.5000000   0.5000000   0.0000000  )
         5           N   tau(   5) = (   0.2500000   0.2500000   0.7500000  )
         6           N   tau(   6) = (   0.2500000   0.7500000   0.2500000  )
         7           N   tau(   7) = (   0.7500000   0.2500000   0.2500000  )
         8           N   tau(   8) = (   0.7500000   0.7500000   0.7500000  )

   Crystallographic axes

     site n.     atom                  positions (cryst. coord.)
         1           Ga  tau(   1) = (  0.0000000  0.0000000  0.0000000  )
         2           Ga  tau(   2) = (  0.0000000  0.5000000  0.5000000  )
         3           Ga  tau(   3) = (  0.5000000  0.0000000  0.5000000  )
         4           Ga  tau(   4) = (  0.5000000  0.5000000  0.0000000  )
         5           N   tau(   5) = (  0.2500000  0.2500000  0.7500000  )
         6           N   tau(   6) = (  0.2500000  0.7500000  0.2500000  )
         7           N   tau(   7) = (  0.7500000  0.2500000  0.2500000  )
         8           N   tau(   8) = (  0.7500000  0.7500000  0.7500000  )

     number of k points=    10  Gaussian smearing, width (Ry)=  0.0100
                       cart. coord. in units 2pi/alat
        k(    1) = (   0.0000000   0.0000000   0.0000000), wk =   0.0312500
        k(    2) = (   0.0000000   0.0000000   0.2500000), wk =   0.1875000
        k(    3) = (   0.0000000   0.0000000  -0.5000000), wk =   0.0937500
        k(    4) = (   0.0000000   0.2500000   0.2500000), wk =   0.3750000
        k(    5) = (   0.0000000   0.2500000  -0.5000000), wk =   0.3750000
        k(    6) = (   0.0000000  -0.5000000  -0.5000000), wk =   0.0937500
        k(    7) = (   0.2500000   0.2500000   0.2500000), wk =   0.2500000
        k(    8) = (   0.2500000   0.2500000  -0.5000000), wk =   0.3750000
        k(    9) = (   0.2500000  -0.5000000  -0.5000000), wk =   0.1875000
        k(   10) = (  -0.5000000  -0.5000000  -0.5000000), wk =   0.0312500

                       cryst. coord.
        k(    1) = (   0.0000000   0.0000000   0.0000000), wk =   0.0312500
        k(    2) = (   0.0000000   0.0000000   0.2500000), wk =   0.1875000
        k(    3) = (   0.0000000   0.0000000  -0.5000000), wk =   0.0937500
        k(    4) = (   0.0000000   0.2500000   0.2500000), wk =   0.3750000
        k(    5) = (   0.0000000   0.2500000  -0.5000000), wk =   0.3750000
        k(    6) = (   0.0000000  -0.5000000  -0.5000000), wk =   0.0937500
        k(    7) = (   0.2500000   0.2500000   0.2500000), wk =   0.2500000
        k(    8) = (   0.2500000   0.2500000  -0.5000000), wk =   0.3750000
        k(    9) = (   0.2500000  -0.5000000  -0.5000000), wk =   0.1875000
        k(   10) = (  -0.5000000  -0.5000000  -0.5000000), wk =   0.0312500

     Check: negative core charge=   -0.000003

     Initial potential from superposition of free atoms

     starting charge      71.9882, renormalised to      72.0000

     %%%%%%%%%%%%%%%%%%%%%%%%%%%%%%%%%%%%%%%%%%%%%%%%%%%%%%%%%%%%%%%%%%%%%%%%
     %                                                                      %
     % You are using vdW-DF, which was implemented by the Thonhauser group. %
     % Please cite the following two papers that made this development      %
     % possible and the two reviews that describe the various versions:     %
     %                                                                      %
     %   T. Thonhauser et al., PRL 115, 136402 (2015).                      %
     %   T. Thonhauser et al., PRB 76, 125112 (2007).                       %
     %   K. Berland et al., Rep. Prog. Phys. 78, 066501 (2015).             %
     %   D.C. Langreth et al., J. Phys.: Condens. Matter 21, 084203 (2009). %
     %                                                                      %
     % If you are calculating stress with vdW-DF, please also cite:         %
     %                                                                      %
     %   R. Sabatini et al., J. Phys.: Condens. Matter 24, 424209 (2012).   %
     %                                                                      %
     %%%%%%%%%%%%%%%%%%%%%%%%%%%%%%%%%%%%%%%%%%%%%%%%%%%%%%%%%%%%%%%%%%%%%%%%

     %%%%%%%%%%%%%%%%%%%%%%%%%%%%%%%%%%%%%%%%%%%%%%%%%%%%%%%%%%%%%%%%%%%%%%%%
     %                                                                      %
     %  vdW-DF NEWS:                                                        %
     %                                                                      %
     %  * vdW-DF3 is now available. DOI: 10.1021/acs.jctc.0c00471           %
     %    use with input_dft = 'vdW-DF3-opt1' or 'vdW-DF3-opt2'             %
     %                                                                      %
     %  * Unscreened and range-separated vdW-DF hybrid functionals          %
     %    DOI: 10.1063/1.4986522 and 10.1088/1361-648X/ac2ad2               %
     %    use with input_dft = 'vdW-DF-cx0' (etc) and 'vdW-DF-ahcx'         %
     %                                                                      %
     %%%%%%%%%%%%%%%%%%%%%%%%%%%%%%%%%%%%%%%%%%%%%%%%%%%%%%%%%%%%%%%%%%%%%%%%

     Carrying out vdW-DF run using the following parameters:
     Nqs    =  20  Npoints =  1024  r_max =  100.000
     q_mesh =  0.00001000  0.04494208  0.09755937  0.15916263
               0.23128650  0.31572767  0.41458969  0.53033537
               0.66584808  0.82450364  1.01025438  1.22772762
               1.48234092  1.78043706  2.12944203  2.53805004
               3.01644009  3.57652955  4.23227104  5.00000000

     Non-local corr. energy    =       2.06850509 Ry

     Starting wfcs are   52 randomized atomic wfcs
     Checking if some PAW data can be deallocated...

     Self-consistent Calculation

     iteration #  1     ecut=    70.00 Ry     beta= 0.70
     Davidson diagonalization with overlap

     ethr =  1.00E-02,  avg # of iterations =  3.5

[...]

     total energy              =   -1247.54859654 Ry
     estimated scf accuracy    <       2.59014724 Ry

[...]

     total energy              =   -1249.13785732 Ry
     estimated scf accuracy    <       0.00000011 Ry

     iteration # 11     ecut=    70.00 Ry     beta= 0.70
     Davidson diagonalization with overlap

     ethr =  1.57E-10,  avg # of iterations =  4.3

[...]

     End of self-consistent calculation

          k = 0.0000 0.0000 0.0000 (  6403 PWs)   bands (ev):

    -6.8150  -6.2793  -6.2793  -6.2793  -5.2389  -5.2389  -5.2389  -5.1618
    -5.1618  -5.1617  -4.9956  -4.9956  -4.9956  -4.9955  -4.9955  -4.9955
    -4.9920  -4.9920  -4.9287  -4.9287  -4.9286  -3.0070  -3.0070  -3.0070
     2.8523   2.8524   2.8524   6.2512   6.2512   6.2512   6.2513   6.2513
     6.2513   8.8210   8.8210   8.8210  10.2011  12.4169  12.4169  12.4169
    15.2497  15.2497  15.2497

     occupation numbers
     1.0000   1.0000   1.0000   1.0000   1.0000   1.0000   1.0000   1.0000
     1.0000   1.0000   1.0000   1.0000   1.0000   1.0000   1.0000   1.0000
     1.0000   1.0000   1.0000   1.0000   1.0000   1.0000   1.0000   1.0000
     1.0000   1.0000   1.0000   1.0000   1.0000   1.0000   1.0000   1.0000
     1.0000   1.0000   1.0000   1.0000   0.0000   0.0000   0.0000   0.0000
     0.0000   0.0000   0.0000

[...]

          k = 0.2500-0.5000-0.5000 (  6400 PWs)   bands (ev):

[...]

          k =-0.5000-0.5000-0.5000 (  6488 PWs)   bands (ev):

    -6.3460  -6.3460  -6.3460  -6.3460  -5.1701  -5.1701  -5.1701  -5.1701
    -5.1701  -5.1700  -5.1700  -5.1700  -4.9509  -4.9509  -4.9507  -4.9507
    -4.9507  -4.9507  -4.9507  -4.9507  -3.4972  -3.4972  -3.4972  -3.4972
     2.1020   2.1020   2.1021   2.1021   7.8816   7.8816   7.8816   7.8816
     7.8816   7.8816   7.8816   7.8816  13.1087  13.1087  13.1087  13.1087
    17.4670  17.4670  17.4670

     occupation numbers
     1.0000   1.0000   1.0000   1.0000   1.0000   1.0000   1.0000   1.0000
     1.0000   1.0000   1.0000   1.0000   1.0000   1.0000   1.0000   1.0000
     1.0000   1.0000   1.0000   1.0000   1.0000   1.0000   1.0000   1.0000
     1.0000   1.0000   1.0000   1.0000   1.0000   1.0000   1.0000   1.0000
     1.0000   1.0000   1.0000   1.0000   0.0000   0.0000   0.0000   0.0000
     0.0000   0.0000   0.0000

     the Fermi energy is     9.5452 ev

!    total energy              =   -1249.13785735 Ry
     total all-electron energy =    -16014.991694 Ry
     estimated scf accuracy    <          9.4E-09 Ry
     smearing contrib. (-TS)   =      -0.00000000 Ry
     internal energy E=F+TS    =   -1249.13785735 Ry

     The total energy is F=E-TS. E is the sum of the following terms:
     one-electron contribution =    -373.50503735 Ry
     hartree contribution      =     262.56034341 Ry
     xc contribution           =    -182.02950152 Ry
     ewald contribution        =    -459.13027364 Ry
     one-center paw contrib.   =    -497.03338825 Ry
      -> PAW hartree energy AE =     144.85877646 Ry
      -> PAW hartree energy PS =    -143.45120183 Ry
      -> PAW xc energy AE      =    -156.96272613 Ry
      -> PAW xc energy PS      =      39.75105353 Ry
      -> total E_H with PAW    =     263.96791804 Ry
      -> total E_XC with PAW   =    -299.24117412 Ry

     convergence has been achieved in  11 iterations

[...]

     Forces acting on atoms (cartesian axes, Ry/au):

     atom    1 type  1   force =     0.00000000    0.00000000    0.00000000
     atom    2 type  1   force =     0.00000000    0.00000000    0.00000000
     atom    3 type  1   force =     0.00000000    0.00000000    0.00000000
     atom    4 type  1   force =     0.00000000    0.00000000    0.00000000
     atom    5 type  2   force =    -0.00000100   -0.00000100    0.00000100
     atom    6 type  2   force =    -0.00000100    0.00000100   -0.00000100
     atom    7 type  2   force =     0.00000100   -0.00000100   -0.00000100
     atom    8 type  2   force =     0.00000100    0.00000100    0.00000100
     The non-local contrib.  to forces
     atom    1 type  1   force =     0.00000000    0.00000000    0.00000000
     atom    2 type  1   force =     0.00000000    0.00000000    0.00000000
     atom    3 type  1   force =     0.00000000    0.00000000    0.00000000
     atom    4 type  1   force =     0.00000000    0.00000000    0.00000000
     atom    5 type  2   force =    -0.00000222   -0.00000222    0.00000222
     atom    6 type  2   force =    -0.00000222    0.00000222   -0.00000222
     atom    7 type  2   force =     0.00000222   -0.00000222   -0.00000222
     atom    8 type  2   force =     0.00000222    0.00000222    0.00000222
     The ionic contribution  to forces
     atom    1 type  1   force =    -0.00000025   -0.00000025   -0.00000025
     atom    2 type  1   force =    -0.00000025    0.00000019    0.00000019
     atom    3 type  1   force =     0.00000019   -0.00000025    0.00000019
     atom    4 type  1   force =     0.00000019    0.00000019   -0.00000025
     atom    5 type  2   force =     0.00000106    0.00000106   -0.00000099
     atom    6 type  2   force =     0.00000106   -0.00000099    0.00000106
     atom    7 type  2   force =    -0.00000099    0.00000106    0.00000106
     atom    8 type  2   force =    -0.00000099   -0.00000099   -0.00000099
     The local contribution  to forces
     atom    1 type  1   force =     0.00000000    0.00000000   -0.00000000
     atom    2 type  1   force =     0.00000000    0.00000378    0.00000378
     atom    3 type  1   force =     0.00000378   -0.00000000    0.00000378
     atom    4 type  1   force =     0.00000378    0.00000378   -0.00000000
     atom    5 type  2   force =    -0.00000798   -0.00000798    0.00000859
     atom    6 type  2   force =    -0.00000798    0.00000859   -0.00000798
     atom    7 type  2   force =     0.00000859   -0.00000798   -0.00000798
     atom    8 type  2   force =     0.00000859    0.00000859    0.00000859
     The core correction contribution to forces
     atom    1 type  1   force =     0.00000000    0.00000000    0.00000000
     atom    2 type  1   force =     0.00000000    0.00000028    0.00000028
     atom    3 type  1   force =     0.00000028    0.00000000    0.00000028
     atom    4 type  1   force =     0.00000028    0.00000028    0.00000000
     atom    5 type  2   force =     0.00000001    0.00000001   -0.00000003
     atom    6 type  2   force =     0.00000001   -0.00000003    0.00000001
     atom    7 type  2   force =    -0.00000003    0.00000001    0.00000001
     atom    8 type  2   force =    -0.00000003   -0.00000003   -0.00000003
     The Hubbard contrib.    to forces
     atom    1 type  1   force =     0.00000000    0.00000000    0.00000000
     atom    2 type  1   force =     0.00000000    0.00000000    0.00000000
     atom    3 type  1   force =     0.00000000    0.00000000    0.00000000
     atom    4 type  1   force =     0.00000000    0.00000000    0.00000000
     atom    5 type  2   force =     0.00000000    0.00000000    0.00000000
     atom    6 type  2   force =     0.00000000    0.00000000    0.00000000
     atom    7 type  2   force =     0.00000000    0.00000000    0.00000000
     atom    8 type  2   force =     0.00000000    0.00000000    0.00000000
     The SCF correction term to forces
     atom    1 type  1   force =    -0.00000000   -0.00000000   -0.00000000
     atom    2 type  1   force =    -0.00000000    0.00000000    0.00000000
     atom    3 type  1   force =     0.00000000   -0.00000000    0.00000000
     atom    4 type  1   force =     0.00000000    0.00000000   -0.00000000
     atom    5 type  2   force =     0.00000846    0.00000846   -0.00000846
     atom    6 type  2   force =     0.00000846   -0.00000846    0.00000846
     atom    7 type  2   force =    -0.00000846    0.00000846    0.00000846
     atom    8 type  2   force =    -0.00000846   -0.00000846   -0.00000846

     Total force =     0.000003     Total SCF correction =     0.000029
     SCF correction compared to forces is large: reduce conv_thr to get better values

     Computing stress (Cartesian axis) and pressure

     Non-local corr. energy    =       2.17902926 Ry

          total   stress  (Ry/bohr**3)                   (kbar)     P=        1.50
   0.00001020   0.00000000   0.00000000            1.50        0.00        0.00
   0.00000000   0.00001020   0.00000000            0.00        1.50        0.00
   0.00000000   0.00000000   0.00001020            0.00        0.00        1.50

     kinetic stress (kbar)  18493.95      0.00      0.00
                                0.00  18493.95      0.00
                                0.00      0.00  18493.95

     local   stress (kbar)   5039.37      0.00      0.00
                                0.00   5039.37      0.00
                                0.00      0.00   5039.37

     nonloc. stress (kbar)     79.16      0.00      0.00
                                0.00     79.16      0.00
                                0.00      0.00     79.16

     hartree stress (kbar)  19841.66      0.00     -0.00
                                0.00  19841.66      0.00
                               -0.00      0.00  19841.66

     exc-cor stress (kbar)   5232.20     -0.00     -0.00
                               -0.00   5232.20     -0.00
                               -0.00     -0.00   5232.20

     corecor stress (kbar) -14150.56      0.00      0.00
                                0.00 -14150.56      0.00
                                0.00      0.00 -14150.56

     ewald   stress (kbar) -34696.42     -0.00     -0.00
                               -0.00 -34696.42     -0.00
                               -0.00     -0.00 -34696.42

     hubbard stress (kbar)      0.00      0.00      0.00
                                0.00      0.00      0.00
                                0.00      0.00      0.00

     DFT-D   stress (kbar)      0.00      0.00      0.00
                                0.00      0.00      0.00
                                0.00      0.00      0.00

     XDM     stress (kbar)      0.00      0.00      0.00
                                0.00      0.00      0.00
                                0.00      0.00      0.00

     dft-nl  stress (kbar)    162.15     -0.00     -0.00
                               -0.00    162.15     -0.00
                               -0.00     -0.00    162.15

     TS-vdW  stress (kbar)      0.00      0.00      0.00
                                0.00      0.00      0.00
                                0.00      0.00      0.00

     MDB     stress (kbar)      0.00      0.00      0.00
                                0.00      0.00      0.00
                                0.00      0.00      0.00

     3D-RISM stress (kbar)      0.00      0.00      0.00
                                0.00      0.00      0.00
                                0.00      0.00      0.00

     BFGS Geometry Optimization
     Energy error            =      0.0E+00 Ry
     Gradient error          =      1.0E-06 Ry/Bohr

     bfgs converged in   1 scf cycles and   0 bfgs steps
     (criteria: energy <  1.0E-04 Ry, force <  1.0E-03 Ry/Bohr)

     End of BFGS Geometry Optimization

     Final energy             =   -1249.1378573504 Ry
Begin final coordinates

ATOMIC_POSITIONS (angstrom)
Ga            0.0000000000        0.0000000000        0.0000000000
Ga            0.0000000000        2.2906408776        2.2906408776
Ga            2.2906408776        0.0000000000        2.2906408776
Ga            2.2906408776        2.2906408776        0.0000000000
N             1.1453203427        1.1453203427        3.4359614126
N             1.1453203427        3.4359614126        1.1453203427
N             3.4359614126        1.1453203427        1.1453203427
N             3.4359614126        3.4359614126        3.4359614126
End final coordinates

     Writing all to output data dir ./PbI2.save/

     General routines

     Parallel routines

     PAW routines

   This run was terminated on:   8:30:58  21Feb2024

   JOB DONE.