     Program PWSCF v.7.1 starts on 21Feb2024 at  8:45:33

     Reading input from espresso.pwi
Warning: card &CELL ignored
Warning: card    CELL_DYNAMICS    = 'BFGS' ignored
Warning: card / ignored

     Current dimensions of program PWSCF are:
     Max number of different atomic species (ntypx) = 10
     Max number of k-points (npk) =  40000
     Max angular momentum in pseudopotentials (lmaxx) =  4
     file Ga.pbe-dn-kjpaw_psl.1.0.0.UPF: wavefunction(s)  4S renormalized
     file N.pbe-n-kjpaw_psl.1.0.0.UPF: wavefunction(s)  2S renormalized

     IMPORTANT: XC functional enforced from input :
     Exchange-correlation= BEEF-VDW
                           (   1   4  43  14   2   0   0)
     Any further DFT definition will be discarded
     Please, verify this is what you really want

     Found identity + (  0.0000  0.5000  0.5000) symmetry
     This is a supercell, fractional translations are disabled

     K-points division:     npool     =       8
     R & G space division:  proc/nbgrp/npool/nimage =      16
     Subspace diagonalization in iterative solution of the eigenvalue problem:
     a serial algorithm will be used

     Using Slab Decomposition

     bravais-lattice index     =            1
     lattice parameter (alat)  =       8.6574  a.u.
     unit-cell volume          =     648.8699 (a.u.)^3
     number of atoms/cell      =            8
     number of atomic types    =            2
     number of electrons       =        72.00
     number of Kohn-Sham states=           43
     kinetic-energy cutoff     =      70.0000  Ry
     charge density cutoff     =     350.0000  Ry
     scf convergence threshold =      1.0E-07
     mixing beta               =       0.7000
     number of iterations used =            8  plain     mixing
     Exchange-correlation= BEEF-VDW
                           (   1   4  43  14   2   0   0)

     celldm(1)=   8.657368  celldm(2)=   0.000000  celldm(3)=   0.000000
     celldm(4)=   0.000000  celldm(5)=   0.000000  celldm(6)=   0.000000

     crystal axes: (cart. coord. in units of alat)
               a(1) = (   1.000000   0.000000   0.000000 )
               a(2) = (   0.000000   1.000000   0.000000 )
               a(3) = (   0.000000   0.000000   1.000000 )

     reciprocal axes: (cart. coord. in units 2 pi/alat)
               b(1) = (  1.000000  0.000000  0.000000 )
               b(2) = (  0.000000  1.000000  0.000000 )
               b(3) = (  0.000000  0.000000  1.000000 )

     PseudoPot. # 1 for Ga read from file:
     /trace/group/acmegroup/atimmins/packages/espresso/pseudo/psl_1.0.0/pslibrary.1.0.0/pbe/PSEUDOPOTENTIALS/Ga.pbe-dn-kjpaw_psl.1.0.0.UPF
     MD5 check sum: cd2a01e492f15b435d17032472d8505c
     Pseudo is Projector augmented-wave + core cor, Zval = 13.0
     Generated using 'atomic' code by A. Dal Corso  v.7.1
     Shape of augmentation charge: PSQ
     Using radial grid of 1205 points,  6 beta functions with:
                l(1) =   0
                l(2) =   0
                l(3) =   1
                l(4) =   1
                l(5) =   2
                l(6) =   2
     Q(r) pseudized with 0 coefficients

     PseudoPot. # 2 for N  read from file:
     /trace/group/acmegroup/atimmins/packages/espresso/pseudo/psl_1.0.0/pslibrary.1.0.0/pbe/PSEUDOPOTENTIALS/N.pbe-n-kjpaw_psl.1.0.0.UPF
     MD5 check sum: f77f775694dac7e2c3fe1c82443d1a16
     Pseudo is Projector augmented-wave + core cor, Zval =  5.0
     Generated using 'atomic' code by A. Dal Corso  v.7.1
     Shape of augmentation charge: PSQ
     Using radial grid of 1085 points,  4 beta functions with:
                l(1) =   0
                l(2) =   0
                l(3) =   1
                l(4) =   1
     Q(r) pseudized with 0 coefficients

     atomic species   valence    mass     pseudopotential
        Ga            13.00    69.72300     Ga( 1.00)
        N              5.00    14.00700     N ( 1.00)

     24 Sym. Ops. (no inversion) found

                                    s                        frac. trans.

      isym =  1     identity

 cryst.   s( 1) = (     1          0          0      )
                  (     0          1          0      )
                  (     0          0          1      )

 cart.    s( 1) = (  1.0000000  0.0000000  0.0000000 )
                  (  0.0000000  1.0000000  0.0000000 )
                  (  0.0000000  0.0000000  1.0000000 )

      isym =  2     180 deg rotation - cart. axis [0,0,1]

[...]

 cryst.   s( 9) = (     0          1          0      )
                  (     0          0          1      )
                  (     1          0          0      )

 cart.    s( 9) = (  0.0000000  0.0000000  1.0000000 )
                  (  1.0000000  0.0000000  0.0000000 )
                  (  0.0000000  1.0000000  0.0000000 )

[...]

 cryst.   s(10) = (     0         -1          0      )
                  (     0          0         -1      )
                  (     1          0          0      )

 cart.    s(10) = (  0.0000000  0.0000000  1.0000000 )
                  ( -1.0000000  0.0000000  0.0000000 )
                  (  0.0000000 -1.0000000  0.0000000 )

[...]

      isym = 12     120 deg rotation - cart. axis [-1,-1,1]

[...]

      isym = 13     inv. 180 deg rotation - cart. axis [1,1,0]

[...]

      isym = 24     inv.  90 deg rotation - cart. axis [1,0,0]

 cryst.   s(24) = (    -1          0          0      )
                  (     0          0         -1      )
                  (     0          1          0      )

 cart.    s(24) = ( -1.0000000  0.0000000  0.0000000 )
                  (  0.0000000  0.0000000  1.0000000 )
                  (  0.0000000 -1.0000000  0.0000000 )

     point group T_d (-43m)
     there are  5 classes
     the character table:

       E     8C3   3C2   6S4   6s_d
A_1    1.00  1.00  1.00  1.00  1.00
A_2    1.00  1.00  1.00 -1.00 -1.00
E      2.00 -1.00  2.00  0.00  0.00
T_1    3.00  0.00 -1.00  1.00 -1.00
T_2    3.00  0.00 -1.00 -1.00  1.00

     the symmetry operations in each class and the name of the first element:

     E        1
          identity
     8C3      5    7    8    6   12    9   10   11
          120 deg rotation - cart. axis [-1,-1,-1]
     3C2      2    3    4
          180 deg rotation - cart. axis [0,0,1]
     6S4     15   16   20   19   23   24
          inv.  90 deg rotation - cart. axis [0,0,-1]
     6s_d    13   14   17   18   21   22
          inv. 180 deg rotation - cart. axis [1,1,0]

   Cartesian axes

     site n.     atom                  positions (alat units)
         1           Ga  tau(   1) = (   0.0000000   0.0000000   0.0000000  )
         2           Ga  tau(   2) = (   0.0000000   0.5000000   0.5000000  )
         3           Ga  tau(   3) = (   0.5000000   0.0000000   0.5000000  )
         4           Ga  tau(   4) = (   0.5000000   0.5000000   0.0000000  )
         5           N   tau(   5) = (   0.2500000   0.2500000   0.7500000  )
         6           N   tau(   6) = (   0.2500000   0.7500000   0.2500000  )
         7           N   tau(   7) = (   0.7500000   0.2500000   0.2500000  )
         8           N   tau(   8) = (   0.7500000   0.7500000   0.7500000  )

   Crystallographic axes

     site n.     atom                  positions (cryst. coord.)
         1           Ga  tau(   1) = (  0.0000000  0.0000000  0.0000000  )
         2           Ga  tau(   2) = (  0.0000000  0.5000000  0.5000000  )
         3           Ga  tau(   3) = (  0.5000000  0.0000000  0.5000000  )
         4           Ga  tau(   4) = (  0.5000000  0.5000000  0.0000000  )
         5           N   tau(   5) = (  0.2500000  0.2500000  0.7500000  )
         6           N   tau(   6) = (  0.2500000  0.7500000  0.2500000  )
         7           N   tau(   7) = (  0.7500000  0.2500000  0.2500000  )
         8           N   tau(   8) = (  0.7500000  0.7500000  0.7500000  )

     number of k points=    10  Gaussian smearing, width (Ry)=  0.0100
                       cart. coord. in units 2pi/alat
        k(    1) = (   0.0000000   0.0000000   0.0000000), wk =   0.0312500
        k(    2) = (   0.0000000   0.0000000   0.2500000), wk =   0.1875000
        k(    3) = (   0.0000000   0.0000000  -0.5000000), wk =   0.0937500
        k(    4) = (   0.0000000   0.2500000   0.2500000), wk =   0.3750000
        k(    5) = (   0.0000000   0.2500000  -0.5000000), wk =   0.3750000
        k(    6) = (   0.0000000  -0.5000000  -0.5000000), wk =   0.0937500
        k(    7) = (   0.2500000   0.2500000   0.2500000), wk =   0.2500000
        k(    8) = (   0.2500000   0.2500000  -0.5000000), wk =   0.3750000
        k(    9) = (   0.2500000  -0.5000000  -0.5000000), wk =   0.1875000
        k(   10) = (  -0.5000000  -0.5000000  -0.5000000), wk =   0.0312500

                       cryst. coord.
        k(    1) = (   0.0000000   0.0000000   0.0000000), wk =   0.0312500
        k(    2) = (   0.0000000   0.0000000   0.2500000), wk =   0.1875000
        k(    3) = (   0.0000000   0.0000000  -0.5000000), wk =   0.0937500
        k(    4) = (   0.0000000   0.2500000   0.2500000), wk =   0.3750000
        k(    5) = (   0.0000000   0.2500000  -0.5000000), wk =   0.3750000
        k(    6) = (   0.0000000  -0.5000000  -0.5000000), wk =   0.0937500
        k(    7) = (   0.2500000   0.2500000   0.2500000), wk =   0.2500000
        k(    8) = (   0.2500000   0.2500000  -0.5000000), wk =   0.3750000
        k(    9) = (   0.2500000  -0.5000000  -0.5000000), wk =   0.1875000
        k(   10) = (  -0.5000000  -0.5000000  -0.5000000), wk =   0.0312500

     Atomic positions and unit cell read from directory:
     ./PbI2.save/

     Check: negative core charge=   -0.000003

     The initial density is read from file :
     ./PbI2.save/charge-density

     %%%%%%%%%%%%%%%%%%%%%%%%%%%%%%%%%%%%%%%%%%%%%%%%%%%%%%%%%%%%%%%%%%%%%%%%
     %                                                                      %
     % You are using vdW-DF, which was implemented by the Thonhauser group. %
     % Please cite the following two papers that made this development      %
     % possible and the two reviews that describe the various versions:     %
     %                                                                      %
     %   T. Thonhauser et al., PRL 115, 136402 (2015).                      %
     %   T. Thonhauser et al., PRB 76, 125112 (2007).                       %
     %   K. Berland et al., Rep. Prog. Phys. 78, 066501 (2015).             %
     %   D.C. Langreth et al., J. Phys.: Condens. Matter 21, 084203 (2009). %
     %                                                                      %
     % If you are calculating stress with vdW-DF, please also cite:         %
     %                                                                      %
     %   R. Sabatini et al., J. Phys.: Condens. Matter 24, 424209 (2012).   %
     %                                                                      %
     %%%%%%%%%%%%%%%%%%%%%%%%%%%%%%%%%%%%%%%%%%%%%%%%%%%%%%%%%%%%%%%%%%%%%%%%

     %%%%%%%%%%%%%%%%%%%%%%%%%%%%%%%%%%%%%%%%%%%%%%%%%%%%%%%%%%%%%%%%%%%%%%%%
     %                                                                      %
     %  vdW-DF NEWS:                                                        %
     %                                                                      %
     %  * vdW-DF3 is now available. DOI: 10.1021/acs.jctc.0c00471           %
     %    use with input_dft = 'vdW-DF3-opt1' or 'vdW-DF3-opt2'             %
     %                                                                      %
     %  * Unscreened and range-separated vdW-DF hybrid functionals          %
     %    DOI: 10.1063/1.4986522 and 10.1088/1361-648X/ac2ad2               %
     %    use with input_dft = 'vdW-DF-cx0' (etc) and 'vdW-DF-ahcx'         %
     %                                                                      %
     %%%%%%%%%%%%%%%%%%%%%%%%%%%%%%%%%%%%%%%%%%%%%%%%%%%%%%%%%%%%%%%%%%%%%%%%

     Carrying out vdW-DF run using the following parameters:
     Nqs    =  20  Npoints =  1024  r_max =  100.000
     q_mesh =  0.00001000  0.04494208  0.09755937  0.15916263
               0.23128650  0.31572767  0.41458969  0.53033537
               0.66584808  0.82450364  1.01025438  1.22772762
               1.48234092  1.78043706  2.12944203  2.53805004
               3.01644009  3.57652955  4.23227104  5.00000000

     Non-local corr. energy    =       2.17902926 Ry

     Starting wfcs from file
     Checking if some PAW data can be deallocated...

     Self-consistent Calculation

     iteration #  1     ecut=    70.00 Ry     beta= 0.70
     Davidson diagonalization with overlap

     ethr =  1.00E-05,  avg # of iterations =  1.3

     Threshold (ethr) on eigenvalues was too large:
     Diagonalizing with lowered threshold

     Davidson diagonalization with overlap

     ethr =  1.51E-11,  avg # of iterations =  4.3

[...]

     End of self-consistent calculation

          k = 0.0000 0.0000 0.0000 (  6403 PWs)   bands (ev):

    -6.8148  -6.2796  -6.2796  -6.2796  -5.2396  -5.2396  -5.2396  -5.1625
    -5.1624  -5.1624  -4.9963  -4.9963  -4.9963  -4.9962  -4.9962  -4.9962
    -4.9927  -4.9927  -4.9294  -4.9294  -4.9294  -3.0071  -3.0071  -3.0071
     2.8524   2.8524   2.8524   6.2514   6.2514   6.2514   6.2514   6.2514
     6.2514   8.8212   8.8212   8.8212  10.2011  12.4169  12.4169  12.4169
    15.2497  15.2497  15.2498

     occupation numbers
     1.0000   1.0000   1.0000   1.0000   1.0000   1.0000   1.0000   1.0000
     1.0000   1.0000   1.0000   1.0000   1.0000   1.0000   1.0000   1.0000
     1.0000   1.0000   1.0000   1.0000   1.0000   1.0000   1.0000   1.0000
     1.0000   1.0000   1.0000   1.0000   1.0000   1.0000   1.0000   1.0000
     1.0000   1.0000   1.0000   1.0000   0.0000   0.0000   0.0000   0.0000
     0.0000   0.0000   0.0000

[...]

          k = 0.2500-0.5000-0.5000 (  6400 PWs)   bands (ev):

[...]

          k =-0.5000-0.5000-0.5000 (  6488 PWs)   bands (ev):

    -6.3463  -6.3462  -6.3462  -6.3462  -5.1708  -5.1708  -5.1708  -5.1707
    -5.1707  -5.1707  -5.1707  -5.1707  -4.9515  -4.9515  -4.9515  -4.9515
    -4.9515  -4.9515  -4.9513  -4.9513  -3.4975  -3.4975  -3.4975  -3.4975
     2.1021   2.1021   2.1021   2.1021   7.8818   7.8818   7.8818   7.8818
     7.8818   7.8818   7.8818   7.8818  13.1087  13.1087  13.1087  13.1087
    17.4672  17.4672  17.4672

     occupation numbers
     1.0000   1.0000   1.0000   1.0000   1.0000   1.0000   1.0000   1.0000
     1.0000   1.0000   1.0000   1.0000   1.0000   1.0000   1.0000   1.0000
     1.0000   1.0000   1.0000   1.0000   1.0000   1.0000   1.0000   1.0000
     1.0000   1.0000   1.0000   1.0000   1.0000   1.0000   1.0000   1.0000
     1.0000   1.0000   1.0000   1.0000   0.0000   0.0000   0.0000   0.0000
     0.0000   0.0000   0.0000

     the Fermi energy is     9.5454 ev

!    total energy              =   -1249.13785744 Ry
     total all-electron energy =    -16014.991695 Ry
     estimated scf accuracy    <       0.00000004 Ry
     smearing contrib. (-TS)   =      -0.00000000 Ry
     internal energy E=F+TS    =   -1249.13785744 Ry

     The total energy is F=E-TS. E is the sum of the following terms:
     one-electron contribution =    -373.50758819 Ry
     hartree contribution      =     262.56427907 Ry
     xc contribution           =    -182.03005189 Ry
     ewald contribution        =    -459.13027364 Ry
     one-center paw contrib.   =    -497.03422280 Ry
      -> PAW hartree energy AE =     144.85973997 Ry
      -> PAW hartree energy PS =    -143.45236741 Ry
      -> PAW xc energy AE      =    -156.96290935 Ry
      -> PAW xc energy PS      =      39.75124446 Ry
      -> total E_H with PAW    =     263.97165163 Ry
      -> total E_XC with PAW   =    -299.24171679 Ry

     convergence has been achieved in   1 iterations

[...]

     Forces acting on atoms (cartesian axes, Ry/au):

     atom    1 type  1   force =     0.00000000    0.00000000    0.00000000
     atom    2 type  1   force =     0.00000000    0.00000000    0.00000000
     atom    3 type  1   force =     0.00000000    0.00000000    0.00000000
     atom    4 type  1   force =     0.00000000    0.00000000    0.00000000
     atom    5 type  2   force =     0.00000140    0.00000140   -0.00000140
     atom    6 type  2   force =     0.00000140   -0.00000140    0.00000140
     atom    7 type  2   force =    -0.00000140    0.00000140    0.00000140
     atom    8 type  2   force =    -0.00000140   -0.00000140   -0.00000140
     The non-local contrib.  to forces
     atom    1 type  1   force =     0.00000000    0.00000000    0.00000000
     atom    2 type  1   force =     0.00000000    0.00000000    0.00000000
     atom    3 type  1   force =     0.00000000    0.00000000    0.00000000
     atom    4 type  1   force =     0.00000000    0.00000000    0.00000000
     atom    5 type  2   force =     0.00000424    0.00000424   -0.00000424
     atom    6 type  2   force =     0.00000424   -0.00000424    0.00000424
     atom    7 type  2   force =    -0.00000424    0.00000424    0.00000424
     atom    8 type  2   force =    -0.00000424   -0.00000424   -0.00000424
     The ionic contribution  to forces
     atom    1 type  1   force =    -0.00000025   -0.00000025   -0.00000025
     atom    2 type  1   force =    -0.00000025    0.00000019    0.00000019
     atom    3 type  1   force =     0.00000019   -0.00000025    0.00000019
     atom    4 type  1   force =     0.00000019    0.00000019   -0.00000025
     atom    5 type  2   force =     0.00000106    0.00000106   -0.00000099
     atom    6 type  2   force =     0.00000106   -0.00000099    0.00000106
     atom    7 type  2   force =    -0.00000099    0.00000106    0.00000106
     atom    8 type  2   force =    -0.00000099   -0.00000099   -0.00000099
     The local contribution  to forces
     atom    1 type  1   force =     0.00000000    0.00000000    0.00000000
     atom    2 type  1   force =    -0.00000000    0.00000378    0.00000378
     atom    3 type  1   force =     0.00000378    0.00000000    0.00000378
     atom    4 type  1   force =     0.00000378    0.00000378   -0.00000000
     atom    5 type  2   force =     0.00001119    0.00001119   -0.00001058
     atom    6 type  2   force =     0.00001119   -0.00001058    0.00001119
     atom    7 type  2   force =    -0.00001058    0.00001119    0.00001119
     atom    8 type  2   force =    -0.00001058   -0.00001058   -0.00001058
     The core correction contribution to forces
     atom    1 type  1   force =     0.00000000    0.00000000    0.00000000
     atom    2 type  1   force =     0.00000000    0.00000028    0.00000028
     atom    3 type  1   force =     0.00000028    0.00000000    0.00000028
     atom    4 type  1   force =     0.00000028    0.00000028    0.00000000
     atom    5 type  2   force =    -0.00000006   -0.00000006    0.00000004
     atom    6 type  2   force =    -0.00000006    0.00000004   -0.00000006
     atom    7 type  2   force =     0.00000004   -0.00000006   -0.00000006
     atom    8 type  2   force =     0.00000004    0.00000004    0.00000004
     The Hubbard contrib.    to forces
     atom    1 type  1   force =     0.00000000    0.00000000    0.00000000
     atom    2 type  1   force =     0.00000000    0.00000000    0.00000000
     atom    3 type  1   force =     0.00000000    0.00000000    0.00000000
     atom    4 type  1   force =     0.00000000    0.00000000    0.00000000
     atom    5 type  2   force =     0.00000000    0.00000000    0.00000000
     atom    6 type  2   force =     0.00000000    0.00000000    0.00000000
     atom    7 type  2   force =     0.00000000    0.00000000    0.00000000
     atom    8 type  2   force =     0.00000000    0.00000000    0.00000000
     The SCF correction term to forces
     atom    1 type  1   force =     0.00000000   -0.00000000    0.00000000
     atom    2 type  1   force =    -0.00000000   -0.00000000   -0.00000000
     atom    3 type  1   force =    -0.00000000   -0.00000000   -0.00000000
     atom    4 type  1   force =    -0.00000000   -0.00000000    0.00000000
     atom    5 type  2   force =    -0.00001470   -0.00001470    0.00001470
     atom    6 type  2   force =    -0.00001470    0.00001470   -0.00001470
     atom    7 type  2   force =     0.00001470   -0.00001470   -0.00001470
     atom    8 type  2   force =     0.00001470    0.00001470    0.00001470

     Total force =     0.000005     Total SCF correction =     0.000051
     SCF correction compared to forces is large: reduce conv_thr to get better values

     Computing stress (Cartesian axis) and pressure

[...]

          total   stress  (Ry/bohr**3)                   (kbar)     P=        1.29
   0.00000876   0.00000000   0.00000000            1.29        0.00        0.00
   0.00000000   0.00000876   0.00000000            0.00        1.29        0.00
   0.00000000   0.00000000   0.00000876            0.00        0.00        1.29

     kinetic stress (kbar)  18494.55      0.00      0.00
                                0.00  18494.55      0.00
                                0.00      0.00  18494.55

     local   stress (kbar)   5039.56      0.00      0.00
                                0.00   5039.56      0.00
                                0.00      0.00   5039.56

     nonloc. stress (kbar)     77.87      0.00      0.00
                                0.00     77.87      0.00
                                0.00      0.00     77.87

     hartree stress (kbar)  19841.95      0.00     -0.00
                                0.00  19841.95     -0.00
                               -0.00     -0.00  19841.95

     exc-cor stress (kbar)   5232.18     -0.00     -0.00
                               -0.00   5232.18     -0.00
                               -0.00     -0.00   5232.18

     corecor stress (kbar) -14150.55      0.00      0.00
                                0.00 -14150.55      0.00
                                0.00      0.00 -14150.55

     ewald   stress (kbar) -34696.42     -0.00     -0.00
                               -0.00 -34696.42     -0.00
                               -0.00     -0.00 -34696.42

     hubbard stress (kbar)      0.00      0.00      0.00
                                0.00      0.00      0.00
                                0.00      0.00      0.00

     DFT-D   stress (kbar)      0.00      0.00      0.00
                                0.00      0.00      0.00
                                0.00      0.00      0.00

     XDM     stress (kbar)      0.00      0.00      0.00
                                0.00      0.00      0.00
                                0.00      0.00      0.00

     dft-nl  stress (kbar)    162.15     -0.00     -0.00
                               -0.00    162.15     -0.00
                               -0.00     -0.00    162.15

     TS-vdW  stress (kbar)      0.00      0.00      0.00
                                0.00      0.00      0.00
                                0.00      0.00      0.00

     MDB     stress (kbar)      0.00      0.00      0.00
                                0.00      0.00      0.00
                                0.00      0.00      0.00

     3D-RISM stress (kbar)      0.00      0.00      0.00
                                0.00      0.00      0.00
                                0.00      0.00      0.00

[...]

     Non-local corr. energy    =       2.17905519 Ry

 BEEFens 2000 ensemble energies
             -0.176128500825072E+01
             -0.158290835543616E+02
             -0.678689733486629E+01
              0.557569480348422E+01
             -0.113654400848513E+02
             -0.146429847125253E+02
              0.752772666988221E+01
             -0.817706317915459E+00
              0.125233741610953E+02
             -0.532901423519995E+00
              0.613611883200894E+01
              0.251101977177385E+00
              0.263409010059561E+00
             -0.554211097342687E+00
              0.820118509424932E+01
             -0.597583944390150E+01
             -0.123327688392827E+02
             -0.401719463496750E+01
              0.300146153860542E+01
             -0.267113766634452E+00
              0.179646055479562E+02
              0.152979796501955E+02
             -0.874419444422520E+01
              0.318210733743403E+01
             -0.192021681699549E+02
              0.153914476804754E+02
              0.502694601687553E+01
              0.149841801197309E+02
              0.984047842427393E+01
             -0.480533245280341E+01
              0.362786364804762E+01
             -0.709878482771054E+01
              0.195181118626857E+01
              0.961038621299512E+01
              0.102064295936773E+02
             -0.366391671063249E+01
              0.226659902359453E+02
             -0.859382873468697E+01
             -0.619198146263324E+01
              0.908128108886964E+01
              0.405445566240599E+01
              0.680683533943611E+01
             -0.129521171407411E+02
             -0.359295183923535E+00
              0.127321633611156E+02
              0.165338135461700E+02
             -0.164314761081792E+02
              0.117039116031441E+01
              0.619998305195689E+01
              0.299936234517698E+01
              0.688593348118723E+01
              0.145692065959687E+02
             -0.881206759193149E+01
             -0.967835551472032E+01
             -0.125621142598393E+02
             -0.195987742223588E+01
             -0.114626747996495E+02
              0.110885750380584E+01
             -0.213284234386624E+01
             -0.894179355382994E+01
[...]
              0.111652689305501E+02
              0.613308771104362E+01
              0.784550261749433E+01
             -0.126336968763999E+02
             -0.120571092784761E+02
             -0.306623155765181E+01
             -0.118469592258831E+02
              0.189915858632530E+02
              0.162812341003035E+02
              0.777717232574104E+01
              0.210472012249237E+02
             -0.109623518458291E+02
             -0.447135736273750E+01
             -0.619685793379004E+01
              0.173865735882955E+02

 BEEF-vdW xc energy contributions
            1 :    -159.4975032378863
            2 :     143.6025417143835
            3 :    -116.9657658781353
            4 :     87.37702613054907
            5 :    -61.70114652612841
            6 :     43.26813702024046
            7 :    -31.49100791356241
            8 :     23.54658776147525
            9 :    -16.76688726108651
           10 :     10.18850004873039
           11 :    -4.514718278516483
           12 :    0.9065492517170526
           13 :    0.2849433798494658
           14 :    9.2417782612244537E-002
           15 :   -0.6191354166593612
           16 :    0.3137983656417020
           17 :    0.8002627057983602
           18 :    -1.948286717365477
           19 :     2.380616109074424
           20 :    -2.010834650604096
           21 :     1.438274267470945
           22 :    -1.409024169208152
           23 :     2.201960226710810
           24 :    -3.435160024866320
           25 :     4.408196225257626
           26 :    -4.661088327783403
           27 :     4.287696465965723
           28 :    -3.777523171145873
           29 :     3.556594516856478
           30 :    -3.627147445063741
           31 :    -13.68542293564334
           32 :    -9.366805893877654

     Writing all to output data dir ./PbI2.save/

     General routines

     Parallel routines

     PAW routines

   This run was terminated on:   8:45:40  21Feb2024

   JOB DONE.