     Program PWSCF v.7.1 starts on 17Feb2024 at 13: 3:28

     Reading input from espresso.pwi
Warning: card &CELL ignored
Warning: card    CELL_DYNAMICS    = 'BFGS' ignored
Warning: card / ignored

     Current dimensions of program PWSCF are:
     Max number of different atomic species (ntypx) = 10
     Max number of k-points (npk) =  40000
     Max angular momentum in pseudopotentials (lmaxx) =  4
     file Pb.pbe-dn-kjpaw_psl.1.0.0.UPF: wavefunction(s)  6S 6P 5D renormalized
     file I.pbe-dn-kjpaw_psl.1.0.0.UPF: wavefunction(s)  5S 5P renormalized

     IMPORTANT: XC functional enforced from input :
     Exchange-correlation= BEEF-VDW
                           (   1   4  43  14   2   0   0)
     Any further DFT definition will be discarded
     Please, verify this is what you really want

     R & G space division:  proc/nbgrp/npool/nimage =     256
     wavefunctions fft division:  task group distribution
                                  #TG    x Z-proc =       8     32
     Subspace diagonalization in iterative solution of the eigenvalue problem:
     a serial algorithm will be used

     Using Pencil Decomposition

     bravais-lattice index     =            4
     lattice parameter (alat)  =      35.6120  a.u.
     unit-cell volume          =   45937.3577 (a.u.)^3
     number of atoms/cell      =          143
     number of atomic types    =            2
     number of electrons       =      2291.00
     number of Kohn-Sham states=         1375
     kinetic-energy cutoff     =      70.0000  Ry
     charge density cutoff     =     350.0000  Ry
     scf convergence threshold =      1.0E-07
     mixing beta               =       0.7000
     number of iterations used =            8  plain     mixing
     energy convergence thresh.=      1.0E-04
     force convergence thresh. =      1.0E-03
     Exchange-correlation= BEEF-VDW
                           (   1   4  43  14   2   0   0)
     nstep                     =           50

     celldm(1)=  35.612033  celldm(2)=   0.000000  celldm(3)=   1.174479
     celldm(4)=   0.000000  celldm(5)=   0.000000  celldm(6)=   0.000000

     crystal axes: (cart. coord. in units of alat)
               a(1) = (   1.000000   0.000000   0.000000 )
               a(2) = (  -0.500000   0.866025   0.000000 )
               a(3) = (   0.000000   0.000000   1.174479 )

     reciprocal axes: (cart. coord. in units 2 pi/alat)
               b(1) = (  1.000000  0.577350 -0.000000 )
               b(2) = (  0.000000  1.154701  0.000000 )
               b(3) = (  0.000000 -0.000000  0.851442 )

     PseudoPot. # 1 for Pb read from file:
     //group///packages/espresso/pseudo/psl_1.0.0/pslibrary.1.0.0/pbe/PSEUDOPOTENTIALS/Pb.pbe-dn-kjpaw_psl.1.0.0.UPF
     MD5 check sum: 39ab5b8a6bbd56b7735ad9f188aac93a
     Pseudo is Projector augmented-wave + core cor, Zval = 14.0
     Generated using 'atomic' code by A. Dal Corso  v.7.1
     Shape of augmentation charge: PSQ
     Using radial grid of 1281 points,  6 beta functions with:
                l(1) =   0
                l(2) =   0
                l(3) =   1
                l(4) =   1
                l(5) =   2
                l(6) =   2
     Q(r) pseudized with 0 coefficients

     PseudoPot. # 2 for I  read from file:
     //group///packages/espresso/pseudo/psl_1.0.0/pslibrary.1.0.0/pbe/PSEUDOPOTENTIALS/I.pbe-dn-kjpaw_psl.1.0.0.UPF
     MD5 check sum: bfa8781bc1224d19af3f3980e3fab11e
     Pseudo is Projector augmented-wave + core cor, Zval = 17.0
     Generated using 'atomic' code by A. Dal Corso  v.7.1
     Shape of augmentation charge: PSQ
     Using radial grid of 1247 points,  6 beta functions with:
                l(1) =   0
                l(2) =   0
                l(3) =   1
                l(4) =   1
                l(5) =   2
                l(6) =   2
     Q(r) pseudized with 0 coefficients

     atomic species   valence    mass     pseudopotential
        Pb            14.00   207.20000     Pb( 1.00)
        I             17.00   126.90447     I ( 1.00)

     No symmetry found

                                    s                        frac. trans.

      isym =  1     identity

 cryst.   s( 1) = (     1          0          0      )
                  (     0          1          0      )
                  (     0          0          1      )

 cart.    s( 1) = (  1.0000000  0.0000000  0.0000000 )
                  (  0.0000000  1.0000000  0.0000000 )
                  (  0.0000000  0.0000000  1.0000000 )

     point group C_1 (1)
     there are  1 classes
     the character table:

       E
A      1.00

     the symmetry operations in each class and the name of the first element:

     E        1
          identity

   Cartesian axes

     site n.     atom                  positions (alat units)
         1           Pb  tau(   1) = (   0.1250034   0.2164918   0.3914896  )
         2           Pb  tau(   2) = (   0.1250085   0.2164873   0.7829825  )
         3           Pb  tau(   3) = (   0.0000128   0.4329881   1.1744712  )
         4           Pb  tau(   4) = (   0.0000026   0.4329971   0.3914855  )
         5           Pb  tau(   5) = (   0.0000077   0.4329926   0.7829784  )
         6           Pb  tau(   6) = (  -0.1249881   0.6494934   1.1744671  )
         7           Pb  tau(   7) = (  -0.1249983   0.6495025   0.3914814  )
         8           Pb  tau(   8) = (  -0.1249932   0.6494980   0.7829742  )
         9           Pb  tau(   9) = (  -0.2499889   0.8659988   1.1744630  )
        10           Pb  tau(  10) = (  -0.2499991   0.8660078   0.3914773  )
        11           Pb  tau(  11) = (  -0.2499940   0.8660033   0.7829701  )
        12           Pb  tau(  12) = (   0.3750136   0.2164818   1.1744786  )
        13           Pb  tau(  13) = (   0.3750034   0.2164908   0.3914929  )
        14           Pb  tau(  14) = (   0.3750085   0.2164863   0.7829857  )
        15           Pb  tau(  15) = (   0.2500128   0.4329871   1.1744745  )
        16           Pb  tau(  16) = (   0.2500026   0.4329962   0.3914888  )
        17           Pb  tau(  17) = (   0.2500077   0.4329916   0.7829816  )
        18           Pb  tau(  18) = (   0.1250119   0.6494925   1.1744703  )
        19           Pb  tau(  19) = (   0.1250017   0.6495015   0.3914847  )
        20           Pb  tau(  20) = (   0.1250068   0.6494970   0.7829775  )
        21           Pb  tau(  21) = (   0.0000111   0.8659978   1.1744662  )
        22           Pb  tau(  22) = (   0.0000009   0.8660069   0.3914805  )
        23           Pb  tau(  23) = (   0.0000060   0.8660024   0.7829734  )
        24           Pb  tau(  24) = (   0.6250136   0.2164808   1.1744818  )
        25           Pb  tau(  25) = (   0.6250034   0.2164898   0.3914962  )
        26           Pb  tau(  26) = (   0.6250085   0.2164853   0.7829890  )
        27           Pb  tau(  27) = (   0.5000128   0.4329862   1.1744777  )
        28           Pb  tau(  28) = (   0.5000026   0.4329952   0.3914920  )
        29           Pb  tau(  29) = (   0.5000077   0.4329907   0.7829849  )
        30           Pb  tau(  30) = (   0.3750119   0.6494915   1.1744736  )
        31           Pb  tau(  31) = (   0.3750017   0.6495006   0.3914879  )
        32           Pb  tau(  32) = (   0.3750068   0.6494960   0.7829808  )
        33           Pb  tau(  33) = (   0.2500111   0.8659969   1.1744695  )
        34           Pb  tau(  34) = (   0.2500009   0.8660059   0.3914838  )
        35           Pb  tau(  35) = (   0.2500060   0.8660014   0.7829766  )
        36           Pb  tau(  36) = (   0.8750136   0.2164798   1.1744851  )
        37           Pb  tau(  37) = (   0.8750034   0.2164889   0.3914994  )
        38           Pb  tau(  38) = (   0.8750085   0.2164844   0.7829923  )
        39           Pb  tau(  39) = (   0.7500128   0.4329852   1.1744810  )
        40           Pb  tau(  40) = (   0.7500026   0.4329942   0.3914953  )
        41           Pb  tau(  41) = (   0.7500077   0.4329897   0.7829881  )
        42           Pb  tau(  42) = (   0.6250119   0.6494906   1.1744769  )
        43           Pb  tau(  43) = (   0.6250017   0.6494996   0.3914912  )
        44           Pb  tau(  44) = (   0.6250068   0.6494951   0.7829840  )
        45           Pb  tau(  45) = (   0.5000111   0.8659959   1.1744727  )
        46           Pb  tau(  46) = (   0.5000009   0.8660050   0.3914870  )
        47           Pb  tau(  47) = (   0.5000060   0.8660004   0.7829799  )
        48           I   tau(  48) = (   0.1250054   0.0721550   0.2909325  )
        49           I   tau(  49) = (   0.1250105   0.0721505   0.6824253  )
        50           I   tau(  50) = (   0.1250156   0.0721459   1.0739182  )
        51           I   tau(  51) = (   0.0000045   0.2886603   0.2909283  )
        52           I   tau(  52) = (   0.0000096   0.2886558   0.6824212  )
        53           I   tau(  53) = (   0.0000147   0.2886513   1.0739140  )
        54           I   tau(  54) = (  -0.1249963   0.5051657   0.2909242  )
        55           I   tau(  55) = (  -0.1249912   0.5051612   0.6824171  )
        56           I   tau(  56) = (  -0.1249861   0.5051566   1.0739099  )
        57           I   tau(  57) = (  -0.2499971   0.7216710   0.2909201  )
        58           I   tau(  58) = (  -0.2499920   0.7216665   0.6824129  )
        59           I   tau(  59) = (  -0.2499869   0.7216620   1.0739058  )
        60           I   tau(  60) = (   0.3750054   0.0721540   0.2909357  )
[...]
       129           I   tau( 129) = (   0.1249958   0.7938439   0.1005496  )
       130           I   tau( 130) = (   0.1250009   0.7938394   0.4920425  )
       131           I   tau( 131) = (   0.1250060   0.7938348   0.8835353  )
       132           I   tau( 132) = (   0.7499983   0.1443268   0.1005653  )
       133           I   tau( 133) = (   0.7500034   0.1443223   0.4920581  )
       134           I   tau( 134) = (   0.7500085   0.1443178   0.8835509  )
       135           I   tau( 135) = (   0.6249975   0.3608322   0.1005611  )
       136           I   tau( 136) = (   0.6250026   0.3608277   0.4920540  )
       137           I   tau( 137) = (   0.6250077   0.3608232   0.8835468  )
       138           I   tau( 138) = (   0.4999966   0.5773376   0.1005570  )
       139           I   tau( 139) = (   0.5000017   0.5773330   0.4920499  )
       140           I   tau( 140) = (   0.5000068   0.5773285   0.8835427  )
       141           I   tau( 141) = (   0.3749958   0.7938429   0.1005529  )
       142           I   tau( 142) = (   0.3750009   0.7938384   0.4920457  )
       143           I   tau( 143) = (   0.3750060   0.7938339   0.8835386  )

   Crystallographic axes

     site n.     atom                  positions (cryst. coord.)
         1           Pb  tau(   1) = (  0.2499950  0.2499832  0.3333306  )
         2           Pb  tau(   2) = (  0.2499975  0.2499780  0.6666639  )
         3           Pb  tau(   3) = (  0.2499986  0.4999716  0.9999938  )
         4           Pb  tau(   4) = (  0.2499936  0.4999820  0.3333271  )
         5           Pb  tau(   5) = (  0.2499961  0.4999768  0.6666604  )
         6           Pb  tau(   6) = (  0.2499972  0.7499704  0.9999902  )
[...]
     atom   44 type  1   force =     0.00000000    0.00000000    0.00000000
     atom   45 type  1   force =     0.00000000    0.00000000    0.00000000
     atom   46 type  1   force =     0.00000000    0.00000000    0.00000000
     atom   47 type  1   force =     0.00000000    0.00000000    0.00000000
     atom   48 type  2   force =     0.00000000    0.00000000    0.00000000
     atom   49 type  2   force =     0.00000000    0.00000000    0.00000000
     atom   50 type  2   force =     0.00000000    0.00000000    0.00000000
     atom   51 type  2   force =     0.00000000    0.00000000    0.00000000
     atom   52 type  2   force =     0.00000000    0.00000000    0.00000000
     atom   53 type  2   force =     0.00000000    0.00000000    0.00000000
     atom   54 type  2   force =     0.00000000    0.00000000    0.00000000
     atom   55 type  2   force =     0.00000000    0.00000000    0.00000000
     atom   56 type  2   force =     0.00000000    0.00000000    0.00000000
     atom   57 type  2   force =     0.00000000    0.00000000    0.00000000
     atom   58 type  2   force =     0.00000000    0.00000000    0.00000000
     atom   59 type  2   force =     0.00000000    0.00000000    0.00000000
     atom   60 type  2   force =     0.00000000    0.00000000    0.00000000
[...]
     atom  129 type  2   force =     0.00000000    0.00000000    0.00000000
     atom  130 type  2   force =     0.00000000    0.00000000    0.00000000
     atom  131 type  2   force =     0.00000000    0.00000000    0.00000000
     atom  132 type  2   force =     0.00000000    0.00000000    0.00000000
     atom  133 type  2   force =     0.00000000    0.00000000    0.00000000
     atom  134 type  2   force =     0.00000000    0.00000000    0.00000000
     atom  135 type  2   force =     0.00000000    0.00000000    0.00000000
     atom  136 type  2   force =     0.00000000    0.00000000    0.00000000
     atom  137 type  2   force =     0.00000000    0.00000000    0.00000000
     atom  138 type  2   force =     0.00000000    0.00000000    0.00000000
     atom  139 type  2   force =     0.00000000    0.00000000    0.00000000
     atom  140 type  2   force =     0.00000000    0.00000000    0.00000000
     atom  141 type  2   force =     0.00000000    0.00000000    0.00000000
     atom  142 type  2   force =     0.00000000    0.00000000    0.00000000
     atom  143 type  2   force =     0.00000000    0.00000000    0.00000000
     The SCF correction term to forces
     atom    1 type  1   force =     0.00000163   -0.00000059    0.00000589
     atom    2 type  1   force =    -0.00000220    0.00000088    0.00000117
     atom    3 type  1   force =     0.00000941   -0.00000699   -0.00001404
     atom    4 type  1   force =     0.00000446   -0.00000627    0.00000960
     atom    5 type  1   force =     0.00000359   -0.00000176    0.00000440
     atom    6 type  1   force =     0.00000271    0.00000096   -0.00001571
     atom    7 type  1   force =    -0.00000431   -0.00000113    0.00000882
     atom    8 type  1   force =     0.00000523    0.00000132    0.00000659
     atom    9 type  1   force =    -0.00000598    0.00000819   -0.00000642
     atom   10 type  1   force =    -0.00000516    0.00000616    0.00000745
     atom   11 type  1   force =    -0.00000164    0.00000255    0.00000174
     atom   12 type  1   force =    -0.00000617    0.00000258   -0.00000557
     atom   13 type  1   force =    -0.00000674    0.00000238    0.00000632
     atom   14 type  1   force =    -0.00000181    0.00000050    0.00000217
     atom   15 type  1   force =     0.00000001    0.00000218   -0.00000925
     atom   16 type  1   force =     0.00000026   -0.00000508    0.00000550
     atom   17 type  1   force =    -0.00000180    0.00000163    0.00000542
     atom   18 type  1   force =     0.00001104    0.00000127   -0.00001766
     atom   19 type  1   force =     0.00000349   -0.00000836    0.00000253
     atom   20 type  1   force =     0.00000336   -0.00000042    0.00001097
     atom   21 type  1   force =     0.00000671    0.00000015   -0.00001535
     atom   22 type  1   force =    -0.00000688    0.00000523    0.00000339
     atom   23 type  1   force =     0.00000287   -0.00000039    0.00000793
     atom   24 type  1   force =     0.00000049   -0.00000281   -0.00001580
     atom   25 type  1   force =    -0.00000158    0.00000443    0.00000705
     atom   26 type  1   force =     0.00000163   -0.00000519    0.00000831
     atom   27 type  1   force =    -0.00000566    0.00000547   -0.00001362
     atom   28 type  1   force =    -0.00000428    0.00000005    0.00000626
     atom   29 type  1   force =    -0.00000692   -0.00000114    0.00001081
     atom   30 type  1   force =    -0.00000259    0.00000154   -0.00001608
     atom   31 type  1   force =     0.00000413   -0.00000281    0.00000320
     atom   32 type  1   force =    -0.00000491    0.00000312    0.00001227
     atom   33 type  1   force =     0.00000395   -0.00000636   -0.00001803
     atom   34 type  1   force =     0.00000857    0.00000213    0.00000194
     atom   35 type  1   force =     0.00000230   -0.00000136    0.00001205
     atom   36 type  1   force =     0.00000738   -0.00000687   -0.00001457
     atom   37 type  1   force =     0.00000655   -0.00000085    0.00000887
     atom   38 type  1   force =     0.00000220   -0.00000315    0.00000559
     atom   39 type  1   force =    -0.00000399   -0.00000158   -0.00001612
     atom   40 type  1   force =    -0.00000043   -0.00000086    0.00000967
     atom   41 type  1   force =     0.00000520   -0.00000436    0.00000933
     atom   42 type  1   force =    -0.00001106    0.00000063   -0.00001418
     atom   43 type  1   force =    -0.00000321    0.00000266    0.00000709
     atom   44 type  1   force =    -0.00000368    0.00000623    0.00001016
     atom   45 type  1   force =    -0.00000504    0.00000128   -0.00001051
     atom   46 type  1   force =     0.00000352    0.00000294    0.00000596
     atom   47 type  1   force =    -0.00000340    0.00000143    0.00000610
     atom   48 type  2   force =    -0.00000013    0.00000270    0.00000990
     atom   49 type  2   force =    -0.00000224    0.00000206    0.00000036
     atom   50 type  2   force =    -0.00000793   -0.00000543   -0.00000410
     atom   51 type  2   force =     0.00000662   -0.00000425    0.00001196
     atom   52 type  2   force =     0.00000165   -0.00000145    0.00000240
     atom   53 type  2   force =    -0.00000358   -0.00000048   -0.00000924
     atom   54 type  2   force =     0.00000177   -0.00000098    0.00001194
     atom   55 type  2   force =     0.00000574   -0.00000271    0.00000469
     atom   56 type  2   force =    -0.00000256    0.00000026   -0.00001996
     atom   57 type  2   force =    -0.00000456    0.00000475    0.00000989
     atom   58 type  2   force =    -0.00000037    0.00000493    0.00000304
     atom   59 type  2   force =    -0.00000560   -0.00000587   -0.00001635
     atom   60 type  2   force =    -0.00000453    0.00000524    0.00000675
[...]
     atom  129 type  2   force =     0.00000891   -0.00000188   -0.00001380
     atom  130 type  2   force =     0.00000181   -0.00000029    0.00001015
     atom  131 type  2   force =     0.00000656   -0.00000167    0.00000692
     atom  132 type  2   force =    -0.00000085   -0.00001127   -0.00001049
     atom  133 type  2   force =     0.00000573    0.00000347    0.00000852
     atom  134 type  2   force =     0.00000012   -0.00000488    0.00000346
     atom  135 type  2   force =    -0.00000691    0.00000098   -0.00001065
     atom  136 type  2   force =    -0.00000212   -0.00000081    0.00000373
     atom  137 type  2   force =    -0.00000068   -0.00000125    0.00000771
     atom  138 type  2   force =    -0.00000925    0.00000246   -0.00001372
     atom  139 type  2   force =    -0.00000297    0.00000088    0.00000143
     atom  140 type  2   force =    -0.00000685    0.00000317    0.00001144
     atom  141 type  2   force =    -0.00000481   -0.00000517   -0.00001387
     atom  142 type  2   force =     0.00000712    0.00000108    0.00000595
     atom  143 type  2   force =    -0.00000413   -0.00000352    0.00000655

     Total force =     0.004577     Total SCF correction =     0.000132

     Computing stress (Cartesian axis) and pressure

     Non-local corr. energy    =      68.79474440 Ry

          total   stress  (Ry/bohr**3)                   (kbar)     P=        3.63
   0.00002335   0.00000000  -0.00000000            3.44        0.00       -0.00
   0.00000000   0.00002335   0.00000000            0.00        3.44        0.00
  -0.00000000   0.00000000   0.00002725           -0.00        0.00        4.01

     kinetic stress (kbar)  14855.10      0.00     -0.00
                                0.00  14855.10      0.00
                               -0.00      0.00  14866.46

     local   stress (kbar)  -7503.10     -0.00      0.01
                               -0.00  -7503.11     -0.01
                                0.01     -0.01   1255.03

     nonloc. stress (kbar)  -1016.22      0.00     -0.00
                                0.00  -1016.22      0.00
                               -0.00      0.00  -1021.52

     hartree stress (kbar)  11999.00      0.00     -0.00
                                0.00  11999.00      0.00
                               -0.00      0.00   8051.18

     exc-cor stress (kbar)   6914.00      0.00     -0.00
                                0.00   6914.00      0.00
                               -0.00      0.00   6912.91

     corecor stress (kbar) -11254.47     -0.00      0.00
                               -0.00 -11254.47     -0.00
                                0.00     -0.00 -11254.40

     ewald   stress (kbar) -14073.88      0.00     -0.01
                                0.00 -14073.88      0.01
                               -0.01      0.01 -18889.94

     hubbard stress (kbar)      0.00      0.00      0.00
                                0.00      0.00      0.00
                                0.00      0.00      0.00

     DFT-D   stress (kbar)      0.00      0.00      0.00
                                0.00      0.00      0.00
                                0.00      0.00      0.00

     XDM     stress (kbar)      0.00      0.00      0.00
                                0.00      0.00      0.00
                                0.00      0.00      0.00

     dft-nl  stress (kbar)     83.01     -0.00      0.00
                               -0.00     83.01     -0.00
                                0.00     -0.00     84.29

     TS-vdW  stress (kbar)      0.00      0.00      0.00
                                0.00      0.00      0.00
                                0.00      0.00      0.00

     MDB     stress (kbar)      0.00      0.00      0.00
                                0.00      0.00      0.00
                                0.00      0.00      0.00

     3D-RISM stress (kbar)      0.00      0.00      0.00
                                0.00      0.00      0.00
                                0.00      0.00      0.00

     Energy error            =      3.3E-05 Ry
     Gradient error          =      7.8E-04 Ry/Bohr

     bfgs converged in   7 scf cycles and   6 bfgs steps
     (criteria: energy <  1.0E-04 Ry, force <  1.0E-03 Ry/Bohr)

     End of BFGS Geometry Optimization

     Final energy             =  -96237.5563509329 Ry

     File ./PbI2.bfgs deleted, as requested
Begin final coordinates

ATOMIC_POSITIONS (angstrom)
Pb            2.3557197890        4.0797199284        7.3637660591
Pb            2.3558169730        4.0796339864       14.7692498192
Pb            0.0711124088        8.0368158790       22.1330039148
Pb            0.0026193878        8.1577963816        7.3669643710
Pb            0.0006149041        8.1565322064       14.7659261319
Pb           -2.3554864286       12.2398106127       22.1329382798
Pb           -2.3541764591       12.2406949807        7.3716671881
Pb           -2.3569116329       12.2390162689       14.7611137824
Pb           -4.7820318548       16.4427047935       22.1329543862
Pb           -4.7116624532       16.3231744476        7.3669116312
Pb           -4.7136738043       16.3218757251       14.7659100167
Pb            6.9252318801        4.0796183836       22.1331073629
Pb            7.0639797866        4.0785084681        7.3670742411
Pb            7.0640568761        4.0808380903       14.7660643716
Pb            4.6404980166        8.0368109062       22.1330366405
Pb            4.7088004540        8.1577804041        7.3670091499
Pb            4.7109828502        8.1565075217       14.7659803328
Pb            2.3557851755       12.2179717385       22.1502120658
Pb            2.3556952048       12.2374975152        7.3699294448
Pb            2.3557749025       12.2384742917       14.7607870523
Pb           -0.0187373812       16.3307779420       22.1502169528
Pb           -0.0019955412       16.3211452515        7.3699501128
Pb           -0.0010259964       16.3205373662       14.7608256407
Pb           11.7783510056        4.0796239960       22.1331715641
Pb           11.7782565826        4.0780876595        7.3718970130
Pb           11.7783282159        4.0812542827       14.7613511496
Pb            9.4038208365        8.1487911256       22.1158826675
Pb            9.4214713238        8.1591129435        7.3722031494
Pb            9.4206439409        8.1585293286       14.7630657082
Pb            7.0670751198       12.2397827587       22.1330252734
Pb            7.0655734427       12.2406715198        7.3717684348
Pb            7.0684747724       12.2389755791       14.7612077938
Pb            4.7303307001       16.3307749040       22.1502870086
Pb            4.7133973013       16.3211313340        7.3699957331
Pb            4.7125749483       16.3205166688       14.7608671311
Pb           16.6315296396        4.0796093435       22.1331701318
Pb           16.4925364367        4.0784994318        7.3671010880
Pb           16.4926286916        4.0808325951       14.7660900087
Pb           14.1528735134        8.1487966216       22.1158636191
Pb           14.1350258090        8.1591151495        7.3721945796
Pb           14.1360129502        8.1585437760       14.7630586117
Pb           11.7783400077       12.2616052555       22.1157913224
Pb           11.7782384032       12.2411876671        7.3721246312
Pb           11.7783277966       12.2421819148       14.7629992034
Pb            9.4936468437       16.4427220416       22.1330435079
Pb            9.4230675466       16.3231529269        7.3669896853
Pb            9.4252595017       16.3218481914       14.7659873877
I             2.3557043783        1.3611910687        5.4900966219
I             2.3557350422        1.3598389760       12.8694992023
I             2.3558199416        1.3345889459       20.2821015035
I             0.0013184229        5.4390365219        5.4901768387
I             0.0002261052        5.4396674864       12.8695347208
I            -0.0211644938        5.4518895714       20.2822692441
I            -2.3556584182        9.5202512557        5.4940566896
I            -2.3545982418        9.5202344392       12.8681460990
I            -2.3685074757        9.5262587338       20.2555097996
I            -4.7109358945       13.5997611721        5.4939922090
I            -4.7103511047       13.6005424300       12.8681198597
I            -4.7120820566       13.5855263653       20.2555421670
I             7.0689378949        1.3586455153        5.4950118017
[...]
I             2.3557184161       14.9599470771        1.8832963389
I             2.3556715299       14.9599871267        9.2641117989
I             2.3557163819       14.9599233392       16.6382534058
I            14.1218811561        2.7116326901        1.8774263617
I            14.1339960502        2.7207576637        9.2648857947
I            14.1335779679        2.7197968725       16.6390077246
I            11.7782687341        6.7996568381        1.8854108991
I            11.7782320481        6.7997174939        9.2648178224
I            11.7782828083        6.8003094230       16.6377560359
I             9.4225382002       10.8799808265        1.8853312537
I             9.4224796980       10.8800113830        9.2647280993
I             9.4231288351       10.8796322252       16.6377015563
I             7.0541144395       14.9534579378        1.8773357469
I             7.0679285026       14.9595697758        9.2647946960
I             7.0670241434       14.9595167211       16.6389609443
End final coordinates

     Writing all to output data dir ./PbI2.save/

     General routines

     Parallel routines

     PAW routines

   This run was terminated on:   7:18:11  18Feb2024

   JOB DONE.