     Program PWSCF v.7.1 starts on 18Feb2024 at  7:55:17

     Reading input from espresso.pwi
Warning: card &CELL ignored
Warning: card    CELL_DYNAMICS    = 'BFGS' ignored
Warning: card / ignored

     Current dimensions of program PWSCF are:
     Max number of different atomic species (ntypx) = 10
     Max number of k-points (npk) =  40000
     Max angular momentum in pseudopotentials (lmaxx) =  4
     file Pb.pbe-dn-kjpaw_psl.1.0.0.UPF: wavefunction(s)  6S 6P 5D renormalized
     file I.pbe-dn-kjpaw_psl.1.0.0.UPF: wavefunction(s)  5S 5P renormalized

     IMPORTANT: XC functional enforced from input :
     Exchange-correlation= BEEF-VDW
                           (   1   4  43  14   2   0   0)
     Any further DFT definition will be discarded
     Please, verify this is what you really want

     R & G space division:  proc/nbgrp/npool/nimage =     256
     wavefunctions fft division:  task group distribution
                                  #TG    x Z-proc =       8     32
     Subspace diagonalization in iterative solution of the eigenvalue problem:
     a serial algorithm will be used

     Using Pencil Decomposition

     bravais-lattice index     =            4
     lattice parameter (alat)  =      35.6120  a.u.
     unit-cell volume          =   45937.3577 (a.u.)^3
     number of atoms/cell      =          143
     number of atomic types    =            2
     number of electrons       =      2291.00
     number of Kohn-Sham states=         1375
     kinetic-energy cutoff     =      70.0000  Ry
     charge density cutoff     =     350.0000  Ry
     scf convergence threshold =      1.0E-07
     mixing beta               =       0.7000
     number of iterations used =            8  plain     mixing
     Exchange-correlation= BEEF-VDW
                           (   1   4  43  14   2   0   0)

     celldm(1)=  35.612033  celldm(2)=   0.000000  celldm(3)=   1.174479
     celldm(4)=   0.000000  celldm(5)=   0.000000  celldm(6)=   0.000000

     crystal axes: (cart. coord. in units of alat)
               a(1) = (   1.000000   0.000000   0.000000 )
               a(2) = (  -0.500000   0.866025   0.000000 )
               a(3) = (   0.000000   0.000000   1.174479 )

     reciprocal axes: (cart. coord. in units 2 pi/alat)
               b(1) = (  1.000000  0.577350 -0.000000 )
               b(2) = (  0.000000  1.154701  0.000000 )
               b(3) = (  0.000000 -0.000000  0.851442 )

     PseudoPot. # 1 for Pb read from file:
     /trace/group/acmegroup/atimmins/packages/espresso/pseudo/psl_1.0.0/pslibrary.1.0.0/pbe/PSEUDOPOTENTIALS/Pb.pbe-dn-kjpaw_psl.1.0.0.UPF
     MD5 check sum: 39ab5b8a6bbd56b7735ad9f188aac93a
     Pseudo is Projector augmented-wave + core cor, Zval = 14.0
     Generated using 'atomic' code by A. Dal Corso  v.7.1
     Shape of augmentation charge: PSQ
     Using radial grid of 1281 points,  6 beta functions with:
                l(1) =   0
                l(2) =   0
                l(3) =   1
                l(4) =   1
                l(5) =   2
                l(6) =   2
     Q(r) pseudized with 0 coefficients

     PseudoPot. # 2 for I  read from file:
     /trace/group/acmegroup/atimmins/packages/espresso/pseudo/psl_1.0.0/pslibrary.1.0.0/pbe/PSEUDOPOTENTIALS/I.pbe-dn-kjpaw_psl.1.0.0.UPF
     MD5 check sum: bfa8781bc1224d19af3f3980e3fab11e
     Pseudo is Projector augmented-wave + core cor, Zval = 17.0
     Generated using 'atomic' code by A. Dal Corso  v.7.1
     Shape of augmentation charge: PSQ
     Using radial grid of 1247 points,  6 beta functions with:
                l(1) =   0
                l(2) =   0
                l(3) =   1
                l(4) =   1
                l(5) =   2
                l(6) =   2
     Q(r) pseudized with 0 coefficients

     atomic species   valence    mass     pseudopotential
        Pb            14.00   207.20000     Pb( 1.00)
        I             17.00   126.90447     I ( 1.00)

     No symmetry found

                                    s                        frac. trans.

      isym =  1     identity

 cryst.   s( 1) = (     1          0          0      )
                  (     0          1          0      )
                  (     0          0          1      )

 cart.    s( 1) = (  1.0000000  0.0000000  0.0000000 )
                  (  0.0000000  1.0000000  0.0000000 )
                  (  0.0000000  0.0000000  1.0000000 )

     point group C_1 (1)
     there are  1 classes
     the character table:

       E
A      1.00

     the symmetry operations in each class and the name of the first element:

     E        1
          identity

   Cartesian axes

     site n.     atom                  positions (alat units)
         1           Pb  tau(   1) = (   0.1250034   0.2164918   0.3914896  )
         2           Pb  tau(   2) = (   0.1250085   0.2164873   0.7829825  )
         3           Pb  tau(   3) = (   0.0000128   0.4329881   1.1744712  )
         4           Pb  tau(   4) = (   0.0000026   0.4329971   0.3914855  )
         5           Pb  tau(   5) = (   0.0000077   0.4329926   0.7829784  )
         6           Pb  tau(   6) = (  -0.1249881   0.6494934   1.1744671  )
         7           Pb  tau(   7) = (  -0.1249983   0.6495025   0.3914814  )
         8           Pb  tau(   8) = (  -0.1249932   0.6494980   0.7829742  )
         9           Pb  tau(   9) = (  -0.2499889   0.8659988   1.1744630  )
        10           Pb  tau(  10) = (  -0.2499991   0.8660078   0.3914773  )
        11           Pb  tau(  11) = (  -0.2499940   0.8660033   0.7829701  )
        12           Pb  tau(  12) = (   0.3750136   0.2164818   1.1744786  )
        13           Pb  tau(  13) = (   0.3750034   0.2164908   0.3914929  )
        14           Pb  tau(  14) = (   0.3750085   0.2164863   0.7829857  )
        15           Pb  tau(  15) = (   0.2500128   0.4329871   1.1744745  )
        16           Pb  tau(  16) = (   0.2500026   0.4329962   0.3914888  )
        17           Pb  tau(  17) = (   0.2500077   0.4329916   0.7829816  )
        18           Pb  tau(  18) = (   0.1250119   0.6494925   1.1744703  )
        19           Pb  tau(  19) = (   0.1250017   0.6495015   0.3914847  )
        20           Pb  tau(  20) = (   0.1250068   0.6494970   0.7829775  )
        21           Pb  tau(  21) = (   0.0000111   0.8659978   1.1744662  )
        22           Pb  tau(  22) = (   0.0000009   0.8660069   0.3914805  )
        23           Pb  tau(  23) = (   0.0000060   0.8660024   0.7829734  )
        24           Pb  tau(  24) = (   0.6250136   0.2164808   1.1744818  )
        25           Pb  tau(  25) = (   0.6250034   0.2164898   0.3914962  )
        26           Pb  tau(  26) = (   0.6250085   0.2164853   0.7829890  )
        27           Pb  tau(  27) = (   0.5000128   0.4329862   1.1744777  )
        28           Pb  tau(  28) = (   0.5000026   0.4329952   0.3914920  )
        29           Pb  tau(  29) = (   0.5000077   0.4329907   0.7829849  )
        30           Pb  tau(  30) = (   0.3750119   0.6494915   1.1744736  )
        31           Pb  tau(  31) = (   0.3750017   0.6495006   0.3914879  )
        32           Pb  tau(  32) = (   0.3750068   0.6494960   0.7829808  )
        33           Pb  tau(  33) = (   0.2500111   0.8659969   1.1744695  )
        34           Pb  tau(  34) = (   0.2500009   0.8660059   0.3914838  )
        35           Pb  tau(  35) = (   0.2500060   0.8660014   0.7829766  )
        36           Pb  tau(  36) = (   0.8750136   0.2164798   1.1744851  )
        37           Pb  tau(  37) = (   0.8750034   0.2164889   0.3914994  )
        38           Pb  tau(  38) = (   0.8750085   0.2164844   0.7829923  )
        39           Pb  tau(  39) = (   0.7500128   0.4329852   1.1744810  )
        40           Pb  tau(  40) = (   0.7500026   0.4329942   0.3914953  )
        41           Pb  tau(  41) = (   0.7500077   0.4329897   0.7829881  )
        42           Pb  tau(  42) = (   0.6250119   0.6494906   1.1744769  )
        43           Pb  tau(  43) = (   0.6250017   0.6494996   0.3914912  )
        44           Pb  tau(  44) = (   0.6250068   0.6494951   0.7829840  )
        45           Pb  tau(  45) = (   0.5000111   0.8659959   1.1744727  )
        46           Pb  tau(  46) = (   0.5000009   0.8660050   0.3914870  )
        47           Pb  tau(  47) = (   0.5000060   0.8660004   0.7829799  )
        48           I   tau(  48) = (   0.1250054   0.0721550   0.2909325  )
        49           I   tau(  49) = (   0.1250105   0.0721505   0.6824253  )
        50           I   tau(  50) = (   0.1250156   0.0721459   1.0739182  )
        51           I   tau(  51) = (   0.0000045   0.2886603   0.2909283  )
        52           I   tau(  52) = (   0.0000096   0.2886558   0.6824212  )
        53           I   tau(  53) = (   0.0000147   0.2886513   1.0739140  )
        54           I   tau(  54) = (  -0.1249963   0.5051657   0.2909242  )
        55           I   tau(  55) = (  -0.1249912   0.5051612   0.6824171  )
        56           I   tau(  56) = (  -0.1249861   0.5051566   1.0739099  )
        57           I   tau(  57) = (  -0.2499971   0.7216710   0.2909201  )
        58           I   tau(  58) = (  -0.2499920   0.7216665   0.6824129  )
        59           I   tau(  59) = (  -0.2499869   0.7216620   1.0739058  )
        60           I   tau(  60) = (   0.3750054   0.0721540   0.2909357  )
[...]
       129           I   tau( 129) = (   0.1249958   0.7938439   0.1005496  )
       130           I   tau( 130) = (   0.1250009   0.7938394   0.4920425  )
       131           I   tau( 131) = (   0.1250060   0.7938348   0.8835353  )
       132           I   tau( 132) = (   0.7499983   0.1443268   0.1005653  )
       133           I   tau( 133) = (   0.7500034   0.1443223   0.4920581  )
       134           I   tau( 134) = (   0.7500085   0.1443178   0.8835509  )
       135           I   tau( 135) = (   0.6249975   0.3608322   0.1005611  )
       136           I   tau( 136) = (   0.6250026   0.3608277   0.4920540  )
       137           I   tau( 137) = (   0.6250077   0.3608232   0.8835468  )
       138           I   tau( 138) = (   0.4999966   0.5773376   0.1005570  )
       139           I   tau( 139) = (   0.5000017   0.5773330   0.4920499  )
       140           I   tau( 140) = (   0.5000068   0.5773285   0.8835427  )
       141           I   tau( 141) = (   0.3749958   0.7938429   0.1005529  )
       142           I   tau( 142) = (   0.3750009   0.7938384   0.4920457  )
       143           I   tau( 143) = (   0.3750060   0.7938339   0.8835386  )

   Crystallographic axes

     site n.     atom                  positions (cryst. coord.)
         1           Pb  tau(   1) = (  0.2499950  0.2499832  0.3333306  )
         2           Pb  tau(   2) = (  0.2499975  0.2499780  0.6666639  )
         3           Pb  tau(   3) = (  0.2499986  0.4999716  0.9999938  )
         4           Pb  tau(   4) = (  0.2499936  0.4999820  0.3333271  )
         5           Pb  tau(   5) = (  0.2499961  0.4999768  0.6666604  )
         6           Pb  tau(   6) = (  0.2499972  0.7499704  0.9999902  )
         7           Pb  tau(   7) = (  0.2499922  0.7499809  0.3333236  )
[...]
     atom   26 type  1   force =     0.00000000    0.00000000    0.00000000
     atom   27 type  1   force =     0.00000000    0.00000000    0.00000000
     atom   28 type  1   force =     0.00000000    0.00000000    0.00000000
     atom   29 type  1   force =     0.00000000    0.00000000    0.00000000
     atom   30 type  1   force =     0.00000000    0.00000000    0.00000000
     atom   31 type  1   force =     0.00000000    0.00000000    0.00000000
     atom   32 type  1   force =     0.00000000    0.00000000    0.00000000
     atom   33 type  1   force =     0.00000000    0.00000000    0.00000000
     atom   34 type  1   force =     0.00000000    0.00000000    0.00000000
     atom   35 type  1   force =     0.00000000    0.00000000    0.00000000
     atom   36 type  1   force =     0.00000000    0.00000000    0.00000000
     atom   37 type  1   force =     0.00000000    0.00000000    0.00000000
     atom   38 type  1   force =     0.00000000    0.00000000    0.00000000
     atom   39 type  1   force =     0.00000000    0.00000000    0.00000000
     atom   40 type  1   force =     0.00000000    0.00000000    0.00000000
     atom   41 type  1   force =     0.00000000    0.00000000    0.00000000
     atom   42 type  1   force =     0.00000000    0.00000000    0.00000000
     atom   43 type  1   force =     0.00000000    0.00000000    0.00000000
     atom   44 type  1   force =     0.00000000    0.00000000    0.00000000
     atom   45 type  1   force =     0.00000000    0.00000000    0.00000000
     atom   46 type  1   force =     0.00000000    0.00000000    0.00000000
     atom   47 type  1   force =     0.00000000    0.00000000    0.00000000
     atom   48 type  2   force =     0.00000000    0.00000000    0.00000000
     atom   49 type  2   force =     0.00000000    0.00000000    0.00000000
     atom   50 type  2   force =     0.00000000    0.00000000    0.00000000
     atom   51 type  2   force =     0.00000000    0.00000000    0.00000000
     atom   52 type  2   force =     0.00000000    0.00000000    0.00000000
     atom   53 type  2   force =     0.00000000    0.00000000    0.00000000
     atom   54 type  2   force =     0.00000000    0.00000000    0.00000000
     atom   55 type  2   force =     0.00000000    0.00000000    0.00000000
     atom   56 type  2   force =     0.00000000    0.00000000    0.00000000
     atom   57 type  2   force =     0.00000000    0.00000000    0.00000000
     atom   58 type  2   force =     0.00000000    0.00000000    0.00000000
     atom   59 type  2   force =     0.00000000    0.00000000    0.00000000
     atom   60 type  2   force =     0.00000000    0.00000000    0.00000000
[...]
     atom  129 type  2   force =     0.00000000    0.00000000    0.00000000
     atom  130 type  2   force =     0.00000000    0.00000000    0.00000000
     atom  131 type  2   force =     0.00000000    0.00000000    0.00000000
     atom  132 type  2   force =     0.00000000    0.00000000    0.00000000
     atom  133 type  2   force =     0.00000000    0.00000000    0.00000000
     atom  134 type  2   force =     0.00000000    0.00000000    0.00000000
     atom  135 type  2   force =     0.00000000    0.00000000    0.00000000
     atom  136 type  2   force =     0.00000000    0.00000000    0.00000000
     atom  137 type  2   force =     0.00000000    0.00000000    0.00000000
     atom  138 type  2   force =     0.00000000    0.00000000    0.00000000
     atom  139 type  2   force =     0.00000000    0.00000000    0.00000000
     atom  140 type  2   force =     0.00000000    0.00000000    0.00000000
     atom  141 type  2   force =     0.00000000    0.00000000    0.00000000
     atom  142 type  2   force =     0.00000000    0.00000000    0.00000000
     atom  143 type  2   force =     0.00000000    0.00000000    0.00000000
     The SCF correction term to forces
     atom    1 type  1   force =    -0.00000610    0.00000215   -0.00004193
     atom    2 type  1   force =     0.00000865   -0.00000417   -0.00002060
     atom    3 type  1   force =    -0.00004035    0.00002175    0.00009173
     atom    4 type  1   force =    -0.00002063    0.00002431   -0.00005443
     atom    5 type  1   force =    -0.00001475    0.00000742   -0.00003408
     atom    6 type  1   force =    -0.00001249   -0.00000343    0.00009544
     atom    7 type  1   force =     0.00001202    0.00000169   -0.00005439
     atom    8 type  1   force =    -0.00001572   -0.00000114   -0.00003934
     atom    9 type  1   force =     0.00002913   -0.00002451    0.00006321
     atom   10 type  1   force =     0.00002227   -0.00002400   -0.00004646
     atom   11 type  1   force =     0.00000989   -0.00000905   -0.00002273
     atom   12 type  1   force =     0.00001485   -0.00002585    0.00006237
     atom   13 type  1   force =     0.00002525   -0.00001235   -0.00004063
     atom   14 type  1   force =     0.00000620   -0.00000698   -0.00002704
     atom   15 type  1   force =    -0.00001546   -0.00002309    0.00007534
     atom   16 type  1   force =    -0.00000358    0.00001610   -0.00003459
     atom   17 type  1   force =     0.00000326   -0.00000946   -0.00004258
     atom   18 type  1   force =    -0.00005996   -0.00000384    0.00010332
     atom   19 type  1   force =    -0.00001985    0.00002556   -0.00002970
     atom   20 type  1   force =    -0.00001871    0.00000197   -0.00006276
     atom   21 type  1   force =    -0.00003510   -0.00000283    0.00009426
     atom   22 type  1   force =     0.00001775   -0.00001786   -0.00003607
     atom   23 type  1   force =    -0.00001431    0.00000102   -0.00004837
     atom   24 type  1   force =    -0.00000194    0.00001210    0.00009568
     atom   25 type  1   force =     0.00000617   -0.00001159   -0.00004454
     atom   26 type  1   force =    -0.00000743    0.00001408   -0.00004904
     atom   27 type  1   force =     0.00003493   -0.00002660    0.00008609
     atom   28 type  1   force =     0.00002049   -0.00000233   -0.00003770
     atom   29 type  1   force =     0.00002317   -0.00000219   -0.00005617
     atom   30 type  1   force =     0.00001198   -0.00000585    0.00009645
     atom   31 type  1   force =    -0.00001078    0.00000792   -0.00002386
     atom   32 type  1   force =     0.00001424   -0.00000913   -0.00007013
     atom   33 type  1   force =    -0.00002579    0.00003128    0.00010405
     atom   34 type  1   force =    -0.00003043   -0.00000217   -0.00002564
     atom   35 type  1   force =    -0.00001190    0.00000760   -0.00006797
     atom   36 type  1   force =    -0.00001909    0.00003587    0.00009229
     atom   37 type  1   force =    -0.00002513    0.00000778   -0.00004987
     atom   38 type  1   force =    -0.00000732    0.00001354   -0.00003966
     atom   39 type  1   force =     0.00002059    0.00001072    0.00009612
     atom   40 type  1   force =     0.00000373    0.00000476   -0.00005591
     atom   41 type  1   force =    -0.00001172    0.00001447   -0.00004630
     atom   42 type  1   force =     0.00006027   -0.00000432    0.00008718
     atom   43 type  1   force =     0.00001840   -0.00001126   -0.00004288
     atom   44 type  1   force =     0.00002026   -0.00001611   -0.00005173
     atom   45 type  1   force =     0.00003372    0.00001198    0.00007666
     atom   46 type  1   force =    -0.00000963   -0.00000882   -0.00003600
     atom   47 type  1   force =     0.00001633   -0.00000175   -0.00004378
     atom   48 type  2   force =     0.00000816   -0.00001241   -0.00004132
     atom   49 type  2   force =     0.00001120   -0.00000987   -0.00001966
     atom   50 type  2   force =     0.00004419    0.00000517    0.00005175
     atom   51 type  2   force =    -0.00002913    0.00002212   -0.00004798
     atom   52 type  2   force =    -0.00000818    0.00000783   -0.00002806
     atom   53 type  2   force =    -0.00000311    0.00001592    0.00007003
     atom   54 type  2   force =    -0.00000639    0.00001184   -0.00005415
     atom   55 type  2   force =    -0.00002103    0.00001261   -0.00003310
     atom   56 type  2   force =    -0.00000656    0.00000919    0.00010159
     atom   57 type  2   force =     0.00002961   -0.00002026   -0.00004751
     atom   58 type  2   force =     0.00000579   -0.00001770   -0.00002610
     atom   59 type  2   force =     0.00003132    0.00000814    0.00008852
     atom   60 type  2   force =     0.00002517   -0.00002824   -0.00003768
[...]
     atom  129 type  2   force =    -0.00004983    0.00000965    0.00008630
     atom  130 type  2   force =    -0.00001081    0.00000184   -0.00005266
     atom  131 type  2   force =    -0.00003431    0.00000819   -0.00004160
     atom  132 type  2   force =    -0.00001437    0.00004193    0.00007356
     atom  133 type  2   force =    -0.00002384   -0.00001086   -0.00004632
     atom  134 type  2   force =    -0.00000898    0.00002607   -0.00003154
     atom  135 type  2   force =     0.00003225   -0.00000398    0.00006229
     atom  136 type  2   force =     0.00001000    0.00000073   -0.00003124
     atom  137 type  2   force =     0.00000621    0.00000839   -0.00003920
     atom  138 type  2   force =     0.00005022   -0.00001556    0.00008050
     atom  139 type  2   force =     0.00001269   -0.00000340   -0.00001944
     atom  140 type  2   force =     0.00003795   -0.00001647   -0.00005830
     atom  141 type  2   force =     0.00000426    0.00001965    0.00009136
     atom  142 type  2   force =    -0.00002741   -0.00000312   -0.00003351
     atom  143 type  2   force =     0.00001585    0.00001132   -0.00004828

     Total force =     0.004589     Total SCF correction =     0.000735
     SCF correction compared to forces is large: reduce conv_thr to get better values

     Computing stress (Cartesian axis) and pressure

[...]

          total   stress  (Ry/bohr**3)                   (kbar)     P=        3.63
   0.00002335   0.00000000  -0.00000000            3.43        0.00       -0.00
   0.00000000   0.00002335   0.00000000            0.00        3.43        0.00
  -0.00000000   0.00000000   0.00002724           -0.00        0.00        4.01

     kinetic stress (kbar)  14855.10      0.00     -0.00
                                0.00  14855.10      0.00
                               -0.00      0.00  14866.46

     local   stress (kbar)  -7503.10     -0.00      0.01
                               -0.00  -7503.11     -0.01
                                0.01     -0.01   1255.03

     nonloc. stress (kbar)  -1016.22      0.00     -0.00
                                0.00  -1016.22      0.00
                               -0.00      0.00  -1021.52

     hartree stress (kbar)  11999.00      0.00     -0.00
                                0.00  11999.00      0.00
                               -0.00      0.00   8051.18

     exc-cor stress (kbar)   6914.00      0.00     -0.00
                                0.00   6914.00      0.00
                               -0.00      0.00   6912.91

     corecor stress (kbar) -11254.47     -0.00      0.00
                               -0.00 -11254.47     -0.00
                                0.00     -0.00 -11254.40

     ewald   stress (kbar) -14073.88      0.00     -0.01
                                0.00 -14073.88      0.01
                               -0.01      0.01 -18889.94

     hubbard stress (kbar)      0.00      0.00      0.00
                                0.00      0.00      0.00
                                0.00      0.00      0.00

     DFT-D   stress (kbar)      0.00      0.00      0.00
                                0.00      0.00      0.00
                                0.00      0.00      0.00

     XDM     stress (kbar)      0.00      0.00      0.00
                                0.00      0.00      0.00
                                0.00      0.00      0.00

     dft-nl  stress (kbar)     83.01     -0.00      0.00
                               -0.00     83.01     -0.00
                                0.00     -0.00     84.29

     TS-vdW  stress (kbar)      0.00      0.00      0.00
                                0.00      0.00      0.00
                                0.00      0.00      0.00

     MDB     stress (kbar)      0.00      0.00      0.00
                                0.00      0.00      0.00
                                0.00      0.00      0.00

     3D-RISM stress (kbar)      0.00      0.00      0.00
                                0.00      0.00      0.00
                                0.00      0.00      0.00

[...]

     Non-local corr. energy    =      68.79474501 Ry

 BEEFens 2000 ensemble energies
             -0.577471783605613E+02
             -0.581087568081869E+03
             -0.264441697186762E+03
              0.202939639176097E+03
             -0.444074357260314E+03
             -0.543750343951018E+03
              0.279097530408835E+03
              0.122392129773652E+01
              0.470404440831944E+03
             -0.297831191532923E+02
              0.240796543110348E+03
              0.246293070469927E+02
             -0.184579460742052E+02
             -0.148888963000768E+02
              0.300246541129577E+03
             -0.226026889345865E+03
             -0.443774443361007E+03
             -0.143236248681995E+03
              0.128388991415061E+03
             -0.268717210356772E+01
              0.654343075833010E+03
              0.546210996604261E+03
             -0.336404376324791E+03
              0.116297495935066E+03
             -0.700897110005539E+03
              0.575381018230584E+03
              0.196773398337277E+03
              0.519565680297283E+03
              0.350184730091774E+03
             -0.162594394721611E+03
              0.128122395087373E+03
             -0.229168737085818E+03
              0.956513817444210E+02
              0.348355828479052E+03
              0.374778431474842E+03
             -0.162957043089159E+03
              0.826951327407674E+03
             -0.332685943976451E+03
             -0.221696856712077E+03
              0.330750194877101E+03
              0.145791496965189E+03
              0.251231874331257E+03
             -0.485402913519701E+03
             -0.315405002947855E+02
              0.465720634613100E+03
              0.608692840281299E+03
             -0.617971586623478E+03
              0.397194727071552E+02
              0.214396747285192E+03
              0.138402187028476E+03
              0.241687720886000E+03
              0.530688553328196E+03
             -0.344583430235515E+03
             -0.334401556570479E+03
             -0.465970392815033E+03
             -0.676568939444378E+02
             -0.397548072365562E+03
              0.513530429799521E+02
             -0.573306661970109E+02
             -0.315318097785321E+03
[...]
              0.393765645086539E+03
              0.252266933723055E+03
              0.257171689222588E+03
             -0.475908883573573E+03
             -0.491489724421958E+03
             -0.110798611909789E+03
             -0.439322421146688E+03
              0.697521024076398E+03
              0.587616579764562E+03
              0.277133840508480E+03
              0.763954294467341E+03
             -0.381811311152444E+03
             -0.164422554090851E+03
             -0.236980815851263E+03
              0.660898549464846E+03

 BEEF-vdW xc energy contributions
            1 :    -5974.063938108819
            2 :     5474.161967029975
            3 :    -4621.846797263515
            4 :     3644.295754251330
            5 :    -2755.283765809410
            6 :     2086.391072461385
            7 :    -1665.697573781932
            8 :     1437.532657551282
            9 :    -1304.651817444497
           10 :     1174.849097109601
           11 :    -996.1628097552348
           12 :     768.4126432134672
           13 :    -528.9595680037528
           14 :     323.9222898014250
           15 :    -182.2896835738175
           16 :     104.9564315976568
           17 :    -69.80453825856421
           18 :     46.22057680865782
           19 :    -10.63575534620941
           20 :    -43.65051099762786
           21 :     106.0997388626747
           22 :    -157.5374486530982
           23 :     182.6581671842732
           24 :    -179.2109091489292
           25 :     158.9506696705394
           26 :    -140.6544380917258
           27 :     139.8403212413068
           28 :    -160.8722845560042
           29 :     195.2191152776832
           30 :    -226.3772542562219
           31 :    -513.9241111305391
           32 :    -369.6912498185529

     Writing all to output data dir ./PbI2.save/

     General routines

     Parallel routines

     PAW routines

   This run was terminated on:   8:11:45  18Feb2024

   JOB DONE.