     Program PWSCF v.7.1 starts on 27Mar2024 at 22:25:31

     Reading input from espresso.pwi
Warning: card &CELL ignored
Warning: card    CELL_DYNAMICS    = 'BFGS' ignored
Warning: card / ignored

     Current dimensions of program PWSCF are:
     Max number of different atomic species (ntypx) = 10
     Max number of k-points (npk) =  40000
     Max angular momentum in pseudopotentials (lmaxx) =  4
     file Ga.pbe-dn-kjpaw_psl.1.0.0.UPF: wavefunction(s)  4S renormalized
     file N.pbe-n-kjpaw_psl.1.0.0.UPF: wavefunction(s)  2S renormalized

     IMPORTANT: XC functional enforced from input :
     Exchange-correlation= BEEF-VDW
                           (   1   4  43  14   2   0   0)
     Any further DFT definition will be discarded
     Please, verify this is what you really want

     Found identity + (  0.0000  0.0000  0.5000) symmetry
     This is a supercell, fractional translations are disabled

     R & G space division:  proc/nbgrp/npool/nimage =      27
     Subspace diagonalization in iterative solution of the eigenvalue problem:
     a serial algorithm will be used

     Using Slab Decomposition

     bravais-lattice index     =            4
     lattice parameter (alat)  =      12.2626  a.u.
     unit-cell volume          =    2602.7676 (a.u.)^3
     number of atoms/cell      =           32
     number of atomic types    =            2
     number of electrons       =       288.00
     number of Kohn-Sham states=          173
     kinetic-energy cutoff     =      70.0000  Ry
     charge density cutoff     =     350.0000  Ry
     scf convergence threshold =      1.0E-07
     mixing beta               =       0.7000
     number of iterations used =            8  plain     mixing
     Exchange-correlation= BEEF-VDW
                           (   1   4  43  14   2   0   0)

     celldm(1)=  12.262616  celldm(2)=   0.000000  celldm(3)=   1.629879
     celldm(4)=   0.000000  celldm(5)=   0.000000  celldm(6)=   0.000000

     crystal axes: (cart. coord. in units of alat)
               a(1) = (   1.000000   0.000000   0.000000 )
               a(2) = (  -0.500000   0.866025   0.000000 )
               a(3) = (   0.000000   0.000000   1.629879 )

     reciprocal axes: (cart. coord. in units 2 pi/alat)
               b(1) = (  1.000000  0.577350 -0.000000 )
               b(2) = (  0.000000  1.154701  0.000000 )
               b(3) = (  0.000000 -0.000000  0.613542 )

     PseudoPot. # 1 for Ga read from file:
     /trace/group/acmegroup/atimmins/packages/espresso/pseudo/psl_1.0.0/pslibrary.1.0.0/pbe/PSEUDOPOTENTIALS/Ga.pbe-dn-kjpaw_psl.1.0.0.UPF
     MD5 check sum: cd2a01e492f15b435d17032472d8505c
     Pseudo is Projector augmented-wave + core cor, Zval = 13.0
     Generated using 'atomic' code by A. Dal Corso  v.7.1
     Shape of augmentation charge: PSQ
     Using radial grid of 1205 points,  6 beta functions with:
                l(1) =   0
                l(2) =   0
                l(3) =   1
                l(4) =   1
                l(5) =   2
                l(6) =   2
     Q(r) pseudized with 0 coefficients

     PseudoPot. # 2 for N  read from file:
     /trace/group/acmegroup/atimmins/packages/espresso/pseudo/psl_1.0.0/pslibrary.1.0.0/pbe/PSEUDOPOTENTIALS/N.pbe-n-kjpaw_psl.1.0.0.UPF
     MD5 check sum: f77f775694dac7e2c3fe1c82443d1a16
     Pseudo is Projector augmented-wave + core cor, Zval =  5.0
     Generated using 'atomic' code by A. Dal Corso  v.7.1
     Shape of augmentation charge: PSQ
     Using radial grid of 1085 points,  4 beta functions with:
                l(1) =   0
                l(2) =   0
                l(3) =   1
                l(4) =   1
     Q(r) pseudized with 0 coefficients

     atomic species   valence    mass     pseudopotential
        Ga            13.00    69.72300     Ga( 1.00)
        N              5.00    14.00700     N ( 1.00)

      6 Sym. Ops. (no inversion) found

                                    s                        frac. trans.

      isym =  1     identity

 cryst.   s( 1) = (     1          0          0      )
                  (     0          1          0      )
                  (     0          0          1      )

 cart.    s( 1) = (  1.0000000  0.0000000  0.0000000 )
                  (  0.0000000  1.0000000  0.0000000 )
                  (  0.0000000  0.0000000  1.0000000 )

      isym =  2     120 deg rotation - cryst. axis [0,0,1]

[...]

      isym =  3     120 deg rotation - cryst. axis [0,0,-1]

[...]

      isym =  4     inv. 180 deg rotation - cart. axis [1,0,0]

[...]

      isym =  5     inv. 180 deg rotation - cryst. axis [0,1,0]

[...]

      isym =  6     inv. 180 deg rotation - cryst. axis [1,1,0]

 cryst.   s( 6) = (     0         -1          0      )
                  (    -1          0          0      )
                  (     0          0          1      )

 cart.    s( 6) = (  0.5000000 -0.8660254  0.0000000 )
                  ( -0.8660254 -0.5000000  0.0000000 )
                  (  0.0000000  0.0000000  1.0000000 )

     point group C_3v (3m)
     there are  3 classes
     the character table:

       E     2C3   3s_v
A_1    1.00  1.00  1.00
A_2    1.00  1.00 -1.00
E      2.00 -1.00  0.00

     the symmetry operations in each class and the name of the first element:

     E        1
          identity
     2C3      2    3
          120 deg rotation - cryst. axis [0,0,1]
     3s_v     4    5    6
          inv. 180 deg rotation - cart. axis [1,0,0]

   Cartesian axes

     site n.     atom                  positions (alat units)
         1           Ga  tau(   1) = (   0.2500002   0.1443375   0.4067871  )
         2           Ga  tau(   2) = (   0.2500002   0.1443375   1.2217266  )
         3           Ga  tau(   3) = (   0.0000002   0.5773502   0.4067871  )
         4           Ga  tau(   4) = (   0.0000002   0.5773502   1.2217266  )
         5           Ga  tau(   5) = (   0.7500002   0.1443375   0.4067871  )
         6           Ga  tau(   6) = (   0.7500002   0.1443375   1.2217266  )
         7           Ga  tau(   7) = (   0.5000002   0.5773502   0.4067871  )
         8           Ga  tau(   8) = (   0.5000002   0.5773502   1.2217266  )
         9           Ga  tau(   9) = (  -0.0000003   0.2886754   0.8142568  )
        10           Ga  tau(  10) = (  -0.0000003   0.2886754   1.6291964  )
        11           Ga  tau(  11) = (  -0.2500003   0.7216881   0.8142568  )
        12           Ga  tau(  12) = (  -0.2500003   0.7216881   1.6291964  )
        13           Ga  tau(  13) = (   0.4999997   0.2886754   0.8142568  )
        14           Ga  tau(  14) = (   0.4999997   0.2886754   1.6291964  )
        15           Ga  tau(  15) = (   0.2499997   0.7216881   0.8142568  )
        16           Ga  tau(  16) = (   0.2499997   0.7216881   1.6291964  )
        17           N   tau(  17) = (   0.2500002   0.1443375   0.7137548  )
        18           N   tau(  18) = (   0.2500002   0.1443375   1.5286943  )
        19           N   tau(  19) = (   0.0000002   0.5773502   0.7137548  )
        20           N   tau(  20) = (   0.0000002   0.5773502   1.5286943  )
        21           N   tau(  21) = (   0.7500002   0.1443375   0.7137548  )
        22           N   tau(  22) = (   0.7500002   0.1443375   1.5286943  )
        23           N   tau(  23) = (   0.5000002   0.5773502   0.7137548  )
        24           N   tau(  24) = (   0.5000002   0.5773502   1.5286943  )
        25           N   tau(  25) = (  -0.0000003   0.2886754   0.3062850  )
        26           N   tau(  26) = (  -0.0000003   0.2886754   1.1212245  )
        27           N   tau(  27) = (  -0.2500003   0.7216881   0.3062850  )
        28           N   tau(  28) = (  -0.2500003   0.7216881   1.1212245  )
        29           N   tau(  29) = (   0.4999997   0.2886754   0.3062850  )
        30           N   tau(  30) = (   0.4999997   0.2886754   1.1212245  )
        31           N   tau(  31) = (   0.2499997   0.7216881   0.3062850  )
        32           N   tau(  32) = (   0.2499997   0.7216881   1.1212245  )

   Crystallographic axes

     site n.     atom                  positions (cryst. coord.)
         1           Ga  tau(   1) = (  0.3333335  0.1666666  0.2495811  )
         2           Ga  tau(   2) = (  0.3333335  0.1666666  0.7495811  )
         3           Ga  tau(   3) = (  0.3333335  0.6666666  0.2495811  )
         4           Ga  tau(   4) = (  0.3333335  0.6666666  0.7495811  )
         5           Ga  tau(   5) = (  0.8333335  0.1666666  0.2495811  )
         6           Ga  tau(   6) = (  0.8333335  0.1666666  0.7495811  )
         7           Ga  tau(   7) = (  0.8333335  0.6666666  0.2495811  )
         8           Ga  tau(   8) = (  0.8333335  0.6666666  0.7495811  )
         9           Ga  tau(   9) = (  0.1666665  0.3333336  0.4995811  )
        10           Ga  tau(  10) = (  0.1666665  0.3333336  0.9995811  )
        11           Ga  tau(  11) = (  0.1666665  0.8333336  0.4995811  )
        12           Ga  tau(  12) = (  0.1666665  0.8333336  0.9995811  )
        13           Ga  tau(  13) = (  0.6666665  0.3333336  0.4995811  )
        14           Ga  tau(  14) = (  0.6666665  0.3333336  0.9995811  )
        15           Ga  tau(  15) = (  0.6666665  0.8333336  0.4995811  )
        16           Ga  tau(  16) = (  0.6666665  0.8333336  0.9995811  )
        17           N   tau(  17) = (  0.3333335  0.1666666  0.4379189  )
        18           N   tau(  18) = (  0.3333335  0.1666666  0.9379189  )
        19           N   tau(  19) = (  0.3333335  0.6666666  0.4379189  )
        20           N   tau(  20) = (  0.3333335  0.6666666  0.9379189  )
        21           N   tau(  21) = (  0.8333335  0.1666666  0.4379189  )
        22           N   tau(  22) = (  0.8333335  0.1666666  0.9379189  )
        23           N   tau(  23) = (  0.8333335  0.6666666  0.4379189  )
        24           N   tau(  24) = (  0.8333335  0.6666666  0.9379189  )
        25           N   tau(  25) = (  0.1666665  0.3333336  0.1879189  )
        26           N   tau(  26) = (  0.1666665  0.3333336  0.6879189  )
        27           N   tau(  27) = (  0.1666665  0.8333336  0.1879189  )
        28           N   tau(  28) = (  0.1666665  0.8333336  0.6879189  )
        29           N   tau(  29) = (  0.6666665  0.3333336  0.1879189  )
        30           N   tau(  30) = (  0.6666665  0.3333336  0.6879189  )
        31           N   tau(  31) = (  0.6666665  0.8333336  0.1879189  )
        32           N   tau(  32) = (  0.6666665  0.8333336  0.6879189  )

     number of k points=     8  Gaussian smearing, width (Ry)=  0.0100
                       cart. coord. in units 2pi/alat
        k(    1) = (   0.0000000   0.0000000   0.0000000), wk =   0.0625000
        k(    2) = (   0.0000000   0.0000000  -0.3067712), wk =   0.0625000
        k(    3) = (   0.0000000   0.2886751   0.0000000), wk =   0.3750000
        k(    4) = (   0.0000000   0.2886751  -0.3067712), wk =   0.3750000
        k(    5) = (   0.0000000  -0.5773503   0.0000000), wk =   0.1875000
        k(    6) = (   0.0000000  -0.5773503  -0.3067712), wk =   0.1875000
        k(    7) = (   0.2500000   0.4330127   0.0000000), wk =   0.3750000
[...]
     atom    5 type  1   force =    -0.00056666    0.00026267   -0.15984511
     atom    6 type  1   force =    -0.00056222    0.00026011   -0.15971491
     atom    7 type  1   force =    -0.00049345    0.00013587   -0.15984511
     atom    8 type  1   force =    -0.00049345    0.00014099   -0.15971491
     atom    9 type  1   force =     0.00067497   -0.00045362   -0.15975266
     atom   10 type  1   force =     0.00067497   -0.00043797   -0.15982791
     atom   11 type  1   force =     0.00073624   -0.00055981   -0.15975266
     atom   12 type  1   force =     0.00074979   -0.00056763   -0.15982791
     atom   13 type  1   force =     0.00068033   -0.00052749   -0.15975338
     atom   14 type  1   force =     0.00068033   -0.00052749   -0.15982176
     atom   15 type  1   force =     0.00061369   -0.00055981   -0.15975266
     atom   16 type  1   force =     0.00060014   -0.00056763   -0.15982791
     atom   17 type  2   force =    -0.00003069    0.00002354    0.14489617
     atom   18 type  2   force =    -0.00003195    0.00002282    0.14487329
     atom   19 type  2   force =    -0.00004073    0.00001825    0.14489194
     atom   20 type  2   force =    -0.00004073    0.00001825    0.14487163
     atom   21 type  2   force =    -0.00004990    0.00002354    0.14489617
     atom   22 type  2   force =    -0.00004864    0.00002282    0.14487329
     atom   23 type  2   force =    -0.00004029    0.00000690    0.14489617
     atom   24 type  2   force =    -0.00004029    0.00000836    0.14487329
     atom   25 type  2   force =     0.00005511   -0.00003059    0.14486109
     atom   26 type  2   force =     0.00005511   -0.00003295    0.14491463
     atom   27 type  2   force =     0.00006571   -0.00004894    0.14486109
     atom   28 type  2   force =     0.00006366   -0.00004775    0.14491463
     atom   29 type  2   force =     0.00005555   -0.00004307    0.14485992
     atom   30 type  2   force =     0.00005555   -0.00004307    0.14491149
     atom   31 type  2   force =     0.00004452   -0.00004894    0.14486109
     atom   32 type  2   force =     0.00004657   -0.00004775    0.14491463
     The core correction contribution to forces
     atom    1 type  1   force =    -0.00005549    0.00000538    0.00007330
     atom    2 type  1   force =    -0.00005549    0.00000538    0.00007380
     atom    3 type  1   force =    -0.00003691    0.00001654    0.00005782
     atom    4 type  1   force =    -0.00003691    0.00001654    0.00005818
     atom    5 type  1   force =    -0.00001757    0.00000537    0.00007330
     atom    6 type  1   force =    -0.00001757    0.00000537    0.00007380
     atom    7 type  1   force =    -0.00003654    0.00003820    0.00007330
     atom    8 type  1   force =    -0.00003654    0.00003820    0.00007380
     atom    9 type  1   force =     0.00004998   -0.00006061    0.00007338
     atom   10 type  1   force =     0.00004998   -0.00006076    0.00007396
     atom   11 type  1   force =     0.00003108   -0.00002792    0.00007338
     atom   12 type  1   force =     0.00003095   -0.00002784    0.00007396
     atom   13 type  1   force =     0.00005034   -0.00003903    0.00005785
     atom   14 type  1   force =     0.00005034   -0.00003903    0.00005832
     atom   15 type  1   force =     0.00006885   -0.00002794    0.00007338
     atom   16 type  1   force =     0.00006898   -0.00002787    0.00007396
     atom   17 type  2   force =    -0.00000077   -0.00000155   -0.00022585
     atom   18 type  2   force =    -0.00000074   -0.00000154   -0.00022579
     atom   19 type  2   force =     0.00000110   -0.00000049   -0.00022528
     atom   20 type  2   force =     0.00000110   -0.00000049   -0.00022523
     atom   21 type  2   force =     0.00000294   -0.00000155   -0.00022585
     atom   22 type  2   force =     0.00000291   -0.00000154   -0.00022579
     atom   23 type  2   force =     0.00000108    0.00000165   -0.00022585
     atom   24 type  2   force =     0.00000108    0.00000163   -0.00022579
     atom   25 type  2   force =    -0.00000148   -0.00000097   -0.00022559
     atom   26 type  2   force =    -0.00000148   -0.00000097   -0.00022613
     atom   27 type  2   force =    -0.00000332    0.00000221   -0.00022559
     atom   28 type  2   force =    -0.00000333    0.00000222   -0.00022613
     atom   29 type  2   force =    -0.00000150    0.00000116   -0.00022507
     atom   30 type  2   force =    -0.00000150    0.00000116   -0.00022553
     atom   31 type  2   force =     0.00000035    0.00000221   -0.00022559
     atom   32 type  2   force =     0.00000036    0.00000221   -0.00022613
     The Hubbard contrib.    to forces
     atom    1 type  1   force =     0.00000000    0.00000000    0.00000000
     atom    2 type  1   force =     0.00000000    0.00000000    0.00000000
     atom    3 type  1   force =     0.00000000    0.00000000    0.00000000
     atom    4 type  1   force =     0.00000000    0.00000000    0.00000000
     atom    5 type  1   force =     0.00000000    0.00000000    0.00000000
     atom    6 type  1   force =     0.00000000    0.00000000    0.00000000
     atom    7 type  1   force =     0.00000000    0.00000000    0.00000000
     atom    8 type  1   force =     0.00000000    0.00000000    0.00000000
     atom    9 type  1   force =     0.00000000    0.00000000    0.00000000
     atom   10 type  1   force =     0.00000000    0.00000000    0.00000000
     atom   11 type  1   force =     0.00000000    0.00000000    0.00000000
     atom   12 type  1   force =     0.00000000    0.00000000    0.00000000
     atom   13 type  1   force =     0.00000000    0.00000000    0.00000000
     atom   14 type  1   force =     0.00000000    0.00000000    0.00000000
     atom   15 type  1   force =     0.00000000    0.00000000    0.00000000
     atom   16 type  1   force =     0.00000000    0.00000000    0.00000000
     atom   17 type  2   force =     0.00000000    0.00000000    0.00000000
     atom   18 type  2   force =     0.00000000    0.00000000    0.00000000
     atom   19 type  2   force =     0.00000000    0.00000000    0.00000000
     atom   20 type  2   force =     0.00000000    0.00000000    0.00000000
     atom   21 type  2   force =     0.00000000    0.00000000    0.00000000
     atom   22 type  2   force =     0.00000000    0.00000000    0.00000000
     atom   23 type  2   force =     0.00000000    0.00000000    0.00000000
     atom   24 type  2   force =     0.00000000    0.00000000    0.00000000
     atom   25 type  2   force =     0.00000000    0.00000000    0.00000000
     atom   26 type  2   force =     0.00000000    0.00000000    0.00000000
     atom   27 type  2   force =     0.00000000    0.00000000    0.00000000
     atom   28 type  2   force =     0.00000000    0.00000000    0.00000000
     atom   29 type  2   force =     0.00000000    0.00000000    0.00000000
     atom   30 type  2   force =     0.00000000    0.00000000    0.00000000
     atom   31 type  2   force =     0.00000000    0.00000000    0.00000000
     atom   32 type  2   force =     0.00000000    0.00000000    0.00000000
     The SCF correction term to forces
     atom    1 type  1   force =    -0.00002481   -0.00001433    0.00007708
     atom    2 type  1   force =    -0.00001984   -0.00001146   -0.00008476
     atom    3 type  1   force =     0.00000000   -0.00000000    0.00008510
     atom    4 type  1   force =     0.00000000   -0.00000000   -0.00010332
     atom    5 type  1   force =     0.00002481   -0.00001433    0.00007708
     atom    6 type  1   force =     0.00001984   -0.00001146   -0.00008476
     atom    7 type  1   force =     0.00000000    0.00002865    0.00007708
     atom    8 type  1   force =     0.00000000    0.00002291   -0.00008476
     atom    9 type  1   force =    -0.00000000   -0.00001131   -0.00004398
     atom   10 type  1   force =    -0.00000000   -0.00003268    0.00005611
     atom   11 type  1   force =    -0.00000981    0.00000566   -0.00004398
     atom   12 type  1   force =    -0.00002831    0.00001634    0.00005611
     atom   13 type  1   force =    -0.00000000    0.00000000   -0.00004569
     atom   14 type  1   force =    -0.00000000    0.00000000    0.00004488
     atom   15 type  1   force =     0.00000980    0.00000566   -0.00004398
     atom   16 type  1   force =     0.00002830    0.00001634    0.00005611
     atom   17 type  2   force =    -0.00000747   -0.00000431   -0.00000962
     atom   18 type  2   force =    -0.00000503   -0.00000290    0.00001465
     atom   19 type  2   force =    -0.00000000    0.00000000   -0.00000919
     atom   20 type  2   force =     0.00000000   -0.00000000    0.00001231
     atom   21 type  2   force =     0.00000747   -0.00000431   -0.00000962
     atom   22 type  2   force =     0.00000503   -0.00000291    0.00001465
     atom   23 type  2   force =    -0.00000000    0.00000863   -0.00000962
     atom   24 type  2   force =    -0.00000000    0.00000581    0.00001465
     atom   25 type  2   force =     0.00000000   -0.00000887    0.00003768
     atom   26 type  2   force =     0.00000000   -0.00000675   -0.00004183
     atom   27 type  2   force =    -0.00000768    0.00000443    0.00003768
     atom   28 type  2   force =    -0.00000584    0.00000337   -0.00004183
     atom   29 type  2   force =     0.00000000   -0.00000000    0.00003283
     atom   30 type  2   force =     0.00000000   -0.00000000   -0.00004088
     atom   31 type  2   force =     0.00000768    0.00000443    0.00003768
     atom   32 type  2   force =     0.00000584    0.00000337   -0.00004183

     Total force =     0.000913     Total SCF correction =     0.000314
     SCF correction compared to forces is large: reduce conv_thr to get better values

     Computing stress (Cartesian axis) and pressure

[...]

          total   stress  (Ry/bohr**3)                   (kbar)     P=        0.93
   0.00000314  -0.00000000   0.00000000            0.46       -0.00        0.00
   0.00000000   0.00000314   0.00000000            0.00        0.46        0.00
   0.00000000  -0.00000000   0.00001266            0.00       -0.00        1.86

     kinetic stress (kbar)  18449.67     -0.00      0.00
                               -0.00  18449.67      0.00
                                0.00     -0.00  18444.61

     local   stress (kbar)   5447.27     -0.07     -0.00
                               -0.07   5447.17      0.00
                               -0.00      0.00   3811.57

     nonloc. stress (kbar)     60.45      0.00      0.00
                                0.00     60.45     -0.00
                                0.00     -0.00     72.28

     hartree stress (kbar)  19596.26      0.00      0.00
                                0.00  19596.26      0.00
                                0.00      0.00  20346.43

     exc-cor stress (kbar)   5218.03      0.00      0.00
                                0.00   5218.03     -0.00
                                0.00     -0.00   5218.25

     corecor stress (kbar) -14110.26     -0.00     -0.00
                               -0.00 -14110.26      0.00
                               -0.00      0.00 -14109.69

     ewald   stress (kbar) -34823.05      0.10      0.00
                                0.10 -34822.93     -0.00
                                0.00     -0.00 -33942.83

     hubbard stress (kbar)      0.00      0.00      0.00
                                0.00      0.00      0.00
                                0.00      0.00      0.00

     DFT-D   stress (kbar)      0.00      0.00      0.00
                                0.00      0.00      0.00
                                0.00      0.00      0.00

     XDM     stress (kbar)      0.00      0.00      0.00
                                0.00      0.00      0.00
                                0.00      0.00      0.00

     dft-nl  stress (kbar)    162.09     -0.00     -0.00
                               -0.00    162.09      0.00
                               -0.00      0.00    161.25

     TS-vdW  stress (kbar)      0.00      0.00      0.00
                                0.00      0.00      0.00
                                0.00      0.00      0.00

     MDB     stress (kbar)      0.00      0.00      0.00
                                0.00      0.00      0.00
                                0.00      0.00      0.00

     3D-RISM stress (kbar)      0.00      0.00      0.00
                                0.00      0.00      0.00
                                0.00      0.00      0.00

[...]

     Non-local corr. energy    =       8.72082308 Ry

 BEEFens 2000 ensemble energies
             -0.705666559369885E+01
             -0.635348353473635E+02
             -0.273266853870242E+02
              0.223579684692871E+02
             -0.456803505416834E+02
             -0.587503388577919E+02
              0.301881055085516E+02
             -0.318048956408435E+01
              0.503253176957349E+02
             -0.217399391545862E+01
              0.246870508868418E+02
              0.102458964533947E+01
              0.101395711929618E+01
             -0.215572414108055E+01
              0.329374270046562E+02
             -0.239820222202139E+02
             -0.494287142300520E+02
             -0.161520433893681E+02
              0.120694898661558E+02
             -0.108320084327124E+01
              0.721453835989076E+02
              0.614019348413294E+02
             -0.351488711926258E+02
              0.127276424690960E+02
             -0.770652716900461E+02
              0.617931600978366E+02
              0.201805022074773E+02
              0.600746928715680E+02
              0.394738916631501E+02
             -0.192132465312855E+02
              0.145427045927971E+02
             -0.283877366787681E+02
              0.794357009182605E+01
              0.386217762809049E+02
              0.409554921034427E+02
             -0.147939575716584E+02
              0.909782576084535E+02
             -0.345303521752875E+02
             -0.248577989384375E+02
              0.364617083201438E+02
              0.163089797548827E+02
              0.272914541325962E+02
             -0.520159614905725E+02
             -0.145911326860471E+01
              0.510603087704932E+02
              0.663242338237509E+02
             -0.660278183026351E+02
              0.470305443026052E+01
              0.248952528171243E+02
              0.121218269897795E+02
              0.276099176364140E+02
              0.584825758204768E+02
             -0.353526783968938E+02
             -0.387557455113571E+02
             -0.503906328244427E+02
             -0.779768687514064E+01
             -0.459640416121115E+02
              0.450115880727225E+01
             -0.850788197457882E+01
             -0.358220599609508E+02
[...]
              0.447051514922902E+02
              0.246980092755929E+02
              0.313804769512701E+02
             -0.507154853114484E+02
             -0.485538469199337E+02
             -0.122819759993819E+02
             -0.475894365145955E+02
              0.761881976939709E+02
              0.652966436300943E+02
              0.312028303434255E+02
              0.844975570261327E+02
             -0.439758328367956E+02
             -0.179194921232369E+02
             -0.249327436854789E+02
              0.698921978275777E+02

 BEEF-vdW xc energy contributions
            1 :    -640.5313748601113
            2 :     576.9379607657274
            3 :    -470.3941023014995
            4 :     352.0839231896626
            5 :    -249.4493633211896
            6 :     175.7529260675435
            7 :    -128.5943427053479
            8 :     96.68662900883419
            9 :    -69.43342638574200
           10 :     43.07945020136958
           11 :    -20.48390647158885
           12 :     6.240210860448315
           13 :    -1.631124834588036
           14 :     3.155423155150743
           15 :    -5.116940136767880
           16 :     3.681144408306750
           17 :    0.9189719667286909
           18 :    -5.493275909144813
           19 :     7.065499605579816
           20 :    -5.412818711607770
           21 :     3.074008038409374
           22 :    -3.097379339162671
           23 :     6.535554057466584
           24 :    -11.69663182088834
           25 :     15.59653043944604
           26 :    -16.29059503791245
           27 :     14.19157638219394
           28 :    -11.44545602210644
           29 :     10.04466707017707
           30 :    -10.28949445710793
           31 :    -54.88111390341805
           32 :    -37.60791050425996

     Writing all to output data dir ./GaN.save/

     General routines

     Parallel routines

     PAW routines

   This run was terminated on:  22:26:17  27Mar2024

   JOB DONE.