     Program PWSCF v.7.1 starts on 24Apr2024 at  7:55:41

     Reading input from espresso.pwi
Warning: card &CELL ignored
Warning: card    CELL_DYNAMICS    = 'BFGS' ignored
Warning: card / ignored

     Current dimensions of program PWSCF are:
     Max number of different atomic species (ntypx) = 10
     Max number of k-points (npk) =  40000
     Max angular momentum in pseudopotentials (lmaxx) =  4
     file Ga.pbe-dn-kjpaw_psl.1.0.0.UPF: wavefunction(s)  4S renormalized
     file N.pbe-n-kjpaw_psl.1.0.0.UPF: wavefunction(s)  2S renormalized

     IMPORTANT: XC functional enforced from input :
     Exchange-correlation= BEEF-VDW
                           (   1   4  43  14   2   0   0)
     Any further DFT definition will be discarded
     Please, verify this is what you really want

     K-points division:     npool     =       2
     R & G space division:  proc/nbgrp/npool/nimage =      64
     Subspace diagonalization in iterative solution of the eigenvalue problem:
     a serial algorithm will be used

     Using Slab Decomposition

     bravais-lattice index     =            4
     lattice parameter (alat)  =      30.6565  a.u.
     unit-cell volume          =   24400.9461 (a.u.)^3
     number of atoms/cell      =          299
     number of atomic types    =            2
     number of electrons       =      2696.00
     number of Kohn-Sham states=         1618
     kinetic-energy cutoff     =      70.0000  Ry
     charge density cutoff     =     350.0000  Ry
     scf convergence threshold =      1.0E-07
     mixing beta               =       0.7000
     number of iterations used =            8  plain     mixing
     energy convergence thresh.=      1.0E-04
     force convergence thresh. =      1.0E-03
     Exchange-correlation= BEEF-VDW
                           (   1   4  43  14   2   0   0)
     nstep                     =           50

     celldm(1)=  30.656540  celldm(2)=   0.000000  celldm(3)=   0.977927
     celldm(4)=   0.000000  celldm(5)=   0.000000  celldm(6)=   0.000000

     crystal axes: (cart. coord. in units of alat)
               a(1) = (   1.000000   0.000000   0.000000 )
               a(2) = (  -0.500000   0.866025   0.000000 )
               a(3) = (   0.000000   0.000000   0.977927 )

     reciprocal axes: (cart. coord. in units 2 pi/alat)
               b(1) = (  1.000000  0.577350 -0.000000 )
               b(2) = (  0.000000  1.154701  0.000000 )
               b(3) = (  0.000000 -0.000000  1.022571 )

     PseudoPot. # 1 for Ga read from file:
     //group///packages/espresso/pseudo/psl_1.0.0/pslibrary.1.0.0/pbe/PSEUDOPOTENTIALS/Ga.pbe-dn-kjpaw_psl.1.0.0.UPF
     MD5 check sum: cd2a01e492f15b435d17032472d8505c
     Pseudo is Projector augmented-wave + core cor, Zval = 13.0
     Generated using 'atomic' code by A. Dal Corso  v.7.1
     Shape of augmentation charge: PSQ
     Using radial grid of 1205 points,  6 beta functions with:
                l(1) =   0
                l(2) =   0
                l(3) =   1
                l(4) =   1
                l(5) =   2
                l(6) =   2
     Q(r) pseudized with 0 coefficients

     PseudoPot. # 2 for N  read from file:
     //group///packages/espresso/pseudo/psl_1.0.0/pslibrary.1.0.0/pbe/PSEUDOPOTENTIALS/N.pbe-n-kjpaw_psl.1.0.0.UPF
     MD5 check sum: f77f775694dac7e2c3fe1c82443d1a16
     Pseudo is Projector augmented-wave + core cor, Zval =  5.0
     Generated using 'atomic' code by A. Dal Corso  v.7.1
     Shape of augmentation charge: PSQ
     Using radial grid of 1085 points,  4 beta functions with:
                l(1) =   0
                l(2) =   0
                l(3) =   1
                l(4) =   1
     Q(r) pseudized with 0 coefficients

     atomic species   valence    mass     pseudopotential
        Ga            13.00    69.72300     Ga( 1.00)
        N              5.00    14.00700     N ( 1.00)

      2 Sym. Ops. (no inversion) found

                                    s                        frac. trans.

      isym =  1     identity

 cryst.   s( 1) = (     1          0          0      )
                  (     0          1          0      )
                  (     0          0          1      )

 cart.    s( 1) = (  1.0000000  0.0000000  0.0000000 )
                  (  0.0000000  1.0000000  0.0000000 )
                  (  0.0000000  0.0000000  1.0000000 )

      isym =  2     inv. 180 deg rotation - cryst. axis [0,1,0]

 cryst.   s( 2) = (     1          1          0      )
                  (     0         -1          0      )
                  (     0          0          1      )

 cart.    s( 2) = (  0.5000000  0.8660254  0.0000000 )
                  (  0.8660254 -0.5000000  0.0000000 )
                  (  0.0000000  0.0000000  1.0000000 )

     point group C_s (m)
     there are  2 classes
     the character table:

       E     s
A'     1.00  1.00
A''    1.00 -1.00

     the symmetry operations in each class and the name of the first element:

     E        1
          identity
     s        2
          inv. 180 deg rotation - cryst. axis [0,1,0]

   Cartesian axes

     site n.     atom                  positions (alat units)
         1           Ga  tau(   1) = (   0.1000001   0.0577350   0.1627148  )
         2           Ga  tau(   2) = (   0.1000001   0.0577350   0.4886906  )
         3           Ga  tau(   3) = (   0.1000001   0.0577350   0.8146665  )
         4           Ga  tau(   4) = (   0.0000001   0.2309401   0.1627148  )
         5           Ga  tau(   5) = (   0.0000001   0.2309401   0.4886906  )
         6           Ga  tau(   6) = (   0.0000001   0.2309401   0.8146665  )
         7           Ga  tau(   7) = (  -0.0999999   0.4041451   0.1627148  )
         8           Ga  tau(   8) = (  -0.0999999   0.4041451   0.4886906  )
         9           Ga  tau(   9) = (  -0.0999999   0.4041451   0.8146665  )
        10           Ga  tau(  10) = (  -0.1999999   0.5773502   0.1627148  )
        11           Ga  tau(  11) = (  -0.1999999   0.5773502   0.4886906  )
        12           Ga  tau(  12) = (  -0.1999999   0.5773502   0.8146665  )
        13           Ga  tau(  13) = (  -0.2999999   0.7505553   0.1627148  )
        14           Ga  tau(  14) = (  -0.2999999   0.7505553   0.4886906  )
        15           Ga  tau(  15) = (  -0.2999999   0.7505553   0.8146665  )
        16           Ga  tau(  16) = (   0.3000001   0.0577350   0.1627148  )
        17           Ga  tau(  17) = (   0.3000001   0.0577350   0.4886906  )
        18           Ga  tau(  18) = (   0.3000001   0.0577350   0.8146665  )
        19           Ga  tau(  19) = (   0.2000001   0.2309401   0.1627148  )
        20           Ga  tau(  20) = (   0.2000001   0.2309401   0.4886906  )
        21           Ga  tau(  21) = (   0.2000001   0.2309401   0.8146665  )
        22           Ga  tau(  22) = (   0.1000001   0.4041451   0.1627148  )
        23           Ga  tau(  23) = (   0.1000001   0.4041451   0.4886906  )
        24           Ga  tau(  24) = (   0.1000001   0.4041451   0.8146665  )
        25           Ga  tau(  25) = (   0.0000001   0.5773502   0.1627148  )
        26           Ga  tau(  26) = (   0.0000001   0.5773502   0.4886906  )
        27           Ga  tau(  27) = (   0.0000001   0.5773502   0.8146665  )
        28           Ga  tau(  28) = (  -0.0999999   0.7505553   0.1627148  )
        29           Ga  tau(  29) = (  -0.0999999   0.7505553   0.4886906  )
        30           Ga  tau(  30) = (  -0.0999999   0.7505553   0.8146665  )
        31           Ga  tau(  31) = (   0.5000001   0.0577350   0.1627148  )
        32           Ga  tau(  32) = (   0.5000001   0.0577350   0.4886906  )
        33           Ga  tau(  33) = (   0.5000001   0.0577350   0.8146665  )
        34           Ga  tau(  34) = (   0.4000001   0.2309401   0.1627148  )
        35           Ga  tau(  35) = (   0.4000001   0.2309401   0.4886906  )
        36           Ga  tau(  36) = (   0.4000001   0.2309401   0.8146665  )
        37           Ga  tau(  37) = (   0.3000001   0.4041451   0.1627148  )
        38           Ga  tau(  38) = (   0.3000001   0.4041451   0.4886906  )
        39           Ga  tau(  39) = (   0.3000001   0.4041451   0.8146665  )
        40           Ga  tau(  40) = (   0.2000001   0.5773502   0.1627148  )
        41           Ga  tau(  41) = (   0.2000001   0.5773502   0.4886906  )
        42           Ga  tau(  42) = (   0.2000001   0.5773502   0.8146665  )
        43           Ga  tau(  43) = (   0.1000001   0.7505553   0.1627148  )
        44           Ga  tau(  44) = (   0.1000001   0.7505553   0.4886906  )
        45           Ga  tau(  45) = (   0.1000001   0.7505553   0.8146665  )
        46           Ga  tau(  46) = (   0.7000001   0.0577350   0.1627148  )
        47           Ga  tau(  47) = (   0.7000001   0.0577350   0.4886906  )
        48           Ga  tau(  48) = (   0.7000001   0.0577350   0.8146665  )
        49           Ga  tau(  49) = (   0.6000001   0.2309401   0.1627148  )
        50           Ga  tau(  50) = (   0.6000001   0.2309401   0.4886906  )
        51           Ga  tau(  51) = (   0.6000001   0.2309401   0.8146665  )
        52           Ga  tau(  52) = (   0.5000001   0.4041451   0.1627148  )
        53           Ga  tau(  53) = (   0.5000001   0.4041451   0.4886906  )
        54           Ga  tau(  54) = (   0.5000001   0.4041451   0.8146665  )
        55           Ga  tau(  55) = (   0.4000001   0.5773502   0.1627148  )
        56           Ga  tau(  56) = (   0.4000001   0.5773502   0.4886906  )
        57           Ga  tau(  57) = (   0.4000001   0.5773502   0.8146665  )
        58           Ga  tau(  58) = (   0.3000001   0.7505553   0.1627148  )
        59           Ga  tau(  59) = (   0.3000001   0.7505553   0.4886906  )
        60           Ga  tau(  60) = (   0.3000001   0.7505553   0.8146665  )
[...]
       285           N   tau( 285) = (   0.7999999   0.1154701   0.1225140  )
       286           N   tau( 286) = (   0.7999999   0.1154701   0.4484898  )
       287           N   tau( 287) = (   0.7999999   0.1154701   0.7744656  )
       288           N   tau( 288) = (   0.6999999   0.2886752   0.1225140  )
       289           N   tau( 289) = (   0.6999999   0.2886752   0.4484898  )
       290           N   tau( 290) = (   0.6999999   0.2886752   0.7744656  )
       291           N   tau( 291) = (   0.5999999   0.4618803   0.1225140  )
       292           N   tau( 292) = (   0.5999999   0.4618803   0.4484898  )
       293           N   tau( 293) = (   0.5999999   0.4618803   0.7744656  )
       294           N   tau( 294) = (   0.4999999   0.6350854   0.1225140  )
       295           N   tau( 295) = (   0.4999999   0.6350854   0.4484898  )
       296           N   tau( 296) = (   0.4999999   0.6350854   0.7744656  )
       297           N   tau( 297) = (   0.3999999   0.8082905   0.1225140  )
       298           N   tau( 298) = (   0.3999999   0.8082905   0.4484898  )
       299           N   tau( 299) = (   0.3999999   0.8082905   0.7744656  )

   Crystallographic axes

     site n.     atom                  positions (cryst. coord.)
         1           Ga  tau(   1) = (  0.1333334  0.0666666  0.1663874  )
[...]
     atom   54 type  1   force =     0.00000000    0.00000000    0.00000000
     atom   55 type  1   force =     0.00000000    0.00000000    0.00000000
     atom   56 type  1   force =     0.00000000    0.00000000    0.00000000
     atom   57 type  1   force =     0.00000000    0.00000000    0.00000000
     atom   58 type  1   force =     0.00000000    0.00000000    0.00000000
     atom   59 type  1   force =     0.00000000    0.00000000    0.00000000
     atom   60 type  1   force =     0.00000000    0.00000000    0.00000000
[...]
     atom  285 type  2   force =     0.00000000    0.00000000    0.00000000
     atom  286 type  2   force =     0.00000000    0.00000000    0.00000000
     atom  287 type  2   force =     0.00000000    0.00000000    0.00000000
     atom  288 type  2   force =     0.00000000    0.00000000    0.00000000
     atom  289 type  2   force =     0.00000000    0.00000000    0.00000000
     atom  290 type  2   force =     0.00000000    0.00000000    0.00000000
     atom  291 type  2   force =     0.00000000    0.00000000    0.00000000
     atom  292 type  2   force =     0.00000000    0.00000000    0.00000000
     atom  293 type  2   force =     0.00000000    0.00000000    0.00000000
     atom  294 type  2   force =     0.00000000    0.00000000    0.00000000
     atom  295 type  2   force =     0.00000000    0.00000000    0.00000000
     atom  296 type  2   force =     0.00000000    0.00000000    0.00000000
     atom  297 type  2   force =     0.00000000    0.00000000    0.00000000
     atom  298 type  2   force =     0.00000000    0.00000000    0.00000000
     atom  299 type  2   force =     0.00000000    0.00000000    0.00000000
     The SCF correction term to forces
     atom    1 type  1   force =    -0.00000026   -0.00000015   -0.00000002
     atom    2 type  1   force =     0.00000011    0.00000007   -0.00001837
     atom    3 type  1   force =    -0.00000047   -0.00000027    0.00000340
     atom    4 type  1   force =     0.00000454   -0.00002150    0.00001329
     atom    5 type  1   force =    -0.00000040   -0.00000330   -0.00000980
     atom    6 type  1   force =    -0.00000149   -0.00000669    0.00000097
     atom    7 type  1   force =    -0.00001192   -0.00000687    0.00000867
     atom    8 type  1   force =    -0.00001438   -0.00000011   -0.00000590
     atom    9 type  1   force =    -0.00000872   -0.00000935   -0.00000286
     atom   10 type  1   force =    -0.00001191   -0.00000689    0.00000867
     atom   11 type  1   force =    -0.00000728   -0.00001240   -0.00000590
     atom   12 type  1   force =    -0.00001246   -0.00000287   -0.00000286
     atom   13 type  1   force =    -0.00001635    0.00001468    0.00001329
     atom   14 type  1   force =    -0.00000305    0.00000130   -0.00000980
     atom   15 type  1   force =    -0.00000654    0.00000206    0.00000097
     atom   16 type  1   force =    -0.00002120    0.00000575    0.00001283
     atom   17 type  1   force =    -0.00000305    0.00000179   -0.00000968
     atom   18 type  1   force =    -0.00000558    0.00000380    0.00000095
     atom   19 type  1   force =    -0.00000562   -0.00002123    0.00001283
     atom   20 type  1   force =     0.00000002   -0.00000353   -0.00000968
     atom   21 type  1   force =     0.00000051   -0.00000673    0.00000095
     atom   22 type  1   force =    -0.00000030   -0.00000979    0.00001034
     atom   23 type  1   force =    -0.00000026   -0.00000080   -0.00000821
     atom   24 type  1   force =    -0.00000073   -0.00001396   -0.00000313
     atom   25 type  1   force =    -0.00000433   -0.00000250    0.00001582
     atom   26 type  1   force =    -0.00000353   -0.00000204   -0.00001017
     atom   27 type  1   force =    -0.00001035   -0.00000598   -0.00000460
     atom   28 type  1   force =    -0.00000863    0.00000464    0.00001034
     atom   29 type  1   force =    -0.00000082    0.00000018   -0.00000821
     atom   30 type  1   force =    -0.00001245    0.00000635   -0.00000313
     atom   31 type  1   force =     0.00000123    0.00001408    0.00000912
     atom   32 type  1   force =     0.00000784    0.00001332   -0.00000654
     atom   33 type  1   force =    -0.00000290    0.00001228   -0.00000265
     atom   34 type  1   force =     0.00000731    0.00000422    0.00000619
     atom   35 type  1   force =     0.00001904    0.00001099   -0.00000601
     atom   36 type  1   force =     0.00000084    0.00000049   -0.00000421
     atom   37 type  1   force =     0.00001281   -0.00000598    0.00000912
     atom   38 type  1   force =     0.00001546    0.00000013   -0.00000654
     atom   39 type  1   force =     0.00000918   -0.00000865   -0.00000265
     atom   40 type  1   force =     0.00000451   -0.00000242    0.00001571
     atom   41 type  1   force =     0.00000359   -0.00000203   -0.00001046
     atom   42 type  1   force =     0.00001033   -0.00000546   -0.00000446
     atom   43 type  1   force =     0.00000016    0.00000511    0.00001571
     atom   44 type  1   force =     0.00000004    0.00000413   -0.00001046
     atom   45 type  1   force =     0.00000043    0.00001168   -0.00000446
     atom   46 type  1   force =    -0.00000020    0.00001411    0.00000878
     atom   47 type  1   force =    -0.00000733    0.00001328   -0.00000640
     atom   48 type  1   force =     0.00000422    0.00001239   -0.00000239
     atom   49 type  1   force =     0.00000022    0.00001152    0.00000900
     atom   50 type  1   force =    -0.00000010    0.00001285   -0.00001445
     atom   51 type  1   force =     0.00000051    0.00000437   -0.00000365
     atom   52 type  1   force =     0.00001008   -0.00000557    0.00000900
     atom   53 type  1   force =     0.00001108   -0.00000651   -0.00001445
     atom   54 type  1   force =     0.00000404   -0.00000174   -0.00000365
     atom   55 type  1   force =     0.00001212   -0.00000723    0.00000878
     atom   56 type  1   force =     0.00000784   -0.00001299   -0.00000640
     atom   57 type  1   force =     0.00001284   -0.00000253   -0.00000239
     atom   58 type  1   force =     0.00000916    0.00000529    0.00000996
     atom   59 type  1   force =     0.00000067    0.00000039   -0.00000810
     atom   60 type  1   force =     0.00001278    0.00000738   -0.00000275
[...]
     atom  285 type  2   force =     0.00000193    0.00000326    0.00000365
     atom  286 type  2   force =    -0.00000482    0.00000380   -0.00000316
     atom  287 type  2   force =     0.00000011    0.00000287   -0.00000067
     atom  288 type  2   force =    -0.00000342    0.00000180    0.00000562
     atom  289 type  2   force =    -0.00000601    0.00000318   -0.00000319
     atom  290 type  2   force =    -0.00000068    0.00000037   -0.00000220
     atom  291 type  2   force =    -0.00000015   -0.00000387    0.00000562
     atom  292 type  2   force =    -0.00000025   -0.00000680   -0.00000319
     atom  293 type  2   force =    -0.00000002   -0.00000077   -0.00000220
     atom  294 type  2   force =     0.00000379    0.00000005    0.00000365
     atom  295 type  2   force =     0.00000088   -0.00000607   -0.00000316
     atom  296 type  2   force =     0.00000254   -0.00000134   -0.00000067
     atom  297 type  2   force =     0.00000723    0.00000418    0.00000444
     atom  298 type  2   force =    -0.00000045   -0.00000026   -0.00000517
     atom  299 type  2   force =     0.00000293    0.00000169    0.00000109

     Total force =     0.012540     Total SCF correction =     0.000178

     Computing stress (Cartesian axis) and pressure

[...]

          total   stress  (Ry/bohr**3)                   (kbar)     P=       11.39
   0.00006940  -0.00000000   0.00000003           10.21       -0.00        0.00
  -0.00000000   0.00006940   0.00000002           -0.00       10.21        0.00
   0.00000003   0.00000002   0.00009342            0.00        0.00       13.74

     kinetic stress (kbar)  18385.10     -0.00      0.00
                               -0.00  18385.10      0.00
                                0.00      0.00  18381.96

     local   stress (kbar)   5402.93      0.34      0.05
                                0.34   5402.36      0.03
                                0.05      0.03   3748.71

     nonloc. stress (kbar)     90.02      0.00     -0.00
                                0.00     90.01     -0.00
                               -0.00     -0.00    100.49

     hartree stress (kbar)  19609.99     -0.16     -0.03
                               -0.16  19610.17     -0.02
                               -0.03     -0.02  20364.30

     exc-cor stress (kbar)   5223.96      0.00     -0.00
                                0.00   5223.96     -0.00
                               -0.00     -0.00   5224.28

     corecor stress (kbar) -14106.44     -0.00     -0.00
                               -0.00 -14106.44     -0.00
                               -0.00     -0.00 -14105.89

     ewald   stress (kbar) -34757.33     -0.18     -0.02
                               -0.18 -34756.90     -0.01
                               -0.02     -0.01 -33861.21

     hubbard stress (kbar)      0.00      0.00      0.00
                                0.00      0.00      0.00
                                0.00      0.00      0.00

     DFT-D   stress (kbar)      0.00      0.00      0.00
                                0.00      0.00      0.00
                                0.00      0.00      0.00

     XDM     stress (kbar)      0.00      0.00      0.00
                                0.00      0.00      0.00
                                0.00      0.00      0.00

     dft-nl  stress (kbar)    161.96      0.00      0.00
                                0.00    161.96      0.00
                                0.00      0.00    161.10

     TS-vdW  stress (kbar)      0.00      0.00      0.00
                                0.00      0.00      0.00
                                0.00      0.00      0.00

     MDB     stress (kbar)      0.00      0.00      0.00
                                0.00      0.00      0.00
                                0.00      0.00      0.00

     3D-RISM stress (kbar)      0.00      0.00      0.00
                                0.00      0.00      0.00
                                0.00      0.00      0.00

     Energy error            =      3.5E-04 Ry
     Gradient error          =      5.5E-03 Ry/Bohr

     number of scf cycles    =   3
     number of bfgs steps    =   2

     energy             old  =  -46813.5869378348 Ry
     energy             new  =  -46813.5872882257 Ry

     CASE: energy            _new < energy            _old

     new trust radius        =       0.0135142808 bohr
     new conv_thr            =       0.0000000035 Ry

ATOMIC_POSITIONS (angstrom)
Ga            1.6216448017        0.9362555918        2.6423699888
Ga            1.6218413394        0.9363690630        7.9412355386
Ga            1.6218703481        0.9363858111       13.2119899635
Ga            0.0011921826        3.7530670253        2.6369583040
Ga            0.0017582655        3.7508207751        7.9279430440
Ga           -0.0002159620        3.7475533788       13.2169958746
Ga           -1.6223394272        6.5568974123        2.6388672034
Ga           -1.6223998662        6.5573681209        7.9291356145
Ga           -1.6223845083        6.5565050738       13.2161829029
Ga           -3.2440997535        9.3658686952        2.6388672034
Ga           -3.2437223274        9.3655809993        7.9291356145
Ga           -3.2444620692        9.3660258231       13.2161829029
Ga           -4.8605222915       12.1738035067        2.6369583040
Ga           -4.8621845598       12.1754168739        7.9279430440
Ga           -4.8660013218       12.1753408410       13.2169958746
Ga            4.8723392114        0.9318696763        2.6365816417
Ga            4.8700603500        0.9323730769        7.9276601331
Ga            4.8681346622        0.9358949633       13.2166441416
Ga            3.2431936922        3.7536324884        2.6365816417
Ga            3.2424902192        3.7514072363        7.9276601331
Ga            3.2445774184        3.7479785986       13.2166441416
Ga            1.6225734735        6.5593529326        2.6387064772
Ga            1.6225922037        6.5602796479        7.9306024942
Ga            1.6225159886        6.5569875212       13.2158540849
Ga            0.0003491885        9.3664046433        2.6390774701
Ga            0.0005122595        9.3664987924        7.9287645584
Ga            0.0002807869        9.3663651516       13.2160196656
Ga           -1.6195167602       12.1748179402        2.6387064772
Ga           -1.6187048361       12.1743708034        7.9306024942
Ga           -1.6215940090       12.1759508626       13.2158540849
Ga            8.1120102609        0.9359582631        2.6387522888
Ga            8.1124117810        0.9357685358        7.9290020207
Ga            8.1116826773        0.9362098030       13.2160573536
Ga            6.4902558041        3.7471494648        2.6390880720
Ga            6.4900769307        3.7470461922        7.9314185031
Ga            6.4898873382        3.7469367309       13.2161004906
Ga            4.8665700371        6.5572256240        2.6387522888
Ga            4.8666064885        6.5576682143        7.9290020207
Ga            4.8666240852        6.5568161583       13.2160573536
Ga            3.2445596291        9.3663396117        2.6392945613
Ga            3.2444022915        9.3664328174        7.9289835230
Ga            3.2446256798        9.3663050137       13.2162349442
Ga            1.6223980898       12.1760058161        2.6392945613
Ga            1.6224001395       12.1758229549        7.9289835230
Ga            1.6224011523       12.1760803166       13.2162349442
Ga           11.3549147129        0.9356254845        2.6387277915
Ga           11.3544570135        0.9354212818        7.9290234253
Ga           11.3553062345        0.9358853394       13.2160604173
Ga            9.7332534317        3.7467516127        2.6394248701
Ga            9.7332520847        3.7467460209        7.9292191001
Ga            9.7332625332        3.7467708484       13.2164513090
Ga            8.1114100678        6.5558667208        2.6394248701
Ga            8.1114045517        6.5558683502        7.9292191001
Ga            8.1114312772        6.5558649850       13.2164513090
Ga            6.4877340683        9.3658296507        2.6387277915
Ga            6.4873283739        9.3655353728        7.9290234253
Ga            6.4881548701        9.3660387910       13.2160604173
Ga            4.8638292346       12.1743361572        2.6390063538
Ga            4.8630244656       12.1738715236        7.9308053710
Ga            4.8659805142       12.1755781991       13.2161050436
[...]
N            12.9788288497        1.8733071587        1.9873917291
N            12.9798187392        1.8731866738        7.2761014700
N            12.9786067049        1.8729700965       12.5641694102
N            11.3560609352        4.6830479395        1.9867654207
N            11.3563819415        4.6828666705        7.2757354070
N            11.3558459801        4.6831784962       12.5639603179
N             9.7336666303        7.4931173057        1.9867654207
N             9.7336701499        7.4934859398        7.2757354070
N             9.7336722181        7.4928658708       12.5639603179
N             8.1117436934       10.3033459344        1.9873917291
N             8.1121342952       10.3042634464        7.2761014700
N             8.1113407166       10.3033220825       12.5641694102
N             6.4870847737       13.1115273296        1.9851624776
N             6.4864743512       13.1111749020        7.2758222010
N             6.4893736886       13.1128488352       12.5642407221

     Writing config-only to output data dir ./GaN.save/
     NEW-OLD atomic charge density approx. for the potential

     Check: negative core charge=   -0.000003

[...]

     Self-consistent Calculation

[...]

     c_bands:  1 eigenvalues not converged
     ethr =  1.43E-11,  avg # of iterations = 18.8

[...]

     ethr =  6.29E-13,  avg # of iterations = 17.7

     Non-local corr. energy    =      81.66610673 Ry

     total energy              =  -46813.58757410 Ry
     estimated scf accuracy    <          8.5E-09 Ry

     iteration # 14     ecut=    70.00 Ry     beta= 0.70
     Davidson diagonalization with overlap

     max_seconds     =  154800.00
     Calculation stopped in k-point loop, point #     2
     Calculation stopped in scf loop at iteration #    13

     Writing config to output data dir ./GaN.save/

     General routines

     Parallel routines

     PAW routines

   This run was terminated on:   3: 7:24  26Apr2024

   JOB DONE.