     Program PWSCF v.7.1 starts on  2May2024 at 13:20:22

     Reading input from espresso.pwi
Warning: card &CELL ignored
Warning: card    CELL_DYNAMICS    = 'BFGS' ignored
Warning: card / ignored

     Current dimensions of program PWSCF are:
     Max number of different atomic species (ntypx) = 10
     Max number of k-points (npk) =  40000
     Max angular momentum in pseudopotentials (lmaxx) =  4
     file Ga.pbe-dn-kjpaw_psl.1.0.0.UPF: wavefunction(s)  4S renormalized
     file N.pbe-n-kjpaw_psl.1.0.0.UPF: wavefunction(s)  2S renormalized

     IMPORTANT: XC functional enforced from input :
     Exchange-correlation= BEEF-VDW
                           (   1   4  43  14   2   0   0)
     Any further DFT definition will be discarded
     Please, verify this is what you really want

     K-points division:     npool     =       2
     R & G space division:  proc/nbgrp/npool/nimage =      64
     Subspace diagonalization in iterative solution of the eigenvalue problem:
     a serial algorithm will be used

     Using Slab Decomposition

     bravais-lattice index     =            4
     lattice parameter (alat)  =      30.6565  a.u.
     unit-cell volume          =   24400.9461 (a.u.)^3
     number of atoms/cell      =          299
     number of atomic types    =            2
     number of electrons       =      2696.00
     number of Kohn-Sham states=         1618
     kinetic-energy cutoff     =      70.0000  Ry
     charge density cutoff     =     350.0000  Ry
     scf convergence threshold =      1.0E-07
     mixing beta               =       0.7000
     number of iterations used =            8  plain     mixing
     energy convergence thresh.=      1.0E-04
     force convergence thresh. =      1.0E-03
     Exchange-correlation= BEEF-VDW
                           (   1   4  43  14   2   0   0)
     nstep                     =           50

     celldm(1)=  30.656540  celldm(2)=   0.000000  celldm(3)=   0.977927
     celldm(4)=   0.000000  celldm(5)=   0.000000  celldm(6)=   0.000000

     crystal axes: (cart. coord. in units of alat)
               a(1) = (   1.000000   0.000000   0.000000 )
               a(2) = (  -0.500000   0.866025   0.000000 )
               a(3) = (   0.000000   0.000000   0.977927 )

     reciprocal axes: (cart. coord. in units 2 pi/alat)
               b(1) = (  1.000000  0.577350 -0.000000 )
               b(2) = (  0.000000  1.154701  0.000000 )
               b(3) = (  0.000000 -0.000000  1.022571 )

     PseudoPot. # 1 for Ga read from file:
     //group///packages/espresso/pseudo/psl_1.0.0/pslibrary.1.0.0/pbe/PSEUDOPOTENTIALS/Ga.pbe-dn-kjpaw_psl.1.0.0.UPF
     MD5 check sum: cd2a01e492f15b435d17032472d8505c
     Pseudo is Projector augmented-wave + core cor, Zval = 13.0
     Generated using 'atomic' code by A. Dal Corso  v.7.1
     Shape of augmentation charge: PSQ
     Using radial grid of 1205 points,  6 beta functions with:
                l(1) =   0
                l(2) =   0
                l(3) =   1
                l(4) =   1
                l(5) =   2
                l(6) =   2
     Q(r) pseudized with 0 coefficients

     PseudoPot. # 2 for N  read from file:
     //group///packages/espresso/pseudo/psl_1.0.0/pslibrary.1.0.0/pbe/PSEUDOPOTENTIALS/N.pbe-n-kjpaw_psl.1.0.0.UPF
     MD5 check sum: f77f775694dac7e2c3fe1c82443d1a16
     Pseudo is Projector augmented-wave + core cor, Zval =  5.0
     Generated using 'atomic' code by A. Dal Corso  v.7.1
     Shape of augmentation charge: PSQ
     Using radial grid of 1085 points,  4 beta functions with:
                l(1) =   0
                l(2) =   0
                l(3) =   1
                l(4) =   1
     Q(r) pseudized with 0 coefficients

     atomic species   valence    mass     pseudopotential
        Ga            13.00    69.72300     Ga( 1.00)
        N              5.00    14.00700     N ( 1.00)

      2 Sym. Ops. (no inversion) found

                                    s                        frac. trans.

      isym =  1     identity

 cryst.   s( 1) = (     1          0          0      )
                  (     0          1          0      )
                  (     0          0          1      )

 cart.    s( 1) = (  1.0000000  0.0000000  0.0000000 )
                  (  0.0000000  1.0000000  0.0000000 )
                  (  0.0000000  0.0000000  1.0000000 )

      isym =  2     inv. 180 deg rotation - cryst. axis [0,1,0]

 cryst.   s( 2) = (     1          1          0      )
                  (     0         -1          0      )
                  (     0          0          1      )

 cart.    s( 2) = (  0.5000000  0.8660254  0.0000000 )
                  (  0.8660254 -0.5000000  0.0000000 )
                  (  0.0000000  0.0000000  1.0000000 )

     point group C_s (m)
     there are  2 classes
     the character table:

       E     s
A'     1.00  1.00
A''    1.00 -1.00

     the symmetry operations in each class and the name of the first element:

     E        1
          identity
     s        2
          inv. 180 deg rotation - cryst. axis [0,1,0]

   Cartesian axes

     site n.     atom                  positions (alat units)
         1           Ga  tau(   1) = (   0.1000001   0.0577350   0.1627148  )
         2           Ga  tau(   2) = (   0.1000001   0.0577350   0.4886906  )
         3           Ga  tau(   3) = (   0.1000001   0.0577350   0.8146665  )
         4           Ga  tau(   4) = (   0.0000001   0.2309401   0.1627148  )
         5           Ga  tau(   5) = (   0.0000001   0.2309401   0.4886906  )
         6           Ga  tau(   6) = (   0.0000001   0.2309401   0.8146665  )
         7           Ga  tau(   7) = (  -0.0999999   0.4041451   0.1627148  )
         8           Ga  tau(   8) = (  -0.0999999   0.4041451   0.4886906  )
         9           Ga  tau(   9) = (  -0.0999999   0.4041451   0.8146665  )
        10           Ga  tau(  10) = (  -0.1999999   0.5773502   0.1627148  )
        11           Ga  tau(  11) = (  -0.1999999   0.5773502   0.4886906  )
        12           Ga  tau(  12) = (  -0.1999999   0.5773502   0.8146665  )
        13           Ga  tau(  13) = (  -0.2999999   0.7505553   0.1627148  )
        14           Ga  tau(  14) = (  -0.2999999   0.7505553   0.4886906  )
        15           Ga  tau(  15) = (  -0.2999999   0.7505553   0.8146665  )
        16           Ga  tau(  16) = (   0.3000001   0.0577350   0.1627148  )
        17           Ga  tau(  17) = (   0.3000001   0.0577350   0.4886906  )
        18           Ga  tau(  18) = (   0.3000001   0.0577350   0.8146665  )
        19           Ga  tau(  19) = (   0.2000001   0.2309401   0.1627148  )
        20           Ga  tau(  20) = (   0.2000001   0.2309401   0.4886906  )
        21           Ga  tau(  21) = (   0.2000001   0.2309401   0.8146665  )
        22           Ga  tau(  22) = (   0.1000001   0.4041451   0.1627148  )
        23           Ga  tau(  23) = (   0.1000001   0.4041451   0.4886906  )
        24           Ga  tau(  24) = (   0.1000001   0.4041451   0.8146665  )
        25           Ga  tau(  25) = (   0.0000001   0.5773502   0.1627148  )
        26           Ga  tau(  26) = (   0.0000001   0.5773502   0.4886906  )
        27           Ga  tau(  27) = (   0.0000001   0.5773502   0.8146665  )
        28           Ga  tau(  28) = (  -0.0999999   0.7505553   0.1627148  )
        29           Ga  tau(  29) = (  -0.0999999   0.7505553   0.4886906  )
        30           Ga  tau(  30) = (  -0.0999999   0.7505553   0.8146665  )
        31           Ga  tau(  31) = (   0.5000001   0.0577350   0.1627148  )
        32           Ga  tau(  32) = (   0.5000001   0.0577350   0.4886906  )
        33           Ga  tau(  33) = (   0.5000001   0.0577350   0.8146665  )
        34           Ga  tau(  34) = (   0.4000001   0.2309401   0.1627148  )
        35           Ga  tau(  35) = (   0.4000001   0.2309401   0.4886906  )
        36           Ga  tau(  36) = (   0.4000001   0.2309401   0.8146665  )
        37           Ga  tau(  37) = (   0.3000001   0.4041451   0.1627148  )
        38           Ga  tau(  38) = (   0.3000001   0.4041451   0.4886906  )
        39           Ga  tau(  39) = (   0.3000001   0.4041451   0.8146665  )
        40           Ga  tau(  40) = (   0.2000001   0.5773502   0.1627148  )
        41           Ga  tau(  41) = (   0.2000001   0.5773502   0.4886906  )
        42           Ga  tau(  42) = (   0.2000001   0.5773502   0.8146665  )
        43           Ga  tau(  43) = (   0.1000001   0.7505553   0.1627148  )
        44           Ga  tau(  44) = (   0.1000001   0.7505553   0.4886906  )
        45           Ga  tau(  45) = (   0.1000001   0.7505553   0.8146665  )
        46           Ga  tau(  46) = (   0.7000001   0.0577350   0.1627148  )
        47           Ga  tau(  47) = (   0.7000001   0.0577350   0.4886906  )
        48           Ga  tau(  48) = (   0.7000001   0.0577350   0.8146665  )
        49           Ga  tau(  49) = (   0.6000001   0.2309401   0.1627148  )
        50           Ga  tau(  50) = (   0.6000001   0.2309401   0.4886906  )
        51           Ga  tau(  51) = (   0.6000001   0.2309401   0.8146665  )
        52           Ga  tau(  52) = (   0.5000001   0.4041451   0.1627148  )
        53           Ga  tau(  53) = (   0.5000001   0.4041451   0.4886906  )
        54           Ga  tau(  54) = (   0.5000001   0.4041451   0.8146665  )
        55           Ga  tau(  55) = (   0.4000001   0.5773502   0.1627148  )
        56           Ga  tau(  56) = (   0.4000001   0.5773502   0.4886906  )
        57           Ga  tau(  57) = (   0.4000001   0.5773502   0.8146665  )
        58           Ga  tau(  58) = (   0.3000001   0.7505553   0.1627148  )
        59           Ga  tau(  59) = (   0.3000001   0.7505553   0.4886906  )
        60           Ga  tau(  60) = (   0.3000001   0.7505553   0.8146665  )
[...]
       285           N   tau( 285) = (   0.7999999   0.1154701   0.1225140  )
       286           N   tau( 286) = (   0.7999999   0.1154701   0.4484898  )
       287           N   tau( 287) = (   0.7999999   0.1154701   0.7744656  )
       288           N   tau( 288) = (   0.6999999   0.2886752   0.1225140  )
       289           N   tau( 289) = (   0.6999999   0.2886752   0.4484898  )
       290           N   tau( 290) = (   0.6999999   0.2886752   0.7744656  )
       291           N   tau( 291) = (   0.5999999   0.4618803   0.1225140  )
       292           N   tau( 292) = (   0.5999999   0.4618803   0.4484898  )
       293           N   tau( 293) = (   0.5999999   0.4618803   0.7744656  )
       294           N   tau( 294) = (   0.4999999   0.6350854   0.1225140  )
       295           N   tau( 295) = (   0.4999999   0.6350854   0.4484898  )
       296           N   tau( 296) = (   0.4999999   0.6350854   0.7744656  )
       297           N   tau( 297) = (   0.3999999   0.8082905   0.1225140  )
       298           N   tau( 298) = (   0.3999999   0.8082905   0.4484898  )
       299           N   tau( 299) = (   0.3999999   0.8082905   0.7744656  )

   Crystallographic axes

     site n.     atom                  positions (cryst. coord.)
         1           Ga  tau(   1) = (  0.1333334  0.0666666  0.1663874  )
[...]
     atom   45 type  1   force =     0.00000000    0.00000000    0.00000000
     atom   46 type  1   force =     0.00000000    0.00000000    0.00000000
     atom   47 type  1   force =     0.00000000    0.00000000    0.00000000
     atom   48 type  1   force =     0.00000000    0.00000000    0.00000000
     atom   49 type  1   force =     0.00000000    0.00000000    0.00000000
     atom   50 type  1   force =     0.00000000    0.00000000    0.00000000
     atom   51 type  1   force =     0.00000000    0.00000000    0.00000000
     atom   52 type  1   force =     0.00000000    0.00000000    0.00000000
     atom   53 type  1   force =     0.00000000    0.00000000    0.00000000
     atom   54 type  1   force =     0.00000000    0.00000000    0.00000000
     atom   55 type  1   force =     0.00000000    0.00000000    0.00000000
     atom   56 type  1   force =     0.00000000    0.00000000    0.00000000
     atom   57 type  1   force =     0.00000000    0.00000000    0.00000000
     atom   58 type  1   force =     0.00000000    0.00000000    0.00000000
     atom   59 type  1   force =     0.00000000    0.00000000    0.00000000
     atom   60 type  1   force =     0.00000000    0.00000000    0.00000000
[...]
     atom  285 type  2   force =     0.00000000    0.00000000    0.00000000
     atom  286 type  2   force =     0.00000000    0.00000000    0.00000000
     atom  287 type  2   force =     0.00000000    0.00000000    0.00000000
     atom  288 type  2   force =     0.00000000    0.00000000    0.00000000
     atom  289 type  2   force =     0.00000000    0.00000000    0.00000000
     atom  290 type  2   force =     0.00000000    0.00000000    0.00000000
     atom  291 type  2   force =     0.00000000    0.00000000    0.00000000
     atom  292 type  2   force =     0.00000000    0.00000000    0.00000000
     atom  293 type  2   force =     0.00000000    0.00000000    0.00000000
     atom  294 type  2   force =     0.00000000    0.00000000    0.00000000
     atom  295 type  2   force =     0.00000000    0.00000000    0.00000000
     atom  296 type  2   force =     0.00000000    0.00000000    0.00000000
     atom  297 type  2   force =     0.00000000    0.00000000    0.00000000
     atom  298 type  2   force =     0.00000000    0.00000000    0.00000000
     atom  299 type  2   force =     0.00000000    0.00000000    0.00000000
     The SCF correction term to forces
     atom    1 type  1   force =    -0.00000169   -0.00000098    0.00055560
     atom    2 type  1   force =     0.00000530    0.00000306    0.00020821
     atom    3 type  1   force =     0.00000853    0.00000492   -0.00002812
     atom    4 type  1   force =    -0.00002349    0.00000086   -0.00000996
     atom    5 type  1   force =     0.00001192    0.00000294   -0.00009982
     atom    6 type  1   force =    -0.00000911    0.00004587   -0.00003682
     atom    7 type  1   force =    -0.00000298    0.00003050    0.00000787
     atom    8 type  1   force =     0.00000436    0.00002097   -0.00004618
     atom    9 type  1   force =    -0.00001670    0.00001941    0.00004829
     atom   10 type  1   force =     0.00002492   -0.00001783    0.00000787
     atom   11 type  1   force =     0.00002034   -0.00000671   -0.00004618
     atom   12 type  1   force =     0.00000846   -0.00002417    0.00004829
     atom   13 type  1   force =    -0.00001100   -0.00002078   -0.00000996
     atom   14 type  1   force =     0.00000851    0.00000885   -0.00009982
     atom   15 type  1   force =     0.00003516   -0.00003083   -0.00003682
     atom   16 type  1   force =     0.00000825    0.00004020    0.00000897
     atom   17 type  1   force =    -0.00000235    0.00000399   -0.00010884
     atom   18 type  1   force =     0.00005133   -0.00000067   -0.00003435
     atom   19 type  1   force =     0.00003894   -0.00001295    0.00000897
     atom   20 type  1   force =     0.00000228   -0.00000403   -0.00010884
     atom   21 type  1   force =     0.00002509    0.00004479   -0.00003435
     atom   22 type  1   force =     0.00000651   -0.00002821   -0.00001736
     atom   23 type  1   force =     0.00000423   -0.00004870   -0.00006120
     atom   24 type  1   force =     0.00000719    0.00002648    0.00003414
     atom   25 type  1   force =    -0.00000234   -0.00000135   -0.00001500
     atom   26 type  1   force =     0.00000137    0.00000079   -0.00003066
     atom   27 type  1   force =     0.00000300    0.00000173    0.00003883
     atom   28 type  1   force =    -0.00002117    0.00001975   -0.00001736
     atom   29 type  1   force =    -0.00004006    0.00002801   -0.00006120
     atom   30 type  1   force =     0.00002652   -0.00000702    0.00003414
     atom   31 type  1   force =     0.00002079   -0.00000396    0.00000318
     atom   32 type  1   force =     0.00001084   -0.00000744   -0.00004778
     atom   33 type  1   force =     0.00002043    0.00001233    0.00004933
     atom   34 type  1   force =     0.00001689    0.00000975   -0.00000212
     atom   35 type  1   force =    -0.00000440   -0.00000254   -0.00002572
     atom   36 type  1   force =     0.00002881    0.00001664    0.00004269
     atom   37 type  1   force =     0.00000696    0.00001998    0.00000318
     atom   38 type  1   force =    -0.00000103    0.00001311   -0.00004778
     atom   39 type  1   force =     0.00002089    0.00001152    0.00004933
     atom   40 type  1   force =     0.00000141   -0.00001023   -0.00001740
     atom   41 type  1   force =    -0.00000390   -0.00000734   -0.00003034
     atom   42 type  1   force =    -0.00000018   -0.00000556    0.00004001
     atom   43 type  1   force =    -0.00000815    0.00000634   -0.00001740
     atom   44 type  1   force =    -0.00000830    0.00000030   -0.00003034
     atom   45 type  1   force =    -0.00000491    0.00000263    0.00004001
     atom   46 type  1   force =    -0.00004284   -0.00000892    0.00000211
     atom   47 type  1   force =    -0.00002650   -0.00000980   -0.00004460
     atom   48 type  1   force =    -0.00003591    0.00000904    0.00004930
     atom   49 type  1   force =    -0.00001107   -0.00000207   -0.00000929
     atom   50 type  1   force =    -0.00000923    0.00000093   -0.00002276
     atom   51 type  1   force =    -0.00000993    0.00000527    0.00005543
     atom   52 type  1   force =    -0.00000733   -0.00000855   -0.00000929
     atom   53 type  1   force =    -0.00000381   -0.00000845   -0.00002276
     atom   54 type  1   force =    -0.00000040   -0.00001123    0.00005543
     atom   55 type  1   force =    -0.00002915   -0.00003264    0.00000211
     atom   56 type  1   force =    -0.00002174   -0.00001805   -0.00004460
     atom   57 type  1   force =    -0.00001012   -0.00003562    0.00004930
     atom   58 type  1   force =     0.00001724    0.00000995   -0.00002077
     atom   59 type  1   force =     0.00003801    0.00002195   -0.00006033
     atom   60 type  1   force =    -0.00002978   -0.00001719    0.00003557
[...]
     atom  285 type  2   force =    -0.00002163    0.00000238    0.00000817
     atom  286 type  2   force =     0.00000134    0.00000104   -0.00002325
     atom  287 type  2   force =    -0.00001500    0.00000345    0.00001565
     atom  288 type  2   force =    -0.00000759    0.00000201   -0.00000243
     atom  289 type  2   force =     0.00000186   -0.00000258   -0.00001746
     atom  290 type  2   force =    -0.00000960    0.00000331    0.00001979
     atom  291 type  2   force =    -0.00000205   -0.00000758   -0.00000243
     atom  292 type  2   force =    -0.00000130    0.00000290   -0.00001746
     atom  293 type  2   force =    -0.00000193   -0.00000997    0.00001979
     atom  294 type  2   force =    -0.00000875   -0.00001992    0.00000817
     atom  295 type  2   force =     0.00000157    0.00000064   -0.00002325
     atom  296 type  2   force =    -0.00000452   -0.00001472    0.00001565
     atom  297 type  2   force =    -0.00001510   -0.00000872    0.00000770
     atom  298 type  2   force =     0.00000036    0.00000021   -0.00002644
     atom  299 type  2   force =    -0.00001156   -0.00000667    0.00001612

     Total force =     0.003279     Total SCF correction =     0.001127
     SCF correction compared to forces is large: reduce conv_thr to get better values

     Computing stress (Cartesian axis) and pressure

     Non-local corr. energy    =      81.66605777 Ry

          total   stress  (Ry/bohr**3)                   (kbar)     P=       10.93
   0.00006604  -0.00000007   0.00000004            9.72       -0.01        0.01
  -0.00000007   0.00006612   0.00000002           -0.01        9.73        0.00
   0.00000004   0.00000002   0.00009070            0.01        0.00       13.34

     kinetic stress (kbar)  18383.62     -0.00      0.01
                               -0.00  18383.63      0.00
                                0.01      0.00  18380.81

     local   stress (kbar)   5410.53     -0.07      0.30
                               -0.07   5410.43      0.17
                                0.30      0.17   3753.03

     nonloc. stress (kbar)     91.13      0.00      0.00
                                0.00     91.13      0.00
                                0.00      0.00    101.45

     hartree stress (kbar)  19606.23      0.02     -0.12
                                0.02  19606.20     -0.07
                               -0.12     -0.07  20361.59

     exc-cor stress (kbar)   5224.03      0.00     -0.00
                                0.00   5224.03     -0.00
                               -0.00     -0.00   5224.36

     corecor stress (kbar) -14106.44     -0.00     -0.00
                               -0.00 -14106.44     -0.00
                               -0.00     -0.00 -14105.90

     ewald   stress (kbar) -34761.36      0.05     -0.17
                                0.05 -34761.19     -0.10
                               -0.17     -0.10 -33863.10

     hubbard stress (kbar)      0.00      0.00      0.00
                                0.00      0.00      0.00
                                0.00      0.00      0.00

     DFT-D   stress (kbar)      0.00      0.00      0.00
                                0.00      0.00      0.00
                                0.00      0.00      0.00

     XDM     stress (kbar)      0.00      0.00      0.00
                                0.00      0.00      0.00
                                0.00      0.00      0.00

     dft-nl  stress (kbar)    161.96     -0.00      0.00
                               -0.00    161.96      0.00
                                0.00      0.00    161.10

     TS-vdW  stress (kbar)      0.00      0.00      0.00
                                0.00      0.00      0.00
                                0.00      0.00      0.00

     MDB     stress (kbar)      0.00      0.00      0.00
                                0.00      0.00      0.00
                                0.00      0.00      0.00

     3D-RISM stress (kbar)      0.00      0.00      0.00
                                0.00      0.00      0.00
                                0.00      0.00      0.00

     Energy error            =      2.8E-05 Ry
     Gradient error          =      8.1E-04 Ry/Bohr

     bfgs converged in   8 scf cycles and   7 bfgs steps
     (criteria: energy <  1.0E-04 Ry, force <  1.0E-03 Ry/Bohr)

     End of BFGS Geometry Optimization

     Final energy             =  -46813.5878456914 Ry

     File ./GaN.bfgs deleted, as requested
Begin final coordinates

ATOMIC_POSITIONS (angstrom)
Ga            1.6214391074        0.9361368342        2.6618171237
Ga            1.6218800016        0.9363913846        7.9430307880
Ga            1.6218856860        0.9363946665       13.2128442913
Ga            0.0007688517        3.7517929035        2.6367958889
Ga            0.0015889693        3.7505474746        7.9276389950
Ga           -0.0002479199        3.7477002140       13.2165582449
Ga           -1.6223092854        6.5569248607        2.6391503508
Ga           -1.6223997269        6.5572255746        7.9289037195
Ga           -1.6224550732        6.5564109769       13.2161294475
Ga           -3.2440609115        9.3658810746        2.6391503508
Ga           -3.2438457065        9.3656523930        7.9289037195
Ga           -3.2445788419        9.3660117605       13.2161294475
Ga           -4.8618373789       12.1740739522        2.6367958889
Ga           -4.8625058931       12.1754069094        7.9276389950
Ga           -4.8658901377       12.1752397470       13.2165582449
Ga            4.8713131759        0.9328615816        2.6367053136
Ga            4.8698059245        0.9326924515        7.9273713770
Ga            4.8682567622        0.9358641035       13.2162739803
Ga            3.2435396897        3.7522479630        2.6367053136
Ga            3.2426395930        3.7510272100        7.9273713770
Ga            3.2446117430        3.7480997701       13.2162739803
Ga            1.6225664404        6.5587072065        2.6386598556
Ga            1.6225810294        6.5594020742        7.9304838383
Ga            1.6225023952        6.5569185354       13.2154942718
Ga            0.0002428187        9.3663432307        2.6391391922
Ga            0.0003778204        9.3664211739        7.9289112482
Ga            0.0002825794        9.3663661865       13.2159519662
Ga           -1.6200794920       12.1751347125        2.6386598556
Ga           -1.6194704245       12.1747999130        7.9304838383
Ga           -1.6216605492       12.1759735832       13.2154942718
Ga            8.1120104255        0.9359684332        2.6390053468
Ga            8.1122867313        0.9358954146        7.9287798585
Ga            8.1116428120        0.9363509030       13.2160018296
Ga            6.4899291884        3.7469608931        2.6391425879
Ga            6.4897211709        3.7468407941        7.9313672969
Ga            6.4898123619        3.7468934433       13.2158274728
Ga            4.8665789269        6.5572206815        2.6390053468
Ga            4.8666538439        6.5574964786        7.9287798585
Ga            4.8667263488        6.5567110839       13.2160018296
Ga            3.2446142609        9.3662770173        2.6392984052
Ga            3.2444996901        9.3663523943        7.9290755452
Ga            3.2446151900        9.3663096890       13.2161122071
Ga            1.6223711974       12.1760844258        2.6392984052
Ga            1.6223791903       12.1759475161        7.9290755452
Ga            1.6223999564       12.1760688946       13.2161122071
Ga           11.3548955497        0.9356115277        2.6389991735
Ga           11.3545825906        0.9355265394        7.9288488089
Ga           11.3553690832        0.9360277268       13.2160374526
Ga            9.7332660789        3.7467017660        2.6395292971
Ga            9.7332536621        3.7466452529        7.9291810914
Ga            9.7332705625        3.7467110877       13.2164602090
Ga            8.1113732230        6.5559025969        2.6395292971
Ga            8.1113180728        6.5559201002        7.9291810914
Ga            8.1113835376        6.5559018190       13.2164602090
Ga            6.4877123998        9.3658200334        2.6389991735
Ga            6.4874823182        9.3655914970        7.9288488089
Ga            6.4883096055        9.3660220258       13.2160374526
Ga            4.8643724396       12.1746497768        2.6388934648
Ga            4.8637857057       12.1743110258        7.9306473347
Ga            4.8660508923       12.1756188319       13.2157264290
[...]
N            12.9783424368        1.8731996109        1.9876466682
N            12.9795476072        1.8731886404        7.2759755812
N            12.9784776009        1.8730098197       12.5639824392
N            11.3562361078        4.6829489640        1.9870561826
N            11.3566054180        4.6827317321        7.2758757754
N            11.3558322534        4.6831861336       12.5640254848
N             9.7336685013        7.4933184974        1.9870561826
N             9.7336650280        7.4937469453        7.2758757754
N             9.7336719690        7.4928501644       12.5640254848
N             8.1114073479       10.3029784623        1.9876466682
N             8.1120004323       10.3040276558        7.2759755812
N             8.1113105659       10.3031904136       12.5639824392
N             6.4874365068       13.1117304027        1.9852216379
N             6.4869401357       13.1114438228        7.2755718781
N             6.4893324884       13.1128250482       12.5640857330
End final coordinates

     Writing all to output data dir ./GaN.save/

     General routines

     Parallel routines

     PAW routines

   This run was terminated on:  18:21:16   2May2024

   JOB DONE.