     Program PWSCF v.7.1 starts on  8Oct2023 at 10:52:35

     Reading input from espresso.pwi
Warning: card &CELL ignored
Warning: card    CELL_DYNAMICS    = 'BFGS' ignored
Warning: card / ignored

     Current dimensions of program PWSCF are:
     Max number of different atomic species (ntypx) = 10
     Max number of k-points (npk) =  40000
     Max angular momentum in pseudopotentials (lmaxx) =  4
     file C.pbe-n-kjpaw_psl.1.0.0.UPF: wavefunction(s)  2S 2P renormalized

     IMPORTANT: XC functional enforced from input :
     Exchange-correlation= BEEF-VDW
                           (   1   4  43  14   2   0   0)
     Any further DFT definition will be discarded
     Please, verify this is what you really want

     K-points division:     npool     =       4
     R & G space division:  proc/nbgrp/npool/nimage =      64
     Subspace diagonalization in iterative solution of the eigenvalue problem:
     a serial algorithm will be used

     Using Slab Decomposition

     bravais-lattice index     =            1
     lattice parameter (alat)  =      20.2520  a.u.
     unit-cell volume          =    8306.2556 (a.u.)^3
     number of atoms/cell      =          215
     number of atomic types    =            1
     number of electrons       =       858.00
     number of Kohn-Sham states=          515
     kinetic-energy cutoff     =      70.0000  Ry
     charge density cutoff     =     350.0000  Ry
     scf convergence threshold =      1.0E-08
     mixing beta               =       0.7000
     number of iterations used =            8  plain     mixing
     Exchange-correlation= BEEF-VDW
                           (   1   4  43  14   2   0   0)

     celldm(1)=  20.252024  celldm(2)=   0.000000  celldm(3)=   0.000000
     celldm(4)=   0.000000  celldm(5)=   0.000000  celldm(6)=   0.000000

     crystal axes: (cart. coord. in units of alat)
               a(1) = (   1.000000   0.000000   0.000000 )
               a(2) = (   0.000000   1.000000   0.000000 )
               a(3) = (   0.000000   0.000000   1.000000 )

     reciprocal axes: (cart. coord. in units 2 pi/alat)
               b(1) = (  1.000000  0.000000  0.000000 )
               b(2) = (  0.000000  1.000000  0.000000 )
               b(3) = (  0.000000  0.000000  1.000000 )

     PseudoPot. # 1 for C  read from file:
     /trace/group/acmegroup/atimmins/packages/espresso/pseudo/psl_1.0.0/pslibrary.1.0.0/pbe/PSEUDOPOTENTIALS/C.pbe-n-kjpaw_psl.1.0.0.UPF
     MD5 check sum: 5459cf7f2c8c37df2f7cde8914797f4d
     Pseudo is Projector augmented-wave + core cor, Zval =  4.0
     Generated using 'atomic' code by A. Dal Corso  v.7.1
     Shape of augmentation charge: PSQ
     Using radial grid of 1073 points,  4 beta functions with:
                l(1) =   0
                l(2) =   0
                l(3) =   1
                l(4) =   1
     Q(r) pseudized with 0 coefficients

     atomic species   valence    mass     pseudopotential
        C              4.00    12.01100     C ( 1.00)

      6 Sym. Ops. (no inversion) found ( 4 have fractional translation)

                                    s                        frac. trans.

      isym =  1     identity

 cryst.   s( 1) = (     1          0          0      )
                  (     0          1          0      )
                  (     0          0          1      )

 cart.    s( 1) = (  1.0000000  0.0000000  0.0000000 )
                  (  0.0000000  1.0000000  0.0000000 )
                  (  0.0000000  0.0000000  1.0000000 )

      isym =  2     120 deg rotation - cart. axis [1,-1,1]

 cryst.   s( 2) = (     0          0          1      )    f =( -0.3333333 )
                  (    -1          0          0      )       ( -0.3333333 )
                  (     0         -1          0      )       (  0.0000000 )

 cart.    s( 2) = (  0.0000000 -1.0000000  0.0000000 )    f =( -0.3333333 )
                  (  0.0000000  0.0000000 -1.0000000 )       ( -0.3333333 )
                  (  1.0000000  0.0000000  0.0000000 )       (  0.0000000 )

      isym =  3     120 deg rotation - cart. axis [-1,1,-1]

[...]

      isym =  4     inv. 180 deg rotation - cart. axis [1,1,0]

[...]

 cryst.   s( 5) = (     0          0          1      )
                  (     0          1          0      )
                  (     1          0          0      )

 cart.    s( 5) = (  0.0000000  0.0000000  1.0000000 )
                  (  0.0000000  1.0000000  0.0000000 )
                  (  1.0000000  0.0000000  0.0000000 )

      isym =  6     inv. 180 deg rotation - cart. axis [0,1,1]

 cryst.   s( 6) = (     1          0          0      )    f =(  0.0000000 )
                  (     0          0         -1      )       ( -0.3333333 )
                  (     0         -1          0      )       ( -0.3333333 )

 cart.    s( 6) = (  1.0000000  0.0000000  0.0000000 )    f =(  0.0000000 )
                  (  0.0000000  0.0000000 -1.0000000 )       ( -0.3333333 )
                  (  0.0000000 -1.0000000  0.0000000 )       ( -0.3333333 )

     point group C_3v (3m)
     there are  3 classes
     the character table:

       E     2C3   3s_v
A_1    1.00  1.00  1.00
A_2    1.00  1.00 -1.00
E      2.00 -1.00  0.00

     the symmetry operations in each class and the name of the first element:

     E        1
          identity
     2C3      2    3
          120 deg rotation - cart. axis [1,-1,1]
     3s_v     4    5    6
          inv. 180 deg rotation - cart. axis [1,1,0]

   Cartesian axes

     site n.     atom                  positions (alat units)
         1           C   tau(   1) = (   0.0833353   0.2499980   0.4166687  )
         2           C   tau(   2) = (   0.0833353   0.2499980   0.7500020  )
         3           C   tau(   3) = (   0.0833353   0.5833313   0.0833353  )
         4           C   tau(   4) = (   0.0833353   0.5833313   0.4166687  )
         5           C   tau(   5) = (   0.0833353   0.5833313   0.7500020  )
         6           C   tau(   6) = (   0.0833353   0.9166647   0.0833353  )
         7           C   tau(   7) = (   0.0833353   0.9166647   0.4166687  )
         8           C   tau(   8) = (   0.0833353   0.9166647   0.7500020  )
         9           C   tau(   9) = (   0.4166687   0.2499980   0.0833353  )
        10           C   tau(  10) = (   0.4166687   0.2499980   0.4166687  )
        11           C   tau(  11) = (   0.4166687   0.2499980   0.7500020  )
        12           C   tau(  12) = (   0.4166687   0.5833313   0.0833353  )
        13           C   tau(  13) = (   0.4166687   0.5833313   0.4166687  )
        14           C   tau(  14) = (   0.4166687   0.5833313   0.7500020  )
        15           C   tau(  15) = (   0.4166687   0.9166647   0.0833353  )
        16           C   tau(  16) = (   0.4166687   0.9166647   0.4166687  )
        17           C   tau(  17) = (   0.4166687   0.9166647   0.7500020  )
        18           C   tau(  18) = (   0.7500020   0.2499980   0.0833353  )
        19           C   tau(  19) = (   0.7500020   0.2499980   0.4166687  )
        20           C   tau(  20) = (   0.7500020   0.2499980   0.7500020  )
        21           C   tau(  21) = (   0.7500020   0.5833313   0.0833353  )
        22           C   tau(  22) = (   0.7500020   0.5833313   0.4166687  )
        23           C   tau(  23) = (   0.7500020   0.5833313   0.7500020  )
        24           C   tau(  24) = (   0.7500020   0.9166647   0.0833353  )
        25           C   tau(  25) = (   0.7500020   0.9166647   0.4166687  )
        26           C   tau(  26) = (   0.7500020   0.9166647   0.7500020  )
        27           C   tau(  27) = (   0.0000000   0.0000000   0.1666667  )
        28           C   tau(  28) = (   0.0000000   0.0000000   0.5000000  )
        29           C   tau(  29) = (   0.0000000   0.0000000   0.8333333  )
        30           C   tau(  30) = (   0.0000000   0.3333333   0.1666667  )
        31           C   tau(  31) = (   0.0000000   0.3333333   0.5000000  )
        32           C   tau(  32) = (   0.0000000   0.3333333   0.8333333  )
        33           C   tau(  33) = (   0.0000000   0.6666667   0.1666667  )
        34           C   tau(  34) = (   0.0000000   0.6666667   0.5000000  )
        35           C   tau(  35) = (   0.0000000   0.6666667   0.8333333  )
        36           C   tau(  36) = (   0.3333333   0.0000000   0.1666667  )
        37           C   tau(  37) = (   0.3333333   0.0000000   0.5000000  )
        38           C   tau(  38) = (   0.3333333   0.0000000   0.8333333  )
        39           C   tau(  39) = (   0.3333333   0.3333333   0.1666667  )
        40           C   tau(  40) = (   0.3333333   0.3333333   0.5000000  )
        41           C   tau(  41) = (   0.3333333   0.3333333   0.8333333  )
        42           C   tau(  42) = (   0.3333333   0.6666667   0.1666667  )
        43           C   tau(  43) = (   0.3333333   0.6666667   0.5000000  )
        44           C   tau(  44) = (   0.3333333   0.6666667   0.8333333  )
        45           C   tau(  45) = (   0.6666667   0.0000000   0.1666667  )
        46           C   tau(  46) = (   0.6666667   0.0000000   0.5000000  )
        47           C   tau(  47) = (   0.6666667   0.0000000   0.8333333  )
        48           C   tau(  48) = (   0.6666667   0.3333333   0.1666667  )
        49           C   tau(  49) = (   0.6666667   0.3333333   0.5000000  )
        50           C   tau(  50) = (   0.6666667   0.3333333   0.8333333  )
        51           C   tau(  51) = (   0.6666667   0.6666667   0.1666667  )
        52           C   tau(  52) = (   0.6666667   0.6666667   0.5000000  )
        53           C   tau(  53) = (   0.6666667   0.6666667   0.8333333  )
        54           C   tau(  54) = (   0.0833353   0.0833353   0.2499980  )
        55           C   tau(  55) = (   0.0833353   0.0833353   0.5833313  )
        56           C   tau(  56) = (   0.0833353   0.0833353   0.9166647  )
        57           C   tau(  57) = (   0.0833353   0.4166687   0.2499980  )
        58           C   tau(  58) = (   0.0833353   0.4166687   0.5833313  )
        59           C   tau(  59) = (   0.0833353   0.4166687   0.9166647  )
        60           C   tau(  60) = (   0.0833353   0.7500020   0.2499980  )
[...]
       201           C   tau( 201) = (   0.5000000   0.5000000   0.1666667  )
       202           C   tau( 202) = (   0.5000000   0.5000000   0.5000000  )
       203           C   tau( 203) = (   0.5000000   0.5000000   0.8333333  )
       204           C   tau( 204) = (   0.5000000   0.8333333   0.1666667  )
       205           C   tau( 205) = (   0.5000000   0.8333333   0.5000000  )
       206           C   tau( 206) = (   0.5000000   0.8333333   0.8333333  )
       207           C   tau( 207) = (   0.8333333   0.1666667   0.1666667  )
       208           C   tau( 208) = (   0.8333333   0.1666667   0.5000000  )
       209           C   tau( 209) = (   0.8333333   0.1666667   0.8333333  )
       210           C   tau( 210) = (   0.8333333   0.5000000   0.1666667  )
       211           C   tau( 211) = (   0.8333333   0.5000000   0.5000000  )
       212           C   tau( 212) = (   0.8333333   0.5000000   0.8333333  )
[...]
     atom   25 type  1   force =     0.00000000    0.00000000    0.00000000
     atom   26 type  1   force =     0.00000000    0.00000000    0.00000000
     atom   27 type  1   force =     0.00000000    0.00000000    0.00000000
     atom   28 type  1   force =     0.00000000    0.00000000    0.00000000
     atom   29 type  1   force =     0.00000000    0.00000000    0.00000000
     atom   30 type  1   force =     0.00000000    0.00000000    0.00000000
     atom   31 type  1   force =     0.00000000    0.00000000    0.00000000
     atom   32 type  1   force =     0.00000000    0.00000000    0.00000000
     atom   33 type  1   force =     0.00000000    0.00000000    0.00000000
     atom   34 type  1   force =     0.00000000    0.00000000    0.00000000
     atom   35 type  1   force =     0.00000000    0.00000000    0.00000000
     atom   36 type  1   force =     0.00000000    0.00000000    0.00000000
     atom   37 type  1   force =     0.00000000    0.00000000    0.00000000
     atom   38 type  1   force =     0.00000000    0.00000000    0.00000000
     atom   39 type  1   force =     0.00000000    0.00000000    0.00000000
     atom   40 type  1   force =     0.00000000    0.00000000    0.00000000
     atom   41 type  1   force =     0.00000000    0.00000000    0.00000000
     atom   42 type  1   force =     0.00000000    0.00000000    0.00000000
     atom   43 type  1   force =     0.00000000    0.00000000    0.00000000
     atom   44 type  1   force =     0.00000000    0.00000000    0.00000000
     atom   45 type  1   force =     0.00000000    0.00000000    0.00000000
     atom   46 type  1   force =     0.00000000    0.00000000    0.00000000
     atom   47 type  1   force =     0.00000000    0.00000000    0.00000000
     atom   48 type  1   force =     0.00000000    0.00000000    0.00000000
     atom   49 type  1   force =     0.00000000    0.00000000    0.00000000
     atom   50 type  1   force =     0.00000000    0.00000000    0.00000000
     atom   51 type  1   force =     0.00000000    0.00000000    0.00000000
     atom   52 type  1   force =     0.00000000    0.00000000    0.00000000
     atom   53 type  1   force =     0.00000000    0.00000000    0.00000000
     atom   54 type  1   force =     0.00000000    0.00000000    0.00000000
     atom   55 type  1   force =     0.00000000    0.00000000    0.00000000
     atom   56 type  1   force =     0.00000000    0.00000000    0.00000000
     atom   57 type  1   force =     0.00000000    0.00000000    0.00000000
     atom   58 type  1   force =     0.00000000    0.00000000    0.00000000
     atom   59 type  1   force =     0.00000000    0.00000000    0.00000000
     atom   60 type  1   force =     0.00000000    0.00000000    0.00000000
[...]
     atom  201 type  1   force =     0.00000000    0.00000000    0.00000000
     atom  202 type  1   force =     0.00000000    0.00000000    0.00000000
     atom  203 type  1   force =     0.00000000    0.00000000    0.00000000
     atom  204 type  1   force =     0.00000000    0.00000000    0.00000000
     atom  205 type  1   force =     0.00000000    0.00000000    0.00000000
     atom  206 type  1   force =     0.00000000    0.00000000    0.00000000
     atom  207 type  1   force =     0.00000000    0.00000000    0.00000000
     atom  208 type  1   force =     0.00000000    0.00000000    0.00000000
     atom  209 type  1   force =     0.00000000    0.00000000    0.00000000
     atom  210 type  1   force =     0.00000000    0.00000000    0.00000000
     atom  211 type  1   force =     0.00000000    0.00000000    0.00000000
     atom  212 type  1   force =     0.00000000    0.00000000    0.00000000
     atom  213 type  1   force =     0.00000000    0.00000000    0.00000000
     atom  214 type  1   force =     0.00000000    0.00000000    0.00000000
     atom  215 type  1   force =     0.00000000    0.00000000    0.00000000
     The SCF correction term to forces
     atom    1 type  1   force =     0.00000493   -0.00000493   -0.00000372
     atom    2 type  1   force =     0.00000278   -0.00000278   -0.00000328
     atom    3 type  1   force =     0.00000278    0.00000328    0.00000278
     atom    4 type  1   force =     0.00000245   -0.00000203   -0.00000421
     atom    5 type  1   force =     0.00000143   -0.00000135    0.00000135
     atom    6 type  1   force =     0.00000493    0.00000372    0.00000493
     atom    7 type  1   force =     0.00000361    0.00000689   -0.00000689
     atom    8 type  1   force =     0.00000245    0.00000421    0.00000203
     atom    9 type  1   force =    -0.00000372   -0.00000493    0.00000493
     atom   10 type  1   force =    -0.00000689   -0.00000361   -0.00000689
     atom   11 type  1   force =    -0.00000421   -0.00000245    0.00000203
     atom   12 type  1   force =    -0.00000421   -0.00000203    0.00000245
     atom   13 type  1   force =    -0.00000284   -0.00000092   -0.00000284
     atom   14 type  1   force =    -0.00000201   -0.00000054    0.00000054
     atom   15 type  1   force =    -0.00000689    0.00000689    0.00000361
     atom   16 type  1   force =    -0.00000458    0.00000458   -0.00000458
     atom   17 type  1   force =    -0.00000284    0.00000284    0.00000092
     atom   18 type  1   force =    -0.00000328   -0.00000278    0.00000278
     atom   19 type  1   force =     0.00000203   -0.00000245   -0.00000421
     atom   20 type  1   force =     0.00000135   -0.00000143    0.00000135
     atom   21 type  1   force =     0.00000135   -0.00000135    0.00000143
     atom   22 type  1   force =     0.00000054   -0.00000054   -0.00000201
     atom   23 type  1   force =     0.00000026   -0.00000026    0.00000026
     atom   24 type  1   force =     0.00000203    0.00000421    0.00000245
     atom   25 type  1   force =     0.00000092    0.00000284   -0.00000284
     atom   26 type  1   force =     0.00000054    0.00000201    0.00000054
     atom   27 type  1   force =     0.00000869    0.00000366    0.00000263
     atom   28 type  1   force =     0.00000377    0.00000541   -0.00000489
     atom   29 type  1   force =     0.00000387    0.00000100    0.00000243
     atom   30 type  1   force =     0.00000775   -0.00000775    0.00000204
     atom   31 type  1   force =     0.00000501   -0.00000501   -0.00000186
     atom   32 type  1   force =     0.00000284   -0.00000284   -0.00000030
     atom   33 type  1   force =     0.00000475    0.00000461   -0.00000002
     atom   34 type  1   force =     0.00000066   -0.00000030   -0.00000465
     atom   35 type  1   force =     0.00000133    0.00000201    0.00000475
     atom   36 type  1   force =    -0.00000697    0.00000697    0.00000156
     atom   37 type  1   force =    -0.00000321    0.00000321   -0.00000532
     atom   38 type  1   force =    -0.00000207    0.00000207    0.00000349
     atom   39 type  1   force =    -0.00000366   -0.00000869    0.00000263
     atom   40 type  1   force =    -0.00000541   -0.00000377   -0.00000489
     atom   41 type  1   force =    -0.00000100   -0.00000387    0.00000243
     atom   42 type  1   force =    -0.00000510    0.00000227    0.00000202
     atom   43 type  1   force =    -0.00000003    0.00000028   -0.00000410
     atom   44 type  1   force =    -0.00000130    0.00000196    0.00000213
     atom   45 type  1   force =    -0.00000227    0.00000510    0.00000202
     atom   46 type  1   force =    -0.00000028    0.00000003   -0.00000410
     atom   47 type  1   force =    -0.00000196    0.00000130    0.00000213
     atom   48 type  1   force =    -0.00000461   -0.00000475   -0.00000002
     atom   49 type  1   force =     0.00000030   -0.00000066   -0.00000465
     atom   50 type  1   force =    -0.00000201   -0.00000133    0.00000475
     atom   51 type  1   force =     0.00000024   -0.00000024    0.00000290
     atom   52 type  1   force =    -0.00000088    0.00000088   -0.00000234
     atom   53 type  1   force =    -0.00000015    0.00000015   -0.00000018
     atom   54 type  1   force =     0.00001120    0.00000481   -0.00000481
     atom   55 type  1   force =     0.00000298    0.00000367   -0.00000473
     atom   56 type  1   force =     0.00000554    0.00000004    0.00000678
     atom   57 type  1   force =     0.00000554   -0.00000678   -0.00000004
     atom   58 type  1   force =     0.00000226   -0.00000660   -0.00000337
     atom   59 type  1   force =     0.00000178   -0.00000330    0.00000330
     atom   60 type  1   force =     0.00000298    0.00000473   -0.00000367
[...]
     atom  201 type  1   force =    -0.00000335   -0.00000576    0.00000186
     atom  202 type  1   force =    -0.00000378   -0.00000055   -0.00000378
     atom  203 type  1   force =    -0.00000195   -0.00000185    0.00000185
     atom  204 type  1   force =    -0.00000624    0.00000624    0.00000288
     atom  205 type  1   force =    -0.00000316    0.00000316   -0.00000316
     atom  206 type  1   force =    -0.00000378    0.00000378    0.00000055
     atom  207 type  1   force =     0.00000244   -0.00000226    0.00000226
     atom  208 type  1   force =     0.00000576   -0.00000186   -0.00000335
     atom  209 type  1   force =     0.00000132   -0.00000131    0.00000132
     atom  210 type  1   force =     0.00000132   -0.00000132    0.00000131
     atom  211 type  1   force =     0.00000185   -0.00000185   -0.00000195
     atom  212 type  1   force =     0.00000096   -0.00000096    0.00000096
     atom  213 type  1   force =     0.00000576    0.00000335    0.00000186
     atom  214 type  1   force =     0.00000055    0.00000378   -0.00000378
     atom  215 type  1   force =     0.00000185    0.00000195    0.00000185

     Total force =     0.005098     Total SCF correction =     0.000090

     Computing stress (Cartesian axis) and pressure

[...]

          total   stress  (Ry/bohr**3)                   (kbar)     P=      -43.85
  -0.00029807  -0.00000005   0.00000005          -43.85       -0.01        0.01
  -0.00000005  -0.00029807  -0.00000005           -0.01      -43.85       -0.01
   0.00000005  -0.00000005  -0.00029807            0.01       -0.01      -43.85

     kinetic stress (kbar)  18839.79     -0.00      0.00
                               -0.00  18839.79     -0.00
                                0.00     -0.00  18839.79

     local   stress (kbar)  -3600.40      0.10     -0.10
                                0.10  -3600.40      0.10
                               -0.10      0.10  -3600.40

     nonloc. stress (kbar)   4310.53     -0.00      0.00
                               -0.00   4310.53     -0.00
                                0.00     -0.00   4310.53

     hartree stress (kbar)   1311.71     -0.03      0.03
                               -0.03   1311.71     -0.03
                                0.03     -0.03   1311.71

     exc-cor stress (kbar)   -398.58     -0.00      0.00
                               -0.00   -398.58     -0.00
                                0.00     -0.00   -398.58

     corecor stress (kbar)  -4413.15      0.00     -0.00
                                0.00  -4413.15      0.00
                               -0.00      0.00  -4413.15

     ewald   stress (kbar) -16118.48     -0.08      0.08
                               -0.08 -16118.48     -0.08
                                0.08     -0.08 -16118.48

     hubbard stress (kbar)      0.00      0.00      0.00
                                0.00      0.00      0.00
                                0.00      0.00      0.00

     DFT-D   stress (kbar)      0.00      0.00      0.00
                                0.00      0.00      0.00
                                0.00      0.00      0.00

     XDM     stress (kbar)      0.00      0.00      0.00
                                0.00      0.00      0.00
                                0.00      0.00      0.00

     dft-nl  stress (kbar)     24.72      0.00     -0.00
                                0.00     24.72      0.00
                               -0.00      0.00     24.72

     TS-vdW  stress (kbar)      0.00      0.00      0.00
                                0.00      0.00      0.00
                                0.00      0.00      0.00

     MDB     stress (kbar)      0.00      0.00      0.00
                                0.00      0.00      0.00
                                0.00      0.00      0.00

     3D-RISM stress (kbar)      0.00      0.00      0.00
                                0.00      0.00      0.00
                                0.00      0.00      0.00

[...]

     Non-local corr. energy    =       7.35958065 Ry

 BEEFens 2000 ensemble energies
             -0.130107711499454E+02
             -0.904135134144468E+02
             -0.320657295599515E+02
              0.355522426706950E+02
             -0.598106263914784E+02
             -0.837240713116975E+02
              0.496116634996563E+02
             -0.103691375046129E+02
              0.687103761673681E+02
             -0.110784194853466E+01
              0.279827958547257E+02
              0.135278226514443E+01
              0.387373994163809E+01
             -0.823217403666604E+01
              0.465160147711782E+02
             -0.348254347721427E+02
             -0.798893662734307E+02
             -0.221349711447042E+02
              0.180033946622140E+02
              0.192251917728083E+01
              0.955763308131527E+02
              0.866444858449607E+02
             -0.425305322650094E+02
              0.239137558838866E+02
             -0.108593851435427E+03
              0.874381369160481E+02
              0.313202107542302E+02
              0.921001450342415E+02
              0.580450180805583E+02
             -0.363055334739796E+02
              0.226863807912221E+02
             -0.471057646755742E+02
              0.132356268879910E+01
              0.463046127110211E+02
              0.598300052038679E+02
             -0.146267384513775E+02
              0.128835130878265E+03
             -0.451418214047886E+02
             -0.325809819566289E+02
              0.499451193075506E+02
              0.171556642527111E+02
              0.420952602508310E+02
             -0.734579972479625E+02
             -0.299919796462132E+01
              0.778631339220212E+02
              0.949795488742782E+02
             -0.860447722564484E+02
              0.709447541634672E+01
              0.339043236594007E+02
              0.788671541784254E+01
              0.414915543724580E+02
              0.832381420313614E+02
             -0.558129221533371E+02
             -0.587933568172800E+02
             -0.744029353671617E+02
             -0.205148903218501E+02
             -0.620874371324413E+02
              0.329256724987403E+01
             -0.165147309073270E+02
             -0.563759715022953E+02
[...]
              0.731185801403709E+02
              0.298229591521007E+02
              0.509528497814018E+02
             -0.729187682764967E+02
             -0.567544139208037E+02
             -0.231695364471325E+02
             -0.624878717994895E+02
              0.112655395341021E+03
              0.966164344755130E+02
              0.419749361430237E+02
              0.113892079444402E+03
             -0.610782416604692E+02
             -0.293950949203882E+02
             -0.303432316003270E+02
              0.898556384528668E+02

 BEEF-vdW xc energy contributions
            1 :    -877.9220727907187
            2 :     774.2731370712806
            3 :    -595.6377684047440
            4 :     388.4843802724166
            5 :    -200.1742118237777
            6 :     63.27204511491209
            7 :     12.61087616774864
            8 :    -38.94731081310067
            9 :     38.57130763114662
           10 :    -33.49857862399585
           11 :     36.03752845130134
           12 :    -46.53283681385994
           13 :     57.40295393014719
           14 :    -60.15301447117793
           15 :     51.17012339151518
           16 :    -33.49903107794137
           17 :     14.41598829494490
           18 :   -0.9140107611275425
           19 :    -3.995861890898823
           20 :     2.188431075904873
           21 :     1.557256403472024
           22 :    -2.853409722395668
           23 :    0.2129927399904545
           24 :     4.572011972149880
           25 :    -8.094384591933363
           26 :     7.755019494671728
           27 :    -3.380219332282763
           28 :    -2.849558744943010
           29 :     7.913366636512251
           30 :    -9.812205826674358
           31 :    -114.8873429226550
           32 :    -83.29150945985907

     Writing all to output data dir ./diamond.save/

     General routines

     Parallel routines

     PAW routines

   This run was terminated on:  11: 0:30   8Oct2023

   JOB DONE.