     Program PWSCF v.7.2 starts on 27Mar2024 at 22:22:11

     Reading input from espresso.pwi
Warning: card &CELL ignored
Warning: card    CELL_DYNAMICS    = 'BFGS' ignored
Warning: card / ignored

     Current dimensions of program PWSCF are:
     Max number of different atomic species (ntypx) = 10
     Max number of k-points (npk) =  40000
     Max angular momentum in pseudopotentials (lmaxx) =  4
     file C.pbe-n-kjpaw_psl.1.0.0.UPF: wavefunction(s)  2S 2P renormalized

     IMPORTANT: XC functional enforced from input :
     Exchange-correlation= BEEF-VDW
                           (   1   4  43  14   2   0   0)
     Any further DFT definition will be discarded
     Please, verify this is what you really want

     R & G space division:  proc/nbgrp/npool/nimage =      10
     Subspace diagonalization in iterative solution of the eigenvalue problem:
     a serial algorithm will be used

     Using Slab Decomposition

     bravais-lattice index     =            1
     lattice parameter (alat)  =       6.7507  a.u.
     unit-cell volume          =     307.6390 (a.u.)^3
     number of atoms/cell      =            7
     number of atomic types    =            1
     number of electrons       =        27.00
     number of Kohn-Sham states=           18
     kinetic-energy cutoff     =      70.0000  Ry
     charge density cutoff     =     350.0000  Ry
     scf convergence threshold =      1.0E-07
     mixing beta               =       0.7000
     number of iterations used =            8  plain     mixing
     Exchange-correlation= BEEF-VDW
                           (   1   4  43  14   2   0   0)

     celldm(1)=   6.750674  celldm(2)=   0.000000  celldm(3)=   0.000000
     celldm(4)=   0.000000  celldm(5)=   0.000000  celldm(6)=   0.000000

     crystal axes: (cart. coord. in units of alat)
               a(1) = (   1.000000   0.000000   0.000000 )
               a(2) = (   0.000000   1.000000   0.000000 )
               a(3) = (   0.000000   0.000000   1.000000 )

     reciprocal axes: (cart. coord. in units 2 pi/alat)
               b(1) = (  1.000000  0.000000  0.000000 )
               b(2) = (  0.000000  1.000000  0.000000 )
               b(3) = (  0.000000  0.000000  1.000000 )

     PseudoPot. # 1 for C  read from file:
     /trace/group/acmegroup/atimmins/packages/espresso/pseudo/psl_1.0.0/pslibrary.1.0.0/pbe/PSEUDOPOTENTIALS/C.pbe-n-kjpaw_psl.1.0.0.UPF
     MD5 check sum: 5459cf7f2c8c37df2f7cde8914797f4d
     Pseudo is Projector augmented-wave + core cor, Zval =  4.0
     Generated using 'atomic' code by A. Dal Corso  v.7.1
     Shape of augmentation charge: PSQ
     Using radial grid of 1073 points,  4 beta functions with:
                l(1) =   0
                l(2) =   0
                l(3) =   1
                l(4) =   1
     Q(r) pseudized with 0 coefficients

     atomic species   valence    mass     pseudopotential
        C              4.00    12.01100     C ( 1.00)

      6 Sym. Ops. (no inversion) found

                                    s                        frac. trans.

      isym =  1     identity

 cryst.   s( 1) = (     1          0          0      )
                  (     0          1          0      )
                  (     0          0          1      )

 cart.    s( 1) = (  1.0000000  0.0000000  0.0000000 )
                  (  0.0000000  1.0000000  0.0000000 )
                  (  0.0000000  0.0000000  1.0000000 )

      isym =  2     120 deg rotation - cart. axis [1,-1,1]

[...]

      isym =  3     120 deg rotation - cart. axis [-1,1,-1]

[...]

      isym =  4     inv. 180 deg rotation - cart. axis [1,1,0]

[...]

      isym =  6     inv. 180 deg rotation - cart. axis [0,1,1]

 cryst.   s( 6) = (     1          0          0      )
                  (     0          0         -1      )
                  (     0         -1          0      )

 cart.    s( 6) = (  1.0000000  0.0000000  0.0000000 )
                  (  0.0000000  0.0000000 -1.0000000 )
                  (  0.0000000 -1.0000000  0.0000000 )

     point group C_3v (3m)
     there are  3 classes
     the character table:

       E     2C3   3s_v
A_1    1.00  1.00  1.00
A_2    1.00  1.00 -1.00
E      2.00 -1.00  0.00

     the symmetry operations in each class and the name of the first element:

     E        1
          identity
     2C3      2    3
          120 deg rotation - cart. axis [1,-1,1]
     3s_v     4    5    6
          inv. 180 deg rotation - cart. axis [1,1,0]

   Cartesian axes

     site n.     atom                  positions (alat units)
         1           C   tau(   1) = (   0.0000000   0.0000000   0.5000000  )
         2           C   tau(   2) = (   0.2500061   0.2500061   0.7499939  )
         3           C   tau(   3) = (   0.0000000   0.5000000   0.0000000  )
         4           C   tau(   4) = (   0.7499939   0.7499939   0.7499939  )
         5           C   tau(   5) = (   0.5000000   0.0000000   0.0000000  )
         6           C   tau(   6) = (   0.7499939   0.2500061   0.2500061  )
         7           C   tau(   7) = (   0.5000000   0.5000000   0.5000000  )

   Crystallographic axes

     site n.     atom                  positions (cryst. coord.)
         1           C   tau(   1) = (  0.0000000  0.0000000  0.5000000  )
         2           C   tau(   2) = (  0.2500061  0.2500061  0.7499939  )
         3           C   tau(   3) = (  0.0000000  0.5000000  0.0000000  )
         4           C   tau(   4) = (  0.7499939  0.7499939  0.7499939  )
         5           C   tau(   5) = (  0.5000000  0.0000000  0.0000000  )
         6           C   tau(   6) = (  0.7499939  0.2500061  0.2500061  )
         7           C   tau(   7) = (  0.5000000  0.5000000  0.5000000  )

     number of k points=    13  Gaussian smearing, width (Ry)=  0.0100
                       cart. coord. in units 2pi/alat
        k(    1) = (   0.0000000   0.0000000   0.0000000), wk =   0.0312500
        k(    2) = (   0.0000000   0.0000000   0.2500000), wk =   0.1875000
        k(    3) = (   0.0000000   0.0000000  -0.5000000), wk =   0.0937500
        k(    4) = (   0.0000000   0.2500000   0.2500000), wk =   0.1875000
        k(    5) = (   0.0000000   0.2500000  -0.5000000), wk =   0.3750000
        k(    6) = (   0.0000000  -0.5000000  -0.5000000), wk =   0.0937500
        k(    7) = (   0.2500000   0.2500000   0.2500000), wk =   0.1875000
        k(    8) = (   0.2500000   0.2500000  -0.5000000), wk =   0.1875000
        k(    9) = (   0.2500000  -0.5000000  -0.5000000), wk =   0.1875000
        k(   10) = (  -0.5000000  -0.5000000  -0.5000000), wk =   0.0312500
        k(   11) = (   0.2500000   0.0000000   0.2500000), wk =   0.1875000
        k(   12) = (   0.2500000  -0.2500000   0.2500000), wk =   0.0625000
        k(   13) = (   0.2500000  -0.2500000  -0.5000000), wk =   0.1875000

                       cryst. coord.
        k(    1) = (   0.0000000   0.0000000   0.0000000), wk =   0.0312500
        k(    2) = (   0.0000000   0.0000000   0.2500000), wk =   0.1875000
        k(    3) = (   0.0000000   0.0000000  -0.5000000), wk =   0.0937500
        k(    4) = (   0.0000000   0.2500000   0.2500000), wk =   0.1875000
        k(    5) = (   0.0000000   0.2500000  -0.5000000), wk =   0.3750000
        k(    6) = (   0.0000000  -0.5000000  -0.5000000), wk =   0.0937500
        k(    7) = (   0.2500000   0.2500000   0.2500000), wk =   0.1875000
        k(    8) = (   0.2500000   0.2500000  -0.5000000), wk =   0.1875000
        k(    9) = (   0.2500000  -0.5000000  -0.5000000), wk =   0.1875000
        k(   10) = (  -0.5000000  -0.5000000  -0.5000000), wk =   0.0312500
        k(   11) = (   0.2500000   0.0000000   0.2500000), wk =   0.1875000
        k(   12) = (   0.2500000  -0.2500000   0.2500000), wk =   0.0625000
        k(   13) = (   0.2500000  -0.2500000  -0.5000000), wk =   0.1875000

     Atomic positions and unit cell read from directory:
     ./diamond.save/
     Atomic positions from file used, from input discarded

     Check: negative core charge=   -0.000013

     The initial density is read from file :
     ./diamond.save/charge-density

     %%%%%%%%%%%%%%%%%%%%%%%%%%%%%%%%%%%%%%%%%%%%%%%%%%%%%%%%%%%%%%%%%%%%%%%%
     %                                                                      %
     % You are using vdW-DF, which was implemented by the Thonhauser group. %
     % Please cite the following two papers that made this development      %
     % possible and the two reviews that describe the various versions:     %
     %                                                                      %
     %   T. Thonhauser et al., PRL 115, 136402 (2015).                      %
     %   T. Thonhauser et al., PRB 76, 125112 (2007).                       %
     %   K. Berland et al., Rep. Prog. Phys. 78, 066501 (2015).             %
     %   D.C. Langreth et al., J. Phys.: Condens. Matter 21, 084203 (2009). %
     %                                                                      %
     % If you are calculating stress with vdW-DF, please also cite:         %
     %                                                                      %
     %   R. Sabatini et al., J. Phys.: Condens. Matter 24, 424209 (2012).   %
     %                                                                      %
     %%%%%%%%%%%%%%%%%%%%%%%%%%%%%%%%%%%%%%%%%%%%%%%%%%%%%%%%%%%%%%%%%%%%%%%%

     %%%%%%%%%%%%%%%%%%%%%%%%%%%%%%%%%%%%%%%%%%%%%%%%%%%%%%%%%%%%%%%%%%%%%%%%
     %                                                                      %
     %  vdW-DF NEWS:                                                        %
     %                                                                      %
     %  * vdW-DF3 is now available. DOI: 10.1021/acs.jctc.0c00471           %
     %    use with input_dft = 'vdW-DF3-opt1' or 'vdW-DF3-opt2'             %
     %                                                                      %
     %  * Unscreened and range-separated hybrid vdW-DF-cx functionals       %
     %    DOI: 10.1063/1.4986522 and 10.1088/1361-648X/ac2ad2               %
     %    use with input_dft = 'vdW-DF-cx0'    and 'vdW-DF-ahcx'            %
     %  * Unscreened and range-separated hybrid vdW-DF2-b86r functionals    %
     %    DOI: 10.1063/1.4986522 and DOI: 10.1103/PhysRevX.12.041003        %
     %    use with input_dft = 'vdW-DF2-br0' and 'vdW-DF2-ahbr'             %
     %                                                                      %
     %%%%%%%%%%%%%%%%%%%%%%%%%%%%%%%%%%%%%%%%%%%%%%%%%%%%%%%%%%%%%%%%%%%%%%%%

     Carrying out vdW-DF run using the following parameters:
     Nqs    =  20  Npoints =  1024  r_max =  100.000
     q_mesh =  0.00001000  0.04494208  0.09755937  0.15916263
               0.23128650  0.31572767  0.41458969  0.53033537
               0.66584808  0.82450364  1.01025438  1.22772762
               1.48234092  1.78043706  2.12944203  2.53805004
               3.01644009  3.57652955  4.23227104  5.00000000

     Non-local corr. energy    =       0.25417249 Ry

     Starting wfcs from file
     Checking if some PAW data can be deallocated...

     Self-consistent Calculation

     iteration #  1     ecut=    70.00 Ry     beta= 0.70
     Davidson diagonalization with overlap

     ethr =  1.00E-05,  avg # of iterations =  1.0

     Threshold (ethr) on eigenvalues was too large:
     Diagonalizing with lowered threshold

     Davidson diagonalization with overlap

     c_bands:  1 eigenvalues not converged
     c_bands:  1 eigenvalues not converged
     ethr =  5.55E-15,  avg # of iterations = 10.2

[...]

     End of self-consistent calculation

          k = 0.0000 0.0000 0.0000 (  2969 PWs)   bands (ev):

   -10.2791  -2.4991  -2.4991  -1.7352  -1.7347  -1.7347   4.3806   4.3806
     4.3810   4.9679   6.1934   6.1934   6.1937  13.7424  13.7424  13.7434
    15.7949  15.7949

     occupation numbers
     1.0000   1.0000   1.0000   1.0000   1.0000   1.0000   1.0000   1.0000
     1.0000   1.0000   1.0000   1.0000   1.0000   0.0000   0.0000   0.0000
     0.0000   0.0000

[...]

          k =-0.5000-0.5000-0.5000 (  3112 PWs)   bands (ev):

[...]

          k = 0.2500-0.2500-0.5000 (  3050 PWs)   bands (ev):

    -7.9441  -6.2587  -4.4508  -2.8236  -0.1537   0.3514   1.6732   3.5028
     4.9711   6.1812   6.6296   6.6757   7.4832  11.0761  12.3520  12.9339
    17.9301  19.7410

     occupation numbers
     1.0000   1.0000   1.0000   1.0000   1.0000   1.0000   1.0000   1.0000
     1.0000   1.0000   1.0000   1.0000   1.0000   0.4704   0.0000   0.0000
     0.0000   0.0000

     the Fermi energy is    11.0690 ev

!    total energy              =    -133.40054300 Ry
     total all-electron energy =      -537.749223 Ry
     estimated scf accuracy    <          3.2E-12 Ry
     smearing contrib. (-TS)   =      -0.00122742 Ry
     internal energy E=F+TS    =    -133.39931558 Ry

     The total energy is F=E-TS. E is the sum of the following terms:
     one-electron contribution =      13.88501763 Ry
     hartree contribution      =      11.18727102 Ry
     xc contribution           =     -32.68426738 Ry
     ewald contribution        =     -79.96465970 Ry
     one-center paw contrib.   =     -45.82267714 Ry
      -> PAW hartree energy AE =       7.78538886 Ry
      -> PAW hartree energy PS =      -7.77680397 Ry
      -> PAW xc energy AE      =     -10.82254971 Ry
      -> PAW xc energy PS      =       4.26325940 Ry
      -> total E_H with PAW    =      11.19585591 Ry
      -> total E_XC with PAW   =     -39.24355769 Ry

     convergence has been achieved in   1 iterations

[...]

     Forces acting on atoms (cartesian axes, Ry/au):

     atom    1 type  1   force =     0.00001778   -0.00001778    0.00002378
     atom    2 type  1   force =    -0.00005515    0.00001480   -0.00001480
     atom    3 type  1   force =     0.00001778   -0.00002378    0.00001778
     atom    4 type  1   force =    -0.00001480    0.00005515   -0.00001480
     atom    5 type  1   force =     0.00002378   -0.00001778    0.00001778
     atom    6 type  1   force =    -0.00001480    0.00001480   -0.00005515
     atom    7 type  1   force =     0.00002541   -0.00002541    0.00002541
     The non-local contrib.  to forces
     atom    1 type  1   force =    -0.14114822    0.14114822    0.14131464
     atom    2 type  1   force =     0.00009178    0.00003433   -0.00003433
     atom    3 type  1   force =    -0.14114822   -0.14131464   -0.14114822
     atom    4 type  1   force =    -0.00003433   -0.00009178   -0.00003433
     atom    5 type  1   force =     0.14131464    0.14114822   -0.14114822
     atom    6 type  1   force =    -0.00003433    0.00003433    0.00009178
     atom    7 type  1   force =     0.14124441   -0.14124441    0.14124441
     The ionic contribution  to forces
     atom    1 type  1   force =     2.02142708   -2.02142723   -2.02060107
     atom    2 type  1   force =    -0.00148973   -0.00015357    0.00015359
     atom    3 type  1   force =     2.02142713    2.02060117    2.02142713
     atom    4 type  1   force =     0.00015359    0.00148979    0.00015359
     atom    5 type  1   force =    -2.02060107   -2.02142723    2.02142708
     atom    6 type  1   force =     0.00015359   -0.00015357   -0.00148973
     atom    7 type  1   force =    -2.02107059    2.02107064   -2.02107059
     The local contribution  to forces
     atom    1 type  1   force =    -1.88280343    1.88280343    1.88185609
     atom    2 type  1   force =     0.00116961    0.00004667   -0.00004646
     atom    3 type  1   force =    -1.88280336   -1.88185593   -1.88280336
     atom    4 type  1   force =    -0.00004646   -0.00116953   -0.00004646
     atom    5 type  1   force =     1.88185609    1.88280343   -1.88280343
     atom    6 type  1   force =    -0.00004646    0.00004667    0.00116961
     atom    7 type  1   force =     1.88225433   -1.88225423    1.88225433
     The core correction contribution to forces
     atom    1 type  1   force =     0.00255647   -0.00255647   -0.00253242
     atom    2 type  1   force =     0.00018730    0.00007404   -0.00007405
     atom    3 type  1   force =     0.00255647    0.00253241    0.00255647
     atom    4 type  1   force =    -0.00007405   -0.00018731   -0.00007405
     atom    5 type  1   force =    -0.00253242   -0.00255647    0.00255647
     atom    6 type  1   force =    -0.00007405    0.00007404    0.00018730
     atom    7 type  1   force =    -0.00238956    0.00238955   -0.00238956
     The Hubbard contrib.    to forces
     atom    1 type  1   force =     0.00000000    0.00000000    0.00000000
     atom    2 type  1   force =     0.00000000    0.00000000    0.00000000
     atom    3 type  1   force =     0.00000000    0.00000000    0.00000000
     atom    4 type  1   force =     0.00000000    0.00000000    0.00000000
     atom    5 type  1   force =     0.00000000    0.00000000    0.00000000
     atom    6 type  1   force =     0.00000000    0.00000000    0.00000000
     atom    7 type  1   force =     0.00000000    0.00000000    0.00000000
     The SCF correction term to forces
     atom    1 type  1   force =    -0.00000042    0.00000042    0.00000042
     atom    2 type  1   force =    -0.00000027   -0.00000032    0.00000032
     atom    3 type  1   force =    -0.00000042   -0.00000042   -0.00000042
     atom    4 type  1   force =     0.00000032    0.00000027    0.00000032
     atom    5 type  1   force =     0.00000042    0.00000042   -0.00000042
     atom    6 type  1   force =     0.00000032   -0.00000032   -0.00000027
     atom    7 type  1   force =     0.00000067   -0.00000067    0.00000067

     Total force =     0.000126     Total SCF correction =     0.000002

     Computing stress (Cartesian axis) and pressure

[...]

          total   stress  (Ry/bohr**3)                   (kbar)     P=     -501.41
  -0.00340848  -0.00000003   0.00000003         -501.41       -0.00        0.00
  -0.00000003  -0.00340848  -0.00000003           -0.00     -501.41       -0.00
   0.00000003  -0.00000003  -0.00340848            0.00       -0.00     -501.41

     kinetic stress (kbar)  15593.56     -0.07      0.07
                               -0.07  15593.56     -0.07
                                0.07     -0.07  15593.56

     local   stress (kbar)  -5122.65     -0.16      0.16
                               -0.16  -5122.65     -0.16
                                0.16     -0.16  -5122.65

     nonloc. stress (kbar)   3989.80      0.04     -0.04
                                0.04   3989.80      0.04
                               -0.04      0.04   3989.80

     hartree stress (kbar)   1783.16      0.02     -0.02
                                0.02   1783.16      0.02
                               -0.02      0.02   1783.16

     exc-cor stress (kbar)   -163.77      0.00     -0.00
                                0.00   -163.77      0.00
                               -0.00      0.00   -163.77

     corecor stress (kbar)  -3859.65      0.15     -0.15
                                0.15  -3859.65      0.15
                               -0.15      0.15  -3859.65

     ewald   stress (kbar) -12745.68      0.02     -0.02
                                0.02 -12745.68      0.02
                               -0.02      0.02 -12745.68

     hubbard stress (kbar)      0.00      0.00      0.00
                                0.00      0.00      0.00
                                0.00      0.00      0.00

     DFT-D   stress (kbar)      0.00      0.00      0.00
                                0.00      0.00      0.00
                                0.00      0.00      0.00

     XDM     stress (kbar)      0.00      0.00      0.00
                                0.00      0.00      0.00
                                0.00      0.00      0.00

     dft-nl  stress (kbar)     23.84     -0.00      0.00
                               -0.00     23.84     -0.00
                                0.00     -0.00     23.84

     TS-vdW  stress (kbar)      0.00      0.00      0.00
                                0.00      0.00      0.00
                                0.00      0.00      0.00

     MDB     stress (kbar)      0.00      0.00      0.00
                                0.00      0.00      0.00
                                0.00      0.00      0.00

     3D-RISM stress (kbar)      0.00      0.00      0.00
                                0.00      0.00      0.00
                                0.00      0.00      0.00

[...]

     Non-local corr. energy    =       0.25417246 Ry

 BEEFens 2000 ensemble energies
             -0.239381222537888E+01
             -0.164905614419584E+00
             -0.514313626319730E+00
              0.167067472906792E+01
             -0.730785861892966E+00
             -0.593971288381361E+00
             -0.170818989425096E+01
             -0.359620204899833E+01
             -0.127127075397384E+01
             -0.138228906084412E+01
             -0.146080357556632E+01
              0.235154179173731E+00
              0.189635639512319E+00
             -0.229776807559126E+00
              0.158452871175414E+00
              0.178016907397673E+01
             -0.691840257658594E+00
             -0.398597259811348E+00
              0.924781170085183E+00
             -0.408871321266131E+01
              0.216988547637381E+01
             -0.747290393857700E+00
             -0.226059749649916E+00
             -0.300265060775896E+00
              0.384929219907484E-01
             -0.188156291276675E+00
              0.319866582715042E+01
             -0.968726738385916E+00
             -0.299159824747935E+00
             -0.216308580222679E+01
              0.254354601100925E+01
             -0.165256099977052E+00
             -0.156516342888705E+01
              0.708862785044101E+00
             -0.106630465115854E+00
              0.110992253558860E+01
              0.967290923636988E-01
             -0.248326329907247E-01
              0.141504487377204E+01
             -0.368691129302861E+01
              0.198431197174282E+01
              0.483730125700898E+00
             -0.454154483038662E+00
             -0.116125519008991E+01
              0.441589165592466E+00
             -0.685572654373875E+00
              0.190047656086357E+01
              0.129741502980198E+01
             -0.685914055744085E+00
             -0.123770003696110E+01
             -0.121382751489662E+01
             -0.134365140452034E+01
              0.743292166070233E+00
             -0.196208314638872E+01
              0.602632652296101E+00
              0.227018428099819E+01
              0.285134739010016E+01
              0.113308749927489E+01
              0.564639055946019E+00
              0.119367850696780E+01
[...]
             -0.283220167719345E+01
              0.138490506986152E+00
              0.202669396667704E-01
             -0.427951477845191E+00
              0.169827594669625E+00
             -0.241903163912599E+01
             -0.352972257124057E+00
              0.429182045735302E+00
              0.496422417282059E+00
              0.190912130131325E+01
             -0.166289685320084E+01
              0.189166886197261E+01
             -0.145453624885320E+01
              0.101199402389013E+01
              0.164006572648162E+01

 BEEF-vdW xc energy contributions
            1 :    -27.36104845681947
            2 :     23.87808807868658
            3 :    -17.95647340624088
            4 :     11.25458099416806
            5 :    -5.392050806761056
            6 :     1.379660099681075
            7 :    0.6232621276558312
            8 :    -1.157783285603426
            9 :     1.050227910591012
           10 :   -0.9715362788332058
           11 :     1.184173687612002
           12 :    -1.559025342683164
           13 :     1.792045015226549
           14 :    -1.660306812305912
           15 :     1.168375575721321
           16 :   -0.5259055574534983
           17 :    3.2695928984090017E-003
           18 :    0.2278096456075325
           19 :   -0.1728985488370611
           20 :   -1.9371632639099801E-002
           21 :    0.1660582227724632
           22 :   -0.1588656009270935
           23 :    1.1741278219410844E-002
           24 :    0.1690532713067228
           25 :   -0.2621833603364720
           26 :    0.2045166979633315
           27 :   -2.0449939639199499E-002
           28 :   -0.2014309752267422
           29 :    0.3628354999739969
           30 :   -0.4069265379911009
           31 :    -3.603233737863434
           32 :    -2.556397808445670

     Writing all to output data dir ./diamond.save/

     General routines

     Parallel routines

     PAW routines

   This run was terminated on:  22:22:16  27Mar2024

   JOB DONE.