     Program PWSCF v.7.2 starts on 27Mar2024 at 21:34:49

     Reading input from espresso.pwi
Warning: card &CELL ignored
Warning: card    CELL_DYNAMICS    = 'BFGS' ignored
Warning: card / ignored

     Current dimensions of program PWSCF are:
     Max number of different atomic species (ntypx) = 10
     Max number of k-points (npk) =  40000
     Max angular momentum in pseudopotentials (lmaxx) =  4
     file C.pbe-n-kjpaw_psl.1.0.0.UPF: wavefunction(s)  2S 2P renormalized

     IMPORTANT: XC functional enforced from input :
     Exchange-correlation= BEEF-VDW
                           (   1   4  43  14   2   0   0)
     Any further DFT definition will be discarded
     Please, verify this is what you really want

     R & G space division:  proc/nbgrp/npool/nimage =      10
     Subspace diagonalization in iterative solution of the eigenvalue problem:
     a serial algorithm will be used

     Using Slab Decomposition

     bravais-lattice index     =            1
     lattice parameter (alat)  =       6.7507  a.u.
     unit-cell volume          =     307.6390 (a.u.)^3
     number of atoms/cell      =            7
     number of atomic types    =            1
     number of electrons       =        27.00
     number of Kohn-Sham states=           18
     kinetic-energy cutoff     =      70.0000  Ry
     charge density cutoff     =     350.0000  Ry
     scf convergence threshold =      1.0E-07
     mixing beta               =       0.7000
     number of iterations used =            8  plain     mixing
     energy convergence thresh.=      1.0E-04
     force convergence thresh. =      1.0E-03
     Exchange-correlation= BEEF-VDW
                           (   1   4  43  14   2   0   0)
     nstep                     =           50

     celldm(1)=   6.750674  celldm(2)=   0.000000  celldm(3)=   0.000000
     celldm(4)=   0.000000  celldm(5)=   0.000000  celldm(6)=   0.000000

     crystal axes: (cart. coord. in units of alat)
               a(1) = (   1.000000   0.000000   0.000000 )
               a(2) = (   0.000000   1.000000   0.000000 )
               a(3) = (   0.000000   0.000000   1.000000 )

     reciprocal axes: (cart. coord. in units 2 pi/alat)
               b(1) = (  1.000000  0.000000  0.000000 )
               b(2) = (  0.000000  1.000000  0.000000 )
               b(3) = (  0.000000  0.000000  1.000000 )

     PseudoPot. # 1 for C  read from file:
     /trace/group/acmegroup/atimmins/packages/espresso/pseudo/psl_1.0.0/pslibrary.1.0.0/pbe/PSEUDOPOTENTIALS/C.pbe-n-kjpaw_psl.1.0.0.UPF
     MD5 check sum: 5459cf7f2c8c37df2f7cde8914797f4d
     Pseudo is Projector augmented-wave + core cor, Zval =  4.0
     Generated using 'atomic' code by A. Dal Corso  v.7.1
     Shape of augmentation charge: PSQ
     Using radial grid of 1073 points,  4 beta functions with:
                l(1) =   0
                l(2) =   0
                l(3) =   1
                l(4) =   1
     Q(r) pseudized with 0 coefficients

     atomic species   valence    mass     pseudopotential
        C              4.00    12.01100     C ( 1.00)

      6 Sym. Ops. (no inversion) found

                                    s                        frac. trans.

      isym =  1     identity

 cryst.   s( 1) = (     1          0          0      )
                  (     0          1          0      )
                  (     0          0          1      )

 cart.    s( 1) = (  1.0000000  0.0000000  0.0000000 )
                  (  0.0000000  1.0000000  0.0000000 )
                  (  0.0000000  0.0000000  1.0000000 )

      isym =  2     120 deg rotation - cart. axis [1,-1,1]

[...]

      isym =  3     120 deg rotation - cart. axis [-1,1,-1]

[...]

      isym =  4     inv. 180 deg rotation - cart. axis [1,1,0]

[...]

      isym =  6     inv. 180 deg rotation - cart. axis [0,1,1]

 cryst.   s( 6) = (     1          0          0      )
                  (     0          0         -1      )
                  (     0         -1          0      )

 cart.    s( 6) = (  1.0000000  0.0000000  0.0000000 )
                  (  0.0000000  0.0000000 -1.0000000 )
                  (  0.0000000 -1.0000000  0.0000000 )

     point group C_3v (3m)
     there are  3 classes
     the character table:

       E     2C3   3s_v
A_1    1.00  1.00  1.00
A_2    1.00  1.00 -1.00
E      2.00 -1.00  0.00

     the symmetry operations in each class and the name of the first element:

     E        1
          identity
     2C3      2    3
          120 deg rotation - cart. axis [1,-1,1]
     3s_v     4    5    6
          inv. 180 deg rotation - cart. axis [1,1,0]

   Cartesian axes

     site n.     atom                  positions (alat units)
         1           C   tau(   1) = (   0.0000000   0.0000000   0.5000000  )
         2           C   tau(   2) = (   0.2500061   0.2500061   0.7499939  )
         3           C   tau(   3) = (   0.0000000   0.5000000   0.0000000  )
         4           C   tau(   4) = (   0.7499939   0.7499939   0.7499939  )
         5           C   tau(   5) = (   0.5000000   0.0000000   0.0000000  )
         6           C   tau(   6) = (   0.7499939   0.2500061   0.2500061  )
         7           C   tau(   7) = (   0.5000000   0.5000000   0.5000000  )

   Crystallographic axes

     site n.     atom                  positions (cryst. coord.)
         1           C   tau(   1) = (  0.0000000  0.0000000  0.5000000  )
         2           C   tau(   2) = (  0.2500061  0.2500061  0.7499939  )
         3           C   tau(   3) = (  0.0000000  0.5000000  0.0000000  )
         4           C   tau(   4) = (  0.7499939  0.7499939  0.7499939  )
         5           C   tau(   5) = (  0.5000000  0.0000000  0.0000000  )
         6           C   tau(   6) = (  0.7499939  0.2500061  0.2500061  )
         7           C   tau(   7) = (  0.5000000  0.5000000  0.5000000  )

     number of k points=    13  Gaussian smearing, width (Ry)=  0.0100
                       cart. coord. in units 2pi/alat
        k(    1) = (   0.0000000   0.0000000   0.0000000), wk =   0.0312500
        k(    2) = (   0.0000000   0.0000000   0.2500000), wk =   0.1875000
        k(    3) = (   0.0000000   0.0000000  -0.5000000), wk =   0.0937500
        k(    4) = (   0.0000000   0.2500000   0.2500000), wk =   0.1875000
        k(    5) = (   0.0000000   0.2500000  -0.5000000), wk =   0.3750000
        k(    6) = (   0.0000000  -0.5000000  -0.5000000), wk =   0.0937500
        k(    7) = (   0.2500000   0.2500000   0.2500000), wk =   0.1875000
        k(    8) = (   0.2500000   0.2500000  -0.5000000), wk =   0.1875000
        k(    9) = (   0.2500000  -0.5000000  -0.5000000), wk =   0.1875000
        k(   10) = (  -0.5000000  -0.5000000  -0.5000000), wk =   0.0312500
        k(   11) = (   0.2500000   0.0000000   0.2500000), wk =   0.1875000
        k(   12) = (   0.2500000  -0.2500000   0.2500000), wk =   0.0625000
        k(   13) = (   0.2500000  -0.2500000  -0.5000000), wk =   0.1875000

                       cryst. coord.
        k(    1) = (   0.0000000   0.0000000   0.0000000), wk =   0.0312500
        k(    2) = (   0.0000000   0.0000000   0.2500000), wk =   0.1875000
        k(    3) = (   0.0000000   0.0000000  -0.5000000), wk =   0.0937500
        k(    4) = (   0.0000000   0.2500000   0.2500000), wk =   0.1875000
        k(    5) = (   0.0000000   0.2500000  -0.5000000), wk =   0.3750000
        k(    6) = (   0.0000000  -0.5000000  -0.5000000), wk =   0.0937500
        k(    7) = (   0.2500000   0.2500000   0.2500000), wk =   0.1875000
        k(    8) = (   0.2500000   0.2500000  -0.5000000), wk =   0.1875000
        k(    9) = (   0.2500000  -0.5000000  -0.5000000), wk =   0.1875000
        k(   10) = (  -0.5000000  -0.5000000  -0.5000000), wk =   0.0312500
        k(   11) = (   0.2500000   0.0000000   0.2500000), wk =   0.1875000
        k(   12) = (   0.2500000  -0.2500000   0.2500000), wk =   0.0625000
        k(   13) = (   0.2500000  -0.2500000  -0.5000000), wk =   0.1875000

     Check: negative core charge=   -0.000014

     Initial potential from superposition of free atoms

     starting charge      27.9997, renormalised to      27.0000

     %%%%%%%%%%%%%%%%%%%%%%%%%%%%%%%%%%%%%%%%%%%%%%%%%%%%%%%%%%%%%%%%%%%%%%%%
     %                                                                      %
     % You are using vdW-DF, which was implemented by the Thonhauser group. %
     % Please cite the following two papers that made this development      %
     % possible and the two reviews that describe the various versions:     %
     %                                                                      %
     %   T. Thonhauser et al., PRL 115, 136402 (2015).                      %
     %   T. Thonhauser et al., PRB 76, 125112 (2007).                       %
     %   K. Berland et al., Rep. Prog. Phys. 78, 066501 (2015).             %
     %   D.C. Langreth et al., J. Phys.: Condens. Matter 21, 084203 (2009). %
     %                                                                      %
     % If you are calculating stress with vdW-DF, please also cite:         %
     %                                                                      %
     %   R. Sabatini et al., J. Phys.: Condens. Matter 24, 424209 (2012).   %
     %                                                                      %
     %%%%%%%%%%%%%%%%%%%%%%%%%%%%%%%%%%%%%%%%%%%%%%%%%%%%%%%%%%%%%%%%%%%%%%%%

     %%%%%%%%%%%%%%%%%%%%%%%%%%%%%%%%%%%%%%%%%%%%%%%%%%%%%%%%%%%%%%%%%%%%%%%%
     %                                                                      %
     %  vdW-DF NEWS:                                                        %
     %                                                                      %
     %  * vdW-DF3 is now available. DOI: 10.1021/acs.jctc.0c00471           %
     %    use with input_dft = 'vdW-DF3-opt1' or 'vdW-DF3-opt2'             %
     %                                                                      %
     %  * Unscreened and range-separated hybrid vdW-DF-cx functionals       %
     %    DOI: 10.1063/1.4986522 and 10.1088/1361-648X/ac2ad2               %
     %    use with input_dft = 'vdW-DF-cx0'    and 'vdW-DF-ahcx'            %
     %  * Unscreened and range-separated hybrid vdW-DF2-b86r functionals    %
     %    DOI: 10.1063/1.4986522 and DOI: 10.1103/PhysRevX.12.041003        %
     %    use with input_dft = 'vdW-DF2-br0' and 'vdW-DF2-ahbr'             %
     %                                                                      %
     %%%%%%%%%%%%%%%%%%%%%%%%%%%%%%%%%%%%%%%%%%%%%%%%%%%%%%%%%%%%%%%%%%%%%%%%

     Carrying out vdW-DF run using the following parameters:
     Nqs    =  20  Npoints =  1024  r_max =  100.000
     q_mesh =  0.00001000  0.04494208  0.09755937  0.15916263
               0.23128650  0.31572767  0.41458969  0.53033537
               0.66584808  0.82450364  1.01025438  1.22772762
               1.48234092  1.78043706  2.12944203  2.53805004
               3.01644009  3.57652955  4.23227104  5.00000000

     Non-local corr. energy    =       0.19412819 Ry

     Starting wfcs are   28 randomized atomic wfcs
     Checking if some PAW data can be deallocated...

     Self-consistent Calculation

[...]
     atom    6 type  1   force =    -0.00009783    0.00009782    0.00014160
     atom    7 type  1   force =    -0.00198868    0.00198867   -0.00198868
     The Hubbard contrib.    to forces
     atom    1 type  1   force =     0.00000000    0.00000000    0.00000000
     atom    2 type  1   force =     0.00000000    0.00000000    0.00000000
     atom    3 type  1   force =     0.00000000    0.00000000    0.00000000
     atom    4 type  1   force =     0.00000000    0.00000000    0.00000000
     atom    5 type  1   force =     0.00000000    0.00000000    0.00000000
     atom    6 type  1   force =     0.00000000    0.00000000    0.00000000
     atom    7 type  1   force =     0.00000000    0.00000000    0.00000000
     The SCF correction term to forces
     atom    1 type  1   force =     0.00003616   -0.00003616   -0.00003731
     atom    2 type  1   force =    -0.00002660   -0.00002636    0.00002636
     atom    3 type  1   force =     0.00003616    0.00003731    0.00003616
     atom    4 type  1   force =     0.00002636    0.00002660    0.00002636
     atom    5 type  1   force =    -0.00003731   -0.00003616    0.00003616
     atom    6 type  1   force =     0.00002636   -0.00002636   -0.00002660
     atom    7 type  1   force =    -0.00003590    0.00003590   -0.00003590

     Total force =     0.288325     Total SCF correction =     0.000149

     Computing stress (Cartesian axis) and pressure

[...]

          total   stress  (Ry/bohr**3)                   (kbar)     P=     -666.46
  -0.00453051   0.00000063  -0.00000063         -666.46        0.09       -0.09
   0.00000063  -0.00453051   0.00000063            0.09     -666.46        0.09
  -0.00000063   0.00000063  -0.00453051           -0.09        0.09     -666.46

     kinetic stress (kbar)  15256.05     -0.04      0.04
                               -0.04  15256.05     -0.04
                                0.04     -0.04  15256.05

     local   stress (kbar)  -4099.85     -0.23      0.23
                               -0.23  -4099.85     -0.23
                                0.23     -0.23  -4099.85

     nonloc. stress (kbar)   4025.51      0.04     -0.04
                                0.04   4025.51      0.04
                               -0.04      0.04   4025.51

     hartree stress (kbar)   1378.51      0.05     -0.05
                                0.05   1378.51      0.05
                               -0.05      0.05   1378.51

     exc-cor stress (kbar)   -118.13      0.01     -0.01
                                0.01   -118.13      0.01
                               -0.01      0.01   -118.13

     corecor stress (kbar)  -3847.60      0.14     -0.14
                                0.14  -3847.60      0.14
                               -0.14      0.14  -3847.60

     ewald   stress (kbar) -13281.99      0.14     -0.14
                                0.14 -13281.99      0.14
                               -0.14      0.14 -13281.99

     hubbard stress (kbar)      0.00      0.00      0.00
                                0.00      0.00      0.00
                                0.00      0.00      0.00

     DFT-D   stress (kbar)      0.00      0.00      0.00
                                0.00      0.00      0.00
                                0.00      0.00      0.00

     XDM     stress (kbar)      0.00      0.00      0.00
                                0.00      0.00      0.00
                                0.00      0.00      0.00

     dft-nl  stress (kbar)     21.04     -0.00      0.00
                               -0.00     21.04     -0.00
                                0.00     -0.00     21.04

     TS-vdW  stress (kbar)      0.00      0.00      0.00
                                0.00      0.00      0.00
                                0.00      0.00      0.00

     MDB     stress (kbar)      0.00      0.00      0.00
                                0.00      0.00      0.00
                                0.00      0.00      0.00

     3D-RISM stress (kbar)      0.00      0.00      0.00
                                0.00      0.00      0.00
                                0.00      0.00      0.00

     BFGS Geometry Optimization
     Energy error            =      0.0E+00 Ry
     Gradient error          =      8.3E-02 Ry/Bohr

     number of scf cycles    =   1
     number of bfgs steps    =   0

     energy             new  =    -133.3266066764 Ry

     new trust radius        =       0.1442415135 bohr
     new conv_thr            =       0.0000001000 Ry

ATOMIC_POSITIONS (angstrom)
C            -0.0440357749        0.0440357749        1.8301893558
C             0.8931281061        0.8931304569        2.6791723615
C            -0.0440357749        1.7421134626       -0.0440357749
C             2.6791723615        2.6791747123        2.6791723615
C             1.8301893558        0.0440357749       -0.0440357749
C             2.6791723615        0.8931304569        0.8931281061
C             1.8302201637        1.7420826547        1.8302201637

     Writing config-only to output data dir ./diamond.save/
     NEW-OLD atomic charge density approx. for the potential

[...]

     Energy error            =      5.9E-02 Ry
     Gradient error          =      3.6E-02 Ry/Bohr

[...]

     energy             old  =    -133.3266066764 Ry
     energy             new  =    -133.3858779631 Ry

     CASE: energy            _new < energy            _old

[...]

     Threshold (ethr) on eigenvalues was too large:
     Diagonalizing with lowered threshold

     Davidson diagonalization with overlap

[...]

     number of scf cycles    =   4
     number of bfgs steps    =   3

     energy             old  =    -133.4003948959 Ry
     energy             new  =    -133.4005427332 Ry

     CASE: energy            _new < energy            _old

     new trust radius        =       0.0005135013 bohr
     new conv_thr            =       0.0000000010 Ry

ATOMIC_POSITIONS (angstrom)
C            -0.0804786357        0.0804786357        1.8665373737
C             0.8931073894        0.8931236229        2.6791791955
C            -0.0804786357        1.7057654447       -0.0804786357
C             2.6791791955        2.6791954290        2.6791791955
C             1.8665373737        0.0804786357       -0.0804786357
C             2.6791791955        0.8931236229        0.8931073894
C             1.8667649161        1.7055379023        1.8667649161

     Writing config-only to output data dir ./diamond.save/
     NEW-OLD atomic charge density approx. for the potential

     Check: negative core charge=   -0.000013

[...]

     Self-consistent Calculation

[...]

     Threshold (ethr) on eigenvalues was too large:
     Diagonalizing with lowered threshold

     Davidson diagonalization with overlap

[...]

     ethr =  1.98E-11,  avg # of iterations =  4.2

[...]

     total energy              =    -133.40054300 Ry
     estimated scf accuracy    <          1.1E-09 Ry

     iteration #  5     ecut=    70.00 Ry     beta= 0.70
     Davidson diagonalization with overlap

     c_bands:  1 eigenvalues not converged
     ethr =  4.00E-12,  avg # of iterations =  5.2

[...]

     End of self-consistent calculation

[...]

          k =-0.5000-0.5000-0.5000 (  3112 PWs)   bands (ev):

[...]

          k = 0.2500-0.2500-0.5000 (  3050 PWs)   bands (ev):

    -7.9441  -6.2587  -4.4508  -2.8236  -0.1537   0.3514   1.6732   3.5028
     4.9711   6.1812   6.6296   6.6757   7.4832  11.0761  12.3520  12.9339
    17.9301  19.7410

     occupation numbers
     1.0000   1.0000   1.0000   1.0000   1.0000   1.0000   1.0000   1.0000
     1.0000   1.0000   1.0000   1.0000   1.0000   0.4705   0.0000   0.0000
     0.0000   0.0000

     the Fermi energy is    11.0690 ev

!    total energy              =    -133.40054300 Ry
     total all-electron energy =      -537.749223 Ry
     estimated scf accuracy    <          6.7E-12 Ry
     smearing contrib. (-TS)   =      -0.00122742 Ry
     internal energy E=F+TS    =    -133.39931558 Ry

     The total energy is F=E-TS. E is the sum of the following terms:
     one-electron contribution =      13.88501426 Ry
     hartree contribution      =      11.18727503 Ry
     xc contribution           =     -32.68426807 Ry
     ewald contribution        =     -79.96465970 Ry
     one-center paw contrib.   =     -45.82267710 Ry
      -> PAW hartree energy AE =       7.78538866 Ry
      -> PAW hartree energy PS =      -7.77680377 Ry
      -> PAW xc energy AE      =     -10.82254962 Ry
      -> PAW xc energy PS      =       4.26325933 Ry
      -> total E_H with PAW    =      11.19585993 Ry
      -> total E_XC with PAW   =     -39.24355836 Ry

     convergence has been achieved in   5 iterations

[...]

     Forces acting on atoms (cartesian axes, Ry/au):

     atom    1 type  1   force =     0.00001796   -0.00001796    0.00002371
     atom    2 type  1   force =    -0.00005588    0.00001445   -0.00001445
     atom    3 type  1   force =     0.00001796   -0.00002371    0.00001796
     atom    4 type  1   force =    -0.00001445    0.00005588   -0.00001445
     atom    5 type  1   force =     0.00002371   -0.00001796    0.00001796
     atom    6 type  1   force =    -0.00001445    0.00001445   -0.00005588
     atom    7 type  1   force =     0.00002514   -0.00002514    0.00002514
     The non-local contrib.  to forces
     atom    1 type  1   force =    -0.14114802    0.14114802    0.14131462
     atom    2 type  1   force =     0.00009063    0.00003342   -0.00003342
     atom    3 type  1   force =    -0.14114802   -0.14131462   -0.14114802
     atom    4 type  1   force =    -0.00003342   -0.00009063   -0.00003342
     atom    5 type  1   force =     0.14131462    0.14114802   -0.14114802
     atom    6 type  1   force =    -0.00003342    0.00003342    0.00009063
     atom    7 type  1   force =     0.14124366   -0.14124366    0.14124366
     The ionic contribution  to forces
     atom    1 type  1   force =     2.02142708   -2.02142723   -2.02060107
     atom    2 type  1   force =    -0.00148973   -0.00015357    0.00015359
     atom    3 type  1   force =     2.02142713    2.02060117    2.02142713
     atom    4 type  1   force =     0.00015359    0.00148979    0.00015359
     atom    5 type  1   force =    -2.02060107   -2.02142723    2.02142708
     atom    6 type  1   force =     0.00015359   -0.00015357   -0.00148973
     atom    7 type  1   force =    -2.02107059    2.02107064   -2.02107059
     The local contribution  to forces
     atom    1 type  1   force =    -1.88280410    1.88280410    1.88185677
     atom    2 type  1   force =     0.00117021    0.00004698   -0.00004678
     atom    3 type  1   force =    -1.88280403   -1.88185661   -1.88280403
     atom    4 type  1   force =    -0.00004678   -0.00117012   -0.00004678
     atom    5 type  1   force =     1.88185677    1.88280410   -1.88280410
     atom    6 type  1   force =    -0.00004678    0.00004698    0.00117021
     atom    7 type  1   force =     1.88225619   -1.88225610    1.88225619
     The core correction contribution to forces
     atom    1 type  1   force =     0.00255644   -0.00255644   -0.00253241
     atom    2 type  1   force =     0.00018735    0.00007408   -0.00007409
     atom    3 type  1   force =     0.00255645    0.00253240    0.00255645
     atom    4 type  1   force =    -0.00007409   -0.00018736   -0.00007409
     atom    5 type  1   force =    -0.00253241   -0.00255644    0.00255644
     atom    6 type  1   force =    -0.00007409    0.00007408    0.00018735
     atom    7 type  1   force =    -0.00238951    0.00238950   -0.00238951
     The Hubbard contrib.    to forces
     atom    1 type  1   force =     0.00000000    0.00000000    0.00000000
     atom    2 type  1   force =     0.00000000    0.00000000    0.00000000
     atom    3 type  1   force =     0.00000000    0.00000000    0.00000000
     atom    4 type  1   force =     0.00000000    0.00000000    0.00000000
     atom    5 type  1   force =     0.00000000    0.00000000    0.00000000
     atom    6 type  1   force =     0.00000000    0.00000000    0.00000000
     atom    7 type  1   force =     0.00000000    0.00000000    0.00000000
     The SCF correction term to forces
     atom    1 type  1   force =     0.00000037   -0.00000037   -0.00000022
     atom    2 type  1   force =    -0.00000038   -0.00000023    0.00000023
     atom    3 type  1   force =     0.00000037    0.00000022    0.00000037
     atom    4 type  1   force =     0.00000023    0.00000038    0.00000023
     atom    5 type  1   force =    -0.00000022   -0.00000037    0.00000037
     atom    6 type  1   force =     0.00000023   -0.00000023   -0.00000038
     atom    7 type  1   force =    -0.00000066    0.00000066   -0.00000066

     Total force =     0.000127     Total SCF correction =     0.000002

     Computing stress (Cartesian axis) and pressure

     Non-local corr. energy    =       0.25417249 Ry

          total   stress  (Ry/bohr**3)                   (kbar)     P=     -501.40
  -0.00340848  -0.00000003   0.00000003         -501.40       -0.00        0.00
  -0.00000003  -0.00340848  -0.00000003           -0.00     -501.40       -0.00
   0.00000003  -0.00000003  -0.00340848            0.00       -0.00     -501.40

     kinetic stress (kbar)  15593.56     -0.07      0.07
                               -0.07  15593.56     -0.07
                                0.07     -0.07  15593.56

     local   stress (kbar)  -5122.65     -0.16      0.16
                               -0.16  -5122.65     -0.16
                                0.16     -0.16  -5122.65

     nonloc. stress (kbar)   3989.80      0.04     -0.04
                                0.04   3989.80      0.04
                               -0.04      0.04   3989.80

     hartree stress (kbar)   1783.16      0.02     -0.02
                                0.02   1783.16      0.02
                               -0.02      0.02   1783.16

     exc-cor stress (kbar)   -163.77      0.00     -0.00
                                0.00   -163.77      0.00
                               -0.00      0.00   -163.77

     corecor stress (kbar)  -3859.65      0.15     -0.15
                                0.15  -3859.65      0.15
                               -0.15      0.15  -3859.65

     ewald   stress (kbar) -12745.68      0.02     -0.02
                                0.02 -12745.68      0.02
                               -0.02      0.02 -12745.68

     hubbard stress (kbar)      0.00      0.00      0.00
                                0.00      0.00      0.00
                                0.00      0.00      0.00

     DFT-D   stress (kbar)      0.00      0.00      0.00
                                0.00      0.00      0.00
                                0.00      0.00      0.00

     XDM     stress (kbar)      0.00      0.00      0.00
                                0.00      0.00      0.00
                                0.00      0.00      0.00

     dft-nl  stress (kbar)     23.84     -0.00      0.00
                               -0.00     23.84     -0.00
                                0.00     -0.00     23.84

     TS-vdW  stress (kbar)      0.00      0.00      0.00
                                0.00      0.00      0.00
                                0.00      0.00      0.00

     MDB     stress (kbar)      0.00      0.00      0.00
                                0.00      0.00      0.00
                                0.00      0.00      0.00

     3D-RISM stress (kbar)      0.00      0.00      0.00
                                0.00      0.00      0.00
                                0.00      0.00      0.00

     Energy error            =      2.7E-07 Ry
     Gradient error          =      5.6E-05 Ry/Bohr

     bfgs converged in   5 scf cycles and   4 bfgs steps
     (criteria: energy <  1.0E-04 Ry, force <  1.0E-03 Ry/Bohr)

     End of BFGS Geometry Optimization

     Final energy             =    -133.4005430027 Ry

     File ./diamond.bfgs deleted, as requested
Begin final coordinates

ATOMIC_POSITIONS (angstrom)
C            -0.0804786357        0.0804786357        1.8665373737
C             0.8931073894        0.8931236229        2.6791791955
C            -0.0804786357        1.7057654447       -0.0804786357
C             2.6791791955        2.6791954290        2.6791791955
C             1.8665373737        0.0804786357       -0.0804786357
C             2.6791791955        0.8931236229        0.8931073894
C             1.8667649161        1.7055379023        1.8667649161
End final coordinates

     Writing all to output data dir ./diamond.save/

     General routines

     Parallel routines

     PAW routines

   This run was terminated on:  21:35: 3  27Mar2024

   JOB DONE.