     Program PWSCF v.7.1 starts on 27Mar2024 at 21:43:41

     Reading input from espresso.pwi
Warning: card &CELL ignored
Warning: card    CELL_DYNAMICS    = 'BFGS' ignored
Warning: card / ignored

     Current dimensions of program PWSCF are:
     Max number of different atomic species (ntypx) = 10
     Max number of k-points (npk) =  40000
     Max angular momentum in pseudopotentials (lmaxx) =  4
     file Pb.pbe-dn-kjpaw_psl.1.0.0.UPF: wavefunction(s)  6S 6P 5D renormalized
     file I.pbe-dn-kjpaw_psl.1.0.0.UPF: wavefunction(s)  5S 5P renormalized

     IMPORTANT: XC functional enforced from input :
     Exchange-correlation= BEEF-VDW
                           (   1   4  43  14   2   0   0)
     Any further DFT definition will be discarded
     Please, verify this is what you really want

     R & G space division:  proc/nbgrp/npool/nimage =      20
     Subspace diagonalization in iterative solution of the eigenvalue problem:
     a serial algorithm will be used

     Using Slab Decomposition

     bravais-lattice index     =            4
     lattice parameter (alat)  =      17.8060  a.u.
     unit-cell volume          =    7656.2263 (a.u.)^3
     number of atoms/cell      =           24
     number of atomic types    =            2
     number of electrons       =       387.00
     number of Kohn-Sham states=          233
     kinetic-energy cutoff     =      70.0000  Ry
     charge density cutoff     =     350.0000  Ry
     scf convergence threshold =      1.0E-07
     mixing beta               =       0.7000
     number of iterations used =            8  plain     mixing
     energy convergence thresh.=      1.0E-04
     force convergence thresh. =      1.0E-03
     Exchange-correlation= BEEF-VDW
                           (   1   4  43  14   2   0   0)
     nstep                     =           50

     celldm(1)=  17.806016  celldm(2)=   0.000000  celldm(3)=   1.565971
     celldm(4)=   0.000000  celldm(5)=   0.000000  celldm(6)=   0.000000

     crystal axes: (cart. coord. in units of alat)
               a(1) = (   1.000000   0.000000   0.000000 )
               a(2) = (  -0.500000   0.866025   0.000000 )
               a(3) = (   0.000000   0.000000   1.565971 )

     reciprocal axes: (cart. coord. in units 2 pi/alat)
               b(1) = (  1.000000  0.577350 -0.000000 )
               b(2) = (  0.000000  1.154701  0.000000 )
               b(3) = (  0.000000 -0.000000  0.638581 )

     PseudoPot. # 1 for Pb read from file:
     /trace/group/acmegroup/atimmins/packages/espresso/pseudo/psl_1.0.0/pslibrary.1.0.0/pbe/PSEUDOPOTENTIALS/Pb.pbe-dn-kjpaw_psl.1.0.0.UPF
     MD5 check sum: 39ab5b8a6bbd56b7735ad9f188aac93a
     Pseudo is Projector augmented-wave + core cor, Zval = 14.0
     Generated using 'atomic' code by A. Dal Corso  v.7.1
     Shape of augmentation charge: PSQ
     Using radial grid of 1281 points,  6 beta functions with:
                l(1) =   0
                l(2) =   0
                l(3) =   1
                l(4) =   1
                l(5) =   2
                l(6) =   2
     Q(r) pseudized with 0 coefficients

     PseudoPot. # 2 for I  read from file:
     /trace/group/acmegroup/atimmins/packages/espresso/pseudo/psl_1.0.0/pslibrary.1.0.0/pbe/PSEUDOPOTENTIALS/I.pbe-dn-kjpaw_psl.1.0.0.UPF
     MD5 check sum: bfa8781bc1224d19af3f3980e3fab11e
     Pseudo is Projector augmented-wave + core cor, Zval = 17.0
     Generated using 'atomic' code by A. Dal Corso  v.7.1
     Shape of augmentation charge: PSQ
     Using radial grid of 1247 points,  6 beta functions with:
                l(1) =   0
                l(2) =   0
                l(3) =   1
                l(4) =   1
                l(5) =   2
                l(6) =   2
     Q(r) pseudized with 0 coefficients

     atomic species   valence    mass     pseudopotential
        Pb            14.00   207.20000     Pb( 1.00)
        I             17.00   126.90447     I ( 1.00)

     No symmetry found

                                    s                        frac. trans.

      isym =  1     identity

 cryst.   s( 1) = (     1          0          0      )
                  (     0          1          0      )
                  (     0          0          1      )

 cart.    s( 1) = (  1.0000000  0.0000000  0.0000000 )
                  (  0.0000000  1.0000000  0.0000000 )
                  (  0.0000000  0.0000000  1.0000000 )

     point group C_1 (1)
     there are  1 classes
     the character table:

       E
A      1.00

     the symmetry operations in each class and the name of the first element:

     E        1
          identity

   Cartesian axes

     site n.     atom                  positions (alat units)
         1           Pb  tau(   1) = (   0.2500068   0.4329836   0.7829793  )
         2           Pb  tau(   2) = (   0.0000153   0.8659852   1.5659567  )
         3           Pb  tau(   3) = (   0.0000051   0.8659943   0.7829710  )
         4           Pb  tau(   4) = (   0.7500170   0.4329726   1.5659715  )
         5           Pb  tau(   5) = (   0.7500068   0.4329816   0.7829858  )
         6           Pb  tau(   6) = (   0.5000153   0.8659833   1.5659633  )
         7           Pb  tau(   7) = (   0.5000051   0.8659923   0.7829776  )
         8           I   tau(   8) = (   0.2500107   0.1443099   0.5818649  )
         9           I   tau(   9) = (   0.2500209   0.1443009   1.3648506  )
        10           I   tau(  10) = (   0.0000091   0.5773207   0.5818567  )
        11           I   tau(  11) = (   0.0000193   0.5773116   1.3648424  )
        12           I   tau(  12) = (   0.7500107   0.1443080   0.5818714  )
        13           I   tau(  13) = (   0.7500209   0.1442990   1.3648571  )
        14           I   tau(  14) = (   0.5000091   0.5773187   0.5818632  )
        15           I   tau(  15) = (   0.5000193   0.5773097   1.3648489  )
        16           I   tau(  16) = (  -0.0000034   0.2886595   0.2011110  )
        17           I   tau(  17) = (   0.0000068   0.2886504   0.9840967  )
        18           I   tau(  18) = (  -0.2500051   0.7216702   0.2011027  )
        19           I   tau(  19) = (  -0.2499949   0.7216611   0.9840884  )
        20           I   tau(  20) = (   0.4999966   0.2886575   0.2011175  )
        21           I   tau(  21) = (   0.5000068   0.2886485   0.9841032  )
        22           I   tau(  22) = (   0.2499949   0.7216682   0.2011092  )
        23           I   tau(  23) = (   0.2500051   0.7216592   0.9840949  )
        24           I   tau(  24) = (   0.2500170   0.4329745   1.5659650  )

   Crystallographic axes

     site n.     atom                  positions (cryst. coord.)
         1           Pb  tau(   1) = (  0.4999900  0.4999663  0.4999959  )
         2           Pb  tau(   2) = (  0.4999921  0.9999536  0.9999906  )
         3           Pb  tau(   3) = (  0.4999871  0.9999640  0.4999906  )
         4           Pb  tau(   4) = (  0.9999938  0.4999537  1.0000001  )
         5           Pb  tau(   5) = (  0.9999888  0.4999641  0.5000001  )
         6           Pb  tau(   6) = (  0.9999910  0.9999514  0.9999948  )
         7           Pb  tau(   7) = (  0.9999860  0.9999618  0.4999948  )
         8           I   tau(   8) = (  0.3333281  0.1666348  0.3715680  )
         9           I   tau(   9) = (  0.3333331  0.1666243  0.8715680  )
        10           I   tau(  10) = (  0.3333253  0.6666325  0.3715628  )
        11           I   tau(  11) = (  0.3333303  0.6666220  0.8715628  )
        12           I   tau(  12) = (  0.8333270  0.1666326  0.3715722  )
        13           I   tau(  13) = (  0.8333320  0.1666221  0.8715722  )
        14           I   tau(  14) = (  0.8333242  0.6666303  0.3715669  )
        15           I   tau(  15) = (  0.8333292  0.6666198  0.8715669  )
        16           I   tau(  16) = (  0.1666542  0.3333152  0.1284257  )
        17           I   tau(  17) = (  0.1666592  0.3333048  0.6284257  )
        18           I   tau(  18) = (  0.1666514  0.8333129  0.1284204  )
        19           I   tau(  19) = (  0.1666564  0.8333025  0.6284204  )
        20           I   tau(  20) = (  0.6666531  0.3333130  0.1284299  )
        21           I   tau(  21) = (  0.6666581  0.3333026  0.6284299  )
        22           I   tau(  22) = (  0.6666503  0.8333107  0.1284246  )
        23           I   tau(  23) = (  0.6666553  0.8333003  0.6284246  )
        24           I   tau(  24) = (  0.4999949  0.4999559  0.9999959  )

     number of k points=     4  Gaussian smearing, width (Ry)=  0.0100
                       cart. coord. in units 2pi/alat
        k(    1) = (   0.0000000   0.0000000   0.0000000), wk =   0.5000000
        k(    2) = (   0.0000000  -0.5773503   0.0000000), wk =   0.5000000
        k(    3) = (   0.5000000  -0.2886751   0.0000000), wk =   0.5000000
        k(    4) = (  -0.5000000  -0.2886751   0.0000000), wk =   0.5000000

                       cryst. coord.
        k(    1) = (   0.0000000   0.0000000   0.0000000), wk =   0.5000000
        k(    2) = (   0.0000000  -0.5000000   0.0000000), wk =   0.5000000
        k(    3) = (   0.5000000  -0.5000000   0.0000000), wk =   0.5000000
        k(    4) = (  -0.5000000  -0.0000000   0.0000000), wk =   0.5000000

     Check: negative core charge=   -0.000002

     Initial potential from superposition of free atoms

     starting charge     386.9823, renormalised to     387.0000

     %%%%%%%%%%%%%%%%%%%%%%%%%%%%%%%%%%%%%%%%%%%%%%%%%%%%%%%%%%%%%%%%%%%%%%%%
     %                                                                      %
     % You are using vdW-DF, which was implemented by the Thonhauser group. %
     % Please cite the following two papers that made this development      %
     % possible and the two reviews that describe the various versions:     %
     %                                                                      %
     %   T. Thonhauser et al., PRL 115, 136402 (2015).                      %
     %   T. Thonhauser et al., PRB 76, 125112 (2007).                       %
     %   K. Berland et al., Rep. Prog. Phys. 78, 066501 (2015).             %
     %   D.C. Langreth et al., J. Phys.: Condens. Matter 21, 084203 (2009). %
     %                                                                      %
     % If you are calculating stress with vdW-DF, please also cite:         %
     %                                                                      %
     %   R. Sabatini et al., J. Phys.: Condens. Matter 24, 424209 (2012).   %
     %                                                                      %
     %%%%%%%%%%%%%%%%%%%%%%%%%%%%%%%%%%%%%%%%%%%%%%%%%%%%%%%%%%%%%%%%%%%%%%%%

     %%%%%%%%%%%%%%%%%%%%%%%%%%%%%%%%%%%%%%%%%%%%%%%%%%%%%%%%%%%%%%%%%%%%%%%%
     %                                                                      %
     %  vdW-DF NEWS:                                                        %
     %                                                                      %
     %  * vdW-DF3 is now available. DOI: 10.1021/acs.jctc.0c00471           %
     %    use with input_dft = 'vdW-DF3-opt1' or 'vdW-DF3-opt2'             %
     %                                                                      %
[...]
     atom   19 type  2   force =    -0.00000448   -0.00000542   -0.00069737
     atom   20 type  2   force =    -0.00025573    0.00014829    0.00023261
     atom   21 type  2   force =    -0.00010654    0.00006714    0.00047392
     atom   22 type  2   force =     0.00000052   -0.00027986    0.00024609
     atom   23 type  2   force =     0.00000224   -0.00012546    0.00047641
     atom   24 type  2   force =     0.00000815   -0.00000716   -0.00000437
     The non-local contrib.  to forces
     atom    1 type  1   force =     0.00001329   -0.00001292    0.00001365
     atom    2 type  1   force =     0.00002173    0.00000378   -0.00000573
     atom    3 type  1   force =     0.00001307   -0.00003935   -0.00001332
     atom    4 type  1   force =    -0.00003496   -0.00003483    0.00007410
     atom    5 type  1   force =     0.00001368   -0.00002266    0.00002109
     atom    6 type  1   force =     0.00000126   -0.00004479    0.00000200
     atom    7 type  1   force =    -0.00000828   -0.00002665   -0.00002519
     atom    8 type  2   force =    -0.00000237    0.00058922    0.24647633
     atom    9 type  2   force =     0.00001113   -0.06088709    0.17260008
     atom   10 type  2   force =     0.00049903   -0.00027955    0.24648660
     atom   11 type  2   force =    -0.05264601    0.03041791    0.17263504
     atom   12 type  2   force =    -0.00000134    0.00001395    0.26175146
     atom   13 type  2   force =    -0.00000835   -0.00001136    0.24494569
     atom   14 type  2   force =    -0.00050635   -0.00028011    0.24648425
     atom   15 type  2   force =     0.05269513    0.03043316    0.17263444
     atom   16 type  2   force =    -0.05275054   -0.03041102   -0.17262783
     atom   17 type  2   force =     0.00049599    0.00031815   -0.24648520
     atom   18 type  2   force =    -0.00001306   -0.00001865   -0.24493052
     atom   19 type  2   force =     0.00000220   -0.00001208   -0.26177443
     atom   20 type  2   force =     0.05272739   -0.03039593   -0.17266220
     atom   21 type  2   force =    -0.00050586    0.00031825   -0.24648757
     atom   22 type  2   force =     0.00000043    0.06092269   -0.17262371
     atom   23 type  2   force =    -0.00000076   -0.00058511   -0.24648842
     atom   24 type  2   force =    -0.00003088    0.00002020   -0.00006051
     The ionic contribution  to forces
     atom    1 type  1   force =    -0.00012138   -0.00039943   -0.00406926
     atom    2 type  1   force =    -0.00094632    0.00104839    0.00444389
     atom    3 type  1   force =    -0.00047260    0.00147491   -0.00370193
     atom    4 type  1   force =     0.00042575    0.00025020    0.00296888
     atom    5 type  1   force =    -0.00050121    0.00006103   -0.00446338
     atom    6 type  1   force =     0.00003021    0.00187143    0.00452046
     atom    7 type  1   force =     0.00044155    0.00086563   -0.00311611
     atom    8 type  2   force =     0.00036489    0.35434999  -14.47217320
     atom    9 type  2   force =    -0.00029291    3.27832150  -13.65914045
     atom   10 type  2   force =     0.30554712   -0.17868140  -14.47224716
     atom   11 type  2   force =     2.83381567   -1.63923015  -13.66141683
     atom   12 type  2   force =    -0.00021933    0.00210545  -12.82836414
     atom   13 type  2   force =     0.00102254    0.00171154  -14.87167308
     atom   14 type  2   force =    -0.30496996   -0.17899855  -14.47230390
     atom   15 type  2   force =    -2.83593913   -1.64002894  -13.66086790
     atom   16 type  2   force =     2.83799163    1.63778518   13.66866094
     atom   17 type  2   force =     0.30595217    0.17650521   14.46343259
     atom   18 type  2   force =    -0.00017424    0.00055221   14.88026419
     atom   19 type  2   force =    -0.00066672   -0.00113497   12.81812265
     atom   20 type  2   force =    -2.83852488    1.63847290   13.66989620
     atom   21 type  2   force =    -0.30585166    0.17719863   14.46368654
     atom   22 type  2   force =     0.00036022   -3.27736832   13.66973187
     atom   23 type  2   force =     0.00089824   -0.35380362   14.46390305
     atom   24 type  2   force =     0.00183036   -0.00292882    0.00390609
     The local contribution  to forces
     atom    1 type  1   force =     0.00010629    0.00041190    0.00405336
     atom    2 type  1   force =     0.00092008   -0.00104272   -0.00443685
     atom    3 type  1   force =     0.00045709   -0.00143187    0.00371467
     atom    4 type  1   force =    -0.00039100   -0.00021858   -0.00304421
     atom    5 type  1   force =     0.00048702   -0.00003635    0.00444079
     atom    6 type  1   force =    -0.00002686   -0.00181714   -0.00452195
     atom    7 type  1   force =    -0.00043259   -0.00083454    0.00314178
     atom    8 type  2   force =    -0.00036242   -0.35479170   14.23046633
     atom    9 type  2   force =     0.00028125   -3.21844036   13.49003679
     atom   10 type  2   force =    -0.30592190    0.17888271   14.23052986
     atom   11 type  2   force =    -2.78203554    1.60930354   13.49228341
     atom   12 type  2   force =     0.00022328   -0.00211016   12.57283049
     atom   13 type  2   force =    -0.00100925   -0.00169901   14.63108543
     atom   14 type  2   force =     0.30535676    0.17920011   14.23059061
     atom   15 type  2   force =     2.78411374    1.61009049   13.49173197
     atom   16 type  2   force =    -2.78610920   -1.60787347  -13.49953688
     atom   17 type  2   force =    -0.30632497   -0.17674748  -14.22172027
     atom   18 type  2   force =     0.00018397   -0.00053214  -14.63968548
     atom   19 type  2   force =     0.00066035    0.00114147  -12.56257557
     atom   20 type  2   force =     2.78664964   -1.60856675  -13.50073893
     atom   21 type  2   force =     0.30623236   -0.17744075  -14.22196964
     atom   22 type  2   force =    -0.00035977    3.21745236  -13.50059984
     atom   23 type  2   force =    -0.00089454    0.35424193  -14.22218373
     atom   24 type  2   force =    -0.00179082    0.00289572   -0.00384726
     The core correction contribution to forces
     atom    1 type  1   force =    -0.00000006    0.00000016   -0.00000003
     atom    2 type  1   force =     0.00000002   -0.00000061   -0.00000004
     atom    3 type  1   force =    -0.00000019    0.00000031    0.00000032
     atom    4 type  1   force =     0.00000062    0.00000057   -0.00000084
     atom    5 type  1   force =    -0.00000020    0.00000033   -0.00000021
     atom    6 type  1   force =    -0.00000042    0.00000023   -0.00000012
     atom    7 type  1   force =     0.00000026   -0.00000001    0.00000044
     atom    8 type  2   force =    -0.00000033   -0.00001005   -0.00525380
     atom    9 type  2   force =     0.00000009    0.00125046   -0.00375096
     atom   10 type  2   force =    -0.00001076    0.00000762   -0.00525367
     atom   11 type  2   force =     0.00108661   -0.00062780   -0.00375121
     atom   12 type  2   force =    -0.00000042    0.00000254   -0.00552516
     atom   13 type  2   force =    -0.00000039    0.00000247   -0.00532337
     atom   14 type  2   force =     0.00001046    0.00000773   -0.00525398
     atom   15 type  2   force =    -0.00108495   -0.00062702   -0.00375109
     atom   16 type  2   force =     0.00108730    0.00062596    0.00374897
     atom   17 type  2   force =    -0.00001084   -0.00000439    0.00525534
     atom   18 type  2   force =    -0.00000066    0.00000308    0.00531799
     atom   19 type  2   force =    -0.00000093    0.00000280    0.00552630
     atom   20 type  2   force =    -0.00108539    0.00062503    0.00374757
     atom   21 type  2   force =     0.00001027   -0.00000469    0.00525502
     atom   22 type  2   force =     0.00000012   -0.00125676    0.00374790
     atom   23 type  2   force =    -0.00000035    0.00001441    0.00525494
     atom   24 type  2   force =     0.00000017    0.00000213   -0.00000479
     The Hubbard contrib.    to forces
     atom    1 type  1   force =     0.00000000    0.00000000    0.00000000
     atom    2 type  1   force =     0.00000000    0.00000000    0.00000000
     atom    3 type  1   force =     0.00000000    0.00000000    0.00000000
     atom    4 type  1   force =     0.00000000    0.00000000    0.00000000
     atom    5 type  1   force =     0.00000000    0.00000000    0.00000000
     atom    6 type  1   force =     0.00000000    0.00000000    0.00000000
     atom    7 type  1   force =     0.00000000    0.00000000    0.00000000
     atom    8 type  2   force =     0.00000000    0.00000000    0.00000000
     atom    9 type  2   force =     0.00000000    0.00000000    0.00000000
     atom   10 type  2   force =     0.00000000    0.00000000    0.00000000
     atom   11 type  2   force =     0.00000000    0.00000000    0.00000000
     atom   12 type  2   force =     0.00000000    0.00000000    0.00000000
     atom   13 type  2   force =     0.00000000    0.00000000    0.00000000
     atom   14 type  2   force =     0.00000000    0.00000000    0.00000000
     atom   15 type  2   force =     0.00000000    0.00000000    0.00000000
     atom   16 type  2   force =     0.00000000    0.00000000    0.00000000
     atom   17 type  2   force =     0.00000000    0.00000000    0.00000000
     atom   18 type  2   force =     0.00000000    0.00000000    0.00000000
     atom   19 type  2   force =     0.00000000    0.00000000    0.00000000
     atom   20 type  2   force =     0.00000000    0.00000000    0.00000000
     atom   21 type  2   force =     0.00000000    0.00000000    0.00000000
     atom   22 type  2   force =     0.00000000    0.00000000    0.00000000
     atom   23 type  2   force =     0.00000000    0.00000000    0.00000000
     atom   24 type  2   force =     0.00000000    0.00000000    0.00000000
     The SCF correction term to forces
     atom    1 type  1   force =     0.00000008    0.00000087    0.00000101
     atom    2 type  1   force =     0.00000148   -0.00000307   -0.00000074
     atom    3 type  1   force =     0.00000128   -0.00000017    0.00000067
     atom    4 type  1   force =     0.00000089    0.00000169   -0.00000186
     atom    5 type  1   force =     0.00000002   -0.00000057    0.00000116
     atom    6 type  1   force =    -0.00000159   -0.00000201   -0.00000033
     atom    7 type  1   force =    -0.00000116   -0.00000013    0.00000054
     atom    8 type  2   force =    -0.00000018   -0.00000826    0.00000936
     atom    9 type  2   force =     0.00000008    0.00002800    0.00001244
     atom   10 type  2   force =    -0.00000686    0.00000402    0.00000888
     atom   11 type  2   force =     0.00002512   -0.00001403    0.00001313
     atom   12 type  2   force =    -0.00000025   -0.00000060   -0.00000355
     atom   13 type  2   force =    -0.00000013   -0.00000086    0.00001321
     atom   14 type  2   force =     0.00000671    0.00000394    0.00000873
     atom   15 type  2   force =    -0.00002545   -0.00001433    0.00001442
     atom   16 type  2   force =     0.00002325    0.00001457   -0.00001349
     atom   17 type  2   force =    -0.00000811   -0.00000252   -0.00001154
     atom   18 type  2   force =     0.00000024    0.00000022   -0.00001126
     atom   19 type  2   force =     0.00000055   -0.00000150    0.00000240
     atom   20 type  2   force =    -0.00002255    0.00001418   -0.00001130
     atom   21 type  2   force =     0.00000828   -0.00000316   -0.00001170
     atom   22 type  2   force =    -0.00000053   -0.00002870   -0.00001139
     atom   23 type  2   force =    -0.00000041    0.00000807   -0.00001069
     atom   24 type  2   force =    -0.00000073    0.00000475    0.00000083

     Total force =     0.002246     Total SCF correction =     0.000085

     Computing stress (Cartesian axis) and pressure

     Non-local corr. energy    =      11.80772633 Ry

          total   stress  (Ry/bohr**3)                   (kbar)     P=        2.81
   0.00001647   0.00000001  -0.00000002            2.42        0.00       -0.00
   0.00000001   0.00001650   0.00000002            0.00        2.43        0.00
  -0.00000002   0.00000002   0.00002426           -0.00        0.00        3.57

     kinetic stress (kbar)  14696.93      0.00     -0.01
                                0.00  14696.94      0.01
                               -0.01      0.01  14710.79

     local   stress (kbar)  -7327.79      0.00     -0.03
                                0.00  -7327.49      0.10
                               -0.03      0.10   1002.86

     nonloc. stress (kbar)   -644.81      0.00     -0.00
                                0.00   -644.80      0.01
                               -0.00      0.01   -644.25

     hartree stress (kbar)  12187.21      0.00      0.01
                                0.00  12187.09     -0.04
                                0.01     -0.04   8404.63

     exc-cor stress (kbar)   7093.84      0.00     -0.00
                                0.00   7093.84      0.00
                               -0.00      0.00   7093.38

     corecor stress (kbar) -11516.72     -0.00      0.00
                               -0.00 -11516.72     -0.00
                                0.00     -0.00 -11516.88

     ewald   stress (kbar) -14571.87     -0.01      0.03
                               -0.01 -14572.07     -0.07
                                0.03     -0.07 -19133.65

     hubbard stress (kbar)      0.00      0.00      0.00
                                0.00      0.00      0.00
                                0.00      0.00      0.00

     DFT-D   stress (kbar)      0.00      0.00      0.00
                                0.00      0.00      0.00
                                0.00      0.00      0.00

     XDM     stress (kbar)      0.00      0.00      0.00
                                0.00      0.00      0.00
                                0.00      0.00      0.00

     dft-nl  stress (kbar)     85.63     -0.00      0.00
                               -0.00     85.63     -0.00
                                0.00     -0.00     86.67

     TS-vdW  stress (kbar)      0.00      0.00      0.00
                                0.00      0.00      0.00
                                0.00      0.00      0.00

     MDB     stress (kbar)      0.00      0.00      0.00
                                0.00      0.00      0.00
                                0.00      0.00      0.00

     3D-RISM stress (kbar)      0.00      0.00      0.00
                                0.00      0.00      0.00
                                0.00      0.00      0.00

     Energy error            =      2.2E-05 Ry
     Gradient error          =      9.6E-04 Ry/Bohr

     bfgs converged in  11 scf cycles and  10 bfgs steps
     (criteria: energy <  1.0E-04 Ry, force <  1.0E-03 Ry/Bohr)

     End of BFGS Geometry Optimization

     Final energy             =  -15856.0714196231 Ry

     File ./PbI2.bfgs deleted, as requested
Begin final coordinates

ATOMIC_POSITIONS (angstrom)
Pb            2.3556954397        4.0797996344        7.3777713037
Pb            0.0001924813        8.1597958281       14.7552665797
Pb            0.0000486149        8.1598531724        7.3777537238
Pb            7.0670414412        4.0797258456       14.7554077093
Pb            7.0669643403        4.0798013392        7.3777853686
Pb            4.7113129541        8.1597953708       14.7553290845
Pb            4.7113423541        8.1598338879        7.3777471104
I             2.3556756994        1.3602121505        5.4961197593
I             2.3557536068        1.1650180720       12.7924669019
I             0.0004274100        5.4397143644        5.4961485999
I            -0.1680036651        5.5369450795       12.7925307308
I             7.0669384785        1.3597136671        5.5130873921
I             7.0669489168        1.3597594954       12.8664899239
I             4.7108680508        5.4397053138        5.4961169916
I             4.8797717022        5.5370717484       12.7925352711
I            -0.1681411391        2.6225981034        1.9626683335
I             0.0004494340        2.7200116409        9.2593920988
I            -2.3555057337        6.7998084038        1.8885843379
I            -2.3555299363        6.7999115131        9.2425230487
I             4.8796032617        2.6226169471        1.9624542186
I             4.7109100720        2.7200417461        9.2593803626
I             2.3557219277        6.9942628249        1.9626278683
I             2.3556583352        6.7994546535        9.2593610481
I             2.3556517303        4.0798266407       14.7549845851
End final coordinates

     Writing all to output data dir ./PbI2.save/

     General routines

     Parallel routines

     PAW routines

   This run was terminated on:  23: 1:16  27Mar2024

   JOB DONE.