     Program PWSCF v.7.1 starts on  9Jan2024 at 14:38:16

     Reading input from espresso.pwi
Warning: card &CELL ignored
Warning: card    CELL_DYNAMICS    = 'BFGS' ignored
Warning: card / ignored

     Current dimensions of program PWSCF are:
     Max number of different atomic species (ntypx) = 10
     Max number of k-points (npk) =  40000
     Max angular momentum in pseudopotentials (lmaxx) =  4
     file C.pbe-n-kjpaw_psl.1.0.0.UPF: wavefunction(s)  2S 2P renormalized

     IMPORTANT: XC functional enforced from input :
     Exchange-correlation= BEEF-VDW
                           (   1   4  43  14   2   0   0)
     Any further DFT definition will be discarded
     Please, verify this is what you really want

     R & G space division:  proc/nbgrp/npool/nimage =     256
     wavefunctions fft division:  task group distribution
                                  #TG    x Z-proc =       8     32
     Subspace diagonalization in iterative solution of the eigenvalue problem:
     a serial algorithm will be used

     Using Pencil Decomposition

     bravais-lattice index     =            1
     lattice parameter (alat)  =      27.0027  a.u.
     unit-cell volume          =   19688.9026 (a.u.)^3
     number of atoms/cell      =          511
     number of atomic types    =            1
     number of electrons       =      2043.00
     number of Kohn-Sham states=         1226
     kinetic-energy cutoff     =      70.0000  Ry
     charge density cutoff     =     350.0000  Ry
     scf convergence threshold =      1.0E-08
     mixing beta               =       0.7000
     number of iterations used =            8  plain     mixing
     Exchange-correlation= BEEF-VDW
                           (   1   4  43  14   2   0   0)

     celldm(1)=  27.002699  celldm(2)=   0.000000  celldm(3)=   0.000000
     celldm(4)=   0.000000  celldm(5)=   0.000000  celldm(6)=   0.000000

     crystal axes: (cart. coord. in units of alat)
               a(1) = (   1.000000   0.000000   0.000000 )
               a(2) = (   0.000000   1.000000   0.000000 )
               a(3) = (   0.000000   0.000000   1.000000 )

     reciprocal axes: (cart. coord. in units 2 pi/alat)
               b(1) = (  1.000000  0.000000  0.000000 )
               b(2) = (  0.000000  1.000000  0.000000 )
               b(3) = (  0.000000  0.000000  1.000000 )

     PseudoPot. # 1 for C  read from file:
     /trace/group/acmegroup/atimmins/packages/espresso/pseudo/psl_1.0.0/pslibrary.1.0.0/pbe/PSEUDOPOTENTIALS/C.pbe-n-kjpaw_psl.1.0.0.UPF
     MD5 check sum: 5459cf7f2c8c37df2f7cde8914797f4d
     Pseudo is Projector augmented-wave + core cor, Zval =  4.0
     Generated using 'atomic' code by A. Dal Corso  v.7.1
     Shape of augmentation charge: PSQ
     Using radial grid of 1073 points,  4 beta functions with:
                l(1) =   0
                l(2) =   0
                l(3) =   1
                l(4) =   1
     Q(r) pseudized with 0 coefficients

     atomic species   valence    mass     pseudopotential
        C              4.00    12.01100     C ( 1.00)

      6 Sym. Ops. (no inversion) found ( 4 have fractional translation)

                                    s                        frac. trans.

      isym =  1     identity

 cryst.   s( 1) = (     1          0          0      )
                  (     0          1          0      )
                  (     0          0          1      )

 cart.    s( 1) = (  1.0000000  0.0000000  0.0000000 )
                  (  0.0000000  1.0000000  0.0000000 )
                  (  0.0000000  0.0000000  1.0000000 )

      isym =  2     120 deg rotation - cart. axis [1,-1,1]

 cryst.   s( 2) = (     0          0          1      )    f =( -0.2500000 )
                  (    -1          0          0      )       ( -0.2500000 )
                  (     0         -1          0      )       (  0.0000000 )

 cart.    s( 2) = (  0.0000000 -1.0000000  0.0000000 )    f =( -0.2500000 )
                  (  0.0000000  0.0000000 -1.0000000 )       ( -0.2500000 )
                  (  1.0000000  0.0000000  0.0000000 )       (  0.0000000 )

      isym =  3     120 deg rotation - cart. axis [-1,1,-1]

[...]

      isym =  4     inv. 180 deg rotation - cart. axis [1,1,0]

[...]

 cryst.   s( 5) = (     0          0          1      )
                  (     0          1          0      )
                  (     1          0          0      )

 cart.    s( 5) = (  0.0000000  0.0000000  1.0000000 )
                  (  0.0000000  1.0000000  0.0000000 )
                  (  1.0000000  0.0000000  0.0000000 )

      isym =  6     inv. 180 deg rotation - cart. axis [0,1,1]

 cryst.   s( 6) = (     1          0          0      )    f =(  0.0000000 )
                  (     0          0         -1      )       ( -0.2500000 )
                  (     0         -1          0      )       ( -0.2500000 )

 cart.    s( 6) = (  1.0000000  0.0000000  0.0000000 )    f =(  0.0000000 )
                  (  0.0000000  0.0000000 -1.0000000 )       ( -0.2500000 )
                  (  0.0000000 -1.0000000  0.0000000 )       ( -0.2500000 )

     point group C_3v (3m)
     there are  3 classes
     the character table:

       E     2C3   3s_v
A_1    1.00  1.00  1.00
A_2    1.00  1.00 -1.00
E      2.00 -1.00  0.00

     the symmetry operations in each class and the name of the first element:

     E        1
          identity
     2C3      2    3
          120 deg rotation - cart. axis [1,-1,1]
     3s_v     4    5    6
          inv. 180 deg rotation - cart. axis [1,1,0]

   Cartesian axes

     site n.     atom                  positions (alat units)
         1           C   tau(   1) = (   0.0625015   0.1874985   0.3125015  )
         2           C   tau(   2) = (   0.0625015   0.1874985   0.5625015  )
         3           C   tau(   3) = (   0.0625015   0.1874985   0.8125015  )
         4           C   tau(   4) = (   0.0625015   0.4374985   0.0625015  )
         5           C   tau(   5) = (   0.0625015   0.4374985   0.3125015  )
         6           C   tau(   6) = (   0.0625015   0.4374985   0.5625015  )
         7           C   tau(   7) = (   0.0625015   0.4374985   0.8125015  )
         8           C   tau(   8) = (   0.0625015   0.6874985   0.0625015  )
         9           C   tau(   9) = (   0.0625015   0.6874985   0.3125015  )
        10           C   tau(  10) = (   0.0625015   0.6874985   0.5625015  )
        11           C   tau(  11) = (   0.0625015   0.6874985   0.8125015  )
        12           C   tau(  12) = (   0.0625015   0.9374985   0.0625015  )
        13           C   tau(  13) = (   0.0625015   0.9374985   0.3125015  )
        14           C   tau(  14) = (   0.0625015   0.9374985   0.5625015  )
        15           C   tau(  15) = (   0.0625015   0.9374985   0.8125015  )
        16           C   tau(  16) = (   0.3125015   0.1874985   0.0625015  )
        17           C   tau(  17) = (   0.3125015   0.1874985   0.3125015  )
        18           C   tau(  18) = (   0.3125015   0.1874985   0.5625015  )
        19           C   tau(  19) = (   0.3125015   0.1874985   0.8125015  )
        20           C   tau(  20) = (   0.3125015   0.4374985   0.0625015  )
        21           C   tau(  21) = (   0.3125015   0.4374985   0.3125015  )
        22           C   tau(  22) = (   0.3125015   0.4374985   0.5625015  )
        23           C   tau(  23) = (   0.3125015   0.4374985   0.8125015  )
        24           C   tau(  24) = (   0.3125015   0.6874985   0.0625015  )
        25           C   tau(  25) = (   0.3125015   0.6874985   0.3125015  )
        26           C   tau(  26) = (   0.3125015   0.6874985   0.5625015  )
        27           C   tau(  27) = (   0.3125015   0.6874985   0.8125015  )
        28           C   tau(  28) = (   0.3125015   0.9374985   0.0625015  )
        29           C   tau(  29) = (   0.3125015   0.9374985   0.3125015  )
        30           C   tau(  30) = (   0.3125015   0.9374985   0.5625015  )
        31           C   tau(  31) = (   0.3125015   0.9374985   0.8125015  )
        32           C   tau(  32) = (   0.5625015   0.1874985   0.0625015  )
        33           C   tau(  33) = (   0.5625015   0.1874985   0.3125015  )
        34           C   tau(  34) = (   0.5625015   0.1874985   0.5625015  )
        35           C   tau(  35) = (   0.5625015   0.1874985   0.8125015  )
        36           C   tau(  36) = (   0.5625015   0.4374985   0.0625015  )
        37           C   tau(  37) = (   0.5625015   0.4374985   0.3125015  )
        38           C   tau(  38) = (   0.5625015   0.4374985   0.5625015  )
        39           C   tau(  39) = (   0.5625015   0.4374985   0.8125015  )
        40           C   tau(  40) = (   0.5625015   0.6874985   0.0625015  )
        41           C   tau(  41) = (   0.5625015   0.6874985   0.3125015  )
        42           C   tau(  42) = (   0.5625015   0.6874985   0.5625015  )
        43           C   tau(  43) = (   0.5625015   0.6874985   0.8125015  )
        44           C   tau(  44) = (   0.5625015   0.9374985   0.0625015  )
        45           C   tau(  45) = (   0.5625015   0.9374985   0.3125015  )
        46           C   tau(  46) = (   0.5625015   0.9374985   0.5625015  )
        47           C   tau(  47) = (   0.5625015   0.9374985   0.8125015  )
        48           C   tau(  48) = (   0.8125015   0.1874985   0.0625015  )
        49           C   tau(  49) = (   0.8125015   0.1874985   0.3125015  )
        50           C   tau(  50) = (   0.8125015   0.1874985   0.5625015  )
        51           C   tau(  51) = (   0.8125015   0.1874985   0.8125015  )
        52           C   tau(  52) = (   0.8125015   0.4374985   0.0625015  )
        53           C   tau(  53) = (   0.8125015   0.4374985   0.3125015  )
        54           C   tau(  54) = (   0.8125015   0.4374985   0.5625015  )
        55           C   tau(  55) = (   0.8125015   0.4374985   0.8125015  )
        56           C   tau(  56) = (   0.8125015   0.6874985   0.0625015  )
        57           C   tau(  57) = (   0.8125015   0.6874985   0.3125015  )
        58           C   tau(  58) = (   0.8125015   0.6874985   0.5625015  )
        59           C   tau(  59) = (   0.8125015   0.6874985   0.8125015  )
        60           C   tau(  60) = (   0.8125015   0.9374985   0.0625015  )
[...]
       497           C   tau( 497) = (   0.8750000   0.1250000   0.3750000  )
       498           C   tau( 498) = (   0.8750000   0.1250000   0.6250000  )
       499           C   tau( 499) = (   0.8750000   0.1250000   0.8750000  )
       500           C   tau( 500) = (   0.8750000   0.3750000   0.1250000  )
       501           C   tau( 501) = (   0.8750000   0.3750000   0.3750000  )
       502           C   tau( 502) = (   0.8750000   0.3750000   0.6250000  )
       503           C   tau( 503) = (   0.8750000   0.3750000   0.8750000  )
       504           C   tau( 504) = (   0.8750000   0.6250000   0.1250000  )
       505           C   tau( 505) = (   0.8750000   0.6250000   0.3750000  )
       506           C   tau( 506) = (   0.8750000   0.6250000   0.6250000  )
       507           C   tau( 507) = (   0.8750000   0.6250000   0.8750000  )
[...]
     atom   25 type  1   force =     0.00000000    0.00000000    0.00000000
     atom   26 type  1   force =     0.00000000    0.00000000    0.00000000
     atom   27 type  1   force =     0.00000000    0.00000000    0.00000000
     atom   28 type  1   force =     0.00000000    0.00000000    0.00000000
     atom   29 type  1   force =     0.00000000    0.00000000    0.00000000
     atom   30 type  1   force =     0.00000000    0.00000000    0.00000000
     atom   31 type  1   force =     0.00000000    0.00000000    0.00000000
     atom   32 type  1   force =     0.00000000    0.00000000    0.00000000
     atom   33 type  1   force =     0.00000000    0.00000000    0.00000000
     atom   34 type  1   force =     0.00000000    0.00000000    0.00000000
     atom   35 type  1   force =     0.00000000    0.00000000    0.00000000
     atom   36 type  1   force =     0.00000000    0.00000000    0.00000000
     atom   37 type  1   force =     0.00000000    0.00000000    0.00000000
     atom   38 type  1   force =     0.00000000    0.00000000    0.00000000
     atom   39 type  1   force =     0.00000000    0.00000000    0.00000000
     atom   40 type  1   force =     0.00000000    0.00000000    0.00000000
     atom   41 type  1   force =     0.00000000    0.00000000    0.00000000
     atom   42 type  1   force =     0.00000000    0.00000000    0.00000000
     atom   43 type  1   force =     0.00000000    0.00000000    0.00000000
     atom   44 type  1   force =     0.00000000    0.00000000    0.00000000
     atom   45 type  1   force =     0.00000000    0.00000000    0.00000000
     atom   46 type  1   force =     0.00000000    0.00000000    0.00000000
     atom   47 type  1   force =     0.00000000    0.00000000    0.00000000
     atom   48 type  1   force =     0.00000000    0.00000000    0.00000000
     atom   49 type  1   force =     0.00000000    0.00000000    0.00000000
     atom   50 type  1   force =     0.00000000    0.00000000    0.00000000
     atom   51 type  1   force =     0.00000000    0.00000000    0.00000000
     atom   52 type  1   force =     0.00000000    0.00000000    0.00000000
     atom   53 type  1   force =     0.00000000    0.00000000    0.00000000
     atom   54 type  1   force =     0.00000000    0.00000000    0.00000000
     atom   55 type  1   force =     0.00000000    0.00000000    0.00000000
     atom   56 type  1   force =     0.00000000    0.00000000    0.00000000
     atom   57 type  1   force =     0.00000000    0.00000000    0.00000000
     atom   58 type  1   force =     0.00000000    0.00000000    0.00000000
     atom   59 type  1   force =     0.00000000    0.00000000    0.00000000
     atom   60 type  1   force =     0.00000000    0.00000000    0.00000000
[...]
     atom  497 type  1   force =     0.00000000    0.00000000    0.00000000
     atom  498 type  1   force =     0.00000000    0.00000000    0.00000000
     atom  499 type  1   force =     0.00000000    0.00000000    0.00000000
     atom  500 type  1   force =     0.00000000    0.00000000    0.00000000
     atom  501 type  1   force =     0.00000000    0.00000000    0.00000000
     atom  502 type  1   force =     0.00000000    0.00000000    0.00000000
     atom  503 type  1   force =     0.00000000    0.00000000    0.00000000
     atom  504 type  1   force =     0.00000000    0.00000000    0.00000000
     atom  505 type  1   force =     0.00000000    0.00000000    0.00000000
     atom  506 type  1   force =     0.00000000    0.00000000    0.00000000
     atom  507 type  1   force =     0.00000000    0.00000000    0.00000000
     atom  508 type  1   force =     0.00000000    0.00000000    0.00000000
     atom  509 type  1   force =     0.00000000    0.00000000    0.00000000
     atom  510 type  1   force =     0.00000000    0.00000000    0.00000000
     atom  511 type  1   force =     0.00000000    0.00000000    0.00000000
     The SCF correction term to forces
     atom    1 type  1   force =     0.00000176   -0.00000176   -0.00000048
     atom    2 type  1   force =    -0.00000019    0.00000019    0.00000018
     atom    3 type  1   force =    -0.00000004    0.00000004   -0.00000280
     atom    4 type  1   force =    -0.00000004    0.00000280   -0.00000004
     atom    5 type  1   force =    -0.00000077    0.00000034    0.00000034
     atom    6 type  1   force =     0.00000025   -0.00000084    0.00000034
     atom    7 type  1   force =     0.00000095    0.00000057   -0.00000057
     atom    8 type  1   force =    -0.00000019   -0.00000018   -0.00000019
     atom    9 type  1   force =    -0.00000027   -0.00000009   -0.00000091
     atom   10 type  1   force =     0.00000030   -0.00000023    0.00000023
     atom   11 type  1   force =     0.00000025   -0.00000034    0.00000084
     atom   12 type  1   force =     0.00000176    0.00000048    0.00000176
     atom   13 type  1   force =     0.00000165    0.00000155   -0.00000155
     atom   14 type  1   force =    -0.00000027    0.00000091    0.00000009
     atom   15 type  1   force =    -0.00000077   -0.00000034   -0.00000034
     atom   16 type  1   force =    -0.00000048   -0.00000176    0.00000176
     atom   17 type  1   force =    -0.00000155   -0.00000165   -0.00000155
     atom   18 type  1   force =    -0.00000091    0.00000027    0.00000009
     atom   19 type  1   force =     0.00000034    0.00000077   -0.00000034
     atom   20 type  1   force =     0.00000034    0.00000034   -0.00000077
     atom   21 type  1   force =     0.00000357    0.00000338    0.00000357
     atom   22 type  1   force =     0.00000202    0.00000246   -0.00000059
     atom   23 type  1   force =     0.00000136    0.00000194   -0.00000194
     atom   24 type  1   force =    -0.00000091   -0.00000009   -0.00000027
     atom   25 type  1   force =     0.00000243   -0.00000118    0.00000243
     atom   26 type  1   force =     0.00000185   -0.00000033    0.00000033
     atom   27 type  1   force =     0.00000202    0.00000059   -0.00000246
     atom   28 type  1   force =    -0.00000155    0.00000155    0.00000165
     atom   29 type  1   force =     0.00000066   -0.00000066    0.00000066
     atom   30 type  1   force =     0.00000243   -0.00000243    0.00000118
     atom   31 type  1   force =     0.00000357   -0.00000357   -0.00000338
     atom   32 type  1   force =     0.00000018    0.00000019   -0.00000019
     atom   33 type  1   force =     0.00000009    0.00000027   -0.00000091
     atom   34 type  1   force =     0.00000023   -0.00000030    0.00000023
     atom   35 type  1   force =     0.00000034   -0.00000025    0.00000084
     atom   36 type  1   force =     0.00000034   -0.00000084    0.00000025
     atom   37 type  1   force =    -0.00000059    0.00000246    0.00000202
     atom   38 type  1   force =    -0.00000036    0.00000180   -0.00000036
     atom   39 type  1   force =     0.00000059    0.00000193   -0.00000193
     atom   40 type  1   force =     0.00000023   -0.00000023    0.00000030
     atom   41 type  1   force =     0.00000033   -0.00000033    0.00000185
     atom   42 type  1   force =    -0.00000030    0.00000030   -0.00000030
     atom   43 type  1   force =    -0.00000036    0.00000036   -0.00000180
     atom   44 type  1   force =     0.00000009    0.00000091   -0.00000027
     atom   45 type  1   force =     0.00000118   -0.00000243    0.00000243
     atom   46 type  1   force =     0.00000033   -0.00000185    0.00000033
     atom   47 type  1   force =    -0.00000059   -0.00000202   -0.00000246
     atom   48 type  1   force =    -0.00000280    0.00000004   -0.00000004
     atom   49 type  1   force =    -0.00000034    0.00000077    0.00000034
     atom   50 type  1   force =     0.00000084   -0.00000025    0.00000034
     atom   51 type  1   force =    -0.00000057   -0.00000095   -0.00000057
     atom   52 type  1   force =    -0.00000057    0.00000057    0.00000095
     atom   53 type  1   force =    -0.00000194    0.00000194    0.00000136
     atom   54 type  1   force =    -0.00000193    0.00000193    0.00000059
     atom   55 type  1   force =    -0.00000311    0.00000311   -0.00000311
     atom   56 type  1   force =     0.00000084   -0.00000034    0.00000025
     atom   57 type  1   force =    -0.00000246    0.00000059    0.00000202
     atom   58 type  1   force =    -0.00000180    0.00000036   -0.00000036
     atom   59 type  1   force =    -0.00000193   -0.00000059   -0.00000193
     atom   60 type  1   force =    -0.00000034   -0.00000034   -0.00000077
[...]
     atom  497 type  1   force =     0.00000237    0.00000146    0.00000339
     atom  498 type  1   force =     0.00000199    0.00000067   -0.00000256
     atom  499 type  1   force =     0.00000025    0.00000073    0.00000025
     atom  500 type  1   force =     0.00000025   -0.00000025   -0.00000073
     atom  501 type  1   force =     0.00000063   -0.00000063    0.00000332
     atom  502 type  1   force =    -0.00000010    0.00000010   -0.00000298
     atom  503 type  1   force =     0.00000065   -0.00000065    0.00000065
     atom  504 type  1   force =     0.00000199    0.00000256   -0.00000067
     atom  505 type  1   force =    -0.00000223    0.00000330    0.00000229
     atom  506 type  1   force =    -0.00000217    0.00000146   -0.00000146
     atom  507 type  1   force =    -0.00000010    0.00000298   -0.00000010
     atom  508 type  1   force =     0.00000237   -0.00000339   -0.00000146
     atom  509 type  1   force =    -0.00000233   -0.00000438    0.00000438
     atom  510 type  1   force =    -0.00000223   -0.00000229   -0.00000330
     atom  511 type  1   force =     0.00000063   -0.00000332    0.00000063

     Total force =     0.005448     Total SCF correction =     0.000088

     Computing stress (Cartesian axis) and pressure

[...]

          total   stress  (Ry/bohr**3)                   (kbar)     P=       -8.91
  -0.00006060   0.00000004  -0.00000004           -8.91        0.01       -0.01
   0.00000004  -0.00006060   0.00000004            0.01       -8.91        0.01
  -0.00000004   0.00000004  -0.00006060           -0.01        0.01       -8.91

     kinetic stress (kbar)  18945.35      0.00     -0.00
                                0.00  18945.35      0.00
                               -0.00      0.00  18945.35

     local   stress (kbar)  -3533.79      0.07     -0.07
                                0.07  -3533.79      0.07
                               -0.07      0.07  -3533.79

     nonloc. stress (kbar)   4316.67     -0.00      0.00
                               -0.00   4316.67     -0.00
                                0.00     -0.00   4316.67

     hartree stress (kbar)   1286.54     -0.02      0.02
                               -0.02   1286.54     -0.02
                                0.02     -0.02   1286.54

     exc-cor stress (kbar)   -410.25     -0.00      0.00
                               -0.00   -410.25     -0.00
                                0.00     -0.00   -410.25

     corecor stress (kbar)  -4426.18      0.00     -0.00
                                0.00  -4426.18      0.00
                               -0.00      0.00  -4426.18

     ewald   stress (kbar) -16212.04     -0.05      0.05
                               -0.05 -16212.04     -0.05
                                0.05     -0.05 -16212.04

     hubbard stress (kbar)      0.00      0.00      0.00
                                0.00      0.00      0.00
                                0.00      0.00      0.00

     DFT-D   stress (kbar)      0.00      0.00      0.00
                                0.00      0.00      0.00
                                0.00      0.00      0.00

     XDM     stress (kbar)      0.00      0.00      0.00
                                0.00      0.00      0.00
                                0.00      0.00      0.00

     dft-nl  stress (kbar)     24.79      0.00     -0.00
                                0.00     24.79      0.00
                               -0.00      0.00     24.79

     TS-vdW  stress (kbar)      0.00      0.00      0.00
                                0.00      0.00      0.00
                                0.00      0.00      0.00

     MDB     stress (kbar)      0.00      0.00      0.00
                                0.00      0.00      0.00
                                0.00      0.00      0.00

     3D-RISM stress (kbar)      0.00      0.00      0.00
                                0.00      0.00      0.00
                                0.00      0.00      0.00

[...]

     Non-local corr. energy    =      17.48073554 Ry

 BEEFens 2000 ensemble energies
             -0.309242226248022E+02
             -0.215290604667881E+03
             -0.764175261393567E+02
              0.845745632921280E+02
             -0.142408851057683E+03
             -0.199257554652671E+03
              0.117981918948242E+03
             -0.245222195827047E+02
              0.163655604141375E+03
             -0.267877083903295E+01
              0.665612089191870E+02
              0.331411378428328E+01
              0.919834752317945E+01
             -0.194671044437781E+02
              0.110782297368058E+03
             -0.828763780760128E+02
             -0.190131650980359E+03
             -0.526885568725388E+02
              0.429374154695618E+02
              0.461038202453710E+01
              0.227511930320944E+03
              0.206293946848285E+03
             -0.101336528050785E+03
              0.569265121050086E+02
             -0.258480337173570E+03
              0.208176121984965E+03
              0.745402196573315E+02
              0.219181261014660E+03
              0.138237461013232E+03
             -0.863737770569317E+02
              0.539570330996920E+02
             -0.112180643734561E+03
              0.326490364207848E+01
              0.110265389078448E+03
              0.142343303544705E+03
             -0.349831229834158E+02
              0.306738364305322E+03
             -0.107417565846871E+03
             -0.776269597936222E+02
              0.118888101694435E+03
              0.409109890408787E+02
              0.100090431294637E+03
             -0.174847650500689E+03
             -0.717612112704660E+01
              0.185315454789744E+03
              0.226059763854458E+03
             -0.204834926645540E+03
              0.169467310209945E+02
              0.807395931541492E+02
              0.188479275978816E+02
              0.987663506572353E+02
              0.198153869123634E+03
             -0.132780376490599E+03
             -0.139743562023952E+03
             -0.177062051730922E+03
             -0.488146017895107E+02
             -0.147814201770542E+03
              0.788272670602612E+01
             -0.392948141452691E+02
             -0.134119888231224E+03
[...]
              0.173964065288891E+03
              0.711013954726744E+02
              0.121255037452279E+03
             -0.173594753344645E+03
             -0.135244420814336E+03
             -0.550742401370755E+02
             -0.148769835137812E+03
              0.268155454119424E+03
              0.230015213609669E+03
              0.999574383267572E+02
              0.271161821860435E+03
             -0.145445778795488E+03
             -0.699736192372110E+02
             -0.722235654133372E+02
              0.213960837471065E+03

 BEEF-vdW xc energy contributions
            1 :    -2090.899595360588
            2 :     1844.690235382816
            3 :    -1420.163185008550
            4 :     927.4646296520200
            5 :    -479.0184390577360
            6 :     152.3645196835487
            7 :     29.28181080221339
            8 :    -92.78985659663613
            9 :     92.22989829427252
           10 :    -80.02945495103813
           11 :     85.76686680240437
           12 :    -110.5997867134165
           13 :     136.6580940092149
           14 :    -143.6395893599920
           15 :     122.6798319676345
           16 :    -80.76568586052144
           17 :     35.13125343250749
           18 :    -2.557976364802016
           19 :    -9.528365054512051
           20 :     5.379778178023116
           21 :     3.662696319876886
           22 :    -7.006639180509410
           23 :    0.8916507026624458
           24 :     10.56254344191802
           25 :    -19.22790231066983
           26 :     18.75854829164382
           27 :    -8.550027009533096
           28 :    -6.309993754457537
           29 :     18.59030668903870
           30 :    -23.38840034258919
           31 :    -273.5607666407773
           32 :    -198.4629250052958

     Writing all to output data dir ./diamond.save/

     General routines

     Parallel routines

     PAW routines

   This run was terminated on:  14:51:18   9Jan2024

   JOB DONE.