     Program PWSCF v.7.1 starts on  1Mar2024 at 15:10:11

     Reading input from espresso.pwi
Warning: card &CELL ignored
Warning: card    CELL_DYNAMICS    = 'BFGS' ignored
Warning: card / ignored

     Current dimensions of program PWSCF are:
     Max number of different atomic species (ntypx) = 10
     Max number of k-points (npk) =  40000
     Max angular momentum in pseudopotentials (lmaxx) =  4
     file Ga.pbe-dn-kjpaw_psl.1.0.0.UPF: wavefunction(s)  4S renormalized
     file N.pbe-n-kjpaw_psl.1.0.0.UPF: wavefunction(s)  2S renormalized

     IMPORTANT: XC functional enforced from input :
     Exchange-correlation= BEEF-VDW
                           (   1   4  43  14   2   0   0)
     Any further DFT definition will be discarded
     Please, verify this is what you really want

     K-points division:     npool     =       4
     R & G space division:  proc/nbgrp/npool/nimage =      64
     Subspace diagonalization in iterative solution of the eigenvalue problem:
     a serial algorithm will be used

     Using Slab Decomposition

     bravais-lattice index     =            4
     lattice parameter (alat)  =      24.5252  a.u.
     unit-cell volume          =   15616.6055 (a.u.)^3
     number of atoms/cell      =          192
     number of atomic types    =            2
     number of electrons       =      1719.00
     number of Kohn-Sham states=         1032
     kinetic-energy cutoff     =      70.0000  Ry
     charge density cutoff     =     350.0000  Ry
     scf convergence threshold =      1.0E-07
     mixing beta               =       0.7000
     number of iterations used =            8  plain     mixing
     energy convergence thresh.=      1.0E-04
     force convergence thresh. =      1.0E-03
     Exchange-correlation= BEEF-VDW
                           (   1   4  43  14   2   0   0)
     nstep                     =           50

     celldm(1)=  24.525232  celldm(2)=   0.000000  celldm(3)=   1.222409
     celldm(4)=   0.000000  celldm(5)=   0.000000  celldm(6)=   0.000000

     crystal axes: (cart. coord. in units of alat)
               a(1) = (   1.000000   0.000000   0.000000 )
               a(2) = (  -0.500000   0.866025   0.000000 )
               a(3) = (   0.000000   0.000000   1.222409 )

     reciprocal axes: (cart. coord. in units 2 pi/alat)
               b(1) = (  1.000000  0.577350 -0.000000 )
               b(2) = (  0.000000  1.154701  0.000000 )
               b(3) = (  0.000000 -0.000000  0.818057 )

     PseudoPot. # 1 for Ga read from file:
     //group///packages/espresso/pseudo/psl_1.0.0/pslibrary.1.0.0/pbe/PSEUDOPOTENTIALS/Ga.pbe-dn-kjpaw_psl.1.0.0.UPF
     MD5 check sum: cd2a01e492f15b435d17032472d8505c
     Pseudo is Projector augmented-wave + core cor, Zval = 13.0
     Generated using 'atomic' code by A. Dal Corso  v.7.1
     Shape of augmentation charge: PSQ
     Using radial grid of 1205 points,  6 beta functions with:
                l(1) =   0
                l(2) =   0
                l(3) =   1
                l(4) =   1
                l(5) =   2
                l(6) =   2
     Q(r) pseudized with 0 coefficients

     PseudoPot. # 2 for N  read from file:
     //group///packages/espresso/pseudo/psl_1.0.0/pslibrary.1.0.0/pbe/PSEUDOPOTENTIALS/N.pbe-n-kjpaw_psl.1.0.0.UPF
     MD5 check sum: f77f775694dac7e2c3fe1c82443d1a16
     Pseudo is Projector augmented-wave + core cor, Zval =  5.0
     Generated using 'atomic' code by A. Dal Corso  v.7.1
     Shape of augmentation charge: PSQ
     Using radial grid of 1085 points,  4 beta functions with:
                l(1) =   0
                l(2) =   0
                l(3) =   1
                l(4) =   1
     Q(r) pseudized with 0 coefficients

     atomic species   valence    mass     pseudopotential
        Ga            13.00    69.72300     Ga( 1.00)
        N              5.00    14.00700     N ( 1.00)

      6 Sym. Ops. (no inversion) found ( 4 have fractional translation)

                                    s                        frac. trans.

      isym =  1     identity

 cryst.   s( 1) = (     1          0          0      )
                  (     0          1          0      )
                  (     0          0          1      )

 cart.    s( 1) = (  1.0000000  0.0000000  0.0000000 )
                  (  0.0000000  1.0000000  0.0000000 )
                  (  0.0000000  0.0000000  1.0000000 )

      isym =  2     120 deg rotation - cryst. axis [0,0,1]

 cryst.   s( 2) = (     0          1          0      )    f =( -0.2500000 )
                  (    -1         -1          0      )       (  0.0000002 )
                  (     0          0          1      )       (  0.0000000 )

 cart.    s( 2) = ( -0.5000000 -0.8660254  0.0000000 )    f =( -0.2500001 )
                  (  0.8660254 -0.5000000  0.0000000 )       (  0.0000002 )
                  (  0.0000000  0.0000000  1.0000000 )       (  0.0000000 )

      isym =  3     120 deg rotation - cryst. axis [0,0,-1]

[...]

      isym =  4     inv. 180 deg rotation - cart. axis [1,0,0]

[...]

      isym =  5     inv. 180 deg rotation - cryst. axis [0,1,0]

 cryst.   s( 5) = (     1          1          0      )
                  (     0         -1          0      )
                  (     0          0          1      )

 cart.    s( 5) = (  0.5000000  0.8660254  0.0000000 )
                  (  0.8660254 -0.5000000  0.0000000 )
                  (  0.0000000  0.0000000  1.0000000 )

      isym =  6     inv. 180 deg rotation - cryst. axis [1,1,0]

 cryst.   s( 6) = (     0         -1          0      )    f =( -0.2500000 )
                  (    -1          0          0      )       ( -0.2500000 )
                  (     0          0          1      )       (  0.0000000 )

 cart.    s( 6) = (  0.5000000 -0.8660254  0.0000000 )    f =( -0.1250000 )
                  ( -0.8660254 -0.5000000  0.0000000 )       ( -0.2165064 )
                  (  0.0000000  0.0000000  1.0000000 )       (  0.0000000 )

     point group C_3v (3m)
     there are  3 classes
     the character table:

       E     2C3   3s_v
A_1    1.00  1.00  1.00
A_2    1.00  1.00 -1.00
E      2.00 -1.00  0.00

     the symmetry operations in each class and the name of the first element:

     E        1
          identity
     2C3      2    3
          120 deg rotation - cryst. axis [0,0,1]
     3s_v     4    5    6
          inv. 180 deg rotation - cart. axis [1,0,0]

   Cartesian axes

     site n.     atom                  positions (alat units)
         1           Ga  tau(   1) = (   0.1250001   0.0721687   0.6108633  )
         2           Ga  tau(   2) = (   0.1250001   0.0721687   1.0183331  )
         3           Ga  tau(   3) = (   0.0000001   0.2886751   0.2033935  )
         4           Ga  tau(   4) = (   0.0000001   0.2886751   0.6108633  )
         5           Ga  tau(   5) = (   0.0000001   0.2886751   1.0183331  )
         6           Ga  tau(   6) = (  -0.1249999   0.5051814   0.2033935  )
         7           Ga  tau(   7) = (  -0.1249999   0.5051814   0.6108633  )
         8           Ga  tau(   8) = (  -0.1249999   0.5051814   1.0183331  )
         9           Ga  tau(   9) = (  -0.2499999   0.7216878   0.2033935  )
        10           Ga  tau(  10) = (  -0.2499999   0.7216878   0.6108633  )
        11           Ga  tau(  11) = (  -0.2499999   0.7216878   1.0183331  )
        12           Ga  tau(  12) = (   0.3750001   0.0721687   0.2033935  )
        13           Ga  tau(  13) = (   0.3750001   0.0721687   0.6108633  )
        14           Ga  tau(  14) = (   0.3750001   0.0721687   1.0183331  )
        15           Ga  tau(  15) = (   0.2500001   0.2886751   0.2033935  )
        16           Ga  tau(  16) = (   0.2500001   0.2886751   0.6108633  )
        17           Ga  tau(  17) = (   0.2500001   0.2886751   1.0183331  )
        18           Ga  tau(  18) = (   0.1250001   0.5051814   0.2033935  )
        19           Ga  tau(  19) = (   0.1250001   0.5051814   0.6108633  )
        20           Ga  tau(  20) = (   0.1250001   0.5051814   1.0183331  )
        21           Ga  tau(  21) = (   0.0000001   0.7216878   0.2033935  )
        22           Ga  tau(  22) = (   0.0000001   0.7216878   0.6108633  )
        23           Ga  tau(  23) = (   0.0000001   0.7216878   1.0183331  )
        24           Ga  tau(  24) = (   0.6250001   0.0721687   0.2033935  )
        25           Ga  tau(  25) = (   0.6250001   0.0721687   0.6108633  )
        26           Ga  tau(  26) = (   0.6250001   0.0721687   1.0183331  )
        27           Ga  tau(  27) = (   0.5000001   0.2886751   0.2033935  )
        28           Ga  tau(  28) = (   0.5000001   0.2886751   0.6108633  )
        29           Ga  tau(  29) = (   0.5000001   0.2886751   1.0183331  )
        30           Ga  tau(  30) = (   0.3750001   0.5051814   0.2033935  )
        31           Ga  tau(  31) = (   0.3750001   0.5051814   0.6108633  )
        32           Ga  tau(  32) = (   0.3750001   0.5051814   1.0183331  )
        33           Ga  tau(  33) = (   0.2500001   0.7216878   0.2033935  )
        34           Ga  tau(  34) = (   0.2500001   0.7216878   0.6108633  )
        35           Ga  tau(  35) = (   0.2500001   0.7216878   1.0183331  )
        36           Ga  tau(  36) = (   0.8750001   0.0721687   0.2033935  )
        37           Ga  tau(  37) = (   0.8750001   0.0721687   0.6108633  )
        38           Ga  tau(  38) = (   0.8750001   0.0721687   1.0183331  )
        39           Ga  tau(  39) = (   0.7500001   0.2886751   0.2033935  )
        40           Ga  tau(  40) = (   0.7500001   0.2886751   0.6108633  )
        41           Ga  tau(  41) = (   0.7500001   0.2886751   1.0183331  )
        42           Ga  tau(  42) = (   0.6250001   0.5051814   0.2033935  )
        43           Ga  tau(  43) = (   0.6250001   0.5051814   0.6108633  )
        44           Ga  tau(  44) = (   0.6250001   0.5051814   1.0183331  )
        45           Ga  tau(  45) = (   0.5000001   0.7216878   0.2033935  )
        46           Ga  tau(  46) = (   0.5000001   0.7216878   0.6108633  )
        47           Ga  tau(  47) = (   0.5000001   0.7216878   1.0183331  )
        48           Ga  tau(  48) = (  -0.0000002   0.1443377   0.4071284  )
        49           Ga  tau(  49) = (  -0.0000002   0.1443377   0.8145982  )
        50           Ga  tau(  50) = (  -0.0000002   0.1443377   1.2220680  )
        51           Ga  tau(  51) = (  -0.1250002   0.3608440   0.4071284  )
        52           Ga  tau(  52) = (  -0.1250002   0.3608440   0.8145982  )
        53           Ga  tau(  53) = (  -0.1250002   0.3608440   1.2220680  )
        54           Ga  tau(  54) = (  -0.2500002   0.5773504   0.4071284  )
        55           Ga  tau(  55) = (  -0.2500002   0.5773504   0.8145982  )
        56           Ga  tau(  56) = (  -0.2500002   0.5773504   1.2220680  )
        57           Ga  tau(  57) = (  -0.3750001   0.7938567   0.4071284  )
        58           Ga  tau(  58) = (  -0.3750001   0.7938567   0.8145982  )
        59           Ga  tau(  59) = (  -0.3750001   0.7938567   1.2220680  )
        60           Ga  tau(  60) = (   0.2499998   0.1443377   0.4071284  )
[...]
[...]
     atom   44 type  1   force =     0.00000000    0.00000000    0.00000000
     atom   45 type  1   force =     0.00000000    0.00000000    0.00000000
     atom   46 type  1   force =     0.00000000    0.00000000    0.00000000
     atom   47 type  1   force =     0.00000000    0.00000000    0.00000000
     atom   48 type  1   force =     0.00000000    0.00000000    0.00000000
     atom   49 type  1   force =     0.00000000    0.00000000    0.00000000
     atom   50 type  1   force =     0.00000000    0.00000000    0.00000000
     atom   51 type  1   force =     0.00000000    0.00000000    0.00000000
     atom   52 type  1   force =     0.00000000    0.00000000    0.00000000
     atom   53 type  1   force =     0.00000000    0.00000000    0.00000000
     atom   54 type  1   force =     0.00000000    0.00000000    0.00000000
     atom   55 type  1   force =     0.00000000    0.00000000    0.00000000
     atom   56 type  1   force =     0.00000000    0.00000000    0.00000000
     atom   57 type  1   force =     0.00000000    0.00000000    0.00000000
     atom   58 type  1   force =     0.00000000    0.00000000    0.00000000
     atom   59 type  1   force =     0.00000000    0.00000000    0.00000000
     atom   60 type  1   force =     0.00000000    0.00000000    0.00000000
[...]
     atom  178 type  2   force =     0.00000000    0.00000000    0.00000000
     atom  179 type  2   force =     0.00000000    0.00000000    0.00000000
     atom  180 type  2   force =     0.00000000    0.00000000    0.00000000
     atom  181 type  2   force =     0.00000000    0.00000000    0.00000000
     atom  182 type  2   force =     0.00000000    0.00000000    0.00000000
     atom  183 type  2   force =     0.00000000    0.00000000    0.00000000
     atom  184 type  2   force =     0.00000000    0.00000000    0.00000000
     atom  185 type  2   force =     0.00000000    0.00000000    0.00000000
     atom  186 type  2   force =     0.00000000    0.00000000    0.00000000
     atom  187 type  2   force =     0.00000000    0.00000000    0.00000000
     atom  188 type  2   force =     0.00000000    0.00000000    0.00000000
     atom  189 type  2   force =     0.00000000    0.00000000    0.00000000
     atom  190 type  2   force =     0.00000000    0.00000000    0.00000000
     atom  191 type  2   force =     0.00000000    0.00000000    0.00000000
     atom  192 type  2   force =     0.00000000    0.00000000    0.00000000
     The SCF correction term to forces
     atom    1 type  1   force =     0.00000000   -0.00000000   -0.00002712
     atom    2 type  1   force =     0.00000000   -0.00000000   -0.00000517
     atom    3 type  1   force =     0.00000934   -0.00001341    0.00000560
     atom    4 type  1   force =     0.00000073    0.00000384   -0.00001482
     atom    5 type  1   force =     0.00000698   -0.00001353    0.00000584
     atom    6 type  1   force =    -0.00000602   -0.00000348    0.00000784
     atom    7 type  1   force =     0.00000191    0.00000110   -0.00002098
     atom    8 type  1   force =     0.00000185    0.00000107    0.00001038
     atom    9 type  1   force =    -0.00000694    0.00001480    0.00000560
     atom   10 type  1   force =     0.00000370   -0.00000129   -0.00001482
     atom   11 type  1   force =    -0.00000823    0.00001281    0.00000584
     atom   12 type  1   force =    -0.00001629   -0.00000139    0.00000560
     atom   13 type  1   force =     0.00000296   -0.00000256   -0.00001482
     atom   14 type  1   force =    -0.00001520    0.00000072    0.00000584
     atom   15 type  1   force =    -0.00000934   -0.00001341    0.00000560
     atom   16 type  1   force =    -0.00000073    0.00000384   -0.00001482
     atom   17 type  1   force =    -0.00000698   -0.00001353    0.00000584
     atom   18 type  1   force =    -0.00000000   -0.00000592    0.00001285
     atom   19 type  1   force =     0.00000000   -0.00000011   -0.00002033
     atom   20 type  1   force =    -0.00000000   -0.00000637    0.00000881
     atom   21 type  1   force =    -0.00000512    0.00000296    0.00001285
     atom   22 type  1   force =    -0.00000010    0.00000006   -0.00002033
     atom   23 type  1   force =    -0.00000552    0.00000319    0.00000881
     atom   24 type  1   force =    -0.00000000    0.00000695    0.00000784
     atom   25 type  1   force =    -0.00000000   -0.00000220   -0.00002098
     atom   26 type  1   force =     0.00000000   -0.00000213    0.00001038
     atom   27 type  1   force =    -0.00000296   -0.00000171    0.00000826
     atom   28 type  1   force =    -0.00000439   -0.00000253   -0.00002404
     atom   29 type  1   force =    -0.00000583   -0.00000337    0.00001487
     atom   30 type  1   force =     0.00000602   -0.00000348    0.00000784
     atom   31 type  1   force =    -0.00000191    0.00000110   -0.00002098
     atom   32 type  1   force =    -0.00000185    0.00000107    0.00001038
     atom   33 type  1   force =     0.00000512    0.00000296    0.00001285
     atom   34 type  1   force =     0.00000010    0.00000006   -0.00002033
     atom   35 type  1   force =     0.00000552    0.00000319    0.00000881
     atom   36 type  1   force =     0.00001629   -0.00000139    0.00000560
     atom   37 type  1   force =    -0.00000296   -0.00000256   -0.00001482
     atom   38 type  1   force =     0.00001520    0.00000072    0.00000584
     atom   39 type  1   force =     0.00000296   -0.00000171    0.00000826
     atom   40 type  1   force =     0.00000439   -0.00000253   -0.00002404
     atom   41 type  1   force =     0.00000583   -0.00000337    0.00001487
     atom   42 type  1   force =     0.00000000    0.00000342    0.00000826
     atom   43 type  1   force =     0.00000000    0.00000506   -0.00002404
     atom   44 type  1   force =    -0.00000000    0.00000673    0.00001487
     atom   45 type  1   force =     0.00000694    0.00001480    0.00000560
     atom   46 type  1   force =    -0.00000370   -0.00000129   -0.00001482
     atom   47 type  1   force =     0.00000823    0.00001281    0.00000584
     atom   48 type  1   force =     0.00002101   -0.00001213   -0.00002206
     atom   49 type  1   force =     0.00000537   -0.00000310   -0.00000470
     atom   50 type  1   force =     0.00001142   -0.00000659    0.00004157
     atom   51 type  1   force =    -0.00000614    0.00000088   -0.00001291
     atom   52 type  1   force =     0.00000329   -0.00000342   -0.00000828
     atom   53 type  1   force =    -0.00000174   -0.00000886    0.00002109
     atom   54 type  1   force =    -0.00000231   -0.00000576   -0.00001291
     atom   55 type  1   force =    -0.00000131    0.00000456   -0.00000828
     atom   56 type  1   force =    -0.00000855    0.00000293    0.00002109
     atom   57 type  1   force =    -0.00000000    0.00002426   -0.00002206
     atom   58 type  1   force =     0.00000000    0.00000620   -0.00000470
     atom   59 type  1   force =    -0.00000000    0.00001319    0.00004157
     atom   60 type  1   force =    -0.00002101   -0.00001213   -0.00002206
[...]
     atom  178 type  2   force =     0.00000000    0.00000064   -0.00000795
     atom  179 type  2   force =    -0.00000000    0.00000103    0.00000132
     atom  180 type  2   force =     0.00000369    0.00000215    0.00000483
     atom  181 type  2   force =     0.00000157   -0.00000039   -0.00000954
     atom  182 type  2   force =     0.00000317   -0.00000077    0.00000388
     atom  183 type  2   force =     0.00000000   -0.00000000    0.00000516
     atom  184 type  2   force =    -0.00000000    0.00000000   -0.00000994
     atom  185 type  2   force =    -0.00000000    0.00000000    0.00000399
     atom  186 type  2   force =     0.00000371    0.00000212    0.00000483
     atom  187 type  2   force =     0.00000045    0.00000155   -0.00000954
     atom  188 type  2   force =     0.00000092    0.00000314    0.00000388
     atom  189 type  2   force =     0.00000702    0.00000405    0.00000383
     atom  190 type  2   force =     0.00000063    0.00000036   -0.00000824
     atom  191 type  2   force =     0.00000405    0.00000234    0.00000372
     atom  192 type  2   force =     0.00000000   -0.00000000   -0.00000157

     Total force =     0.004543     Total SCF correction =     0.000195

     Computing stress (Cartesian axis) and pressure

     Non-local corr. energy    =      51.90416715 Ry

          total   stress  (Ry/bohr**3)                   (kbar)     P=      -13.54
  -0.00012362   0.00000000   0.00000000          -18.18        0.00        0.00
   0.00000000  -0.00012362  -0.00000000            0.00      -18.18       -0.00
   0.00000000   0.00000000  -0.00002885            0.00        0.00       -4.24

     kinetic stress (kbar)  18349.53     -0.00      0.00
                               -0.00  18349.53      0.00
                                0.00     -0.00  18385.31

     local   stress (kbar)   5038.43     -0.07     -0.00
                               -0.07   5038.33     -0.00
                               -0.00     -0.00   3886.82

     nonloc. stress (kbar)     98.87     -0.00      0.00
                               -0.00     98.87      0.00
                                0.00      0.00    106.76

     hartree stress (kbar)  19542.31     -0.00     -0.00
                               -0.00  19542.31      0.00
                               -0.00      0.00  20093.41

     exc-cor stress (kbar)   5147.92      0.00     -0.00
                                0.00   5147.92      0.00
                               -0.00      0.00   5146.97

     corecor stress (kbar) -13976.23     -0.00     -0.00
                               -0.00 -13976.23      0.00
                               -0.00      0.00 -13976.26

     ewald   stress (kbar) -34379.59      0.09      0.00
                                0.09 -34379.47     -0.00
                                0.00     -0.00 -33807.35

     hubbard stress (kbar)      0.00      0.00      0.00
                                0.00      0.00      0.00
                                0.00      0.00      0.00

     DFT-D   stress (kbar)      0.00      0.00      0.00
                                0.00      0.00      0.00
                                0.00      0.00      0.00

     XDM     stress (kbar)      0.00      0.00      0.00
                                0.00      0.00      0.00
                                0.00      0.00      0.00

     dft-nl  stress (kbar)    160.57     -0.00     -0.00
                               -0.00    160.57     -0.00
                               -0.00     -0.00    160.09

     TS-vdW  stress (kbar)      0.00      0.00      0.00
                                0.00      0.00      0.00
                                0.00      0.00      0.00

     MDB     stress (kbar)      0.00      0.00      0.00
                                0.00      0.00      0.00
                                0.00      0.00      0.00

     3D-RISM stress (kbar)      0.00      0.00      0.00
                                0.00      0.00      0.00
                                0.00      0.00      0.00

     Energy error            =      5.0E-05 Ry
     Gradient error          =      9.3E-04 Ry/Bohr

     bfgs converged in  11 scf cycles and  10 bfgs steps
     (criteria: energy <  1.0E-04 Ry, force <  1.0E-03 Ry/Bohr)

     End of BFGS Geometry Optimization

     Final energy             =  -29725.6073919491 Ry

     File ./GaN.bfgs deleted, as requested
Begin final coordinates

ATOMIC_POSITIONS (angstrom)
Ga            1.6222756606        0.9366198184        7.9182076062
Ga            1.6222756606        0.9366198184       13.1160228035
Ga            0.0753824875        3.7145049007        2.6724031063
Ga           -0.0053979400        3.7545640317        7.9434129546
Ga           -0.0020861484        3.7448401870       13.2018272255
Ga           -1.6184856081        6.5585290358        2.6389891391
Ga           -1.6236750607        6.5555329039        7.9269478997
Ga           -1.6227116003        6.5560891580       13.2244578130
Ga           -3.2345487102        9.4474739046        2.6724031063
Ga           -3.2402466988        9.3574864368        7.9434129546
Ga           -3.2470118995        9.3652164548       13.2018272255
Ga            4.8014412972        0.8873260622        2.6724031063
Ga            4.8765237360        0.9372543991        7.9434129546
Ga            4.8664467437        0.9392482257       13.2018272255
Ga            3.1691688337        3.7145049007        2.6724031063
Ga            3.2499492612        3.7545640317        7.9434129546
Ga            3.2466374696        3.7448401870       13.2018272255
Ga            1.6222756606        6.5636682922        2.6482390218
Ga            1.6222756606        6.5589358119        7.9316131999
Ga            1.6222756606        6.5593136684       13.2137589218
Ga            0.0063457529        9.3625409938        2.6482390218
Ga            0.0022473047        9.3649072340        7.9316131999
Ga            0.0025745381        9.3647183057       13.2137589218
Ga            8.1113724947        0.9322467961        2.6389891391
Ga            8.1113724947        0.9382390598        7.9269478997
Ga            8.1113724947        0.9371265516       13.2244578130
Ga            6.4772443684        3.7396373089        2.6474617346
Ga            6.4882434434        3.7459876278        7.9241900500
Ga            6.4917900756        3.7480352768       13.2181885226
Ga            4.8630369293        6.5585290358        2.6389891391
Ga            4.8682263819        6.5555329039        7.9269478997
Ga            4.8672629215        6.5560891580       13.2244578130
Ga            3.2382055683        9.3625409938        2.6482390218
Ga            3.2423040165        9.3649072340        7.9316131999
Ga            3.2419767831        9.3647183057       13.2137589218
Ga           11.4213036923        0.8873260622        2.6724031063
Ga           11.3462212535        0.9372543991        7.9434129546
Ga           11.3562982458        0.9392482257       13.2018272255
Ga            9.7455006211        3.7396373089        2.6474617346
Ga            9.7345015461        3.7459876278        7.9241900500
Ga            9.7309549139        3.7480352768       13.2181885226
Ga            8.1113724947        6.5700302498        2.6474617346
Ga            8.1113724947        6.5573296121        7.9241900500
Ga            8.1113724947        6.5532343140       13.2181885226
Ga            6.4791000314        9.4474739046        2.6724031063
Ga            6.4847980200        9.3574864368        7.9434129546
Ga            6.4915632207        9.3652164548       13.2018272255
Ga            0.0182249616        1.8627191257        5.3218230962
Ga           -0.0066668336        1.8770904103       10.5475240923
Ga            0.0490700407        1.8449107109       15.7885458417
Ga           -1.6233125526        4.6810295176        5.2810520492
Ga           -1.6266199140        4.6865786428       10.5762814510
Ga           -1.6177189219        4.6720330078       15.8605962351
Ga           -3.2468649524        7.4931047629        5.2810520492
Ga           -3.2437129498        7.4874659413       10.5762814510
Ga           -3.2518593432        7.5024472441       15.8605962351
Ga           -4.8668245904       10.3238731474        5.3218230962
Ga           -4.8668245904       10.2951305781       10.5475240923
Ga           -4.8668245904       10.3594899769       15.7885458417
Ga            3.2263195259        1.8627191257        5.3218230962
[...]
N             1.6222722437       10.3033092722        7.2743520683
N             1.6222722437       10.3051469107       12.5680201403
N             9.7979355962        1.8611540577        1.9938426821
N             9.7316125880        1.8717374873        7.2689811208
N             9.7305041269        1.8744081790       12.5717116481
N             8.1113690779        4.6831037996        1.9929443510
N             8.1113690779        4.6831037996        7.2731218510
N             8.1113690779        4.6831037996       12.5640897790
N             6.5107721724        7.5546881207        1.9938426821
N             6.4867761872        7.4919589959        7.2689811208
N             6.4885348435        7.4896636945       12.5717116481
N             4.8622232037       10.3001721626        1.9761839996
N             4.8664704224       10.3026242955        7.2837997589
N             4.8657738637       10.3022221371       12.5710811439
N             1.6222756606        0.9366198184        2.3150515759
End final coordinates

     Writing all to output data dir ./GaN.save/

     General routines

     Parallel routines

     PAW routines

   This run was terminated on:   4: 2: 2   2Mar2024

   JOB DONE.