     Program PWSCF v.7.1 starts on  2Mar2024 at  9:57:46

     Reading input from espresso.pwi
Warning: card &CELL ignored
Warning: card    CELL_DYNAMICS    = 'BFGS' ignored
Warning: card / ignored

     Current dimensions of program PWSCF are:
     Max number of different atomic species (ntypx) = 10
     Max number of k-points (npk) =  40000
     Max angular momentum in pseudopotentials (lmaxx) =  4
     file Ga.pbe-dn-kjpaw_psl.1.0.0.UPF: wavefunction(s)  4S renormalized
     file N.pbe-n-kjpaw_psl.1.0.0.UPF: wavefunction(s)  2S renormalized

     IMPORTANT: XC functional enforced from input :
     Exchange-correlation= BEEF-VDW
                           (   1   4  43  14   2   0   0)
     Any further DFT definition will be discarded
     Please, verify this is what you really want

     K-points division:     npool     =       4
     R & G space division:  proc/nbgrp/npool/nimage =      64
     Subspace diagonalization in iterative solution of the eigenvalue problem:
     a serial algorithm will be used

     Using Slab Decomposition

     bravais-lattice index     =            4
     lattice parameter (alat)  =      24.5252  a.u.
     unit-cell volume          =   15616.6055 (a.u.)^3
     number of atoms/cell      =          192
     number of atomic types    =            2
     number of electrons       =      1719.00
     number of Kohn-Sham states=         1032
     kinetic-energy cutoff     =      70.0000  Ry
     charge density cutoff     =     350.0000  Ry
     scf convergence threshold =      1.0E-07
     mixing beta               =       0.7000
     number of iterations used =            8  plain     mixing
     Exchange-correlation= BEEF-VDW
                           (   1   4  43  14   2   0   0)

     celldm(1)=  24.525232  celldm(2)=   0.000000  celldm(3)=   1.222409
     celldm(4)=   0.000000  celldm(5)=   0.000000  celldm(6)=   0.000000

     crystal axes: (cart. coord. in units of alat)
               a(1) = (   1.000000   0.000000   0.000000 )
               a(2) = (  -0.500000   0.866025   0.000000 )
               a(3) = (   0.000000   0.000000   1.222409 )

     reciprocal axes: (cart. coord. in units 2 pi/alat)
               b(1) = (  1.000000  0.577350 -0.000000 )
               b(2) = (  0.000000  1.154701  0.000000 )
               b(3) = (  0.000000 -0.000000  0.818057 )

     PseudoPot. # 1 for Ga read from file:
     //group///packages/espresso/pseudo/psl_1.0.0/pslibrary.1.0.0/pbe/PSEUDOPOTENTIALS/Ga.pbe-dn-kjpaw_psl.1.0.0.UPF
     MD5 check sum: cd2a01e492f15b435d17032472d8505c
     Pseudo is Projector augmented-wave + core cor, Zval = 13.0
     Generated using 'atomic' code by A. Dal Corso  v.7.1
     Shape of augmentation charge: PSQ
     Using radial grid of 1205 points,  6 beta functions with:
                l(1) =   0
                l(2) =   0
                l(3) =   1
                l(4) =   1
                l(5) =   2
                l(6) =   2
     Q(r) pseudized with 0 coefficients

     PseudoPot. # 2 for N  read from file:
     //group///packages/espresso/pseudo/psl_1.0.0/pslibrary.1.0.0/pbe/PSEUDOPOTENTIALS/N.pbe-n-kjpaw_psl.1.0.0.UPF
     MD5 check sum: f77f775694dac7e2c3fe1c82443d1a16
     Pseudo is Projector augmented-wave + core cor, Zval =  5.0
     Generated using 'atomic' code by A. Dal Corso  v.7.1
     Shape of augmentation charge: PSQ
     Using radial grid of 1085 points,  4 beta functions with:
                l(1) =   0
                l(2) =   0
                l(3) =   1
                l(4) =   1
     Q(r) pseudized with 0 coefficients

     atomic species   valence    mass     pseudopotential
        Ga            13.00    69.72300     Ga( 1.00)
        N              5.00    14.00700     N ( 1.00)

      6 Sym. Ops. (no inversion) found ( 4 have fractional translation)

                                    s                        frac. trans.

      isym =  1     identity

 cryst.   s( 1) = (     1          0          0      )
                  (     0          1          0      )
                  (     0          0          1      )

 cart.    s( 1) = (  1.0000000  0.0000000  0.0000000 )
                  (  0.0000000  1.0000000  0.0000000 )
                  (  0.0000000  0.0000000  1.0000000 )

      isym =  2     120 deg rotation - cryst. axis [0,0,1]

 cryst.   s( 2) = (     0          1          0      )    f =( -0.2500000 )
                  (    -1         -1          0      )       (  0.0000002 )
                  (     0          0          1      )       (  0.0000000 )

 cart.    s( 2) = ( -0.5000000 -0.8660254  0.0000000 )    f =( -0.2500001 )
                  (  0.8660254 -0.5000000  0.0000000 )       (  0.0000002 )
                  (  0.0000000  0.0000000  1.0000000 )       (  0.0000000 )

      isym =  3     120 deg rotation - cryst. axis [0,0,-1]

[...]

      isym =  4     inv. 180 deg rotation - cart. axis [1,0,0]

[...]

      isym =  5     inv. 180 deg rotation - cryst. axis [0,1,0]

 cryst.   s( 5) = (     1          1          0      )
                  (     0         -1          0      )
                  (     0          0          1      )

 cart.    s( 5) = (  0.5000000  0.8660254  0.0000000 )
                  (  0.8660254 -0.5000000  0.0000000 )
                  (  0.0000000  0.0000000  1.0000000 )

      isym =  6     inv. 180 deg rotation - cryst. axis [1,1,0]

 cryst.   s( 6) = (     0         -1          0      )    f =( -0.2500000 )
                  (    -1          0          0      )       ( -0.2500000 )
                  (     0          0          1      )       (  0.0000000 )

 cart.    s( 6) = (  0.5000000 -0.8660254  0.0000000 )    f =( -0.1250000 )
                  ( -0.8660254 -0.5000000  0.0000000 )       ( -0.2165064 )
                  (  0.0000000  0.0000000  1.0000000 )       (  0.0000000 )

     point group C_3v (3m)
     there are  3 classes
     the character table:

       E     2C3   3s_v
A_1    1.00  1.00  1.00
A_2    1.00  1.00 -1.00
E      2.00 -1.00  0.00

     the symmetry operations in each class and the name of the first element:

     E        1
          identity
     2C3      2    3
          120 deg rotation - cryst. axis [0,0,1]
     3s_v     4    5    6
          inv. 180 deg rotation - cart. axis [1,0,0]

   Cartesian axes

     site n.     atom                  positions (alat units)
         1           Ga  tau(   1) = (   0.1250001   0.0721687   0.6108633  )
         2           Ga  tau(   2) = (   0.1250001   0.0721687   1.0183331  )
         3           Ga  tau(   3) = (   0.0000001   0.2886751   0.2033935  )
         4           Ga  tau(   4) = (   0.0000001   0.2886751   0.6108633  )
         5           Ga  tau(   5) = (   0.0000001   0.2886751   1.0183331  )
         6           Ga  tau(   6) = (  -0.1249999   0.5051814   0.2033935  )
         7           Ga  tau(   7) = (  -0.1249999   0.5051814   0.6108633  )
         8           Ga  tau(   8) = (  -0.1249999   0.5051814   1.0183331  )
         9           Ga  tau(   9) = (  -0.2499999   0.7216878   0.2033935  )
        10           Ga  tau(  10) = (  -0.2499999   0.7216878   0.6108633  )
        11           Ga  tau(  11) = (  -0.2499999   0.7216878   1.0183331  )
        12           Ga  tau(  12) = (   0.3750001   0.0721687   0.2033935  )
        13           Ga  tau(  13) = (   0.3750001   0.0721687   0.6108633  )
        14           Ga  tau(  14) = (   0.3750001   0.0721687   1.0183331  )
        15           Ga  tau(  15) = (   0.2500001   0.2886751   0.2033935  )
        16           Ga  tau(  16) = (   0.2500001   0.2886751   0.6108633  )
        17           Ga  tau(  17) = (   0.2500001   0.2886751   1.0183331  )
        18           Ga  tau(  18) = (   0.1250001   0.5051814   0.2033935  )
        19           Ga  tau(  19) = (   0.1250001   0.5051814   0.6108633  )
        20           Ga  tau(  20) = (   0.1250001   0.5051814   1.0183331  )
        21           Ga  tau(  21) = (   0.0000001   0.7216878   0.2033935  )
        22           Ga  tau(  22) = (   0.0000001   0.7216878   0.6108633  )
        23           Ga  tau(  23) = (   0.0000001   0.7216878   1.0183331  )
        24           Ga  tau(  24) = (   0.6250001   0.0721687   0.2033935  )
        25           Ga  tau(  25) = (   0.6250001   0.0721687   0.6108633  )
        26           Ga  tau(  26) = (   0.6250001   0.0721687   1.0183331  )
        27           Ga  tau(  27) = (   0.5000001   0.2886751   0.2033935  )
        28           Ga  tau(  28) = (   0.5000001   0.2886751   0.6108633  )
        29           Ga  tau(  29) = (   0.5000001   0.2886751   1.0183331  )
        30           Ga  tau(  30) = (   0.3750001   0.5051814   0.2033935  )
        31           Ga  tau(  31) = (   0.3750001   0.5051814   0.6108633  )
        32           Ga  tau(  32) = (   0.3750001   0.5051814   1.0183331  )
        33           Ga  tau(  33) = (   0.2500001   0.7216878   0.2033935  )
        34           Ga  tau(  34) = (   0.2500001   0.7216878   0.6108633  )
        35           Ga  tau(  35) = (   0.2500001   0.7216878   1.0183331  )
        36           Ga  tau(  36) = (   0.8750001   0.0721687   0.2033935  )
        37           Ga  tau(  37) = (   0.8750001   0.0721687   0.6108633  )
        38           Ga  tau(  38) = (   0.8750001   0.0721687   1.0183331  )
        39           Ga  tau(  39) = (   0.7500001   0.2886751   0.2033935  )
        40           Ga  tau(  40) = (   0.7500001   0.2886751   0.6108633  )
        41           Ga  tau(  41) = (   0.7500001   0.2886751   1.0183331  )
        42           Ga  tau(  42) = (   0.6250001   0.5051814   0.2033935  )
        43           Ga  tau(  43) = (   0.6250001   0.5051814   0.6108633  )
        44           Ga  tau(  44) = (   0.6250001   0.5051814   1.0183331  )
        45           Ga  tau(  45) = (   0.5000001   0.7216878   0.2033935  )
        46           Ga  tau(  46) = (   0.5000001   0.7216878   0.6108633  )
        47           Ga  tau(  47) = (   0.5000001   0.7216878   1.0183331  )
        48           Ga  tau(  48) = (  -0.0000002   0.1443377   0.4071284  )
        49           Ga  tau(  49) = (  -0.0000002   0.1443377   0.8145982  )
        50           Ga  tau(  50) = (  -0.0000002   0.1443377   1.2220680  )
        51           Ga  tau(  51) = (  -0.1250002   0.3608440   0.4071284  )
        52           Ga  tau(  52) = (  -0.1250002   0.3608440   0.8145982  )
        53           Ga  tau(  53) = (  -0.1250002   0.3608440   1.2220680  )
        54           Ga  tau(  54) = (  -0.2500002   0.5773504   0.4071284  )
        55           Ga  tau(  55) = (  -0.2500002   0.5773504   0.8145982  )
        56           Ga  tau(  56) = (  -0.2500002   0.5773504   1.2220680  )
        57           Ga  tau(  57) = (  -0.3750001   0.7938567   0.4071284  )
        58           Ga  tau(  58) = (  -0.3750001   0.7938567   0.8145982  )
        59           Ga  tau(  59) = (  -0.3750001   0.7938567   1.2220680  )
        60           Ga  tau(  60) = (   0.2499998   0.1443377   0.4071284  )
[...]
       178           N   tau( 178) = (   0.1249998   0.7938567   0.5606123  )
       179           N   tau( 179) = (   0.1249998   0.7938567   0.9680820  )
[...]
     atom   26 type  1   force =     0.00000000    0.00000000    0.00000000
     atom   27 type  1   force =     0.00000000    0.00000000    0.00000000
     atom   28 type  1   force =     0.00000000    0.00000000    0.00000000
     atom   29 type  1   force =     0.00000000    0.00000000    0.00000000
     atom   30 type  1   force =     0.00000000    0.00000000    0.00000000
     atom   31 type  1   force =     0.00000000    0.00000000    0.00000000
     atom   32 type  1   force =     0.00000000    0.00000000    0.00000000
     atom   33 type  1   force =     0.00000000    0.00000000    0.00000000
     atom   34 type  1   force =     0.00000000    0.00000000    0.00000000
     atom   35 type  1   force =     0.00000000    0.00000000    0.00000000
     atom   36 type  1   force =     0.00000000    0.00000000    0.00000000
     atom   37 type  1   force =     0.00000000    0.00000000    0.00000000
     atom   38 type  1   force =     0.00000000    0.00000000    0.00000000
     atom   39 type  1   force =     0.00000000    0.00000000    0.00000000
     atom   40 type  1   force =     0.00000000    0.00000000    0.00000000
     atom   41 type  1   force =     0.00000000    0.00000000    0.00000000
     atom   42 type  1   force =     0.00000000    0.00000000    0.00000000
     atom   43 type  1   force =     0.00000000    0.00000000    0.00000000
     atom   44 type  1   force =     0.00000000    0.00000000    0.00000000
     atom   45 type  1   force =     0.00000000    0.00000000    0.00000000
     atom   46 type  1   force =     0.00000000    0.00000000    0.00000000
     atom   47 type  1   force =     0.00000000    0.00000000    0.00000000
     atom   48 type  1   force =     0.00000000    0.00000000    0.00000000
     atom   49 type  1   force =     0.00000000    0.00000000    0.00000000
     atom   50 type  1   force =     0.00000000    0.00000000    0.00000000
     atom   51 type  1   force =     0.00000000    0.00000000    0.00000000
     atom   52 type  1   force =     0.00000000    0.00000000    0.00000000
     atom   53 type  1   force =     0.00000000    0.00000000    0.00000000
     atom   54 type  1   force =     0.00000000    0.00000000    0.00000000
     atom   55 type  1   force =     0.00000000    0.00000000    0.00000000
     atom   56 type  1   force =     0.00000000    0.00000000    0.00000000
     atom   57 type  1   force =     0.00000000    0.00000000    0.00000000
     atom   58 type  1   force =     0.00000000    0.00000000    0.00000000
     atom   59 type  1   force =     0.00000000    0.00000000    0.00000000
     atom   60 type  1   force =     0.00000000    0.00000000    0.00000000
[...]
     atom  178 type  2   force =     0.00000000    0.00000000    0.00000000
     atom  179 type  2   force =     0.00000000    0.00000000    0.00000000
     atom  180 type  2   force =     0.00000000    0.00000000    0.00000000
     atom  181 type  2   force =     0.00000000    0.00000000    0.00000000
     atom  182 type  2   force =     0.00000000    0.00000000    0.00000000
     atom  183 type  2   force =     0.00000000    0.00000000    0.00000000
     atom  184 type  2   force =     0.00000000    0.00000000    0.00000000
     atom  185 type  2   force =     0.00000000    0.00000000    0.00000000
     atom  186 type  2   force =     0.00000000    0.00000000    0.00000000
     atom  187 type  2   force =     0.00000000    0.00000000    0.00000000
     atom  188 type  2   force =     0.00000000    0.00000000    0.00000000
     atom  189 type  2   force =     0.00000000    0.00000000    0.00000000
     atom  190 type  2   force =     0.00000000    0.00000000    0.00000000
     atom  191 type  2   force =     0.00000000    0.00000000    0.00000000
     atom  192 type  2   force =     0.00000000    0.00000000    0.00000000
     The SCF correction term to forces
     atom    1 type  1   force =    -0.00000000    0.00000000    0.00009422
     atom    2 type  1   force =    -0.00000000    0.00000000   -0.00004898
     atom    3 type  1   force =    -0.00002584    0.00007667   -0.00002365
     atom    4 type  1   force =    -0.00001012    0.00000394    0.00009171
     atom    5 type  1   force =    -0.00002634    0.00004475   -0.00004775
     atom    6 type  1   force =     0.00002139    0.00001235   -0.00004195
     atom    7 type  1   force =    -0.00000841   -0.00000486    0.00008856
     atom    8 type  1   force =    -0.00000175   -0.00000101   -0.00004490
     atom    9 type  1   force =     0.00005347   -0.00006071   -0.00002365
     atom   10 type  1   force =    -0.00000165   -0.00001074    0.00009171
     atom   11 type  1   force =     0.00002559   -0.00004519   -0.00004775
     atom   12 type  1   force =     0.00007931   -0.00001596   -0.00002365
     atom   13 type  1   force =     0.00000848    0.00000679    0.00009171
     atom   14 type  1   force =     0.00005193    0.00000043   -0.00004775
     atom   15 type  1   force =     0.00002584    0.00007667   -0.00002365
     atom   16 type  1   force =     0.00001012    0.00000394    0.00009171
     atom   17 type  1   force =     0.00002634    0.00004475   -0.00004775
     atom   18 type  1   force =     0.00000000    0.00004093   -0.00005141
     atom   19 type  1   force =    -0.00000000    0.00000498    0.00008318
     atom   20 type  1   force =     0.00000000    0.00002693   -0.00003234
     atom   21 type  1   force =     0.00003545   -0.00002047   -0.00005141
     atom   22 type  1   force =     0.00000432   -0.00000249    0.00008318
     atom   23 type  1   force =     0.00002332   -0.00001346   -0.00003234
     atom   24 type  1   force =     0.00000000   -0.00002470   -0.00004195
     atom   25 type  1   force =     0.00000000    0.00000972    0.00008856
     atom   26 type  1   force =    -0.00000000    0.00000202   -0.00004490
     atom   27 type  1   force =     0.00001593    0.00000920   -0.00003586
     atom   28 type  1   force =     0.00001171    0.00000676    0.00009452
     atom   29 type  1   force =     0.00002544    0.00001469   -0.00006033
     atom   30 type  1   force =    -0.00002139    0.00001235   -0.00004195
     atom   31 type  1   force =     0.00000841   -0.00000486    0.00008856
     atom   32 type  1   force =     0.00000175   -0.00000101   -0.00004490
     atom   33 type  1   force =    -0.00003545   -0.00002047   -0.00005141
     atom   34 type  1   force =    -0.00000432   -0.00000249    0.00008318
     atom   35 type  1   force =    -0.00002332   -0.00001346   -0.00003234
     atom   36 type  1   force =    -0.00007931   -0.00001596   -0.00002365
     atom   37 type  1   force =    -0.00000848    0.00000679    0.00009171
     atom   38 type  1   force =    -0.00005193    0.00000043   -0.00004775
     atom   39 type  1   force =    -0.00001593    0.00000920   -0.00003586
     atom   40 type  1   force =    -0.00001171    0.00000676    0.00009452
     atom   41 type  1   force =    -0.00002544    0.00001469   -0.00006033
     atom   42 type  1   force =    -0.00000000   -0.00001839   -0.00003586
     atom   43 type  1   force =    -0.00000000   -0.00001353    0.00009452
     atom   44 type  1   force =     0.00000000   -0.00002937   -0.00006033
     atom   45 type  1   force =    -0.00005347   -0.00006071   -0.00002365
     atom   46 type  1   force =     0.00000165   -0.00001074    0.00009171
     atom   47 type  1   force =    -0.00002559   -0.00004519   -0.00004775
     atom   48 type  1   force =    -0.00004702    0.00002715    0.00011455
     atom   49 type  1   force =    -0.00002347    0.00001355    0.00001293
     atom   50 type  1   force =    -0.00004283    0.00002473   -0.00013716
     atom   51 type  1   force =     0.00000040    0.00002246    0.00005603
     atom   52 type  1   force =    -0.00001803    0.00001382    0.00004067
     atom   53 type  1   force =    -0.00000137    0.00003872   -0.00010437
     atom   54 type  1   force =     0.00001965   -0.00001089    0.00005603
     atom   55 type  1   force =     0.00000296   -0.00002252    0.00004067
     atom   56 type  1   force =     0.00003285   -0.00002055   -0.00010437
     atom   57 type  1   force =    -0.00000000   -0.00005429    0.00011455
     atom   58 type  1   force =    -0.00000000   -0.00002710    0.00001293
     atom   59 type  1   force =    -0.00000000   -0.00004946   -0.00013716
     atom   60 type  1   force =     0.00004702    0.00002715    0.00011455
[...]
     atom  178 type  2   force =    -0.00000000   -0.00000128    0.00003510
     atom  179 type  2   force =     0.00000000   -0.00000361   -0.00000899
     atom  180 type  2   force =    -0.00001713   -0.00000774   -0.00002150
     atom  181 type  2   force =    -0.00000514    0.00000132    0.00004156
     atom  182 type  2   force =    -0.00001265    0.00000313   -0.00001739
     atom  183 type  2   force =    -0.00000000    0.00000000   -0.00002300
     atom  184 type  2   force =     0.00000000   -0.00000000    0.00004295
     atom  185 type  2   force =     0.00000000   -0.00000000   -0.00001878
     atom  186 type  2   force =    -0.00001527   -0.00001097   -0.00002150
     atom  187 type  2   force =    -0.00000142   -0.00000511    0.00004156
     atom  188 type  2   force =    -0.00000361   -0.00001253   -0.00001739
     atom  189 type  2   force =    -0.00003236   -0.00001869   -0.00002023
     atom  190 type  2   force =    -0.00000472   -0.00000273    0.00003859
     atom  191 type  2   force =    -0.00001613   -0.00000931   -0.00001616
     atom  192 type  2   force =    -0.00000000    0.00000000   -0.00000681

     Total force =     0.004486     Total SCF correction =     0.000842
     SCF correction compared to forces is large: reduce conv_thr to get better values

     Computing stress (Cartesian axis) and pressure

[...]

          total   stress  (Ry/bohr**3)                   (kbar)     P=      -13.54
  -0.00012360  -0.00000000   0.00000000          -18.18       -0.00        0.00
  -0.00000000  -0.00012360   0.00000000           -0.00      -18.18        0.00
   0.00000000   0.00000000  -0.00002884            0.00        0.00       -4.24

     kinetic stress (kbar)  18349.53     -0.00      0.00
                                0.00  18349.53      0.00
                                0.00      0.00  18385.31

     local   stress (kbar)   5038.43     -0.07     -0.00
                               -0.07   5038.34     -0.00
                               -0.00     -0.00   3886.82

     nonloc. stress (kbar)     98.87      0.00      0.00
                                0.00     98.87      0.00
                                0.00      0.00    106.77

     hartree stress (kbar)  19542.31     -0.00     -0.00
                               -0.00  19542.31      0.00
                               -0.00      0.00  20093.41

     exc-cor stress (kbar)   5147.92      0.00     -0.00
                                0.00   5147.92      0.00
                               -0.00      0.00   5146.97

     corecor stress (kbar) -13976.23     -0.00     -0.00
                               -0.00 -13976.23      0.00
                               -0.00      0.00 -13976.26

     ewald   stress (kbar) -34379.59      0.09      0.00
                                0.09 -34379.47     -0.00
                                0.00     -0.00 -33807.35

     hubbard stress (kbar)      0.00      0.00      0.00
                                0.00      0.00      0.00
                                0.00      0.00      0.00

     DFT-D   stress (kbar)      0.00      0.00      0.00
                                0.00      0.00      0.00
                                0.00      0.00      0.00

     XDM     stress (kbar)      0.00      0.00      0.00
                                0.00      0.00      0.00
                                0.00      0.00      0.00

     dft-nl  stress (kbar)    160.57     -0.00     -0.00
                               -0.00    160.57     -0.00
                               -0.00     -0.00    160.09

     TS-vdW  stress (kbar)      0.00      0.00      0.00
                                0.00      0.00      0.00
                                0.00      0.00      0.00

     MDB     stress (kbar)      0.00      0.00      0.00
                                0.00      0.00      0.00
                                0.00      0.00      0.00

     3D-RISM stress (kbar)      0.00      0.00      0.00
                                0.00      0.00      0.00
                                0.00      0.00      0.00

[...]

     Non-local corr. energy    =      51.90416628 Ry

 BEEFens 2000 ensemble energies
             -0.420320788711078E+02
             -0.378125036557964E+03
             -0.162610016050631E+03
              0.133102105217929E+03
             -0.271790929658306E+03
             -0.349643231319753E+03
              0.179760694320633E+03
             -0.190501045081660E+02
              0.299466205059427E+03
             -0.129263774101244E+02
              0.146887293311539E+03
              0.605309151575000E+01
              0.610264008929653E+01
             -0.129019766019726E+02
              0.196022298396420E+03
             -0.142760808240070E+03
             -0.294271210001997E+03
             -0.961814852586056E+02
              0.717939762315133E+02
             -0.642963666612877E+01
              0.429351876090355E+03
              0.365474808408740E+03
             -0.209071407067777E+03
              0.758180822654128E+02
             -0.458645956460504E+03
              0.367746758330407E+03
              0.120144282837443E+03
              0.357637965078741E+03
              0.234933747553721E+03
             -0.114434172987360E+03
              0.865915260489199E+02
             -0.169036516052795E+03
              0.471718361276729E+02
              0.229786185217827E+03
              0.243812985697962E+03
             -0.879965638387089E+02
              0.541440175577574E+03
             -0.205444445891307E+03
             -0.147921684217519E+03
              0.216996650969301E+03
              0.969857020993118E+02
              0.162462192199632E+03
             -0.309577715838837E+03
             -0.866837800934582E+01
              0.303961670257506E+03
              0.394778710001065E+03
             -0.392909364878722E+03
              0.279956074804103E+02
              0.148168328660135E+03
              0.720137056174226E+02
              0.164391694822094E+03
              0.348061406943036E+03
             -0.210419171889677E+03
             -0.230658710609894E+03
             -0.299889088822100E+03
             -0.464922151099856E+02
             -0.273530648807970E+03
              0.267378333078086E+02
             -0.507091134400398E+02
             -0.213224216094215E+03
[...]
              0.266180450350987E+03
              0.146930009700597E+03
              0.186799653850871E+03
             -0.301812786894354E+03
             -0.288789382907853E+03
             -0.731540675199255E+02
             -0.283153411017579E+03
              0.453460258808285E+03
              0.388659089524508E+03
              0.185718870169295E+03
              0.502823914225146E+03
             -0.261742261459543E+03
             -0.106689816582154E+03
             -0.148323204752715E+03
              0.415884773738742E+03

 BEEF-vdW xc energy contributions
            1 :    -3811.559834604331
            2 :     3432.620061017164
            3 :    -2797.900705070389
            4 :     2093.370162475442
            5 :    -1482.522935681948
            6 :     1044.162116782815
            7 :    -763.7153804960371
            8 :     573.8194711039469
            9 :    -411.4725099244579
           10 :     254.5679493909920
           11 :    -120.3250830779834
           12 :     36.06698373239760
           13 :    -9.210027425281623
           14 :     18.67877587814064
           15 :    -30.50332490161327
           16 :     21.99521535109852
           17 :     5.266729318091620
           18 :    -32.23119387062525
           19 :     41.31142161061962
           20 :    -31.38735436300067
           21 :     17.66464023184335
           22 :    -18.17024937872247
           23 :     38.91800198033070
           24 :    -69.64089740474810
           25 :     92.58005825770806
           26 :    -96.34789743778219
           27 :     83.62382548421101
           28 :    -67.29315152744584
           29 :     59.19778306677244
           30 :    -61.08324257115146
           31 :    -326.9680593245639
           32 :    -224.0030920789586

     Writing all to output data dir ./GaN.save/

     General routines

     Parallel routines

     PAW routines

   This run was terminated on:  10: 8: 6   2Mar2024

   JOB DONE.