     Program PWSCF v.7.1 starts on 26Feb2024 at  7:34:27

     Reading input from espresso.pwi
Warning: card &CELL ignored
Warning: card    CELL_DYNAMICS    = 'BFGS' ignored
Warning: card / ignored

     Current dimensions of program PWSCF are:
     Max number of different atomic species (ntypx) = 10
     Max number of k-points (npk) =  40000
     Max angular momentum in pseudopotentials (lmaxx) =  4
     file C.pbe-n-kjpaw_psl.1.0.0.UPF: wavefunction(s)  2S 2P renormalized

     IMPORTANT: XC functional enforced from input :
     Exchange-correlation= BEEF-VDW
                           (   1   4  43  14   2   0   0)
     Any further DFT definition will be discarded
     Please, verify this is what you really want

     R & G space division:  proc/nbgrp/npool/nimage =     256
     wavefunctions fft division:  task group distribution
                                  #TG    x Z-proc =       8     32
     Subspace diagonalization in iterative solution of the eigenvalue problem:
     a serial algorithm will be used

     Using Pencil Decomposition

     bravais-lattice index     =            1
     lattice parameter (alat)  =      33.7534  a.u.
     unit-cell volume          =   38454.8879 (a.u.)^3
     number of atoms/cell      =          999
     number of atomic types    =            1
     number of electrons       =      3995.00
     number of Kohn-Sham states=         2398
     kinetic-energy cutoff     =      70.0000  Ry
     charge density cutoff     =     350.0000  Ry
     scf convergence threshold =      1.0E-07
     mixing beta               =       0.7000
     number of iterations used =            8  plain     mixing
     Exchange-correlation= BEEF-VDW
                           (   1   4  43  14   2   0   0)

     celldm(1)=  33.753373  celldm(2)=   0.000000  celldm(3)=   0.000000
     celldm(4)=   0.000000  celldm(5)=   0.000000  celldm(6)=   0.000000

     crystal axes: (cart. coord. in units of alat)
               a(1) = (   1.000000   0.000000   0.000000 )
               a(2) = (   0.000000   1.000000   0.000000 )
               a(3) = (   0.000000   0.000000   1.000000 )

     reciprocal axes: (cart. coord. in units 2 pi/alat)
               b(1) = (  1.000000  0.000000  0.000000 )
               b(2) = (  0.000000  1.000000  0.000000 )
               b(3) = (  0.000000  0.000000  1.000000 )

     PseudoPot. # 1 for C  read from file:
     //group///packages/espresso/pseudo/psl_1.0.0/pslibrary.1.0.0/pbe/PSEUDOPOTENTIALS/C.pbe-n-kjpaw_psl.1.0.0.UPF
     MD5 check sum: 5459cf7f2c8c37df2f7cde8914797f4d
     Pseudo is Projector augmented-wave + core cor, Zval =  4.0
     Generated using 'atomic' code by A. Dal Corso  v.7.1
     Shape of augmentation charge: PSQ
     Using radial grid of 1073 points,  4 beta functions with:
                l(1) =   0
                l(2) =   0
                l(3) =   1
                l(4) =   1
     Q(r) pseudized with 0 coefficients

     atomic species   valence    mass     pseudopotential
        C              4.00    12.01100     C ( 1.00)

      2 Sym. Ops. (no inversion) found

                                    s                        frac. trans.

      isym =  1     identity

 cryst.   s( 1) = (     1          0          0      )
                  (     0          1          0      )
                  (     0          0          1      )

 cart.    s( 1) = (  1.0000000  0.0000000  0.0000000 )
                  (  0.0000000  1.0000000  0.0000000 )
                  (  0.0000000  0.0000000  1.0000000 )

      isym =  2     inv. 180 deg rotation - cart. axis [-1,0,1]

 cryst.   s( 2) = (     0          0          1      )
                  (     0          1          0      )
                  (     1          0          0      )

 cart.    s( 2) = (  0.0000000  0.0000000  1.0000000 )
                  (  0.0000000  1.0000000  0.0000000 )
                  (  1.0000000  0.0000000  0.0000000 )

     point group C_s (m)
     there are  2 classes
     the character table:

       E     s
A'     1.00  1.00
A''    1.00 -1.00

     the symmetry operations in each class and the name of the first element:

     E        1
          identity
     s        2
          inv. 180 deg rotation - cart. axis [-1,0,1]

   Cartesian axes

     site n.     atom                  positions (alat units)
         1           C   tau(   1) = (   0.0500012   0.1499988   0.2500012  )
         2           C   tau(   2) = (   0.0500012   0.1499988   0.4500012  )
         3           C   tau(   3) = (   0.0500012   0.1499988   0.6500012  )
         4           C   tau(   4) = (   0.0500012   0.1499988   0.8500012  )
         5           C   tau(   5) = (   0.0500012   0.3499988   0.0500012  )
         6           C   tau(   6) = (   0.0500012   0.3499988   0.2500012  )
         7           C   tau(   7) = (   0.0500012   0.3499988   0.4500012  )
         8           C   tau(   8) = (   0.0500012   0.3499988   0.6500012  )
         9           C   tau(   9) = (   0.0500012   0.3499988   0.8500012  )
        10           C   tau(  10) = (   0.0500012   0.5499988   0.0500012  )
        11           C   tau(  11) = (   0.0500012   0.5499988   0.2500012  )
        12           C   tau(  12) = (   0.0500012   0.5499988   0.4500012  )
        13           C   tau(  13) = (   0.0500012   0.5499988   0.6500012  )
        14           C   tau(  14) = (   0.0500012   0.5499988   0.8500012  )
        15           C   tau(  15) = (   0.0500012   0.7499988   0.0500012  )
        16           C   tau(  16) = (   0.0500012   0.7499988   0.2500012  )
        17           C   tau(  17) = (   0.0500012   0.7499988   0.4500012  )
        18           C   tau(  18) = (   0.0500012   0.7499988   0.6500012  )
        19           C   tau(  19) = (   0.0500012   0.7499988   0.8500012  )
        20           C   tau(  20) = (   0.0500012   0.9499988   0.0500012  )
        21           C   tau(  21) = (   0.0500012   0.9499988   0.2500012  )
        22           C   tau(  22) = (   0.0500012   0.9499988   0.4500012  )
        23           C   tau(  23) = (   0.0500012   0.9499988   0.6500012  )
        24           C   tau(  24) = (   0.0500012   0.9499988   0.8500012  )
        25           C   tau(  25) = (   0.2500012   0.1499988   0.0500012  )
        26           C   tau(  26) = (   0.2500012   0.1499988   0.2500012  )
        27           C   tau(  27) = (   0.2500012   0.1499988   0.4500012  )
        28           C   tau(  28) = (   0.2500012   0.1499988   0.6500012  )
        29           C   tau(  29) = (   0.2500012   0.1499988   0.8500012  )
        30           C   tau(  30) = (   0.2500012   0.3499988   0.0500012  )
        31           C   tau(  31) = (   0.2500012   0.3499988   0.2500012  )
        32           C   tau(  32) = (   0.2500012   0.3499988   0.4500012  )
        33           C   tau(  33) = (   0.2500012   0.3499988   0.6500012  )
        34           C   tau(  34) = (   0.2500012   0.3499988   0.8500012  )
        35           C   tau(  35) = (   0.2500012   0.5499988   0.0500012  )
        36           C   tau(  36) = (   0.2500012   0.5499988   0.2500012  )
        37           C   tau(  37) = (   0.2500012   0.5499988   0.4500012  )
        38           C   tau(  38) = (   0.2500012   0.5499988   0.6500012  )
        39           C   tau(  39) = (   0.2500012   0.5499988   0.8500012  )
        40           C   tau(  40) = (   0.2500012   0.7499988   0.0500012  )
        41           C   tau(  41) = (   0.2500012   0.7499988   0.2500012  )
        42           C   tau(  42) = (   0.2500012   0.7499988   0.4500012  )
        43           C   tau(  43) = (   0.2500012   0.7499988   0.6500012  )
        44           C   tau(  44) = (   0.2500012   0.7499988   0.8500012  )
        45           C   tau(  45) = (   0.2500012   0.9499988   0.0500012  )
        46           C   tau(  46) = (   0.2500012   0.9499988   0.2500012  )
        47           C   tau(  47) = (   0.2500012   0.9499988   0.4500012  )
        48           C   tau(  48) = (   0.2500012   0.9499988   0.6500012  )
        49           C   tau(  49) = (   0.2500012   0.9499988   0.8500012  )
        50           C   tau(  50) = (   0.4500012   0.1499988   0.0500012  )
        51           C   tau(  51) = (   0.4500012   0.1499988   0.2500012  )
        52           C   tau(  52) = (   0.4500012   0.1499988   0.4500012  )
        53           C   tau(  53) = (   0.4500012   0.1499988   0.6500012  )
        54           C   tau(  54) = (   0.4500012   0.1499988   0.8500012  )
        55           C   tau(  55) = (   0.4500012   0.3499988   0.0500012  )
        56           C   tau(  56) = (   0.4500012   0.3499988   0.2500012  )
        57           C   tau(  57) = (   0.4500012   0.3499988   0.4500012  )
        58           C   tau(  58) = (   0.4500012   0.3499988   0.6500012  )
        59           C   tau(  59) = (   0.4500012   0.3499988   0.8500012  )
        60           C   tau(  60) = (   0.4500012   0.5499988   0.0500012  )
[...]
       985           C   tau( 985) = (   0.9000000   0.5000000   0.1000000  )
       986           C   tau( 986) = (   0.9000000   0.5000000   0.3000000  )
       987           C   tau( 987) = (   0.9000000   0.5000000   0.5000000  )
       988           C   tau( 988) = (   0.9000000   0.5000000   0.7000000  )
       989           C   tau( 989) = (   0.9000000   0.5000000   0.9000000  )
       990           C   tau( 990) = (   0.9000000   0.7000000   0.1000000  )
       991           C   tau( 991) = (   0.9000000   0.7000000   0.3000000  )
       992           C   tau( 992) = (   0.9000000   0.7000000   0.5000000  )
       993           C   tau( 993) = (   0.9000000   0.7000000   0.7000000  )
       994           C   tau( 994) = (   0.9000000   0.7000000   0.9000000  )
       995           C   tau( 995) = (   0.9000000   0.9000000   0.1000000  )
       996           C   tau( 996) = (   0.9000000   0.9000000   0.3000000  )
       997           C   tau( 997) = (   0.9000000   0.9000000   0.5000000  )
       998           C   tau( 998) = (   0.9000000   0.9000000   0.7000000  )
       999           C   tau( 999) = (   0.9000000   0.9000000   0.9000000  )

   Crystallographic axes

     site n.     atom                  positions (cryst. coord.)
         1           C   tau(   1) = (  0.0500012  0.1499988  0.2500012  )
         2           C   tau(   2) = (  0.0500012  0.1499988  0.4500012  )
         3           C   tau(   3) = (  0.0500012  0.1499988  0.6500012  )
         4           C   tau(   4) = (  0.0500012  0.1499988  0.8500012  )
         5           C   tau(   5) = (  0.0500012  0.3499988  0.0500012  )
         6           C   tau(   6) = (  0.0500012  0.3499988  0.2500012  )
         7           C   tau(   7) = (  0.0500012  0.3499988  0.4500012  )
         8           C   tau(   8) = (  0.0500012  0.3499988  0.6500012  )
         9           C   tau(   9) = (  0.0500012  0.3499988  0.8500012  )
        10           C   tau(  10) = (  0.0500012  0.5499988  0.0500012  )
        11           C   tau(  11) = (  0.0500012  0.5499988  0.2500012  )
        12           C   tau(  12) = (  0.0500012  0.5499988  0.4500012  )
[...]
     atom   26 type  1   force =     0.00000000    0.00000000    0.00000000
     atom   27 type  1   force =     0.00000000    0.00000000    0.00000000
     atom   28 type  1   force =     0.00000000    0.00000000    0.00000000
     atom   29 type  1   force =     0.00000000    0.00000000    0.00000000
     atom   30 type  1   force =     0.00000000    0.00000000    0.00000000
     atom   31 type  1   force =     0.00000000    0.00000000    0.00000000
     atom   32 type  1   force =     0.00000000    0.00000000    0.00000000
     atom   33 type  1   force =     0.00000000    0.00000000    0.00000000
     atom   34 type  1   force =     0.00000000    0.00000000    0.00000000
     atom   35 type  1   force =     0.00000000    0.00000000    0.00000000
     atom   36 type  1   force =     0.00000000    0.00000000    0.00000000
     atom   37 type  1   force =     0.00000000    0.00000000    0.00000000
     atom   38 type  1   force =     0.00000000    0.00000000    0.00000000
     atom   39 type  1   force =     0.00000000    0.00000000    0.00000000
     atom   40 type  1   force =     0.00000000    0.00000000    0.00000000
     atom   41 type  1   force =     0.00000000    0.00000000    0.00000000
     atom   42 type  1   force =     0.00000000    0.00000000    0.00000000
     atom   43 type  1   force =     0.00000000    0.00000000    0.00000000
     atom   44 type  1   force =     0.00000000    0.00000000    0.00000000
     atom   45 type  1   force =     0.00000000    0.00000000    0.00000000
     atom   46 type  1   force =     0.00000000    0.00000000    0.00000000
     atom   47 type  1   force =     0.00000000    0.00000000    0.00000000
     atom   48 type  1   force =     0.00000000    0.00000000    0.00000000
     atom   49 type  1   force =     0.00000000    0.00000000    0.00000000
     atom   50 type  1   force =     0.00000000    0.00000000    0.00000000
     atom   51 type  1   force =     0.00000000    0.00000000    0.00000000
     atom   52 type  1   force =     0.00000000    0.00000000    0.00000000
     atom   53 type  1   force =     0.00000000    0.00000000    0.00000000
     atom   54 type  1   force =     0.00000000    0.00000000    0.00000000
     atom   55 type  1   force =     0.00000000    0.00000000    0.00000000
     atom   56 type  1   force =     0.00000000    0.00000000    0.00000000
     atom   57 type  1   force =     0.00000000    0.00000000    0.00000000
     atom   58 type  1   force =     0.00000000    0.00000000    0.00000000
     atom   59 type  1   force =     0.00000000    0.00000000    0.00000000
     atom   60 type  1   force =     0.00000000    0.00000000    0.00000000
[...]
     atom  985 type  1   force =     0.00000000    0.00000000    0.00000000
     atom  986 type  1   force =     0.00000000    0.00000000    0.00000000
     atom  987 type  1   force =     0.00000000    0.00000000    0.00000000
     atom  988 type  1   force =     0.00000000    0.00000000    0.00000000
     atom  989 type  1   force =     0.00000000    0.00000000    0.00000000
     atom  990 type  1   force =     0.00000000    0.00000000    0.00000000
     atom  991 type  1   force =     0.00000000    0.00000000    0.00000000
     atom  992 type  1   force =     0.00000000    0.00000000    0.00000000
     atom  993 type  1   force =     0.00000000    0.00000000    0.00000000
     atom  994 type  1   force =     0.00000000    0.00000000    0.00000000
     atom  995 type  1   force =     0.00000000    0.00000000    0.00000000
     atom  996 type  1   force =     0.00000000    0.00000000    0.00000000
     atom  997 type  1   force =     0.00000000    0.00000000    0.00000000
     atom  998 type  1   force =     0.00000000    0.00000000    0.00000000
     atom  999 type  1   force =     0.00000000    0.00000000    0.00000000
     The SCF correction term to forces
     atom    1 type  1   force =     0.00000667    0.00001278    0.00002930
     atom    2 type  1   force =     0.00001222    0.00000451    0.00000371
     atom    3 type  1   force =     0.00001306    0.00000486   -0.00002401
     atom    4 type  1   force =     0.00002518    0.00002115   -0.00003127
     atom    5 type  1   force =     0.00001188    0.00001053    0.00001188
     atom    6 type  1   force =     0.00001292    0.00000401    0.00000956
     atom    7 type  1   force =     0.00000902   -0.00001170   -0.00000540
     atom    8 type  1   force =     0.00001562   -0.00001402   -0.00001642
     atom    9 type  1   force =     0.00001066    0.00000300   -0.00000016
     atom   10 type  1   force =     0.00001257    0.00000249    0.00001257
     atom   11 type  1   force =     0.00000907   -0.00000197   -0.00000267
     atom   12 type  1   force =     0.00001206   -0.00001249   -0.00001827
     atom   13 type  1   force =     0.00001352   -0.00001271   -0.00000662
     atom   14 type  1   force =     0.00001690   -0.00000339    0.00001484
     atom   15 type  1   force =     0.00001297   -0.00001485    0.00001297
     atom   16 type  1   force =     0.00001511   -0.00000662   -0.00000207
     atom   17 type  1   force =     0.00001254    0.00000666   -0.00001740
     atom   18 type  1   force =     0.00001421    0.00000769   -0.00000661
     atom   19 type  1   force =     0.00001140   -0.00000620    0.00001304
     atom   20 type  1   force =     0.00002046   -0.00004175    0.00002046
     atom   21 type  1   force =     0.00000984   -0.00000765    0.00002106
     atom   22 type  1   force =     0.00001543    0.00001323   -0.00000366
     atom   23 type  1   force =     0.00001163    0.00001424   -0.00001957
     atom   24 type  1   force =     0.00002406   -0.00001528   -0.00001978
     atom   25 type  1   force =     0.00002930    0.00001278    0.00000667
     atom   26 type  1   force =     0.00001755    0.00000833    0.00001755
     atom   27 type  1   force =    -0.00000159   -0.00000020   -0.00000299
     atom   28 type  1   force =    -0.00000201    0.00000539   -0.00001765
     atom   29 type  1   force =     0.00001264    0.00000367   -0.00000399
     atom   30 type  1   force =     0.00000956    0.00000401    0.00001292
     atom   31 type  1   force =     0.00000289   -0.00000330    0.00000289
     atom   32 type  1   force =     0.00000207   -0.00000621   -0.00000068
     atom   33 type  1   force =     0.00000114   -0.00000870   -0.00000773
     atom   34 type  1   force =     0.00002182    0.00001399   -0.00001171
     atom   35 type  1   force =    -0.00000267   -0.00000197    0.00000907
     atom   36 type  1   force =     0.00000327    0.00000334    0.00000327
     atom   37 type  1   force =     0.00000966   -0.00000829   -0.00001386
     atom   38 type  1   force =     0.00000811   -0.00000802   -0.00000814
     atom   39 type  1   force =     0.00000212   -0.00000984    0.00000915
     atom   40 type  1   force =    -0.00000207   -0.00000662    0.00001511
     atom   41 type  1   force =     0.00000101    0.00000186    0.00000101
     atom   42 type  1   force =     0.00000755    0.00000357   -0.00001168
     atom   43 type  1   force =     0.00001253    0.00000493   -0.00000878
     atom   44 type  1   force =     0.00000483   -0.00000984    0.00000481
     atom   45 type  1   force =     0.00002106   -0.00000765    0.00000984
     atom   46 type  1   force =     0.00002522   -0.00001347    0.00002522
     atom   47 type  1   force =     0.00000244    0.00001063   -0.00001071
     atom   48 type  1   force =     0.00000552    0.00000705   -0.00002214
     atom   49 type  1   force =     0.00000767    0.00000594    0.00000171
     atom   50 type  1   force =     0.00000371    0.00000451    0.00001222
     atom   51 type  1   force =    -0.00000299   -0.00000020   -0.00000159
     atom   52 type  1   force =    -0.00001718    0.00000107   -0.00001718
     atom   53 type  1   force =    -0.00001934    0.00000182   -0.00000568
     atom   54 type  1   force =    -0.00000519    0.00000634    0.00001216
     atom   55 type  1   force =    -0.00000540   -0.00001170    0.00000902
     atom   56 type  1   force =    -0.00000068   -0.00000621    0.00000207
     atom   57 type  1   force =    -0.00001384    0.00000045   -0.00001384
     atom   58 type  1   force =    -0.00001447   -0.00000215   -0.00000728
     atom   59 type  1   force =    -0.00001505   -0.00000776    0.00000925
     atom   60 type  1   force =    -0.00001827   -0.00001249    0.00001206
[...]
     atom  985 type  1   force =     0.00001232    0.00000311    0.00001383
     atom  986 type  1   force =     0.00000765   -0.00000924   -0.00000346
     atom  987 type  1   force =     0.00000430   -0.00001300   -0.00001631
     atom  988 type  1   force =     0.00000366   -0.00000585   -0.00000997
     atom  989 type  1   force =     0.00001515    0.00000232    0.00001515
     atom  990 type  1   force =     0.00001817   -0.00000630    0.00001093
     atom  991 type  1   force =     0.00000678   -0.00000504   -0.00000328
     atom  992 type  1   force =    -0.00000097    0.00000221   -0.00001837
     atom  993 type  1   force =     0.00000402   -0.00000064   -0.00000325
     atom  994 type  1   force =     0.00001451   -0.00000165    0.00001451
     atom  995 type  1   force =    -0.00000154   -0.00001769    0.00001852
     atom  996 type  1   force =     0.00000981   -0.00000114    0.00000859
     atom  997 type  1   force =     0.00000714    0.00001066   -0.00001084
     atom  998 type  1   force =     0.00000784    0.00000968   -0.00000992
     atom  999 type  1   force =    -0.00000921   -0.00003191   -0.00000921

     Total force =     0.005622     Total SCF correction =     0.000660
     SCF correction compared to forces is large: reduce conv_thr to get better values

     Computing stress (Cartesian axis) and pressure

[...]

          total   stress  (Ry/bohr**3)                   (kbar)     P=       -4.80
  -0.00003254   0.00000003  -0.00000003           -4.79        0.00       -0.00
   0.00000003  -0.00003280   0.00000003            0.00       -4.82        0.00
  -0.00000003   0.00000003  -0.00003254           -0.00        0.00       -4.79

     kinetic stress (kbar)  18970.75      0.01     -0.00
                                0.01  18970.71      0.01
                               -0.00      0.01  18970.75

     local   stress (kbar)  -3509.82     -0.01     -0.03
                               -0.01  -3509.90     -0.01
                               -0.03     -0.01  -3509.82

     nonloc. stress (kbar)   4319.95     -0.00     -0.00
                               -0.00   4319.95     -0.00
                               -0.00     -0.00   4319.95

     hartree stress (kbar)   1277.25      0.00      0.02
                                0.00   1277.30      0.00
                                0.02      0.00   1277.25

     exc-cor stress (kbar)   -412.27     -0.00     -0.00
                               -0.00   -412.27     -0.00
                               -0.00     -0.00   -412.27

     corecor stress (kbar)  -4430.47     -0.00      0.00
                               -0.00  -4430.48     -0.00
                                0.00     -0.00  -4430.47

     ewald   stress (kbar) -16244.98      0.01      0.01
                                0.01 -16244.94      0.01
                                0.01      0.01 -16244.98

     hubbard stress (kbar)      0.00      0.00      0.00
                                0.00      0.00      0.00
                                0.00      0.00      0.00

     DFT-D   stress (kbar)      0.00      0.00      0.00
                                0.00      0.00      0.00
                                0.00      0.00      0.00

     XDM     stress (kbar)      0.00      0.00      0.00
                                0.00      0.00      0.00
                                0.00      0.00      0.00

     dft-nl  stress (kbar)     24.80     -0.00      0.00
                               -0.00     24.80     -0.00
                                0.00     -0.00     24.80

     TS-vdW  stress (kbar)      0.00      0.00      0.00
                                0.00      0.00      0.00
                                0.00      0.00      0.00

     MDB     stress (kbar)      0.00      0.00      0.00
                                0.00      0.00      0.00
                                0.00      0.00      0.00

     3D-RISM stress (kbar)      0.00      0.00      0.00
                                0.00      0.00      0.00
                                0.00      0.00      0.00

[...]

     Non-local corr. energy    =      34.15951242 Ry

 BEEFens 2000 ensemble energies
             -0.604548849528489E+02
             -0.421023083597634E+03
             -0.149455114354309E+03
              0.165329539882849E+03
             -0.278475449889413E+03
             -0.389589330122662E+03
              0.230660403198504E+03
             -0.478488643864755E+02
              0.320022236462510E+03
             -0.527699284974960E+01
              0.130128850923255E+03
              0.651124575023607E+01
              0.179975870515877E+02
             -0.379971592184052E+02
              0.216665362931310E+03
             -0.162038862776769E+03
             -0.371762211120590E+03
             -0.103054366270741E+03
              0.839730299213714E+02
              0.902201126022101E+01
              0.444867508899995E+03
              0.403432784375603E+03
             -0.198216247745132E+03
              0.111289429950639E+03
             -0.505450817961472E+03
              0.407071146812652E+03
              0.145705846961434E+03
              0.428591040110438E+03
              0.270354163206848E+03
             -0.168887567538588E+03
              0.105494500560705E+03
             -0.219361476715320E+03
              0.646251339291484E+01
              0.215644313732913E+03
              0.278291660278525E+03
             -0.684848925470569E+02
              0.599837564993750E+03
             -0.210047810950130E+03
             -0.151844015550863E+03
              0.232457275542869E+03
              0.800614806826959E+02
              0.195695090430158E+03
             -0.341847261890561E+03
             -0.140336945958957E+02
              0.362336227712089E+03
              0.441973914229016E+03
             -0.400548880845277E+03
              0.331363301229737E+02
              0.157881536851688E+03
              0.368610729255165E+02
              0.193085030310637E+03
              0.387449699394003E+03
             -0.259612228863125E+03
             -0.273150927356666E+03
             -0.346195186364402E+03
             -0.954128652319064E+02
             -0.289058692254047E+03
              0.154220729762790E+02
             -0.768378649572619E+02
             -0.262219317878830E+03
[...]
              0.340076840467318E+03
              0.139067995265463E+03
              0.237096188820925E+03
             -0.339456914054757E+03
             -0.264523506514635E+03
             -0.107671146844604E+03
             -0.290922626466130E+03
              0.524346482163603E+03
              0.449741270310284E+03
              0.195458635472787E+03
              0.530232326786584E+03
             -0.284436200065774E+03
             -0.136811449100504E+03
             -0.141235380612731E+03
              0.418381051636950E+03

 BEEF-vdW xc energy contributions
            1 :    -4088.976021901819
            2 :     3607.761895275545
            3 :    -2777.958712542845
            4 :     1814.759296426194
            5 :    -937.8573737824117
            6 :     298.8554462596821
            7 :     56.74689694400240
            8 :    -181.3287243293262
            9 :     180.4939109080169
           10 :    -156.7328796581451
           11 :     167.9531101511402
           12 :    -216.5232196048728
           13 :     267.5615701348506
           14 :    -281.3424501363643
           15 :     240.4323590548656
           16 :    -158.3841845151701
           17 :     68.85110825147240
           18 :    -4.701633021100861
           19 :    -19.40486307267020
           20 :     11.61356722967139
           21 :     6.037782087197229
           22 :    -12.90596898532931
           23 :     1.627432676012177
           24 :     19.82822148762898
           25 :    -35.72636528913426
           26 :     33.88666394306892
           27 :    -13.39903012838113
           28 :    -15.54443555927901
           29 :     38.70135627511627
           30 :    -46.63183981198745
           31 :    -534.9512413730499
           32 :    -388.1605835591772

     Writing all to output data dir ./diamond.save/

     General routines

     Parallel routines

     PAW routines

   This run was terminated on:  13:25: 3  26Feb2024

   JOB DONE.