     Program PWSCF v.7.1 starts on  9Feb2024 at  8: 4:24

     Reading input from espresso.pwi
Warning: card &CELL ignored
Warning: card    CELL_DYNAMICS    = 'BFGS' ignored
Warning: card / ignored

     Current dimensions of program PWSCF are:
     Max number of different atomic species (ntypx) = 10
     Max number of k-points (npk) =  40000
     Max angular momentum in pseudopotentials (lmaxx) =  4
     file Pb.pbe-dn-kjpaw_psl.1.0.0.UPF: wavefunction(s)  6S 6P 5D renormalized
     file I.pbe-dn-kjpaw_psl.1.0.0.UPF: wavefunction(s)  5S 5P renormalized

     IMPORTANT: XC functional enforced from input :
     Exchange-correlation= BEEF-VDW
                           (   1   4  43  14   2   0   0)
     Any further DFT definition will be discarded
     Please, verify this is what you really want

     K-points division:     npool     =       2
     R & G space division:  proc/nbgrp/npool/nimage =      64
     Subspace diagonalization in iterative solution of the eigenvalue problem:
     a serial algorithm will be used

     Using Slab Decomposition

     bravais-lattice index     =            4
     lattice parameter (alat)  =      26.7090  a.u.
     unit-cell volume          =   17226.5091 (a.u.)^3
     number of atoms/cell      =           54
     number of atomic types    =            2
     number of electrons       =       864.00
     number of Kohn-Sham states=          518
     kinetic-energy cutoff     =      70.0000  Ry
     charge density cutoff     =     350.0000  Ry
     scf convergence threshold =      1.0E-09
     mixing beta               =       0.7000
     number of iterations used =            8  plain     mixing
     energy convergence thresh.=      1.0E-04
     force convergence thresh. =      1.0E-03
     Exchange-correlation= BEEF-VDW
                           (   1   4  43  14   2   0   0)
     nstep                     =           50

     celldm(1)=  26.709025  celldm(2)=   0.000000  celldm(3)=   1.043981
     celldm(4)=   0.000000  celldm(5)=   0.000000  celldm(6)=   0.000000

     crystal axes: (cart. coord. in units of alat)
               a(1) = (   1.000000   0.000000   0.000000 )
               a(2) = (  -0.500000   0.866025   0.000000 )
               a(3) = (   0.000000   0.000000   1.043981 )

     reciprocal axes: (cart. coord. in units 2 pi/alat)
               b(1) = (  1.000000  0.577350 -0.000000 )
               b(2) = (  0.000000  1.154701  0.000000 )
               b(3) = (  0.000000 -0.000000  0.957872 )

     PseudoPot. # 1 for Pb read from file:
     //group///packages/espresso/pseudo/psl_1.0.0/pslibrary.1.0.0/pbe/PSEUDOPOTENTIALS/Pb.pbe-dn-kjpaw_psl.1.0.0.UPF
     MD5 check sum: 39ab5b8a6bbd56b7735ad9f188aac93a
     Pseudo is Projector augmented-wave + core cor, Zval = 14.0
     Generated using 'atomic' code by A. Dal Corso  v.7.1
     Shape of augmentation charge: PSQ
     Using radial grid of 1281 points,  6 beta functions with:
                l(1) =   0
                l(2) =   0
                l(3) =   1
                l(4) =   1
                l(5) =   2
                l(6) =   2
     Q(r) pseudized with 0 coefficients

     PseudoPot. # 2 for I  read from file:
     //group///packages/espresso/pseudo/psl_1.0.0/pslibrary.1.0.0/pbe/PSEUDOPOTENTIALS/I.pbe-dn-kjpaw_psl.1.0.0.UPF
     MD5 check sum: bfa8781bc1224d19af3f3980e3fab11e
     Pseudo is Projector augmented-wave + core cor, Zval = 17.0
     Generated using 'atomic' code by A. Dal Corso  v.7.1
     Shape of augmentation charge: PSQ
     Using radial grid of 1247 points,  6 beta functions with:
                l(1) =   0
                l(2) =   0
                l(3) =   1
                l(4) =   1
                l(5) =   2
                l(6) =   2
     Q(r) pseudized with 0 coefficients

     atomic species   valence    mass     pseudopotential
        Pb            14.00   207.20000     Pb( 1.00)
        I             17.00   126.90447     I ( 1.00)

     No symmetry found

                                    s                        frac. trans.

      isym =  1     identity

 cryst.   s( 1) = (     1          0          0      )
                  (     0          1          0      )
                  (     0          0          1      )

 cart.    s( 1) = (  1.0000000  0.0000000  0.0000000 )
                  (  0.0000000  1.0000000  0.0000000 )
                  (  0.0000000  0.0000000  1.0000000 )

     point group C_1 (1)
     there are  1 classes
     the character table:

       E
A      1.00

     the symmetry operations in each class and the name of the first element:

     E        1
          identity

   Cartesian axes

     site n.     atom                  positions (alat units)
         1           Pb  tau(   1) = (   0.1666780   0.2886497   1.0439767  )
         2           Pb  tau(   2) = (   0.1666712   0.2886557   0.5219862  )
         3           Pb  tau(   3) = (   0.0000102   0.5773235   1.0439712  )
         4           Pb  tau(   4) = (   0.0000034   0.5773295   0.5219807  )
         5           Pb  tau(   5) = (  -0.1666576   0.8659973   1.0439657  )
         6           Pb  tau(   6) = (  -0.1666644   0.8660033   0.5219752  )
         7           Pb  tau(   7) = (   0.5000113   0.2886484   1.0439810  )
         8           Pb  tau(   8) = (   0.5000045   0.2886544   0.5219905  )
         9           Pb  tau(   9) = (   0.3333436   0.5773222   1.0439755  )
        10           Pb  tau(  10) = (   0.3333367   0.5773282   0.5219850  )
        11           Pb  tau(  11) = (   0.1666758   0.8659960   1.0439700  )
        12           Pb  tau(  12) = (   0.1666690   0.8660020   0.5219795  )
        13           Pb  tau(  13) = (   0.8333447   0.2886471   1.0439853  )
        14           Pb  tau(  14) = (   0.8333379   0.2886531   0.5219949  )
        15           Pb  tau(  15) = (   0.6666769   0.5773209   1.0439798  )
        16           Pb  tau(  16) = (   0.6666701   0.5773269   0.5219894  )
        17           Pb  tau(  17) = (   0.5000091   0.8659947   1.0439743  )
        18           Pb  tau(  18) = (   0.5000023   0.8660007   0.5219839  )
        19           I   tau(  19) = (   0.1666738   0.0962066   0.3879099  )
        20           I   tau(  20) = (   0.1666806   0.0962006   0.9099004  )
        21           I   tau(  21) = (   0.0000060   0.3848804   0.3879044  )
        22           I   tau(  22) = (   0.0000129   0.3848744   0.9098949  )
        23           I   tau(  23) = (  -0.1666617   0.6735542   0.3878990  )
        24           I   tau(  24) = (  -0.1666549   0.6735482   0.9098894  )
        25           I   tau(  25) = (   0.5000071   0.0962053   0.3879143  )
        26           I   tau(  26) = (   0.5000140   0.0961993   0.9099047  )
        27           I   tau(  27) = (   0.3333394   0.3848792   0.3879088  )
        28           I   tau(  28) = (   0.3333462   0.3848731   0.9098993  )
        29           I   tau(  29) = (   0.1666716   0.6735530   0.3879033  )
        30           I   tau(  30) = (   0.1666784   0.6735469   0.9098938  )
        31           I   tau(  31) = (   0.8333405   0.0962041   0.3879186  )
        32           I   tau(  32) = (   0.8333473   0.0961980   0.9099091  )
        33           I   tau(  33) = (   0.6666727   0.3848779   0.3879131  )
        34           I   tau(  34) = (   0.6666795   0.3848718   0.9099036  )
        35           I   tau(  35) = (   0.5000049   0.6735517   0.3879076  )
        36           I   tau(  36) = (   0.5000117   0.6735457   0.9098981  )
        37           I   tau(  37) = (  -0.0000023   0.1924396   0.1340740  )
        38           I   tau(  38) = (   0.0000045   0.1924336   0.6560644  )
        39           I   tau(  39) = (  -0.1666701   0.4811134   0.1340685  )
        40           I   tau(  40) = (  -0.1666632   0.4811074   0.6560589  )
        41           I   tau(  41) = (  -0.3333378   0.7697873   0.1340630  )
        42           I   tau(  42) = (  -0.3333310   0.7697812   0.6560534  )
        43           I   tau(  43) = (   0.3333311   0.1924384   0.1340783  )
        44           I   tau(  44) = (   0.3333379   0.1924323   0.6560688  )
        45           I   tau(  45) = (   0.1666633   0.4811122   0.1340728  )
        46           I   tau(  46) = (   0.1666701   0.4811061   0.6560633  )
        47           I   tau(  47) = (  -0.0000045   0.7697860   0.1340673  )
        48           I   tau(  48) = (   0.0000023   0.7697799   0.6560578  )
        49           I   tau(  49) = (   0.6666644   0.1924371   0.1340827  )
        50           I   tau(  50) = (   0.6666712   0.1924310   0.6560731  )
        51           I   tau(  51) = (   0.4999966   0.4811109   0.1340772  )
        52           I   tau(  52) = (   0.5000034   0.4811049   0.6560676  )
        53           I   tau(  53) = (   0.3333288   0.7697847   0.1340717  )
        54           I   tau(  54) = (   0.3333356   0.7697787   0.6560621  )

   Crystallographic axes

     site n.     atom                  positions (cryst. coord.)
         1           Pb  tau(   1) = (  0.3333300  0.3333039  0.9999959  )
         2           Pb  tau(   2) = (  0.3333266  0.3333109  0.4999959  )
         3           Pb  tau(   3) = (  0.3333281  0.6666357  0.9999906  )
         4           Pb  tau(   4) = (  0.3333248  0.6666427  0.4999906  )
         5           Pb  tau(   5) = (  0.3333262  0.9999675  0.9999854  )
         6           Pb  tau(   6) = (  0.3333229  0.9999745  0.4999854  )
         7           Pb  tau(   7) = (  0.6666626  0.3333025  1.0000001  )
         8           Pb  tau(   8) = (  0.6666592  0.3333094  0.5000001  )
         9           Pb  tau(   9) = (  0.6666607  0.6666343  0.9999948  )
        10           Pb  tau(  10) = (  0.6666573  0.6666412  0.4999948  )
        11           Pb  tau(  11) = (  0.6666588  0.9999661  0.9999895  )
        12           Pb  tau(  12) = (  0.6666555  0.9999730  0.4999895  )
        13           Pb  tau(  13) = (  0.9999951  0.3333010  1.0000042  )
        14           Pb  tau(  14) = (  0.9999918  0.3333079  0.5000042  )
        15           Pb  tau(  15) = (  0.9999933  0.6666328  0.9999990  )
        16           Pb  tau(  16) = (  0.9999899  0.6666397  0.4999990  )
        17           Pb  tau(  17) = (  0.9999914  0.9999646  0.9999937  )
        18           Pb  tau(  18) = (  0.9999881  0.9999715  0.4999937  )
        19           I   tau(  19) = (  0.2222187  0.1110899  0.3715680  )
        20           I   tau(  20) = (  0.2222221  0.1110829  0.8715680  )
        21           I   tau(  21) = (  0.2222169  0.4444217  0.3715628  )
        22           I   tau(  22) = (  0.2222202  0.4444147  0.8715628  )
        23           I   tau(  23) = (  0.2222150  0.7777534  0.3715575  )
        24           I   tau(  24) = (  0.2222183  0.7777465  0.8715575  )
        25           I   tau(  25) = (  0.5555513  0.1110884  0.3715722  )
        26           I   tau(  26) = (  0.5555547  0.1110814  0.8715722  )
        27           I   tau(  27) = (  0.5555495  0.4444202  0.3715669  )
        28           I   tau(  28) = (  0.5555528  0.4444132  0.8715669  )
        29           I   tau(  29) = (  0.5555476  0.7777520  0.3715617  )
[...]
     atom   38 type  2   force =    -0.00000002    0.00017095    0.00522835
     atom   39 type  2   force =     0.00013448    0.00008099    0.00522147
     atom   40 type  2   force =     0.00013443    0.00008095    0.00522139
     atom   41 type  2   force =     0.00015136   -0.00008671    0.00522709
     atom   42 type  2   force =     0.00015155   -0.00008679    0.00522686
     atom   43 type  2   force =    -0.00001420   -0.00001282    0.00522088
     atom   44 type  2   force =    -0.00001386   -0.00001342    0.00522070
     atom   45 type  2   force =    -0.00013529    0.00008063    0.00522156
     atom   46 type  2   force =    -0.00013542    0.00008072    0.00522130
     atom   47 type  2   force =    -0.00000074   -0.00015461    0.00522059
     atom   48 type  2   force =    -0.00000073   -0.00015453    0.00522041
     atom   49 type  2   force =     0.00001394   -0.00001202    0.00522155
     atom   50 type  2   force =     0.00001373   -0.00001233    0.00522150
     atom   51 type  2   force =     0.00000052    0.00001992    0.00522120
     atom   52 type  2   force =     0.00000100    0.00001999    0.00522072
     atom   53 type  2   force =    -0.00015100   -0.00008648    0.00522799
     atom   54 type  2   force =    -0.00015106   -0.00008633    0.00522757
     The Hubbard contrib.    to forces
     atom    1 type  1   force =     0.00000000    0.00000000    0.00000000
     atom    2 type  1   force =     0.00000000    0.00000000    0.00000000
     atom    3 type  1   force =     0.00000000    0.00000000    0.00000000
     atom    4 type  1   force =     0.00000000    0.00000000    0.00000000
     atom    5 type  1   force =     0.00000000    0.00000000    0.00000000
     atom    6 type  1   force =     0.00000000    0.00000000    0.00000000
     atom    7 type  1   force =     0.00000000    0.00000000    0.00000000
     atom    8 type  1   force =     0.00000000    0.00000000    0.00000000
     atom    9 type  1   force =     0.00000000    0.00000000    0.00000000
     atom   10 type  1   force =     0.00000000    0.00000000    0.00000000
     atom   11 type  1   force =     0.00000000    0.00000000    0.00000000
     atom   12 type  1   force =     0.00000000    0.00000000    0.00000000
     atom   13 type  1   force =     0.00000000    0.00000000    0.00000000
     atom   14 type  1   force =     0.00000000    0.00000000    0.00000000
     atom   15 type  1   force =     0.00000000    0.00000000    0.00000000
     atom   16 type  1   force =     0.00000000    0.00000000    0.00000000
     atom   17 type  1   force =     0.00000000    0.00000000    0.00000000
     atom   18 type  1   force =     0.00000000    0.00000000    0.00000000
     atom   19 type  2   force =     0.00000000    0.00000000    0.00000000
     atom   20 type  2   force =     0.00000000    0.00000000    0.00000000
     atom   21 type  2   force =     0.00000000    0.00000000    0.00000000
     atom   22 type  2   force =     0.00000000    0.00000000    0.00000000
     atom   23 type  2   force =     0.00000000    0.00000000    0.00000000
     atom   24 type  2   force =     0.00000000    0.00000000    0.00000000
     atom   25 type  2   force =     0.00000000    0.00000000    0.00000000
     atom   26 type  2   force =     0.00000000    0.00000000    0.00000000
     atom   27 type  2   force =     0.00000000    0.00000000    0.00000000
     atom   28 type  2   force =     0.00000000    0.00000000    0.00000000
     atom   29 type  2   force =     0.00000000    0.00000000    0.00000000
     atom   30 type  2   force =     0.00000000    0.00000000    0.00000000
     atom   31 type  2   force =     0.00000000    0.00000000    0.00000000
     atom   32 type  2   force =     0.00000000    0.00000000    0.00000000
     atom   33 type  2   force =     0.00000000    0.00000000    0.00000000
     atom   34 type  2   force =     0.00000000    0.00000000    0.00000000
     atom   35 type  2   force =     0.00000000    0.00000000    0.00000000
     atom   36 type  2   force =     0.00000000    0.00000000    0.00000000
     atom   37 type  2   force =     0.00000000    0.00000000    0.00000000
     atom   38 type  2   force =     0.00000000    0.00000000    0.00000000
     atom   39 type  2   force =     0.00000000    0.00000000    0.00000000
     atom   40 type  2   force =     0.00000000    0.00000000    0.00000000
     atom   41 type  2   force =     0.00000000    0.00000000    0.00000000
     atom   42 type  2   force =     0.00000000    0.00000000    0.00000000
     atom   43 type  2   force =     0.00000000    0.00000000    0.00000000
     atom   44 type  2   force =     0.00000000    0.00000000    0.00000000
     atom   45 type  2   force =     0.00000000    0.00000000    0.00000000
     atom   46 type  2   force =     0.00000000    0.00000000    0.00000000
     atom   47 type  2   force =     0.00000000    0.00000000    0.00000000
     atom   48 type  2   force =     0.00000000    0.00000000    0.00000000
     atom   49 type  2   force =     0.00000000    0.00000000    0.00000000
     atom   50 type  2   force =     0.00000000    0.00000000    0.00000000
     atom   51 type  2   force =     0.00000000    0.00000000    0.00000000
     atom   52 type  2   force =     0.00000000    0.00000000    0.00000000
     atom   53 type  2   force =     0.00000000    0.00000000    0.00000000
     atom   54 type  2   force =     0.00000000    0.00000000    0.00000000
     The SCF correction term to forces
     atom    1 type  1   force =     0.00000064   -0.00000046   -0.00000049
     atom    2 type  1   force =     0.00000071   -0.00000049    0.00000049
     atom    3 type  1   force =     0.00000004   -0.00000003    0.00000016
     atom    4 type  1   force =     0.00000061   -0.00000064   -0.00000020
     atom    5 type  1   force =    -0.00000056    0.00000055   -0.00000006
     atom    6 type  1   force =    -0.00000072    0.00000154    0.00000024
     atom    7 type  1   force =    -0.00000217   -0.00000062   -0.00000107
     atom    8 type  1   force =    -0.00000263   -0.00000081    0.00000072
     atom    9 type  1   force =    -0.00000093   -0.00000142   -0.00000061
     atom   10 type  1   force =    -0.00000126   -0.00000185    0.00000010
     atom   11 type  1   force =    -0.00000162   -0.00000068    0.00000043
     atom   12 type  1   force =    -0.00000137   -0.00000037   -0.00000069
     atom   13 type  1   force =     0.00000153    0.00000070    0.00000004
     atom   14 type  1   force =     0.00000195    0.00000032    0.00000006
     atom   15 type  1   force =     0.00000086    0.00000116   -0.00000053
     atom   16 type  1   force =     0.00000059    0.00000092    0.00000059
     atom   17 type  1   force =     0.00000210    0.00000075    0.00000043
     atom   18 type  1   force =     0.00000201    0.00000139   -0.00000035
     atom   19 type  2   force =     0.00000036    0.00000119    0.00000012
     atom   20 type  2   force =     0.00000119    0.00000069   -0.00000044
     atom   21 type  2   force =     0.00000255   -0.00000107    0.00000079
     atom   22 type  2   force =     0.00000224   -0.00000048    0.00000042
     atom   23 type  2   force =     0.00000082    0.00000201    0.00000018
     atom   24 type  2   force =    -0.00000023    0.00000163    0.00000116
     atom   25 type  2   force =    -0.00000253   -0.00000100    0.00000046
     atom   26 type  2   force =    -0.00000312   -0.00000036    0.00000069
     atom   27 type  2   force =    -0.00000300   -0.00000147    0.00000159
     atom   28 type  2   force =    -0.00000181   -0.00000146   -0.00000006
     atom   29 type  2   force =    -0.00000090   -0.00000131    0.00000020
     atom   30 type  2   force =    -0.00000085   -0.00000160    0.00000110
     atom   31 type  2   force =     0.00000211   -0.00000008   -0.00000121
     atom   32 type  2   force =     0.00000173    0.00000017   -0.00000033
     atom   33 type  2   force =     0.00000054    0.00000002    0.00000020
     atom   34 type  2   force =    -0.00000030    0.00000086   -0.00000007
     atom   35 type  2   force =     0.00000014    0.00000152   -0.00000074
     atom   36 type  2   force =     0.00000101    0.00000037   -0.00000042
     atom   37 type  2   force =     0.00000265   -0.00000014    0.00000046
     atom   38 type  2   force =     0.00000355    0.00000057    0.00000022
     atom   39 type  2   force =     0.00000137    0.00000088   -0.00000118
     atom   40 type  2   force =     0.00000123    0.00000021    0.00000039
     atom   41 type  2   force =     0.00000117    0.00000223   -0.00000062
     atom   42 type  2   force =     0.00000094    0.00000251    0.00000105
     atom   43 type  2   force =    -0.00000230   -0.00000129   -0.00000161
     atom   44 type  2   force =    -0.00000262    0.00000008   -0.00000040
     atom   45 type  2   force =    -0.00000035   -0.00000150   -0.00000092
     atom   46 type  2   force =     0.00000049   -0.00000292   -0.00000037
     atom   47 type  2   force =    -0.00000159    0.00000033   -0.00000101
     atom   48 type  2   force =    -0.00000185    0.00000056   -0.00000005
     atom   49 type  2   force =    -0.00000047   -0.00000097   -0.00000065
     atom   50 type  2   force =    -0.00000107    0.00000022    0.00000024
     atom   51 type  2   force =    -0.00000114    0.00000018   -0.00000198
     atom   52 type  2   force =    -0.00000202   -0.00000096    0.00000081
     atom   53 type  2   force =     0.00000058    0.00000019    0.00000066
     atom   54 type  2   force =     0.00000093   -0.00000052    0.00000088

     Total force =     0.000834     Total SCF correction =     0.000015

     Computing stress (Cartesian axis) and pressure

     Non-local corr. energy    =      25.88797497 Ry

          total   stress  (Ry/bohr**3)                   (kbar)     P=        1.46
   0.00000872  -0.00000001   0.00000001            1.28       -0.00        0.00
  -0.00000001   0.00000872  -0.00000001           -0.00        1.28       -0.00
   0.00000001  -0.00000001   0.00001237            0.00       -0.00        1.82

     kinetic stress (kbar)  14990.61      0.00      0.00
                                0.00  14990.61     -0.00
                                0.00     -0.00  15003.34

     local   stress (kbar)  -7569.81      0.14     -0.12
                                0.14  -7569.57      0.11
                               -0.12      0.11   1620.39

     nonloc. stress (kbar)  -1072.70     -0.00      0.00
                               -0.00  -1072.70     -0.00
                                0.00     -0.00  -1077.30

     hartree stress (kbar)  12064.10     -0.05      0.05
                               -0.05  12064.01     -0.04
                                0.05     -0.04   7923.36

     exc-cor stress (kbar)   6946.51     -0.00      0.00
                               -0.00   6946.50     -0.00
                                0.00     -0.00   6945.39

     corecor stress (kbar) -11310.08      0.00     -0.00
                                0.00 -11310.08      0.00
                               -0.00      0.00 -11310.06

     ewald   stress (kbar) -14130.63     -0.09      0.08
                               -0.09 -14130.78     -0.07
                                0.08     -0.07 -19187.95

     hubbard stress (kbar)      0.00      0.00      0.00
                                0.00      0.00      0.00
                                0.00      0.00      0.00

     DFT-D   stress (kbar)      0.00      0.00      0.00
                                0.00      0.00      0.00
                                0.00      0.00      0.00

     XDM     stress (kbar)      0.00      0.00      0.00
                                0.00      0.00      0.00
                                0.00      0.00      0.00

     dft-nl  stress (kbar)     83.28      0.00     -0.00
                                0.00     83.28      0.00
                               -0.00      0.00     84.64

     TS-vdW  stress (kbar)      0.00      0.00      0.00
                                0.00      0.00      0.00
                                0.00      0.00      0.00

     MDB     stress (kbar)      0.00      0.00      0.00
                                0.00      0.00      0.00
                                0.00      0.00      0.00

     3D-RISM stress (kbar)      0.00      0.00      0.00
                                0.00      0.00      0.00
                                0.00      0.00      0.00

     Energy error            =      9.1E-05 Ry
     Gradient error          =      1.2E-04 Ry/Bohr

     bfgs converged in   7 scf cycles and   6 bfgs steps
     (criteria: energy <  1.0E-04 Ry, force <  1.0E-03 Ry/Bohr)

     End of BFGS Geometry Optimization

     Final energy             =  -36425.3974456493 Ry

     File ./PbI2.bfgs deleted, as requested
Begin final coordinates

ATOMIC_POSITIONS (angstrom)
Pb            2.3559035957        4.0799789281       14.7553932465
Pb            2.3558405989        4.0800321790        7.3776626662
Pb            0.0001194310        8.1598125308       14.7551076929
Pb            0.0000565250        8.1598677047        7.3773801031
Pb           -2.3552668165       12.2398893687       14.7552944646
Pb           -2.3553274711       12.2399417037        7.3775598497
Pb            7.0670263224        4.0797375836       14.7556518503
Pb            7.0669668772        4.0797889109        7.3779207894
Pb            4.7112556928        8.1595640660       14.7553693630
Pb            4.7111927532        8.1596192731        7.3776414893
Pb            2.3554812042       12.2398632709       14.7553742241
Pb            2.3554172213       12.2399201083        7.3776443444
Pb           11.7781673222        4.0799501803       14.7554657100
Pb           11.7781057011        4.0800034233        7.3777408563
Pb            9.4227720830        8.1595581753       14.7553632457
Pb            9.4227140125        8.1596139603        7.3776342238
Pb            7.0670098834       12.2398522070       14.7553690856
Pb            7.0669483265       12.2399086453        7.3776417023
I             2.3579617584        1.3610913132        5.4942539660
I             2.3580155021        1.3610661994       12.8719903843
I             0.0000772909        5.4389514422        5.4941228182
I             0.0001406106        5.4389100742       12.8718605173
I            -2.3563864640        9.5202703818        5.4940560181
I            -2.3563446292        9.5202316217       12.8717819065
I             7.0669657734        1.3631151822        5.4940619874
I             7.0669944182        1.3630814728       12.8717911241
I             4.7142285647        5.4381927740        5.4940719016
I             4.7142666457        5.4381499181       12.8717977743
I             2.3564981768        9.5202513090        5.4940740344
I             2.3565462907        9.5201875781       12.8718022731
I            11.7760003733        1.3610718612        5.4943207736
I            11.7760544877        1.3610300910       12.8720589106
I             9.4197175562        5.4381958755        5.4941179594
I             9.4197532824        5.4381636839       12.8718462352
I             7.0669671874        9.5171827193        5.4942640729
I             7.0670144383        9.5171362871       12.8719799275
I             0.0000741339        2.7224010942        1.8833184218
I             0.0000834628        2.7223775782        9.2610237335
I            -2.3527045286        6.8015704899        1.8835047050
I            -2.3527097119        6.8015848164        9.2612108475
I            -4.7089080050       10.8786224175        1.8832429163
I            -4.7088830971       10.8786073990        9.2609378701
I             4.7105867695        2.7192944088        1.8834553367
I             4.7106104632        2.7192579658        9.2611515238
I             2.3527962016        6.8015568209        1.8835026345
I             2.3528052438        6.8015612975        9.2611968843
I             0.0000290878       10.8766295406        1.8834443026
I             0.0000226315       10.8766329258        9.2611438663
I             9.4233248796        2.7192901691        1.8835029361
I             9.4233153605        2.7192710936        9.2612125993
I             7.0669503743        6.8007380222        1.8834905269
I             7.0669819358        6.8007352851        9.2611712435
I             4.7090048444       10.8785965018        1.8832962852
I             4.7090134192       10.8785917029        9.2609826579
End final coordinates

     Writing all to output data dir ./PbI2.save/

     General routines

     Parallel routines

     PAW routines

   This run was terminated on:  10:54: 3   9Feb2024

   JOB DONE.