     Program PWSCF v.7.1 starts on  4Mar2024 at 16: 8: 0

     Reading input from espresso.pwi
Warning: card &CELL ignored
Warning: card    CELL_DYNAMICS    = 'BFGS' ignored
Warning: card / ignored

     Current dimensions of program PWSCF are:
     Max number of different atomic species (ntypx) = 10
     Max number of k-points (npk) =  40000
     Max angular momentum in pseudopotentials (lmaxx) =  4
     file Pb.pbe-dn-kjpaw_psl.1.0.0.UPF: wavefunction(s)  6S 6P 5D renormalized
     file I.pbe-dn-kjpaw_psl.1.0.0.UPF: wavefunction(s)  5S 5P renormalized

     IMPORTANT: XC functional enforced from input :
     Exchange-correlation= BEEF-VDW
                           (   1   4  43  14   2   0   0)
     Any further DFT definition will be discarded
     Please, verify this is what you really want

     R & G space division:  proc/nbgrp/npool/nimage =     256
     wavefunctions fft division:  task group distribution
                                  #TG    x Z-proc =       8     32
     Subspace diagonalization in iterative solution of the eigenvalue problem:
     a serial algorithm will be used

     Using Pencil Decomposition

     bravais-lattice index     =            4
     lattice parameter (alat)  =      35.6120  a.u.
     unit-cell volume          =   45937.3577 (a.u.)^3
     number of atoms/cell      =          144
     number of atomic types    =            2
     number of electrons       =      2301.00
     number of Kohn-Sham states=         1381
     kinetic-energy cutoff     =      70.0000  Ry
     charge density cutoff     =     350.0000  Ry
     scf convergence threshold =      1.0E-07
     mixing beta               =       0.7000
     number of iterations used =            8  plain     mixing
     energy convergence thresh.=      1.0E-04
     force convergence thresh. =      1.0E-03
     Exchange-correlation= BEEF-VDW
                           (   1   4  43  14   2   0   0)
     nstep                     =           50

     celldm(1)=  35.612033  celldm(2)=   0.000000  celldm(3)=   1.174479
     celldm(4)=   0.000000  celldm(5)=   0.000000  celldm(6)=   0.000000

     crystal axes: (cart. coord. in units of alat)
               a(1) = (   1.000000   0.000000   0.000000 )
               a(2) = (  -0.500000   0.866025   0.000000 )
               a(3) = (   0.000000   0.000000   1.174479 )

     reciprocal axes: (cart. coord. in units 2 pi/alat)
               b(1) = (  1.000000  0.577350 -0.000000 )
               b(2) = (  0.000000  1.154701  0.000000 )
               b(3) = (  0.000000 -0.000000  0.851442 )

     PseudoPot. # 1 for Pb read from file:
     //group///packages/espresso/pseudo/psl_1.0.0/pslibrary.1.0.0/pbe/PSEUDOPOTENTIALS/Pb.pbe-dn-kjpaw_psl.1.0.0.UPF
     MD5 check sum: 39ab5b8a6bbd56b7735ad9f188aac93a
     Pseudo is Projector augmented-wave + core cor, Zval = 14.0
     Generated using 'atomic' code by A. Dal Corso  v.7.1
     Shape of augmentation charge: PSQ
     Using radial grid of 1281 points,  6 beta functions with:
                l(1) =   0
                l(2) =   0
                l(3) =   1
                l(4) =   1
                l(5) =   2
                l(6) =   2
     Q(r) pseudized with 0 coefficients

     PseudoPot. # 2 for I  read from file:
     //group///packages/espresso/pseudo/psl_1.0.0/pslibrary.1.0.0/pbe/PSEUDOPOTENTIALS/I.pbe-dn-kjpaw_psl.1.0.0.UPF
     MD5 check sum: bfa8781bc1224d19af3f3980e3fab11e
     Pseudo is Projector augmented-wave + core cor, Zval = 17.0
     Generated using 'atomic' code by A. Dal Corso  v.7.1
     Shape of augmentation charge: PSQ
     Using radial grid of 1247 points,  6 beta functions with:
                l(1) =   0
                l(2) =   0
                l(3) =   1
                l(4) =   1
                l(5) =   2
                l(6) =   2
     Q(r) pseudized with 0 coefficients

     atomic species   valence    mass     pseudopotential
        Pb            14.00   207.20000     Pb( 1.00)
        I             17.00   126.90447     I ( 1.00)

     No symmetry found

                                    s                        frac. trans.

      isym =  1     identity

 cryst.   s( 1) = (     1          0          0      )
                  (     0          1          0      )
                  (     0          0          1      )

 cart.    s( 1) = (  1.0000000  0.0000000  0.0000000 )
                  (  0.0000000  1.0000000  0.0000000 )
                  (  0.0000000  0.0000000  1.0000000 )

     point group C_1 (1)
     there are  1 classes
     the character table:

       E
A      1.00

     the symmetry operations in each class and the name of the first element:

     E        1
          identity

   Cartesian axes

     site n.     atom                  positions (alat units)
         1           Pb  tau(   1) = (   0.1250136   0.2164827   1.1744753  )
         2           Pb  tau(   2) = (   0.1250034   0.2164918   0.3914896  )
         3           Pb  tau(   3) = (   0.1250085   0.2164873   0.7829825  )
         4           Pb  tau(   4) = (   0.0000128   0.4329881   1.1744712  )
         5           Pb  tau(   5) = (   0.0000026   0.4329971   0.3914855  )
         6           Pb  tau(   6) = (   0.0000077   0.4329926   0.7829784  )
         7           Pb  tau(   7) = (  -0.1249881   0.6494934   1.1744671  )
         8           Pb  tau(   8) = (  -0.1249983   0.6495025   0.3914814  )
         9           Pb  tau(   9) = (  -0.1249932   0.6494980   0.7829742  )
        10           Pb  tau(  10) = (  -0.2499889   0.8659988   1.1744630  )
        11           Pb  tau(  11) = (  -0.2499991   0.8660078   0.3914773  )
        12           Pb  tau(  12) = (  -0.2499940   0.8660033   0.7829701  )
        13           Pb  tau(  13) = (   0.3750136   0.2164818   1.1744786  )
        14           Pb  tau(  14) = (   0.3750034   0.2164908   0.3914929  )
        15           Pb  tau(  15) = (   0.3750085   0.2164863   0.7829857  )
        16           Pb  tau(  16) = (   0.2500128   0.4329871   1.1744745  )
        17           Pb  tau(  17) = (   0.2500026   0.4329962   0.3914888  )
        18           Pb  tau(  18) = (   0.2500077   0.4329916   0.7829816  )
        19           Pb  tau(  19) = (   0.1250119   0.6494925   1.1744703  )
        20           Pb  tau(  20) = (   0.1250017   0.6495015   0.3914847  )
        21           Pb  tau(  21) = (   0.1250068   0.6494970   0.7829775  )
        22           Pb  tau(  22) = (   0.0000111   0.8659978   1.1744662  )
        23           Pb  tau(  23) = (   0.0000009   0.8660069   0.3914805  )
        24           Pb  tau(  24) = (   0.0000060   0.8660024   0.7829734  )
        25           Pb  tau(  25) = (   0.6250136   0.2164808   1.1744818  )
        26           Pb  tau(  26) = (   0.6250034   0.2164898   0.3914962  )
        27           Pb  tau(  27) = (   0.6250085   0.2164853   0.7829890  )
        28           Pb  tau(  28) = (   0.5000128   0.4329862   1.1744777  )
        29           Pb  tau(  29) = (   0.5000026   0.4329952   0.3914920  )
        30           Pb  tau(  30) = (   0.5000077   0.4329907   0.7829849  )
        31           Pb  tau(  31) = (   0.3750119   0.6494915   1.1744736  )
        32           Pb  tau(  32) = (   0.3750017   0.6495006   0.3914879  )
        33           Pb  tau(  33) = (   0.3750068   0.6494960   0.7829808  )
        34           Pb  tau(  34) = (   0.2500111   0.8659969   1.1744695  )
        35           Pb  tau(  35) = (   0.2500009   0.8660059   0.3914838  )
        36           Pb  tau(  36) = (   0.2500060   0.8660014   0.7829766  )
        37           Pb  tau(  37) = (   0.8750136   0.2164798   1.1744851  )
        38           Pb  tau(  38) = (   0.8750034   0.2164889   0.3914994  )
        39           Pb  tau(  39) = (   0.8750085   0.2164844   0.7829923  )
        40           Pb  tau(  40) = (   0.7500128   0.4329852   1.1744810  )
        41           Pb  tau(  41) = (   0.7500026   0.4329942   0.3914953  )
        42           Pb  tau(  42) = (   0.7500077   0.4329897   0.7829881  )
        43           Pb  tau(  43) = (   0.6250119   0.6494906   1.1744769  )
        44           Pb  tau(  44) = (   0.6250017   0.6494996   0.3914912  )
        45           Pb  tau(  45) = (   0.6250068   0.6494951   0.7829840  )
        46           Pb  tau(  46) = (   0.5000111   0.8659959   1.1744727  )
        47           Pb  tau(  47) = (   0.5000009   0.8660050   0.3914870  )
        48           Pb  tau(  48) = (   0.5000060   0.8660004   0.7829799  )
        49           I   tau(  49) = (   0.1250105   0.0721505   0.6824253  )
        50           I   tau(  50) = (   0.1250156   0.0721459   1.0739182  )
        51           I   tau(  51) = (   0.0000045   0.2886603   0.2909283  )
        52           I   tau(  52) = (   0.0000096   0.2886558   0.6824212  )
        53           I   tau(  53) = (   0.0000147   0.2886513   1.0739140  )
        54           I   tau(  54) = (  -0.1249963   0.5051657   0.2909242  )
        55           I   tau(  55) = (  -0.1249912   0.5051612   0.6824171  )
        56           I   tau(  56) = (  -0.1249861   0.5051566   1.0739099  )
        57           I   tau(  57) = (  -0.2499971   0.7216710   0.2909201  )
        58           I   tau(  58) = (  -0.2499920   0.7216665   0.6824129  )
        59           I   tau(  59) = (  -0.2499869   0.7216620   1.0739058  )
        60           I   tau(  60) = (   0.3750054   0.0721540   0.2909357  )
[...]
       130           I   tau( 130) = (   0.1250009   0.7938394   0.4920425  )
       131           I   tau( 131) = (   0.1250060   0.7938348   0.8835353  )
       132           I   tau( 132) = (   0.7499983   0.1443268   0.1005653  )
       133           I   tau( 133) = (   0.7500034   0.1443223   0.4920581  )
       134           I   tau( 134) = (   0.7500085   0.1443178   0.8835509  )
       135           I   tau( 135) = (   0.6249975   0.3608322   0.1005611  )
       136           I   tau( 136) = (   0.6250026   0.3608277   0.4920540  )
       137           I   tau( 137) = (   0.6250077   0.3608232   0.8835468  )
       138           I   tau( 138) = (   0.4999966   0.5773376   0.1005570  )
       139           I   tau( 139) = (   0.5000017   0.5773330   0.4920499  )
       140           I   tau( 140) = (   0.5000068   0.5773285   0.8835427  )
       141           I   tau( 141) = (   0.3749958   0.7938429   0.1005529  )
       142           I   tau( 142) = (   0.3750009   0.7938384   0.4920457  )
       143           I   tau( 143) = (   0.3750060   0.7938339   0.8835386  )
       144           Pb  tau( 144) = (   0.1250054   0.0721550   0.2909325  )

   Crystallographic axes

     site n.     atom                  positions (cryst. coord.)
         1           Pb  tau(   1) = (  0.2500000  0.2499727  0.9999973  )
         2           Pb  tau(   2) = (  0.2499950  0.2499832  0.3333306  )
         3           Pb  tau(   3) = (  0.2499975  0.2499780  0.6666639  )
         4           Pb  tau(   4) = (  0.2499986  0.4999716  0.9999938  )
         5           Pb  tau(   5) = (  0.2499936  0.4999820  0.3333271  )
         6           Pb  tau(   6) = (  0.2499961  0.4999768  0.6666604  )
[...]
     atom   55 type  2   force =     0.00000000    0.00000000    0.00000000
     atom   56 type  2   force =     0.00000000    0.00000000    0.00000000
     atom   57 type  2   force =     0.00000000    0.00000000    0.00000000
     atom   58 type  2   force =     0.00000000    0.00000000    0.00000000
     atom   59 type  2   force =     0.00000000    0.00000000    0.00000000
     atom   60 type  2   force =     0.00000000    0.00000000    0.00000000
[...]
     atom  130 type  2   force =     0.00000000    0.00000000    0.00000000
     atom  131 type  2   force =     0.00000000    0.00000000    0.00000000
     atom  132 type  2   force =     0.00000000    0.00000000    0.00000000
     atom  133 type  2   force =     0.00000000    0.00000000    0.00000000
     atom  134 type  2   force =     0.00000000    0.00000000    0.00000000
     atom  135 type  2   force =     0.00000000    0.00000000    0.00000000
     atom  136 type  2   force =     0.00000000    0.00000000    0.00000000
     atom  137 type  2   force =     0.00000000    0.00000000    0.00000000
     atom  138 type  2   force =     0.00000000    0.00000000    0.00000000
     atom  139 type  2   force =     0.00000000    0.00000000    0.00000000
     atom  140 type  2   force =     0.00000000    0.00000000    0.00000000
     atom  141 type  2   force =     0.00000000    0.00000000    0.00000000
     atom  142 type  2   force =     0.00000000    0.00000000    0.00000000
     atom  143 type  2   force =     0.00000000    0.00000000    0.00000000
     atom  144 type  1   force =     0.00000000    0.00000000    0.00000000
     The SCF correction term to forces
     atom    1 type  1   force =     0.00000002    0.00000013    0.00001245
     atom    2 type  1   force =     0.00000244   -0.00005839   -0.00001519
     atom    3 type  1   force =     0.00000074   -0.00000949   -0.00000746
     atom    4 type  1   force =     0.00000686    0.00000123   -0.00000241
     atom    5 type  1   force =    -0.00001530    0.00000064   -0.00002080
     atom    6 type  1   force =    -0.00001343   -0.00001103    0.00001782
     atom    7 type  1   force =     0.00000278    0.00001117    0.00000101
     atom    8 type  1   force =    -0.00001720    0.00001289   -0.00001621
     atom    9 type  1   force =    -0.00001852    0.00000146    0.00001203
     atom   10 type  1   force =     0.00000574   -0.00000389    0.00001747
     atom   11 type  1   force =    -0.00002965    0.00000629   -0.00001701
     atom   12 type  1   force =    -0.00000217   -0.00000131   -0.00001552
     atom   13 type  1   force =    -0.00000625   -0.00000765   -0.00000523
     atom   14 type  1   force =    -0.00001218   -0.00002295    0.00000360
     atom   15 type  1   force =     0.00000671   -0.00000127   -0.00000320
     atom   16 type  1   force =    -0.00000697    0.00000056   -0.00000241
     atom   17 type  1   force =     0.00001500   -0.00000094   -0.00002085
     atom   18 type  1   force =     0.00001327   -0.00001212    0.00001786
     atom   19 type  1   force =    -0.00000055    0.00000353    0.00000451
     atom   20 type  1   force =    -0.00000168    0.00000979   -0.00003819
     atom   21 type  1   force =    -0.00000091    0.00000496    0.00002671
     atom   22 type  1   force =    -0.00000590   -0.00000801    0.00000096
     atom   23 type  1   force =    -0.00001303    0.00000697   -0.00001511
     atom   24 type  1   force =    -0.00000674    0.00001488    0.00001164
     atom   25 type  1   force =    -0.00000038   -0.00001484   -0.00001161
     atom   26 type  1   force =    -0.00000071   -0.00001619    0.00001202
     atom   27 type  1   force =    -0.00000013    0.00000894    0.00000322
     atom   28 type  1   force =    -0.00001011    0.00000713   -0.00001127
     atom   29 type  1   force =    -0.00000654    0.00000882    0.00001031
     atom   30 type  1   force =     0.00001205   -0.00000501    0.00000401
     atom   31 type  1   force =    -0.00000281    0.00001058    0.00000027
     atom   32 type  1   force =     0.00001670    0.00000944   -0.00001675
     atom   33 type  1   force =     0.00001886    0.00000118    0.00001296
     atom   34 type  1   force =     0.00000478   -0.00000789    0.00000029
     atom   35 type  1   force =     0.00000862    0.00000806   -0.00001553
     atom   36 type  1   force =     0.00000575    0.00001555    0.00001269
     atom   37 type  1   force =     0.00000659   -0.00000715   -0.00000538
     atom   38 type  1   force =     0.00001067   -0.00001998    0.00000344
     atom   39 type  1   force =    -0.00000750   -0.00000076   -0.00000242
     atom   40 type  1   force =     0.00001015    0.00000771   -0.00001135
     atom   41 type  1   force =     0.00000674    0.00001008    0.00001069
     atom   42 type  1   force =    -0.00001184   -0.00000414    0.00000410
     atom   43 type  1   force =     0.00000069    0.00001019   -0.00000336
     atom   44 type  1   force =     0.00000231    0.00003350    0.00000587
     atom   45 type  1   force =     0.00000062   -0.00000226   -0.00000766
     atom   46 type  1   force =    -0.00000469   -0.00000343    0.00001626
     atom   47 type  1   force =     0.00003468    0.00000662   -0.00001661
     atom   48 type  1   force =     0.00000342   -0.00000145   -0.00001387
     atom   49 type  2   force =     0.00000206   -0.00001209   -0.00003099
     atom   50 type  2   force =     0.00000037   -0.00000294    0.00001651
     atom   51 type  2   force =    -0.00000188   -0.00002106   -0.00002366
     atom   52 type  2   force =    -0.00001308   -0.00002530   -0.00000389
     atom   53 type  2   force =    -0.00000193    0.00000424    0.00000754
     atom   54 type  2   force =     0.00000624    0.00001795   -0.00000868
     atom   55 type  2   force =    -0.00003097   -0.00000770    0.00000047
     atom   56 type  2   force =     0.00000441    0.00000628   -0.00000334
     atom   57 type  2   force =    -0.00001157    0.00003528   -0.00000065
     atom   58 type  2   force =    -0.00002220    0.00000680   -0.00001773
     atom   59 type  2   force =     0.00000642   -0.00000258    0.00000880
     atom   60 type  2   force =    -0.00003191   -0.00001651   -0.00000529
[...]
     atom  130 type  2   force =    -0.00000234    0.00003243   -0.00001439
     atom  131 type  2   force =    -0.00000101    0.00001273    0.00002879
     atom  132 type  2   force =     0.00001308   -0.00002202   -0.00000010
     atom  133 type  2   force =     0.00001282   -0.00000001    0.00000777
     atom  134 type  2   force =    -0.00000305    0.00000947    0.00000749
     atom  135 type  2   force =    -0.00000007    0.00000021   -0.00000109
     atom  136 type  2   force =    -0.00000012    0.00000091    0.00003408
     atom  137 type  2   force =     0.00000003   -0.00000093   -0.00001059
     atom  138 type  2   force =    -0.00000738    0.00002484    0.00000182
     atom  139 type  2   force =     0.00001963    0.00002087    0.00000634
     atom  140 type  2   force =     0.00001076   -0.00000539    0.00000711
     atom  141 type  2   force =     0.00000665    0.00000429    0.00000464
     atom  142 type  2   force =     0.00003121    0.00001716   -0.00000765
     atom  143 type  2   force =     0.00000289    0.00000254    0.00001763
     atom  144 type  1   force =     0.00000405   -0.00002241    0.00002074

     Total force =     0.017740     Total SCF correction =     0.000280

     Computing stress (Cartesian axis) and pressure

[...]

          total   stress  (Ry/bohr**3)                   (kbar)     P=        1.11
   0.00000603   0.00000002  -0.00000003            0.89        0.00       -0.00
   0.00000002   0.00000605   0.00000002            0.00        0.89        0.00
  -0.00000003   0.00000002   0.00001060           -0.00        0.00        1.56

     kinetic stress (kbar)  15039.73      0.00     -0.00
                                0.00  15039.73      0.00
                               -0.00      0.00  15051.73

     local   stress (kbar)  -7373.40     -0.31      0.31
                               -0.31  -7374.04     -0.27
                                0.31     -0.27   1392.93

     nonloc. stress (kbar)  -1144.97      0.00     -0.00
                                0.00  -1144.97      0.00
                               -0.00      0.00  -1149.66

     hartree stress (kbar)  11937.64      0.12     -0.12
                                0.12  11937.88      0.10
                               -0.12      0.10   7983.49

     exc-cor stress (kbar)   6922.26      0.00     -0.00
                                0.00   6922.26      0.00
                               -0.00      0.00   6921.29

     corecor stress (kbar) -11275.57     -0.00      0.00
                               -0.00 -11275.57     -0.00
                                0.00     -0.00 -11275.54

     ewald   stress (kbar) -14187.73      0.19     -0.18
                                0.19 -14187.33      0.17
                               -0.18      0.17 -19006.88

     hubbard stress (kbar)      0.00      0.00      0.00
                                0.00      0.00      0.00
                                0.00      0.00      0.00

     DFT-D   stress (kbar)      0.00      0.00      0.00
                                0.00      0.00      0.00
                                0.00      0.00      0.00

     XDM     stress (kbar)      0.00      0.00      0.00
                                0.00      0.00      0.00
                                0.00      0.00      0.00

     dft-nl  stress (kbar)     82.93     -0.00      0.00
                               -0.00     82.93     -0.00
                                0.00     -0.00     84.19

     TS-vdW  stress (kbar)      0.00      0.00      0.00
                                0.00      0.00      0.00
                                0.00      0.00      0.00

     MDB     stress (kbar)      0.00      0.00      0.00
                                0.00      0.00      0.00
                                0.00      0.00      0.00

     3D-RISM stress (kbar)      0.00      0.00      0.00
                                0.00      0.00      0.00
                                0.00      0.00      0.00

     Energy error            =      6.6E-04 Ry
     Gradient error          =      3.8E-03 Ry/Bohr

     number of scf cycles    =  15
     number of bfgs steps    =  14

     energy             old  =  -97466.8737803908 Ry
     energy             new  =  -97466.8744361259 Ry

     CASE: energy            _new < energy            _old

     new trust radius        =       0.0440056368 bohr
     new conv_thr            =       0.0000000038 Ry

ATOMIC_POSITIONS (angstrom)
Pb            2.3558095773        4.0812384092       22.1319424534
Pb            2.3559691939        3.8654971489        7.4158779562
Pb            2.3558652878        4.0817723353       14.7542761310
Pb            0.0021265311        8.1641043983       22.1336820922
Pb            0.0244574345        8.1571488696        7.3996919821
Pb            0.0009993485        8.1628654291       14.7532401194
Pb           -2.3507509966       12.2393888565       22.1336433115
Pb           -2.3455834712       12.2623190885        7.3996636037
Pb           -2.3523098361       12.2388960005       14.7532131328
Pb           -4.7096988681       16.3191795524       22.1319424852
Pb           -4.8964625890       16.4271074711        7.4159337751
Pb           -4.7092010518       16.3188695028       14.7541921749
Pb            7.0740444377        4.0836708223       22.1402608621
Pb            7.0784617341        4.0862511562        7.3756521606
Pb            7.0678803546        4.0800641973       14.7532915185
Pb            4.7094285082        8.1640521665       22.1336452708
Pb            4.6869566810        8.1569512721        7.3996667028
Pb            4.7105424987        8.1627739602       14.7532159637
Pb            2.3557120987       12.2398146029       22.1314529994
Pb            2.3556672776       12.2398079973        7.3712037446
Pb            2.3556054410       12.2396737190       14.7538013274
Pb            0.0028576334       16.3160709945       22.1336088561
Pb           -0.0145328841       16.3002091285        7.3995673129
Pb            0.0023661452       16.3175619406       14.7530988462
Pb           11.7782379684        4.0723985346       22.1412634348
Pb           11.7781293553        4.0721559232        7.3692107590
Pb           11.7782534135        4.0790034610       14.7528468639
Pb            9.4163842246        8.1633083060       22.1412378926
Pb            9.4161153406        8.1633018638        7.3692689222
Pb            9.4221494704        8.1599159657       14.7529104071
Pb            7.0622628540       12.2393032642       22.1336240403
Pb            7.0569248544       12.2621190198        7.3995967891
Pb            7.0638897812       12.2387904755       14.7533113414
Pb            4.7085535690       16.3160603330       22.1336466723
Pb            4.7256103058       16.3001282689        7.3995729895
Pb            4.7090092053       16.3175808652       14.7532072546
Pb           16.4824752775        4.0837938497       22.1402371822
Pb           16.4779956963        4.0863666332        7.3757906640
Pb           16.4888661947        4.0802849943       14.7534924680
Pb           14.1402328967        8.1633966413       22.1412906898
Pb           14.1404730169        8.1635151167        7.3693459644
Pb           14.1346032245        8.1600849496       14.7529666482
Pb           11.7783659134       12.2316870263       22.1401865941
Pb           11.7783090711       12.2265219877        7.3756964289
Pb           11.7785199983       12.2387801055       14.7535136180
Pb            9.4213828991       16.3191987566       22.1319131064
Pb            9.6083709168       16.4271021266        7.4158907181
Pb            9.4210505238       16.3189215489       14.7544080305
I             2.3558737045        1.3597996921       12.8643007078
I             2.3558182091        1.3597741872       20.2496516166
I             0.0336585233        5.3953509271        5.5112113297
I             0.0009668309        5.4404587071       12.8678331513
I            -0.0005212878        5.4353662019       20.2482269553
I            -2.3616281947        9.5163166830        5.4920676517
I            -2.3547739219        9.5202301425       12.8669388084
I            -2.3555535720        9.5198821898       20.2449535812
I            -4.7327378243       13.6512581245        5.5111691682
I            -4.7100386570       13.6004116679       12.8678186823
I            -4.7153158745       13.6016445146       20.2481677819
I             7.0119884148        1.3528797524        5.5109371382
[...]
I             2.3552214663       14.9658143287        9.2583216310
I             2.3556544463       14.9624026745       16.6442163536
I            14.1313979290        2.7223024247        1.8878833221
I            14.1365054169        2.7195188176        9.2678930178
I            14.1345367390        2.7191465433       16.6428560608
I            11.7783373942        6.7997149295        1.8847081363
I            11.7782602950        6.7998100042        9.2645886825
I            11.7782279061        6.7998556746       16.6453642729
I             9.4237492470       10.8762142948        1.8877101903
I             9.4238788469       10.8823742098        9.2677300743
I             9.4224830138       10.8807126546       16.6428557302
I             7.0649708952       14.9587035418        1.8851254273
I             6.9665068823       14.9019972677        9.2943040836
I             7.0682077694       14.9605521029       16.6428343859
Pb            2.3555376364        1.3595822449        4.7625754078

     Writing config-only to output data dir ./PbI2.save/
     NEW-OLD atomic charge density approx. for the potential

     Check: negative core charge=   -0.000001

[...]

     Self-consistent Calculation

[...]

     Threshold (ethr) on eigenvalues was too large:
     Diagonalizing with lowered threshold

     Davidson diagonalization with overlap

[...]

     ethr =  3.31E-13,  avg # of iterations = 19.0

     Non-local corr. energy    =      68.72635379 Ry

     total energy              =  -97466.87503239 Ry
     estimated scf accuracy    <          5.0E-09 Ry

     iteration # 15     ecut=    70.00 Ry     beta= 0.70
     Davidson diagonalization with overlap

     max_seconds     =  154800.00
     Calculation stopped in k-point loop, point #     1
     Calculation stopped in scf loop at iteration #    14

     Writing config to output data dir ./PbI2.save/
     Message from routine punch:
     wavefunctions written to file

     General routines

     Parallel routines

     PAW routines

   This run was terminated on:  11:16:12   6Mar2024

   JOB DONE.