     Program PWSCF v.7.1 starts on 18Mar2024 at 18:47:17

     Reading input from espresso.pwi
Warning: card &CELL ignored
Warning: card    CELL_DYNAMICS    = 'BFGS' ignored
Warning: card / ignored

     Current dimensions of program PWSCF are:
     Max number of different atomic species (ntypx) = 10
     Max number of k-points (npk) =  40000
     Max angular momentum in pseudopotentials (lmaxx) =  4
     file Pb.pbe-dn-kjpaw_psl.1.0.0.UPF: wavefunction(s)  6S 6P 5D renormalized
     file I.pbe-dn-kjpaw_psl.1.0.0.UPF: wavefunction(s)  5S 5P renormalized

     IMPORTANT: XC functional enforced from input :
     Exchange-correlation= BEEF-VDW
                           (   1   4  43  14   2   0   0)
     Any further DFT definition will be discarded
     Please, verify this is what you really want

     R & G space division:  proc/nbgrp/npool/nimage =     256
     wavefunctions fft division:  task group distribution
                                  #TG    x Z-proc =       8     32
     Subspace diagonalization in iterative solution of the eigenvalue problem:
     a serial algorithm will be used

     Using Pencil Decomposition

     bravais-lattice index     =            4
     lattice parameter (alat)  =      35.6120  a.u.
     unit-cell volume          =   45937.3577 (a.u.)^3
     number of atoms/cell      =          144
     number of atomic types    =            2
     number of electrons       =      2299.00
     number of Kohn-Sham states=         1380
     kinetic-energy cutoff     =      70.0000  Ry
     charge density cutoff     =     350.0000  Ry
     scf convergence threshold =      1.0E-07
     mixing beta               =       0.7000
     number of iterations used =            8  plain     mixing
     Exchange-correlation= BEEF-VDW
                           (   1   4  43  14   2   0   0)

     celldm(1)=  35.612033  celldm(2)=   0.000000  celldm(3)=   1.174479
     celldm(4)=   0.000000  celldm(5)=   0.000000  celldm(6)=   0.000000

     crystal axes: (cart. coord. in units of alat)
               a(1) = (   1.000000   0.000000   0.000000 )
               a(2) = (  -0.500000   0.866025   0.000000 )
               a(3) = (   0.000000   0.000000   1.174479 )

     reciprocal axes: (cart. coord. in units 2 pi/alat)
               b(1) = (  1.000000  0.577350 -0.000000 )
               b(2) = (  0.000000  1.154701  0.000000 )
               b(3) = (  0.000000 -0.000000  0.851442 )

     PseudoPot. # 1 for Pb read from file:
     //group///packages/espresso/pseudo/psl_1.0.0/pslibrary.1.0.0/pbe/PSEUDOPOTENTIALS/Pb.pbe-dn-kjpaw_psl.1.0.0.UPF
     MD5 check sum: 39ab5b8a6bbd56b7735ad9f188aac93a
     Pseudo is Projector augmented-wave + core cor, Zval = 14.0
     Generated using 'atomic' code by A. Dal Corso  v.7.1
     Shape of augmentation charge: PSQ
     Using radial grid of 1281 points,  6 beta functions with:
                l(1) =   0
                l(2) =   0
                l(3) =   1
                l(4) =   1
                l(5) =   2
                l(6) =   2
     Q(r) pseudized with 0 coefficients

     PseudoPot. # 2 for I  read from file:
     //group///packages/espresso/pseudo/psl_1.0.0/pslibrary.1.0.0/pbe/PSEUDOPOTENTIALS/I.pbe-dn-kjpaw_psl.1.0.0.UPF
     MD5 check sum: bfa8781bc1224d19af3f3980e3fab11e
     Pseudo is Projector augmented-wave + core cor, Zval = 17.0
     Generated using 'atomic' code by A. Dal Corso  v.7.1
     Shape of augmentation charge: PSQ
     Using radial grid of 1247 points,  6 beta functions with:
                l(1) =   0
                l(2) =   0
                l(3) =   1
                l(4) =   1
                l(5) =   2
                l(6) =   2
     Q(r) pseudized with 0 coefficients

     atomic species   valence    mass     pseudopotential
        Pb            14.00   207.20000     Pb( 1.00)
        I             17.00   126.90447     I ( 1.00)

     No symmetry found

                                    s                        frac. trans.

      isym =  1     identity

 cryst.   s( 1) = (     1          0          0      )
                  (     0          1          0      )
                  (     0          0          1      )

 cart.    s( 1) = (  1.0000000  0.0000000  0.0000000 )
                  (  0.0000000  1.0000000  0.0000000 )
                  (  0.0000000  0.0000000  1.0000000 )

     point group C_1 (1)
     there are  1 classes
     the character table:

       E
A      1.00

     the symmetry operations in each class and the name of the first element:

     E        1
          identity

   Cartesian axes

     site n.     atom                  positions (alat units)
         1           Pb  tau(   1) = (   0.1250136   0.2164827   1.1744753  )
         2           Pb  tau(   2) = (   0.1250034   0.2164918   0.3914896  )
         3           Pb  tau(   3) = (   0.1250085   0.2164873   0.7829825  )
         4           Pb  tau(   4) = (   0.0000128   0.4329881   1.1744712  )
         5           Pb  tau(   5) = (   0.0000026   0.4329971   0.3914855  )
         6           Pb  tau(   6) = (   0.0000077   0.4329926   0.7829784  )
         7           Pb  tau(   7) = (  -0.1249881   0.6494934   1.1744671  )
         8           Pb  tau(   8) = (  -0.1249983   0.6495025   0.3914814  )
         9           Pb  tau(   9) = (  -0.1249932   0.6494980   0.7829742  )
        10           Pb  tau(  10) = (  -0.2499889   0.8659988   1.1744630  )
        11           Pb  tau(  11) = (  -0.2499991   0.8660078   0.3914773  )
        12           Pb  tau(  12) = (  -0.2499940   0.8660033   0.7829701  )
        13           Pb  tau(  13) = (   0.3750136   0.2164818   1.1744786  )
        14           Pb  tau(  14) = (   0.3750034   0.2164908   0.3914929  )
        15           Pb  tau(  15) = (   0.3750085   0.2164863   0.7829857  )
        16           Pb  tau(  16) = (   0.2500128   0.4329871   1.1744745  )
        17           Pb  tau(  17) = (   0.2500026   0.4329962   0.3914888  )
        18           Pb  tau(  18) = (   0.2500077   0.4329916   0.7829816  )
        19           Pb  tau(  19) = (   0.1250119   0.6494925   1.1744703  )
        20           Pb  tau(  20) = (   0.1250017   0.6495015   0.3914847  )
        21           Pb  tau(  21) = (   0.1250068   0.6494970   0.7829775  )
        22           Pb  tau(  22) = (   0.0000111   0.8659978   1.1744662  )
        23           Pb  tau(  23) = (   0.0000009   0.8660069   0.3914805  )
        24           Pb  tau(  24) = (   0.0000060   0.8660024   0.7829734  )
        25           Pb  tau(  25) = (   0.6250136   0.2164808   1.1744818  )
        26           Pb  tau(  26) = (   0.6250034   0.2164898   0.3914962  )
        27           Pb  tau(  27) = (   0.6250085   0.2164853   0.7829890  )
        28           Pb  tau(  28) = (   0.5000128   0.4329862   1.1744777  )
        29           Pb  tau(  29) = (   0.5000026   0.4329952   0.3914920  )
        30           Pb  tau(  30) = (   0.5000077   0.4329907   0.7829849  )
        31           Pb  tau(  31) = (   0.3750119   0.6494915   1.1744736  )
        32           Pb  tau(  32) = (   0.3750017   0.6495006   0.3914879  )
        33           Pb  tau(  33) = (   0.3750068   0.6494960   0.7829808  )
        34           Pb  tau(  34) = (   0.2500111   0.8659969   1.1744695  )
        35           Pb  tau(  35) = (   0.2500009   0.8660059   0.3914838  )
        36           Pb  tau(  36) = (   0.2500060   0.8660014   0.7829766  )
        37           Pb  tau(  37) = (   0.8750136   0.2164798   1.1744851  )
        38           Pb  tau(  38) = (   0.8750034   0.2164889   0.3914994  )
        39           Pb  tau(  39) = (   0.8750085   0.2164844   0.7829923  )
        40           Pb  tau(  40) = (   0.7500128   0.4329852   1.1744810  )
        41           Pb  tau(  41) = (   0.7500026   0.4329942   0.3914953  )
        42           Pb  tau(  42) = (   0.7500077   0.4329897   0.7829881  )
        43           Pb  tau(  43) = (   0.6250119   0.6494906   1.1744769  )
        44           Pb  tau(  44) = (   0.6250017   0.6494996   0.3914912  )
        45           Pb  tau(  45) = (   0.6250068   0.6494951   0.7829840  )
        46           Pb  tau(  46) = (   0.5000111   0.8659959   1.1744727  )
        47           Pb  tau(  47) = (   0.5000009   0.8660050   0.3914870  )
        48           Pb  tau(  48) = (   0.5000060   0.8660004   0.7829799  )
        49           I   tau(  49) = (   0.1250105   0.0721505   0.6824253  )
        50           I   tau(  50) = (   0.1250156   0.0721459   1.0739182  )
        51           I   tau(  51) = (   0.0000045   0.2886603   0.2909283  )
        52           I   tau(  52) = (   0.0000096   0.2886558   0.6824212  )
        53           I   tau(  53) = (   0.0000147   0.2886513   1.0739140  )
        54           I   tau(  54) = (  -0.1249963   0.5051657   0.2909242  )
        55           I   tau(  55) = (  -0.1249912   0.5051612   0.6824171  )
        56           I   tau(  56) = (  -0.1249861   0.5051566   1.0739099  )
        57           I   tau(  57) = (  -0.2499971   0.7216710   0.2909201  )
        58           I   tau(  58) = (  -0.2499920   0.7216665   0.6824129  )
        59           I   tau(  59) = (  -0.2499869   0.7216620   1.0739058  )
        60           I   tau(  60) = (   0.3750054   0.0721540   0.2909357  )
[...]
       130           I   tau( 130) = (   0.1250009   0.7938394   0.4920425  )
       131           I   tau( 131) = (   0.1250060   0.7938348   0.8835353  )
       132           I   tau( 132) = (   0.7499983   0.1443268   0.1005653  )
       133           I   tau( 133) = (   0.7500034   0.1443223   0.4920581  )
       134           I   tau( 134) = (   0.7500085   0.1443178   0.8835509  )
       135           I   tau( 135) = (   0.6249975   0.3608322   0.1005611  )
       136           I   tau( 136) = (   0.6250026   0.3608277   0.4920540  )
       137           I   tau( 137) = (   0.6250077   0.3608232   0.8835468  )
       138           I   tau( 138) = (   0.4999966   0.5773376   0.1005570  )
       139           I   tau( 139) = (   0.5000017   0.5773330   0.4920499  )
       140           I   tau( 140) = (   0.5000068   0.5773285   0.8835427  )
       141           I   tau( 141) = (   0.3749958   0.7938429   0.1005529  )
       142           I   tau( 142) = (   0.3750009   0.7938384   0.4920457  )
       143           I   tau( 143) = (   0.3750060   0.7938339   0.8835386  )
       144           Pb  tau( 144) = (   0.1250054   0.0721550   0.2909325  )

   Crystallographic axes

     site n.     atom                  positions (cryst. coord.)
         1           Pb  tau(   1) = (  0.2500000  0.2499727  0.9999973  )
         2           Pb  tau(   2) = (  0.2499950  0.2499832  0.3333306  )
         3           Pb  tau(   3) = (  0.2499975  0.2499780  0.6666639  )
         4           Pb  tau(   4) = (  0.2499986  0.4999716  0.9999938  )
         5           Pb  tau(   5) = (  0.2499936  0.4999820  0.3333271  )
         6           Pb  tau(   6) = (  0.2499961  0.4999768  0.6666604  )
         7           Pb  tau(   7) = (  0.2499972  0.7499704  0.9999902  )
         8           Pb  tau(   8) = (  0.2499922  0.7499809  0.3333236  )
[...]
     atom   26 type  1   force =     0.00000000    0.00000000    0.00000000
     atom   27 type  1   force =     0.00000000    0.00000000    0.00000000
     atom   28 type  1   force =     0.00000000    0.00000000    0.00000000
     atom   29 type  1   force =     0.00000000    0.00000000    0.00000000
     atom   30 type  1   force =     0.00000000    0.00000000    0.00000000
     atom   31 type  1   force =     0.00000000    0.00000000    0.00000000
     atom   32 type  1   force =     0.00000000    0.00000000    0.00000000
     atom   33 type  1   force =     0.00000000    0.00000000    0.00000000
     atom   34 type  1   force =     0.00000000    0.00000000    0.00000000
     atom   35 type  1   force =     0.00000000    0.00000000    0.00000000
     atom   36 type  1   force =     0.00000000    0.00000000    0.00000000
     atom   37 type  1   force =     0.00000000    0.00000000    0.00000000
     atom   38 type  1   force =     0.00000000    0.00000000    0.00000000
     atom   39 type  1   force =     0.00000000    0.00000000    0.00000000
     atom   40 type  1   force =     0.00000000    0.00000000    0.00000000
     atom   41 type  1   force =     0.00000000    0.00000000    0.00000000
     atom   42 type  1   force =     0.00000000    0.00000000    0.00000000
     atom   43 type  1   force =     0.00000000    0.00000000    0.00000000
     atom   44 type  1   force =     0.00000000    0.00000000    0.00000000
     atom   45 type  1   force =     0.00000000    0.00000000    0.00000000
     atom   46 type  1   force =     0.00000000    0.00000000    0.00000000
     atom   47 type  1   force =     0.00000000    0.00000000    0.00000000
     atom   48 type  1   force =     0.00000000    0.00000000    0.00000000
     atom   49 type  2   force =     0.00000000    0.00000000    0.00000000
     atom   50 type  2   force =     0.00000000    0.00000000    0.00000000
     atom   51 type  2   force =     0.00000000    0.00000000    0.00000000
     atom   52 type  2   force =     0.00000000    0.00000000    0.00000000
     atom   53 type  2   force =     0.00000000    0.00000000    0.00000000
     atom   54 type  2   force =     0.00000000    0.00000000    0.00000000
     atom   55 type  2   force =     0.00000000    0.00000000    0.00000000
     atom   56 type  2   force =     0.00000000    0.00000000    0.00000000
     atom   57 type  2   force =     0.00000000    0.00000000    0.00000000
     atom   58 type  2   force =     0.00000000    0.00000000    0.00000000
     atom   59 type  2   force =     0.00000000    0.00000000    0.00000000
     atom   60 type  2   force =     0.00000000    0.00000000    0.00000000
[...]
     atom  130 type  2   force =     0.00000000    0.00000000    0.00000000
     atom  131 type  2   force =     0.00000000    0.00000000    0.00000000
     atom  132 type  2   force =     0.00000000    0.00000000    0.00000000
     atom  133 type  2   force =     0.00000000    0.00000000    0.00000000
     atom  134 type  2   force =     0.00000000    0.00000000    0.00000000
     atom  135 type  2   force =     0.00000000    0.00000000    0.00000000
     atom  136 type  2   force =     0.00000000    0.00000000    0.00000000
     atom  137 type  2   force =     0.00000000    0.00000000    0.00000000
     atom  138 type  2   force =     0.00000000    0.00000000    0.00000000
     atom  139 type  2   force =     0.00000000    0.00000000    0.00000000
     atom  140 type  2   force =     0.00000000    0.00000000    0.00000000
     atom  141 type  2   force =     0.00000000    0.00000000    0.00000000
     atom  142 type  2   force =     0.00000000    0.00000000    0.00000000
     atom  143 type  2   force =     0.00000000    0.00000000    0.00000000
     atom  144 type  1   force =     0.00000000    0.00000000    0.00000000
     The SCF correction term to forces
     atom    1 type  1   force =    -0.00000032    0.00003424    0.00001192
     atom    2 type  1   force =    -0.00000021    0.00001731    0.00005649
     atom    3 type  1   force =     0.00000008    0.00000052   -0.00004044
     atom    4 type  1   force =     0.00002327    0.00004974    0.00002049
     atom    5 type  1   force =     0.00003960    0.00003601    0.00000557
     atom    6 type  1   force =    -0.00000118    0.00003143   -0.00001182
     atom    7 type  1   force =     0.00005474   -0.00000484    0.00002054
     atom    8 type  1   force =     0.00005102    0.00001613    0.00000560
     atom    9 type  1   force =     0.00002659   -0.00001672   -0.00001186
     atom   10 type  1   force =     0.00002963   -0.00001717    0.00001198
     atom   11 type  1   force =     0.00001506   -0.00000855    0.00005681
     atom   12 type  1   force =     0.00000053   -0.00000026   -0.00004040
     atom   13 type  1   force =    -0.00000231   -0.00000128    0.00000091
     atom   14 type  1   force =    -0.00002118   -0.00001230    0.00003834
     atom   15 type  1   force =     0.00001723    0.00000992   -0.00001862
     atom   16 type  1   force =    -0.00002321    0.00004992    0.00002038
     atom   17 type  1   force =    -0.00003971    0.00003617    0.00000553
     atom   18 type  1   force =     0.00000122    0.00003146   -0.00001163
     atom   19 type  1   force =     0.00000008   -0.00000005    0.00004884
     atom   20 type  1   force =     0.00000003   -0.00000000   -0.00004840
     atom   21 type  1   force =     0.00000008   -0.00000007    0.00000192
     atom   22 type  1   force =     0.00003145   -0.00004511    0.00002063
     atom   23 type  1   force =     0.00001158   -0.00005246    0.00000559
     atom   24 type  1   force =     0.00002779   -0.00001471   -0.00001192
     atom   25 type  1   force =     0.00000007   -0.00003690   -0.00000910
     atom   26 type  1   force =     0.00000009   -0.00003061    0.00003905
     atom   27 type  1   force =    -0.00000006    0.00000523   -0.00001190
     atom   28 type  1   force =    -0.00003201    0.00001863   -0.00000944
     atom   29 type  1   force =    -0.00002640    0.00001552    0.00003903
     atom   30 type  1   force =     0.00000450   -0.00000250   -0.00001160
     atom   31 type  1   force =    -0.00005476   -0.00000490    0.00002050
     atom   32 type  1   force =    -0.00005105    0.00001624    0.00000541
     atom   33 type  1   force =    -0.00002657   -0.00001683   -0.00001167
     atom   34 type  1   force =    -0.00003138   -0.00004513    0.00002078
     atom   35 type  1   force =    -0.00001134   -0.00005237    0.00000552
     atom   36 type  1   force =    -0.00002778   -0.00001478   -0.00001197
     atom   37 type  1   force =     0.00000252   -0.00000129    0.00000121
     atom   38 type  1   force =     0.00002128   -0.00001223    0.00003836
     atom   39 type  1   force =    -0.00001718    0.00000998   -0.00001882
     atom   40 type  1   force =     0.00003197    0.00001852   -0.00000922
     atom   41 type  1   force =     0.00002658    0.00001542    0.00003909
     atom   42 type  1   force =    -0.00000456   -0.00000250   -0.00001184
     atom   43 type  1   force =    -0.00000002    0.00000259    0.00000087
     atom   44 type  1   force =     0.00000004    0.00002420    0.00003832
     atom   45 type  1   force =    -0.00000007   -0.00002005   -0.00001851
     atom   46 type  1   force =    -0.00002966   -0.00001698    0.00001226
     atom   47 type  1   force =    -0.00001524   -0.00000847    0.00005652
     atom   48 type  1   force =    -0.00000048   -0.00000032   -0.00004039
     atom   49 type  2   force =     0.00000001    0.00000011   -0.00007332
     atom   50 type  2   force =    -0.00000016    0.00000012   -0.00000766
     atom   51 type  2   force =     0.00001809    0.00004200    0.00001601
     atom   52 type  2   force =    -0.00000018    0.00000252   -0.00004336
     atom   53 type  2   force =    -0.00000877    0.00003986    0.00001071
     atom   54 type  2   force =     0.00006982    0.00004034    0.00000310
     atom   55 type  2   force =     0.00000986    0.00000563   -0.00000292
     atom   56 type  2   force =     0.00004069    0.00002351    0.00002306
     atom   57 type  2   force =     0.00004590   -0.00000556    0.00001577
     atom   58 type  2   force =     0.00000234   -0.00000133   -0.00004331
     atom   59 type  2   force =     0.00003006   -0.00002789    0.00001031
     atom   60 type  2   force =     0.00002743   -0.00003711    0.00001589
[...]
     atom  130 type  2   force =    -0.00000004   -0.00004258   -0.00003119
     atom  131 type  2   force =    -0.00000001   -0.00003294   -0.00001135
     atom  132 type  2   force =    -0.00000435   -0.00005537   -0.00001873
     atom  133 type  2   force =     0.00000231   -0.00002966    0.00002725
     atom  134 type  2   force =    -0.00001938   -0.00000034   -0.00001833
     atom  135 type  2   force =     0.00000011    0.00000006   -0.00002409
     atom  136 type  2   force =     0.00000022    0.00000017    0.00004622
     atom  137 type  2   force =    -0.00000016    0.00000025   -0.00004439
     atom  138 type  2   force =    -0.00005040    0.00002378   -0.00001896
     atom  139 type  2   force =    -0.00002463    0.00001655    0.00002715
     atom  140 type  2   force =    -0.00001018   -0.00001681   -0.00001807
     atom  141 type  2   force =    -0.00006849   -0.00003943    0.00000309
     atom  142 type  2   force =    -0.00001999   -0.00001143    0.00000554
     atom  143 type  2   force =    -0.00003839   -0.00002248    0.00000010
     atom  144 type  1   force =    -0.00000021    0.00000007    0.00000200

     Total force =     0.004805     Total SCF correction =     0.000550
     SCF correction compared to forces is large: reduce conv_thr to get better values

     Computing stress (Cartesian axis) and pressure

[...]

          total   stress  (Ry/bohr**3)                   (kbar)     P=       -3.42
  -0.00002353  -0.00000000  -0.00000000           -3.46       -0.00       -0.00
  -0.00000000  -0.00002353  -0.00000000           -0.00       -3.46       -0.00
  -0.00000000  -0.00000000  -0.00002262           -0.00       -0.00       -3.33

     kinetic stress (kbar)  15037.82      0.00     -0.00
                                0.00  15037.82      0.00
                               -0.00      0.00  15049.61

     local   stress (kbar)  -7399.38      0.01     -0.00
                                0.01  -7399.29      0.01
                               -0.00      0.01   1365.29

     nonloc. stress (kbar)  -1147.00     -0.00      0.00
                               -0.00  -1147.00     -0.00
                                0.00     -0.00  -1152.06

     hartree stress (kbar)  11946.27     -0.00      0.00
                               -0.00  11946.23     -0.00
                                0.00     -0.00   8000.60

     exc-cor stress (kbar)   6923.44      0.00     -0.00
                                0.00   6923.44     -0.00
                               -0.00     -0.00   6922.34

     corecor stress (kbar) -11275.52     -0.00     -0.00
                               -0.00 -11275.52      0.00
                               -0.00      0.00 -11275.46

     ewald   stress (kbar) -14171.99     -0.00      0.00
                               -0.00 -14172.05     -0.01
                                0.00     -0.01 -18997.86

     hubbard stress (kbar)      0.00      0.00      0.00
                                0.00      0.00      0.00
                                0.00      0.00      0.00

     DFT-D   stress (kbar)      0.00      0.00      0.00
                                0.00      0.00      0.00
                                0.00      0.00      0.00

     XDM     stress (kbar)      0.00      0.00      0.00
                                0.00      0.00      0.00
                                0.00      0.00      0.00

     dft-nl  stress (kbar)     82.92      0.00      0.00
                                0.00     82.92     -0.00
                                0.00     -0.00     84.22

     TS-vdW  stress (kbar)      0.00      0.00      0.00
                                0.00      0.00      0.00
                                0.00      0.00      0.00

     MDB     stress (kbar)      0.00      0.00      0.00
                                0.00      0.00      0.00
                                0.00      0.00      0.00

     3D-RISM stress (kbar)      0.00      0.00      0.00
                                0.00      0.00      0.00
                                0.00      0.00      0.00

[...]

     Non-local corr. energy    =      68.73193578 Ry

 BEEFens 2000 ensemble energies
             -0.578331401740927E+02
             -0.581946838878022E+03
             -0.264871191315976E+03
              0.203276320840657E+03
             -0.444878809975383E+03
             -0.544628362710567E+03
              0.279566754447669E+03
              0.110594492274276E+01
              0.471048897645662E+03
             -0.298189323050151E+02
              0.241332394125716E+03
              0.245492053238683E+02
             -0.185227254998961E+02
             -0.150206719268135E+02
              0.300552180077479E+03
             -0.226519805997125E+03
             -0.444431767719394E+03
             -0.143465713399479E+03
              0.128449292402411E+03
             -0.283655889871443E+01
              0.655421750344638E+03
              0.547007706971084E+03
             -0.336928436779310E+03
              0.116431478926772E+03
             -0.702006921887500E+03
              0.576210841089609E+03
              0.197102166077064E+03
              0.520265921480980E+03
              0.350610137870845E+03
             -0.162759714246723E+03
              0.128353599545674E+03
             -0.229277298056048E+03
              0.958263842670453E+02
              0.348924883885644E+03
              0.375528667409042E+03
             -0.163140727538180E+03
              0.828128065428569E+03
             -0.333383132922696E+03
             -0.221937762955614E+03
              0.331227534969477E+03
              0.146058344587459E+03
              0.251772698916108E+03
             -0.486192973543119E+03
             -0.316025952236860E+02
              0.466435446248441E+03
              0.609708417858868E+03
             -0.619123491295902E+03
              0.396628082377234E+02
              0.214688293645593E+03
              0.138674552750289E+03
              0.241993168684611E+03
              0.531505830967901E+03
             -0.345226744222684E+03
             -0.335079825136685E+03
             -0.466666477466460E+03
             -0.675907243315610E+02
             -0.398108411259716E+03
              0.513975449911709E+02
             -0.573963577217701E+02
             -0.315843409932880E+03
[...]
              0.394404622575758E+03
              0.252623134803444E+03
              0.257503647128130E+03
             -0.476666294438768E+03
             -0.492286238650880E+03
             -0.110967947809523E+03
             -0.440015886336695E+03
              0.698585554921891E+03
              0.588399230833744E+03
              0.277593356514788E+03
              0.765084791783905E+03
             -0.382257774982151E+03
             -0.164699712250927E+03
             -0.237450431720356E+03
              0.661997945201093E+03

 BEEF-vdW xc energy contributions
            1 :    -5983.224852802869
            2 :     5482.204734015679
            3 :    -4628.205372814740
            4 :     3649.253338213841
            5 :    -2759.797499708195
            6 :     2091.462090881301
            7 :    -1671.674495979869
            8 :     1443.871279255012
            9 :    -1310.321865881655
           10 :     1179.049754253794
           11 :    -998.7894545775534
           12 :     769.9896027356908
           13 :    -530.2055578870013
           14 :     325.3229340075150
           15 :    -183.9158575734091
           16 :     106.5260434737093
           17 :    -70.87528247627324
           18 :     46.41971115791512
           19 :    -9.848460466810138
           20 :    -45.22846659252718
           21 :     108.0962676435083
           22 :    -159.6500751762351
           23 :     184.8435723288949
           24 :    -181.6976402082400
           25 :     162.0906986589944
           26 :    -144.7167919337253
           27 :     144.8410113680402
           28 :    -166.4945328175900
           29 :     200.8573473111082
           30 :    -231.3104607085197
           31 :    -515.5901484369897
           32 :    -370.9947788131594

     Writing all to output data dir ./PbI2.save/

     General routines

     Parallel routines

     PAW routines

   This run was terminated on:  19: 4:20  18Mar2024

   JOB DONE.