     Program PWSCF v.7.1 starts on 11Mar2024 at  8:55:16

     Reading input from espresso.pwi
Warning: card &CELL ignored
Warning: card    CELL_DYNAMICS    = 'BFGS' ignored
Warning: card / ignored

     Current dimensions of program PWSCF are:
     Max number of different atomic species (ntypx) = 10
     Max number of k-points (npk) =  40000
     Max angular momentum in pseudopotentials (lmaxx) =  4
     file Ga.pbe-dn-kjpaw_psl.1.0.0.UPF: wavefunction(s)  4S renormalized
     file N.pbe-n-kjpaw_psl.1.0.0.UPF: wavefunction(s)  2S renormalized

     IMPORTANT: XC functional enforced from input :
     Exchange-correlation= BEEF-VDW
                           (   1   4  43  14   2   0   0)
     Any further DFT definition will be discarded
     Please, verify this is what you really want

     K-points division:     npool     =       4
     R & G space division:  proc/nbgrp/npool/nimage =      64
     Subspace diagonalization in iterative solution of the eigenvalue problem:
     a serial algorithm will be used

     Using Slab Decomposition

     bravais-lattice index     =            4
     lattice parameter (alat)  =      30.6565  a.u.
     unit-cell volume          =   24400.9461 (a.u.)^3
     number of atoms/cell      =          299
     number of atomic types    =            2
     number of electrons       =      2695.00
     number of Kohn-Sham states=         1618
     kinetic-energy cutoff     =      70.0000  Ry
     charge density cutoff     =     350.0000  Ry
     scf convergence threshold =      1.0E-07
     mixing beta               =       0.7000
     number of iterations used =            8  plain     mixing
     energy convergence thresh.=      1.0E-04
     force convergence thresh. =      1.0E-03
     Exchange-correlation= BEEF-VDW
                           (   1   4  43  14   2   0   0)
     nstep                     =           50

     celldm(1)=  30.656540  celldm(2)=   0.000000  celldm(3)=   0.977927
     celldm(4)=   0.000000  celldm(5)=   0.000000  celldm(6)=   0.000000

     crystal axes: (cart. coord. in units of alat)
               a(1) = (   1.000000   0.000000   0.000000 )
               a(2) = (  -0.500000   0.866025   0.000000 )
               a(3) = (   0.000000   0.000000   0.977927 )

     reciprocal axes: (cart. coord. in units 2 pi/alat)
               b(1) = (  1.000000  0.577350 -0.000000 )
               b(2) = (  0.000000  1.154701  0.000000 )
               b(3) = (  0.000000 -0.000000  1.022571 )

     PseudoPot. # 1 for Ga read from file:
     /trace/group/acmegroup/atimmins/packages/espresso/pseudo/psl_1.0.0/pslibrary.1.0.0/pbe/PSEUDOPOTENTIALS/Ga.pbe-dn-kjpaw_psl.1.0.0.UPF
     MD5 check sum: cd2a01e492f15b435d17032472d8505c
     Pseudo is Projector augmented-wave + core cor, Zval = 13.0
     Generated using 'atomic' code by A. Dal Corso  v.7.1
     Shape of augmentation charge: PSQ
     Using radial grid of 1205 points,  6 beta functions with:
                l(1) =   0
                l(2) =   0
                l(3) =   1
                l(4) =   1
                l(5) =   2
                l(6) =   2
     Q(r) pseudized with 0 coefficients

     PseudoPot. # 2 for N  read from file:
     /trace/group/acmegroup/atimmins/packages/espresso/pseudo/psl_1.0.0/pslibrary.1.0.0/pbe/PSEUDOPOTENTIALS/N.pbe-n-kjpaw_psl.1.0.0.UPF
     MD5 check sum: f77f775694dac7e2c3fe1c82443d1a16
     Pseudo is Projector augmented-wave + core cor, Zval =  5.0
     Generated using 'atomic' code by A. Dal Corso  v.7.1
     Shape of augmentation charge: PSQ
     Using radial grid of 1085 points,  4 beta functions with:
                l(1) =   0
                l(2) =   0
                l(3) =   1
                l(4) =   1
     Q(r) pseudized with 0 coefficients

     atomic species   valence    mass     pseudopotential
        Ga            13.00    69.72300     Ga( 1.00)
        N              5.00    14.00700     N ( 1.00)

      2 Sym. Ops. (no inversion) found

                                    s                        frac. trans.

      isym =  1     identity

 cryst.   s( 1) = (     1          0          0      )
                  (     0          1          0      )
                  (     0          0          1      )

 cart.    s( 1) = (  1.0000000  0.0000000  0.0000000 )
                  (  0.0000000  1.0000000  0.0000000 )
                  (  0.0000000  0.0000000  1.0000000 )

      isym =  2     inv. 180 deg rotation - cryst. axis [0,1,0]

 cryst.   s( 2) = (     1          1          0      )
                  (     0         -1          0      )
                  (     0          0          1      )

 cart.    s( 2) = (  0.5000000  0.8660254  0.0000000 )
                  (  0.8660254 -0.5000000  0.0000000 )
                  (  0.0000000  0.0000000  1.0000000 )

     point group C_s (m)
     there are  2 classes
     the character table:

       E     s
A'     1.00  1.00
A''    1.00 -1.00

     the symmetry operations in each class and the name of the first element:

     E        1
          identity
     s        2
          inv. 180 deg rotation - cryst. axis [0,1,0]

   Cartesian axes

     site n.     atom                  positions (alat units)
         1           Ga  tau(   1) = (   0.1000001   0.0577350   0.1627148  )
         2           Ga  tau(   2) = (   0.1000001   0.0577350   0.4886906  )
         3           Ga  tau(   3) = (   0.1000001   0.0577350   0.8146665  )
         4           Ga  tau(   4) = (   0.0000001   0.2309401   0.1627148  )
         5           Ga  tau(   5) = (   0.0000001   0.2309401   0.4886906  )
         6           Ga  tau(   6) = (   0.0000001   0.2309401   0.8146665  )
         7           Ga  tau(   7) = (  -0.0999999   0.4041451   0.1627148  )
         8           Ga  tau(   8) = (  -0.0999999   0.4041451   0.4886906  )
         9           Ga  tau(   9) = (  -0.0999999   0.4041451   0.8146665  )
        10           Ga  tau(  10) = (  -0.1999999   0.5773502   0.1627148  )
        11           Ga  tau(  11) = (  -0.1999999   0.5773502   0.4886906  )
        12           Ga  tau(  12) = (  -0.1999999   0.5773502   0.8146665  )
        13           Ga  tau(  13) = (  -0.2999999   0.7505553   0.1627148  )
        14           Ga  tau(  14) = (  -0.2999999   0.7505553   0.4886906  )
        15           Ga  tau(  15) = (  -0.2999999   0.7505553   0.8146665  )
        16           Ga  tau(  16) = (   0.3000001   0.0577350   0.1627148  )
        17           Ga  tau(  17) = (   0.3000001   0.0577350   0.4886906  )
        18           Ga  tau(  18) = (   0.3000001   0.0577350   0.8146665  )
        19           Ga  tau(  19) = (   0.2000001   0.2309401   0.1627148  )
        20           Ga  tau(  20) = (   0.2000001   0.2309401   0.4886906  )
        21           Ga  tau(  21) = (   0.2000001   0.2309401   0.8146665  )
        22           Ga  tau(  22) = (   0.1000001   0.4041451   0.1627148  )
        23           Ga  tau(  23) = (   0.1000001   0.4041451   0.4886906  )
        24           Ga  tau(  24) = (   0.1000001   0.4041451   0.8146665  )
        25           Ga  tau(  25) = (   0.0000001   0.5773502   0.1627148  )
        26           Ga  tau(  26) = (   0.0000001   0.5773502   0.4886906  )
        27           Ga  tau(  27) = (   0.0000001   0.5773502   0.8146665  )
        28           Ga  tau(  28) = (  -0.0999999   0.7505553   0.1627148  )
        29           Ga  tau(  29) = (  -0.0999999   0.7505553   0.4886906  )
        30           Ga  tau(  30) = (  -0.0999999   0.7505553   0.8146665  )
        31           Ga  tau(  31) = (   0.5000001   0.0577350   0.1627148  )
        32           Ga  tau(  32) = (   0.5000001   0.0577350   0.4886906  )
        33           Ga  tau(  33) = (   0.5000001   0.0577350   0.8146665  )
        34           Ga  tau(  34) = (   0.4000001   0.2309401   0.1627148  )
        35           Ga  tau(  35) = (   0.4000001   0.2309401   0.4886906  )
        36           Ga  tau(  36) = (   0.4000001   0.2309401   0.8146665  )
        37           Ga  tau(  37) = (   0.3000001   0.4041451   0.1627148  )
        38           Ga  tau(  38) = (   0.3000001   0.4041451   0.4886906  )
        39           Ga  tau(  39) = (   0.3000001   0.4041451   0.8146665  )
        40           Ga  tau(  40) = (   0.2000001   0.5773502   0.1627148  )
        41           Ga  tau(  41) = (   0.2000001   0.5773502   0.4886906  )
        42           Ga  tau(  42) = (   0.2000001   0.5773502   0.8146665  )
        43           Ga  tau(  43) = (   0.1000001   0.7505553   0.1627148  )
        44           Ga  tau(  44) = (   0.1000001   0.7505553   0.4886906  )
        45           Ga  tau(  45) = (   0.1000001   0.7505553   0.8146665  )
        46           Ga  tau(  46) = (   0.7000001   0.0577350   0.1627148  )
        47           Ga  tau(  47) = (   0.7000001   0.0577350   0.4886906  )
        48           Ga  tau(  48) = (   0.7000001   0.0577350   0.8146665  )
        49           Ga  tau(  49) = (   0.6000001   0.2309401   0.1627148  )
        50           Ga  tau(  50) = (   0.6000001   0.2309401   0.4886906  )
        51           Ga  tau(  51) = (   0.6000001   0.2309401   0.8146665  )
        52           Ga  tau(  52) = (   0.5000001   0.4041451   0.1627148  )
        53           Ga  tau(  53) = (   0.5000001   0.4041451   0.4886906  )
        54           Ga  tau(  54) = (   0.5000001   0.4041451   0.8146665  )
        55           Ga  tau(  55) = (   0.4000001   0.5773502   0.1627148  )
        56           Ga  tau(  56) = (   0.4000001   0.5773502   0.4886906  )
        57           Ga  tau(  57) = (   0.4000001   0.5773502   0.8146665  )
        58           Ga  tau(  58) = (   0.3000001   0.7505553   0.1627148  )
        59           Ga  tau(  59) = (   0.3000001   0.7505553   0.4886906  )
        60           Ga  tau(  60) = (   0.3000001   0.7505553   0.8146665  )
[...]
       285           N   tau( 285) = (   0.7999999   0.1154701   0.1225140  )
       286           N   tau( 286) = (   0.7999999   0.1154701   0.4484898  )
       287           N   tau( 287) = (   0.7999999   0.1154701   0.7744656  )
       288           N   tau( 288) = (   0.6999999   0.2886752   0.1225140  )
       289           N   tau( 289) = (   0.6999999   0.2886752   0.4484898  )
       290           N   tau( 290) = (   0.6999999   0.2886752   0.7744656  )
       291           N   tau( 291) = (   0.5999999   0.4618803   0.1225140  )
       292           N   tau( 292) = (   0.5999999   0.4618803   0.4484898  )
       293           N   tau( 293) = (   0.5999999   0.4618803   0.7744656  )
       294           N   tau( 294) = (   0.4999999   0.6350854   0.1225140  )
       295           N   tau( 295) = (   0.4999999   0.6350854   0.4484898  )
       296           N   tau( 296) = (   0.4999999   0.6350854   0.7744656  )
       297           N   tau( 297) = (   0.3999999   0.8082905   0.1225140  )
       298           N   tau( 298) = (   0.3999999   0.8082905   0.4484898  )
       299           N   tau( 299) = (   0.3999999   0.8082905   0.7744656  )

   Crystallographic axes

     site n.     atom                  positions (cryst. coord.)
[...]
     atom   44 type  1   force =     0.00000000    0.00000000    0.00000000
     atom   45 type  1   force =     0.00000000    0.00000000    0.00000000
     atom   46 type  1   force =     0.00000000    0.00000000    0.00000000
     atom   47 type  1   force =     0.00000000    0.00000000    0.00000000
     atom   48 type  1   force =     0.00000000    0.00000000    0.00000000
     atom   49 type  1   force =     0.00000000    0.00000000    0.00000000
     atom   50 type  1   force =     0.00000000    0.00000000    0.00000000
     atom   51 type  1   force =     0.00000000    0.00000000    0.00000000
     atom   52 type  1   force =     0.00000000    0.00000000    0.00000000
     atom   53 type  1   force =     0.00000000    0.00000000    0.00000000
     atom   54 type  1   force =     0.00000000    0.00000000    0.00000000
     atom   55 type  1   force =     0.00000000    0.00000000    0.00000000
     atom   56 type  1   force =     0.00000000    0.00000000    0.00000000
     atom   57 type  1   force =     0.00000000    0.00000000    0.00000000
     atom   58 type  1   force =     0.00000000    0.00000000    0.00000000
     atom   59 type  1   force =     0.00000000    0.00000000    0.00000000
     atom   60 type  1   force =     0.00000000    0.00000000    0.00000000
[...]
     atom  285 type  2   force =     0.00000000    0.00000000    0.00000000
     atom  286 type  2   force =     0.00000000    0.00000000    0.00000000
     atom  287 type  2   force =     0.00000000    0.00000000    0.00000000
     atom  288 type  2   force =     0.00000000    0.00000000    0.00000000
     atom  289 type  2   force =     0.00000000    0.00000000    0.00000000
     atom  290 type  2   force =     0.00000000    0.00000000    0.00000000
     atom  291 type  2   force =     0.00000000    0.00000000    0.00000000
     atom  292 type  2   force =     0.00000000    0.00000000    0.00000000
     atom  293 type  2   force =     0.00000000    0.00000000    0.00000000
     atom  294 type  2   force =     0.00000000    0.00000000    0.00000000
     atom  295 type  2   force =     0.00000000    0.00000000    0.00000000
     atom  296 type  2   force =     0.00000000    0.00000000    0.00000000
     atom  297 type  2   force =     0.00000000    0.00000000    0.00000000
     atom  298 type  2   force =     0.00000000    0.00000000    0.00000000
     atom  299 type  2   force =     0.00000000    0.00000000    0.00000000
     The SCF correction term to forces
     atom    1 type  1   force =     0.00000033    0.00000019   -0.00000635
     atom    2 type  1   force =     0.00000034    0.00000020    0.00000688
     atom    3 type  1   force =     0.00000049    0.00000028   -0.00001602
     atom    4 type  1   force =    -0.00000392    0.00000268    0.00000164
     atom    5 type  1   force =     0.00000503   -0.00001334    0.00000606
     atom    6 type  1   force =     0.00000411   -0.00000735   -0.00001086
     atom    7 type  1   force =    -0.00000315    0.00000022    0.00000086
     atom    8 type  1   force =     0.00000078   -0.00000620    0.00000103
     atom    9 type  1   force =     0.00000239   -0.00000439   -0.00000305
     atom   10 type  1   force =    -0.00000138   -0.00000284    0.00000086
     atom   11 type  1   force =    -0.00000498    0.00000378    0.00000103
     atom   12 type  1   force =    -0.00000260    0.00000426   -0.00000305
     atom   13 type  1   force =     0.00000036   -0.00000473    0.00000164
     atom   14 type  1   force =    -0.00000904    0.00001102    0.00000606
     atom   15 type  1   force =    -0.00000431    0.00000724   -0.00001086
     atom   16 type  1   force =     0.00000429    0.00000246    0.00000131
     atom   17 type  1   force =    -0.00001404    0.00000267    0.00000588
     atom   18 type  1   force =    -0.00000815    0.00000078   -0.00001097
     atom   19 type  1   force =     0.00000427    0.00000249    0.00000131
     atom   20 type  1   force =    -0.00000471   -0.00001349    0.00000588
     atom   21 type  1   force =    -0.00000340   -0.00000744   -0.00001097
     atom   22 type  1   force =     0.00000017    0.00000122   -0.00000087
     atom   23 type  1   force =     0.00000017   -0.00001013    0.00000225
     atom   24 type  1   force =     0.00000025   -0.00000837   -0.00000453
     atom   25 type  1   force =    -0.00000070   -0.00000041    0.00000033
     atom   26 type  1   force =    -0.00000274   -0.00000158   -0.00000151
     atom   27 type  1   force =    -0.00000255   -0.00000148   -0.00000055
     atom   28 type  1   force =     0.00000114   -0.00000046   -0.00000087
     atom   29 type  1   force =    -0.00000868    0.00000521    0.00000225
     atom   30 type  1   force =    -0.00000712    0.00000440   -0.00000453
     atom   31 type  1   force =     0.00000170    0.00000287    0.00000079
     atom   32 type  1   force =    -0.00000574    0.00000258    0.00000103
     atom   33 type  1   force =    -0.00000535    0.00000045   -0.00000308
     atom   34 type  1   force =     0.00000389    0.00000224    0.00000123
     atom   35 type  1   force =    -0.00000566   -0.00000327    0.00000216
     atom   36 type  1   force =    -0.00000681   -0.00000393   -0.00000517
     atom   37 type  1   force =     0.00000334    0.00000004    0.00000079
     atom   38 type  1   force =    -0.00000064   -0.00000627    0.00000103
     atom   39 type  1   force =    -0.00000229   -0.00000486   -0.00000308
     atom   40 type  1   force =     0.00000071   -0.00000067    0.00000057
     atom   41 type  1   force =     0.00000278   -0.00000192   -0.00000152
     atom   42 type  1   force =     0.00000254   -0.00000183   -0.00000053
     atom   43 type  1   force =    -0.00000023    0.00000095    0.00000057
     atom   44 type  1   force =    -0.00000027    0.00000336   -0.00000152
     atom   45 type  1   force =    -0.00000031    0.00000311   -0.00000053
     atom   46 type  1   force =    -0.00000219    0.00000285    0.00000086
     atom   47 type  1   force =     0.00000532    0.00000259    0.00000092
     atom   48 type  1   force =     0.00000458    0.00000029   -0.00000316
     atom   49 type  1   force =    -0.00000035    0.00000205    0.00000207
     atom   50 type  1   force =    -0.00000027   -0.00000017   -0.00000210
     atom   51 type  1   force =    -0.00000057   -0.00000258   -0.00000121
     atom   52 type  1   force =     0.00000160   -0.00000133    0.00000207
     atom   53 type  1   force =    -0.00000029   -0.00000015   -0.00000210
     atom   54 type  1   force =    -0.00000252    0.00000079   -0.00000121
     atom   55 type  1   force =     0.00000137   -0.00000332    0.00000086
     atom   56 type  1   force =     0.00000490    0.00000331    0.00000092
     atom   57 type  1   force =     0.00000254    0.00000382   -0.00000316
     atom   58 type  1   force =    -0.00000133   -0.00000077   -0.00000050
     atom   59 type  1   force =     0.00000857    0.00000495    0.00000243
     atom   60 type  1   force =     0.00000685    0.00000396   -0.00000455
[...]
     atom  285 type  2   force =    -0.00000146    0.00000175   -0.00000008
     atom  286 type  2   force =     0.00000264    0.00000082    0.00000139
     atom  287 type  2   force =     0.00000422   -0.00000055   -0.00000271
     atom  288 type  2   force =    -0.00000036    0.00000025    0.00000143
     atom  289 type  2   force =     0.00000081   -0.00000048   -0.00000076
     atom  290 type  2   force =     0.00000180   -0.00000100   -0.00000094
     atom  291 type  2   force =     0.00000003   -0.00000044    0.00000143
     atom  292 type  2   force =    -0.00000001    0.00000094   -0.00000076
     atom  293 type  2   force =     0.00000003    0.00000206   -0.00000094
     atom  294 type  2   force =     0.00000079   -0.00000213   -0.00000008
     atom  295 type  2   force =     0.00000203    0.00000187    0.00000139
     atom  296 type  2   force =     0.00000163    0.00000393   -0.00000271
     atom  297 type  2   force =    -0.00000134   -0.00000078   -0.00000110
     atom  298 type  2   force =     0.00000392    0.00000226    0.00000366
     atom  299 type  2   force =     0.00000465    0.00000268   -0.00000394

     Total force =     0.003606     Total SCF correction =     0.000109

     Computing stress (Cartesian axis) and pressure

     Non-local corr. energy    =      81.67634407 Ry

          total   stress  (Ry/bohr**3)                   (kbar)     P=        2.87
   0.00001343  -0.00000000   0.00000003            1.98       -0.00        0.00
  -0.00000000   0.00001344   0.00000002           -0.00        1.98        0.00
   0.00000003   0.00000002   0.00003163            0.00        0.00        4.65

     kinetic stress (kbar)  18378.92     -0.00      0.00
                               -0.00  18378.92      0.00
                                0.00      0.00  18375.04

     local   stress (kbar)   5397.19      0.39      0.02
                                0.39   5396.56      0.01
                                0.02      0.01   3747.75

     nonloc. stress (kbar)     88.24      0.01     -0.00
                                0.01     88.24     -0.00
                               -0.00     -0.00     98.95

     hartree stress (kbar)  19611.22     -0.18     -0.02
                               -0.18  19611.42     -0.01
                               -0.02     -0.01  20363.98

     exc-cor stress (kbar)   5225.53      0.00      0.00
                                0.00   5225.53      0.00
                                0.00      0.00   5225.83

     corecor stress (kbar) -14106.26     -0.00     -0.00
                               -0.00 -14106.26     -0.00
                               -0.00     -0.00 -14105.71

     ewald   stress (kbar) -34754.85     -0.21     -0.00
                               -0.21 -34754.38     -0.00
                               -0.00     -0.00 -33862.31

     hubbard stress (kbar)      0.00      0.00      0.00
                                0.00      0.00      0.00
                                0.00      0.00      0.00

     DFT-D   stress (kbar)      0.00      0.00      0.00
                                0.00      0.00      0.00
                                0.00      0.00      0.00

     XDM     stress (kbar)      0.00      0.00      0.00
                                0.00      0.00      0.00
                                0.00      0.00      0.00

     dft-nl  stress (kbar)    161.97      0.00     -0.00
                                0.00    161.97      0.00
                               -0.00      0.00    161.11

     TS-vdW  stress (kbar)      0.00      0.00      0.00
                                0.00      0.00      0.00
                                0.00      0.00      0.00

     MDB     stress (kbar)      0.00      0.00      0.00
                                0.00      0.00      0.00
                                0.00      0.00      0.00

     3D-RISM stress (kbar)      0.00      0.00      0.00
                                0.00      0.00      0.00
                                0.00      0.00      0.00

     Energy error            =      2.7E-05 Ry
     Gradient error          =      9.4E-04 Ry/Bohr

     bfgs converged in   8 scf cycles and   7 bfgs steps
     (criteria: energy <  1.0E-04 Ry, force <  1.0E-03 Ry/Bohr)

     End of BFGS Geometry Optimization

     Final energy             =  -46814.3998683225 Ry

     File ./GaN.bfgs deleted, as requested
Begin final coordinates

ATOMIC_POSITIONS (angstrom)
Ga            1.6216878713        0.9362804581        2.6278300808
Ga            1.6218170210        0.9363550227        7.9442603192
Ga            1.6218368377        0.9363664639       13.2104922953
Ga            0.0010056458        3.7553087602        2.6355293411
Ga            0.0019553209        3.7528058410        7.9286919601
Ga           -0.0004087942        3.7477801972       13.2161479927
Ga           -1.6223793413        6.5575145206        2.6380911715
Ga           -1.6224419487        6.5581547311        7.9298512869
Ga           -1.6224215297        6.5568487639       13.2160391926
Ga           -3.2435852790        9.3655255745        2.6380911715
Ga           -3.2430621442        9.3651512496        7.9298512869
Ga           -3.2441829355        9.3658219165       13.2160391926
Ga           -4.8586741606       12.1725210936        2.6355293411
Ga           -4.8603669147       12.1745949960        7.9286919601
Ga           -4.8659013074       12.1750604341       13.2161479927
Ga            4.8744450558        0.9309192155        2.6350625061
Ga            4.8717720997        0.9312140282        7.9283244392
Ga            4.8684606132        0.9359232507       13.2157217060
Ga            3.2434234912        3.7559314335        2.6350625061
Ga            3.2423423284        3.7534691794        7.9283244392
Ga            3.2447648915        3.7482467367       13.2157217060
Ga            1.6225775200        6.5599128383        2.6382462971
Ga            1.6225956500        6.5610408887        7.9308650289
Ga            1.6225356511        6.5574710074       13.2158905267
Ga            0.0005482866        9.3665195927        2.6387086021
Ga            0.0006631920        9.3665859333        7.9290623700
Ga            0.0003751246        9.3664196175       13.2158202884
Ga           -1.6190298444       12.1745414917        2.6382462971
Ga           -1.6180438591       12.1739931676        7.9308650289
Ga           -1.6211654665       12.1757261477       13.2158905267
Ga            8.1125546623        0.9356308662        2.6379757980
Ga            8.1131116691        0.9353519709        7.9297049331
Ga            8.1119920971        0.9360275901       13.2159019055
Ga            6.4909076110        3.7475257857        2.6386041862
Ga            6.4907980121        3.7474625087        7.9321389034
Ga            6.4901622318        3.7470954408       13.2161153436
Ga            4.8665587038        6.5578607879        2.6379757980
Ga            4.8665956767        6.5584826176        7.9297049331
Ga            4.8666209941        6.5571752301       13.2159019055
Ga            3.2443946470        9.3664492669        2.6389895689
Ga            3.2442824603        9.3665166152        7.9293412531
Ga            3.2445516860        9.3663531333       13.2160989516
Ga            1.6224105629       12.1758081098        2.6389895689
Ga            1.6224127949       12.1756772791        7.9293412531
Ga            1.6224058283       12.1759921763       13.2160989516
Ga           11.3543410553        0.9352892016        2.6379332378
Ga           11.3537288178        0.9349966323        7.9296949991
Ga           11.3549590321        0.9356847039       13.2158785477
Ga            9.7332282607        3.7468626423        2.6391533260
Ga            9.7332288178        3.7469547004        7.9297891567
Ga            9.7332411497        3.7467734535       13.2163407067
Ga            8.1114936369        6.5557894073        2.6391533260
Ga            8.1115736400        6.5557438607        7.9297891567
Ga            8.1114228415        6.5558451639       13.2163407067
Ga            6.4871560100        9.3655009901        2.6379332378
Ga            6.4865965188        9.3651170616        7.9296949991
Ga            6.4878075134        9.3658384226       13.2158785477
Ga            4.8633503704       12.1740596849        2.6385899320
Ga            4.8623563405       12.1734857814        7.9311112020
Ga            4.8655419831       12.1753250130       13.2161690283
[...]
N            12.9797969761        1.8733364201        1.9880817780
N            12.9805144128        1.8730534692        7.2757789968
N            12.9790472537        1.8728622917       12.5643391404
N            11.3562401925        4.6829537681        1.9872381418
N            11.3565461143        4.6827819860        7.2751471781
N            11.3560827163        4.6830502639       12.5638963930
N             9.7336747041        7.4933196328        1.9872381418
N             9.7336788973        7.4936704599        7.2751471781
N             9.7336795338        7.4931350065       12.5638963930
N             8.1122530978       10.3041697257        1.9880817780
N             8.1123667734       10.3049325196        7.2757789968
N             8.1114676293       10.3037575114       12.5643391404
N             6.4877328650       13.1119015052        1.9857401653
N             6.4867650331       13.1113427272        7.2749907230
N             6.4896939026       13.1130337108       12.5643489969
End final coordinates

     Writing all to output data dir ./GaN.save/

     General routines

     Parallel routines

     PAW routines

   This run was terminated on:   4:41:25  12Mar2024

   JOB DONE.