     Program PWSCF v.7.1 starts on 26Mar2024 at  3:34: 8

     Reading input from espresso.pwi
Warning: card &CELL ignored
Warning: card    CELL_DYNAMICS    = 'BFGS' ignored
Warning: card / ignored

     Current dimensions of program PWSCF are:
     Max number of different atomic species (ntypx) = 10
     Max number of k-points (npk) =  40000
     Max angular momentum in pseudopotentials (lmaxx) =  4
     file Ga.pbe-dn-kjpaw_psl.1.0.0.UPF: wavefunction(s)  4S renormalized
     file N.pbe-n-kjpaw_psl.1.0.0.UPF: wavefunction(s)  2S renormalized

     IMPORTANT: XC functional enforced from input :
     Exchange-correlation= BEEF-VDW
                           (   1   4  43  14   2   0   0)
     Any further DFT definition will be discarded
     Please, verify this is what you really want

     K-points division:     npool     =       3
     R & G space division:  proc/nbgrp/npool/nimage =      60
     Subspace diagonalization in iterative solution of the eigenvalue problem:
     a serial algorithm will be used

     Using Slab Decomposition

     bravais-lattice index     =            4
     lattice parameter (alat)  =      30.6565  a.u.
     unit-cell volume          =   24400.9461 (a.u.)^3
     number of atoms/cell      =          299
     number of atomic types    =            2
     number of electrons       =      2693.00
     number of Kohn-Sham states=         1616
     kinetic-energy cutoff     =      70.0000  Ry
     charge density cutoff     =     350.0000  Ry
     scf convergence threshold =      1.0E-07
     mixing beta               =       0.7000
     number of iterations used =            8  plain     mixing
     energy convergence thresh.=      1.0E-04
     force convergence thresh. =      1.0E-03
     Exchange-correlation= BEEF-VDW
                           (   1   4  43  14   2   0   0)
     nstep                     =           50

     celldm(1)=  30.656540  celldm(2)=   0.000000  celldm(3)=   0.977927
     celldm(4)=   0.000000  celldm(5)=   0.000000  celldm(6)=   0.000000

     crystal axes: (cart. coord. in units of alat)
               a(1) = (   1.000000   0.000000   0.000000 )
               a(2) = (  -0.500000   0.866025   0.000000 )
               a(3) = (   0.000000   0.000000   0.977927 )

     reciprocal axes: (cart. coord. in units 2 pi/alat)
               b(1) = (  1.000000  0.577350 -0.000000 )
               b(2) = (  0.000000  1.154701  0.000000 )
               b(3) = (  0.000000 -0.000000  1.022571 )

     PseudoPot. # 1 for Ga read from file:
     //group///packages/espresso/pseudo/psl_1.0.0/pslibrary.1.0.0/pbe/PSEUDOPOTENTIALS/Ga.pbe-dn-kjpaw_psl.1.0.0.UPF
     MD5 check sum: cd2a01e492f15b435d17032472d8505c
     Pseudo is Projector augmented-wave + core cor, Zval = 13.0
     Generated using 'atomic' code by A. Dal Corso  v.7.1
     Shape of augmentation charge: PSQ
     Using radial grid of 1205 points,  6 beta functions with:
                l(1) =   0
                l(2) =   0
                l(3) =   1
                l(4) =   1
                l(5) =   2
                l(6) =   2
     Q(r) pseudized with 0 coefficients

     PseudoPot. # 2 for N  read from file:
     //group///packages/espresso/pseudo/psl_1.0.0/pslibrary.1.0.0/pbe/PSEUDOPOTENTIALS/N.pbe-n-kjpaw_psl.1.0.0.UPF
     MD5 check sum: f77f775694dac7e2c3fe1c82443d1a16
     Pseudo is Projector augmented-wave + core cor, Zval =  5.0
     Generated using 'atomic' code by A. Dal Corso  v.7.1
     Shape of augmentation charge: PSQ
     Using radial grid of 1085 points,  4 beta functions with:
                l(1) =   0
                l(2) =   0
                l(3) =   1
                l(4) =   1
     Q(r) pseudized with 0 coefficients

     atomic species   valence    mass     pseudopotential
        Ga            13.00    69.72300     Ga( 1.00)
        N              5.00    14.00700     N ( 1.00)

      2 Sym. Ops. (no inversion) found

                                    s                        frac. trans.

      isym =  1     identity

 cryst.   s( 1) = (     1          0          0      )
                  (     0          1          0      )
                  (     0          0          1      )

 cart.    s( 1) = (  1.0000000  0.0000000  0.0000000 )
                  (  0.0000000  1.0000000  0.0000000 )
                  (  0.0000000  0.0000000  1.0000000 )

      isym =  2     inv. 180 deg rotation - cryst. axis [0,1,0]

 cryst.   s( 2) = (     1          1          0      )
                  (     0         -1          0      )
                  (     0          0          1      )

 cart.    s( 2) = (  0.5000000  0.8660254  0.0000000 )
                  (  0.8660254 -0.5000000  0.0000000 )
                  (  0.0000000  0.0000000  1.0000000 )

     point group C_s (m)
     there are  2 classes
     the character table:

       E     s
A'     1.00  1.00
A''    1.00 -1.00

     the symmetry operations in each class and the name of the first element:

     E        1
          identity
     s        2
          inv. 180 deg rotation - cryst. axis [0,1,0]

   Cartesian axes

     site n.     atom                  positions (alat units)
         1           Ga  tau(   1) = (   0.1000001   0.0577350   0.1627148  )
         2           Ga  tau(   2) = (   0.1000001   0.0577350   0.4886906  )
         3           Ga  tau(   3) = (   0.1000001   0.0577350   0.8146665  )
         4           Ga  tau(   4) = (   0.0000001   0.2309401   0.1627148  )
         5           Ga  tau(   5) = (   0.0000001   0.2309401   0.4886906  )
         6           Ga  tau(   6) = (   0.0000001   0.2309401   0.8146665  )
         7           Ga  tau(   7) = (  -0.0999999   0.4041451   0.1627148  )
         8           Ga  tau(   8) = (  -0.0999999   0.4041451   0.4886906  )
         9           Ga  tau(   9) = (  -0.0999999   0.4041451   0.8146665  )
        10           Ga  tau(  10) = (  -0.1999999   0.5773502   0.1627148  )
        11           Ga  tau(  11) = (  -0.1999999   0.5773502   0.4886906  )
        12           Ga  tau(  12) = (  -0.1999999   0.5773502   0.8146665  )
        13           Ga  tau(  13) = (  -0.2999999   0.7505553   0.1627148  )
        14           Ga  tau(  14) = (  -0.2999999   0.7505553   0.4886906  )
        15           Ga  tau(  15) = (  -0.2999999   0.7505553   0.8146665  )
        16           Ga  tau(  16) = (   0.3000001   0.0577350   0.1627148  )
        17           Ga  tau(  17) = (   0.3000001   0.0577350   0.4886906  )
        18           Ga  tau(  18) = (   0.3000001   0.0577350   0.8146665  )
        19           Ga  tau(  19) = (   0.2000001   0.2309401   0.1627148  )
        20           Ga  tau(  20) = (   0.2000001   0.2309401   0.4886906  )
        21           Ga  tau(  21) = (   0.2000001   0.2309401   0.8146665  )
        22           Ga  tau(  22) = (   0.1000001   0.4041451   0.1627148  )
        23           Ga  tau(  23) = (   0.1000001   0.4041451   0.4886906  )
        24           Ga  tau(  24) = (   0.1000001   0.4041451   0.8146665  )
        25           Ga  tau(  25) = (   0.0000001   0.5773502   0.1627148  )
        26           Ga  tau(  26) = (   0.0000001   0.5773502   0.4886906  )
        27           Ga  tau(  27) = (   0.0000001   0.5773502   0.8146665  )
        28           Ga  tau(  28) = (  -0.0999999   0.7505553   0.1627148  )
        29           Ga  tau(  29) = (  -0.0999999   0.7505553   0.4886906  )
        30           Ga  tau(  30) = (  -0.0999999   0.7505553   0.8146665  )
        31           Ga  tau(  31) = (   0.5000001   0.0577350   0.1627148  )
        32           Ga  tau(  32) = (   0.5000001   0.0577350   0.4886906  )
        33           Ga  tau(  33) = (   0.5000001   0.0577350   0.8146665  )
        34           Ga  tau(  34) = (   0.4000001   0.2309401   0.1627148  )
        35           Ga  tau(  35) = (   0.4000001   0.2309401   0.4886906  )
        36           Ga  tau(  36) = (   0.4000001   0.2309401   0.8146665  )
        37           Ga  tau(  37) = (   0.3000001   0.4041451   0.1627148  )
        38           Ga  tau(  38) = (   0.3000001   0.4041451   0.4886906  )
        39           Ga  tau(  39) = (   0.3000001   0.4041451   0.8146665  )
        40           Ga  tau(  40) = (   0.2000001   0.5773502   0.1627148  )
        41           Ga  tau(  41) = (   0.2000001   0.5773502   0.4886906  )
        42           Ga  tau(  42) = (   0.2000001   0.5773502   0.8146665  )
        43           Ga  tau(  43) = (   0.1000001   0.7505553   0.1627148  )
        44           Ga  tau(  44) = (   0.1000001   0.7505553   0.4886906  )
        45           Ga  tau(  45) = (   0.1000001   0.7505553   0.8146665  )
        46           Ga  tau(  46) = (   0.7000001   0.0577350   0.1627148  )
        47           Ga  tau(  47) = (   0.7000001   0.0577350   0.4886906  )
        48           Ga  tau(  48) = (   0.7000001   0.0577350   0.8146665  )
        49           Ga  tau(  49) = (   0.6000001   0.2309401   0.1627148  )
        50           Ga  tau(  50) = (   0.6000001   0.2309401   0.4886906  )
        51           Ga  tau(  51) = (   0.6000001   0.2309401   0.8146665  )
        52           Ga  tau(  52) = (   0.5000001   0.4041451   0.1627148  )
        53           Ga  tau(  53) = (   0.5000001   0.4041451   0.4886906  )
        54           Ga  tau(  54) = (   0.5000001   0.4041451   0.8146665  )
        55           Ga  tau(  55) = (   0.4000001   0.5773502   0.1627148  )
        56           Ga  tau(  56) = (   0.4000001   0.5773502   0.4886906  )
        57           Ga  tau(  57) = (   0.4000001   0.5773502   0.8146665  )
        58           Ga  tau(  58) = (   0.3000001   0.7505553   0.1627148  )
        59           Ga  tau(  59) = (   0.3000001   0.7505553   0.4886906  )
        60           Ga  tau(  60) = (   0.3000001   0.7505553   0.8146665  )
[...]
       285           N   tau( 285) = (   0.7999999   0.1154701   0.1225140  )
       286           N   tau( 286) = (   0.7999999   0.1154701   0.4484898  )
       287           N   tau( 287) = (   0.7999999   0.1154701   0.7744656  )
       288           N   tau( 288) = (   0.6999999   0.2886752   0.1225140  )
       289           N   tau( 289) = (   0.6999999   0.2886752   0.4484898  )
       290           N   tau( 290) = (   0.6999999   0.2886752   0.7744656  )
       291           N   tau( 291) = (   0.5999999   0.4618803   0.1225140  )
       292           N   tau( 292) = (   0.5999999   0.4618803   0.4484898  )
       293           N   tau( 293) = (   0.5999999   0.4618803   0.7744656  )
       294           N   tau( 294) = (   0.4999999   0.6350854   0.1225140  )
       295           N   tau( 295) = (   0.4999999   0.6350854   0.4484898  )
       296           N   tau( 296) = (   0.4999999   0.6350854   0.7744656  )
       297           N   tau( 297) = (   0.3999999   0.8082905   0.1225140  )
       298           N   tau( 298) = (   0.3999999   0.8082905   0.4484898  )
       299           N   tau( 299) = (   0.3999999   0.8082905   0.7744656  )

   Crystallographic axes

     site n.     atom                  positions (cryst. coord.)
         1           Ga  tau(   1) = (  0.1333334  0.0666666  0.1663874  )
[...]
     atom   44 type  1   force =     0.00000000    0.00000000    0.00000000
     atom   45 type  1   force =     0.00000000    0.00000000    0.00000000
     atom   46 type  1   force =     0.00000000    0.00000000    0.00000000
     atom   47 type  1   force =     0.00000000    0.00000000    0.00000000
     atom   48 type  1   force =     0.00000000    0.00000000    0.00000000
     atom   49 type  1   force =     0.00000000    0.00000000    0.00000000
     atom   50 type  1   force =     0.00000000    0.00000000    0.00000000
     atom   51 type  1   force =     0.00000000    0.00000000    0.00000000
     atom   52 type  1   force =     0.00000000    0.00000000    0.00000000
     atom   53 type  1   force =     0.00000000    0.00000000    0.00000000
     atom   54 type  1   force =     0.00000000    0.00000000    0.00000000
     atom   55 type  1   force =     0.00000000    0.00000000    0.00000000
     atom   56 type  1   force =     0.00000000    0.00000000    0.00000000
     atom   57 type  1   force =     0.00000000    0.00000000    0.00000000
     atom   58 type  1   force =     0.00000000    0.00000000    0.00000000
     atom   59 type  1   force =     0.00000000    0.00000000    0.00000000
     atom   60 type  1   force =     0.00000000    0.00000000    0.00000000
[...]
     atom  285 type  2   force =     0.00000000    0.00000000    0.00000000
     atom  286 type  2   force =     0.00000000    0.00000000    0.00000000
     atom  287 type  2   force =     0.00000000    0.00000000    0.00000000
     atom  288 type  2   force =     0.00000000    0.00000000    0.00000000
     atom  289 type  2   force =     0.00000000    0.00000000    0.00000000
     atom  290 type  2   force =     0.00000000    0.00000000    0.00000000
     atom  291 type  2   force =     0.00000000    0.00000000    0.00000000
     atom  292 type  2   force =     0.00000000    0.00000000    0.00000000
     atom  293 type  2   force =     0.00000000    0.00000000    0.00000000
     atom  294 type  2   force =     0.00000000    0.00000000    0.00000000
     atom  295 type  2   force =     0.00000000    0.00000000    0.00000000
     atom  296 type  2   force =     0.00000000    0.00000000    0.00000000
     atom  297 type  2   force =     0.00000000    0.00000000    0.00000000
     atom  298 type  2   force =     0.00000000    0.00000000    0.00000000
     atom  299 type  2   force =     0.00000000    0.00000000    0.00000000
     The SCF correction term to forces
     atom    1 type  1   force =     0.00000646    0.00000373    0.00000032
     atom    2 type  1   force =     0.00000639    0.00000369   -0.00000113
     atom    3 type  1   force =     0.00000628    0.00000362    0.00000314
     atom    4 type  1   force =     0.00000474   -0.00000581    0.00000289
     atom    5 type  1   force =     0.00000607   -0.00000646   -0.00000225
     atom    6 type  1   force =     0.00000620   -0.00000562    0.00000326
     atom    7 type  1   force =    -0.00000173   -0.00000524    0.00000335
     atom    8 type  1   force =    -0.00000335   -0.00000541   -0.00000573
     atom    9 type  1   force =    -0.00000346   -0.00000746    0.00000390
     atom   10 type  1   force =    -0.00000540    0.00000113    0.00000335
     atom   11 type  1   force =    -0.00000637   -0.00000020   -0.00000573
     atom   12 type  1   force =    -0.00000819    0.00000074    0.00000390
     atom   13 type  1   force =    -0.00000266    0.00000700    0.00000289
     atom   14 type  1   force =    -0.00000256    0.00000849   -0.00000225
     atom   15 type  1   force =    -0.00000176    0.00000818    0.00000326
     atom   16 type  1   force =    -0.00000755    0.00000593    0.00000263
     atom   17 type  1   force =    -0.00000860    0.00000539   -0.00000235
     atom   18 type  1   force =    -0.00000762    0.00000489    0.00000305
     atom   19 type  1   force =     0.00000136   -0.00000951    0.00000263
     atom   20 type  1   force =     0.00000037   -0.00001015   -0.00000235
     atom   21 type  1   force =     0.00000043   -0.00000904    0.00000305
     atom   22 type  1   force =     0.00000058   -0.00001233    0.00000315
     atom   23 type  1   force =     0.00000054   -0.00001106   -0.00000436
     atom   24 type  1   force =     0.00000032   -0.00001548    0.00000387
     atom   25 type  1   force =    -0.00000589   -0.00000340    0.00000457
     atom   26 type  1   force =    -0.00000574   -0.00000331   -0.00000624
     atom   27 type  1   force =    -0.00000819   -0.00000473    0.00000530
     atom   28 type  1   force =    -0.00001039    0.00000666    0.00000315
     atom   29 type  1   force =    -0.00000930    0.00000600   -0.00000436
     atom   30 type  1   force =    -0.00001325    0.00000802    0.00000387
     atom   31 type  1   force =    -0.00000893    0.00000725    0.00000332
     atom   32 type  1   force =    -0.00000856    0.00000893   -0.00000536
     atom   33 type  1   force =    -0.00001075    0.00001047    0.00000420
     atom   34 type  1   force =    -0.00000499   -0.00000288    0.00000215
     atom   35 type  1   force =    -0.00000294   -0.00000170   -0.00000378
     atom   36 type  1   force =    -0.00000514   -0.00000296    0.00000272
     atom   37 type  1   force =     0.00000181   -0.00001136    0.00000332
     atom   38 type  1   force =     0.00000346   -0.00001188   -0.00000536
     atom   39 type  1   force =     0.00000370   -0.00001454    0.00000420
     atom   40 type  1   force =     0.00000121   -0.00000658    0.00000503
     atom   41 type  1   force =     0.00000073   -0.00000668   -0.00000632
     atom   42 type  1   force =     0.00000250   -0.00000841    0.00000579
     atom   43 type  1   force =    -0.00000509    0.00000433    0.00000503
     atom   44 type  1   force =    -0.00000542    0.00000397   -0.00000632
     atom   45 type  1   force =    -0.00000603    0.00000637    0.00000579
     atom   46 type  1   force =     0.00000005    0.00000816    0.00000372
     atom   47 type  1   force =    -0.00000068    0.00000991   -0.00000563
     atom   48 type  1   force =     0.00000081    0.00001172    0.00000472
     atom   49 type  1   force =    -0.00000347    0.00000484    0.00000187
     atom   50 type  1   force =    -0.00000367    0.00000589   -0.00000585
     atom   51 type  1   force =    -0.00000397    0.00000492    0.00000304
     atom   52 type  1   force =     0.00000246   -0.00000542    0.00000187
     atom   53 type  1   force =     0.00000326   -0.00000612   -0.00000585
     atom   54 type  1   force =     0.00000228   -0.00000590    0.00000304
     atom   55 type  1   force =     0.00000709   -0.00000404    0.00000372
     atom   56 type  1   force =     0.00000824   -0.00000554   -0.00000563
     atom   57 type  1   force =     0.00001055   -0.00000516    0.00000472
     atom   58 type  1   force =     0.00000710    0.00000410    0.00000399
     atom   59 type  1   force =     0.00000603    0.00000348   -0.00000470
     atom   60 type  1   force =     0.00000970    0.00000560    0.00000492
[...]
     atom  285 type  2   force =     0.00000268    0.00000287    0.00000155
     atom  286 type  2   force =     0.00000088    0.00000309   -0.00000170
     atom  287 type  2   force =     0.00000230    0.00000378    0.00000136
     atom  288 type  2   force =    -0.00000107    0.00000124    0.00000119
     atom  289 type  2   force =    -0.00000176    0.00000168   -0.00000177
     atom  290 type  2   force =    -0.00000090    0.00000120    0.00000117
     atom  291 type  2   force =     0.00000054   -0.00000155    0.00000119
     atom  292 type  2   force =     0.00000058   -0.00000237   -0.00000177
     atom  293 type  2   force =     0.00000059   -0.00000137    0.00000117
     atom  294 type  2   force =     0.00000383    0.00000088    0.00000155
     atom  295 type  2   force =     0.00000312   -0.00000078   -0.00000170
     atom  296 type  2   force =     0.00000443    0.00000010    0.00000136
     atom  297 type  2   force =     0.00000460    0.00000266    0.00000246
     atom  298 type  2   force =     0.00000415    0.00000239   -0.00000212
     atom  299 type  2   force =     0.00000561    0.00000324    0.00000110

     Total force =     0.005577     Total SCF correction =     0.000132

     Computing stress (Cartesian axis) and pressure

     Non-local corr. energy    =      81.68528402 Ry

          total   stress  (Ry/bohr**3)                   (kbar)     P=      -11.87
  -0.00008677   0.00000003   0.00000003          -12.76        0.00        0.00
   0.00000003  -0.00008680   0.00000002            0.00      -12.77        0.00
   0.00000003   0.00000002  -0.00006848            0.00        0.00      -10.07

     kinetic stress (kbar)  18359.64      0.00      0.00
                                0.00  18359.64      0.00
                                0.00      0.00  18360.51

     local   stress (kbar)   5397.66      0.31     -0.04
                                0.31   5397.11     -0.02
                               -0.04     -0.02   3712.62

     nonloc. stress (kbar)     94.14      0.00     -0.00
                                0.00     94.14     -0.00
                               -0.00     -0.00    102.49

     hartree stress (kbar)  19608.71     -0.16      0.01
                               -0.16  19608.89      0.00
                                0.01      0.00  20373.55

     exc-cor stress (kbar)   5228.83     -0.00      0.00
                               -0.00   5228.83      0.00
                                0.00      0.00   5229.28

     corecor stress (kbar) -14105.96     -0.00     -0.00
                               -0.00 -14105.96     -0.00
                               -0.00     -0.00 -14105.49

     ewald   stress (kbar) -34757.77     -0.15      0.03
                               -0.15 -34757.37      0.02
                                0.03      0.02 -33844.10

     hubbard stress (kbar)      0.00      0.00      0.00
                                0.00      0.00      0.00
                                0.00      0.00      0.00

     DFT-D   stress (kbar)      0.00      0.00      0.00
                                0.00      0.00      0.00
                                0.00      0.00      0.00

     XDM     stress (kbar)      0.00      0.00      0.00
                                0.00      0.00      0.00
                                0.00      0.00      0.00

     dft-nl  stress (kbar)    161.97      0.00     -0.00
                                0.00    161.97     -0.00
                               -0.00     -0.00    161.07

     TS-vdW  stress (kbar)      0.00      0.00      0.00
                                0.00      0.00      0.00
                                0.00      0.00      0.00

     MDB     stress (kbar)      0.00      0.00      0.00
                                0.00      0.00      0.00
                                0.00      0.00      0.00

     3D-RISM stress (kbar)      0.00      0.00      0.00
                                0.00      0.00      0.00
                                0.00      0.00      0.00

     Energy error            =      3.8E-05 Ry
     Gradient error          =      6.8E-04 Ry/Bohr

     bfgs converged in   5 scf cycles and   4 bfgs steps
     (criteria: energy <  1.0E-04 Ry, force <  1.0E-03 Ry/Bohr)

     End of BFGS Geometry Optimization

     Final energy             =  -46815.8395072184 Ry

     File ./GaN.bfgs deleted, as requested
Begin final coordinates

ATOMIC_POSITIONS (angstrom)
Ga            1.6217601898        0.9363222112        2.5929406810
Ga            1.6218070410        0.9363492607        7.9478595802
Ga            1.6218891938        0.9363966917       13.2127890884
Ga            0.0012359407        3.7570914051        2.6347389615
Ga            0.0022857788        3.7542350822        7.9297887298
Ga           -0.0004386194        3.7476995335       13.2176314685
Ga           -1.6224847433        6.5572331099        2.6381785092
Ga           -1.6224405722        6.5575651930        7.9292824058
Ga           -1.6227186728        6.5565101287       13.2163352449
Ga           -3.2438816889        9.3655749990        2.6381785092
Ga           -3.2435720110        9.3654472107        7.9292824058
Ga           -3.2446247738        9.3657339007       13.2163352449
Ga           -4.8570151974       12.1718292124        2.6347389615
Ga           -4.8589639265       12.1741665603        7.9297887298
Ga           -4.8659860768       12.1750749366       13.2176314685
Ga            4.8758475991        0.9298231035        2.6344113738
Ga            4.8727923791        0.9301476476        7.9296306121
Ga            4.8683844103        0.9360561428       13.2173366180
Ga            3.2431755021        3.7576941277        2.6344113738
Ga            3.2419289555        3.7548859576        7.9296306121
Ga            3.2448418780        3.7481142970       13.2173366180
Ga            1.6226225962        6.5608257141        2.6379704256
Ga            1.6226208562        6.5610756554        7.9317206601
Ga            1.6225278311        6.5571051953       13.2155419087
Ga            0.0003096692        9.3663818268        2.6389375871
Ga            0.0004214441        9.3664463601        7.9291046109
Ga            0.0002250319        9.3663329615       13.2164111781
Ga           -1.6182167327       12.1741240910        2.6379704256
Ga           -1.6180011472       12.1739976135        7.9317206601
Ga           -1.6214861791       12.1759022814       13.2155419087
Ga            8.1123906677        0.9359767704        2.6380385573
Ga            8.1126315946        0.9357585510        7.9291661554
Ga            8.1118670740        0.9365472514       13.2162131386
Ga            6.4909046603        3.7475240821        2.6386365140
Ga            6.4907944552        3.7474604551        7.9319014038
Ga            6.4899948066        3.7469987778       13.2162149689
Ga            4.8667762683        6.5575458123        2.6380385573
Ga            4.8667077482        6.5578635708        7.9291661554
Ga            4.8670085225        6.5568071264       13.2162131386
Ga            3.2445871335        9.3663165260        2.6391043379
Ga            3.2444887309        9.3663819275        7.9292822418
Ga            3.2447070814        9.3662804759       13.2165788426
Ga            1.6223918492       12.1760411784        2.6391043379
Ga            1.6223992873       12.1759232585        7.9292822418
Ga            1.6224206028       12.1761630814       13.2165788426
Ga           11.3544872174        0.9356145445        2.6380283613
Ga           11.3542277862        0.9353815073        7.9292301508
Ga           11.3551497354        0.9362232733       13.2162468130
Ga            9.7332752056        3.7471123990        2.6392015073
Ga            9.7332628091        3.7470193806        7.9290850543
Ga            9.7332796168        3.7468361835       13.2167622578
Ga            8.1117334049        6.5557051844        2.6392015073
Ga            8.1116466503        6.5557409579        7.9290850543
Ga            8.1114964009        6.5558471123       13.2167622578
Ga            6.4875108463        9.3654648988        2.6380283613
Ga            6.4871793145        9.3653567434        7.9292301508
Ga            6.4883692799        9.3657342918       13.2162468130
Ga            4.8624884602       12.1735620607        2.6382528542
Ga            4.8623154732       12.1734621867        7.9318909957
Ga            4.8659024389       12.1755331223       13.2157903987
[...]
N            12.9805754863        1.8729490639        1.9881059739
N            12.9818134532        1.8727563779        7.2751881350
N            12.9792142429        1.8725646029       12.5638113275
N            11.3565479840        4.6827905241        1.9867438250
N            11.3569033114        4.6825785086        7.2754288522
N            11.3560799084        4.6830635900       12.5636237340
N             9.7336872264        7.4936678101        1.9867438250
N             9.7336812793        7.4940815403        7.2754288522
N             9.7336896706        7.4931259118       12.5636237340
N             8.1123068926       10.3050376135        1.9881059739
N             8.1127590050       10.3062060672        7.2751881350
N             8.1112933179       10.3040509726       12.5638113275
N             6.4877364859       13.1119035958        1.9859696577
N             6.4871991154       13.1115933448        7.2748324901
N             6.4899489952       13.1131809886       12.5639885940
End final coordinates

     Writing all to output data dir ./GaN.save/

     General routines

     Parallel routines

     PAW routines

   This run was terminated on:   3:59: 9  26Mar2024

   JOB DONE.