     Program PWSCF v.7.1 starts on 17Mar2024 at 11: 1:28

     Reading input from espresso.pwi
Warning: card &CELL ignored
Warning: card    CELL_DYNAMICS    = 'BFGS' ignored
Warning: card / ignored

     Current dimensions of program PWSCF are:
     Max number of different atomic species (ntypx) = 10
     Max number of k-points (npk) =  40000
     Max angular momentum in pseudopotentials (lmaxx) =  4
     file Ga.pbe-dn-kjpaw_psl.1.0.0.UPF: wavefunction(s)  4S renormalized
     file N.pbe-n-kjpaw_psl.1.0.0.UPF: wavefunction(s)  2S renormalized

     IMPORTANT: XC functional enforced from input :
     Exchange-correlation= BEEF-VDW
                           (   1   4  43  14   2   0   0)
     Any further DFT definition will be discarded
     Please, verify this is what you really want

     K-points division:     npool     =       4
     R & G space division:  proc/nbgrp/npool/nimage =      64
     Subspace diagonalization in iterative solution of the eigenvalue problem:
     a serial algorithm will be used

     Using Slab Decomposition

     bravais-lattice index     =            4
     lattice parameter (alat)  =      30.6565  a.u.
     unit-cell volume          =   24400.9461 (a.u.)^3
     number of atoms/cell      =          299
     number of atomic types    =            2
     number of electrons       =      2694.00
     number of Kohn-Sham states=         1616
     kinetic-energy cutoff     =      70.0000  Ry
     charge density cutoff     =     350.0000  Ry
     scf convergence threshold =      1.0E-07
     mixing beta               =       0.7000
     number of iterations used =            8  plain     mixing
     energy convergence thresh.=      1.0E-04
     force convergence thresh. =      1.0E-03
     Exchange-correlation= BEEF-VDW
                           (   1   4  43  14   2   0   0)
     nstep                     =           50

     celldm(1)=  30.656540  celldm(2)=   0.000000  celldm(3)=   0.977927
     celldm(4)=   0.000000  celldm(5)=   0.000000  celldm(6)=   0.000000

     crystal axes: (cart. coord. in units of alat)
               a(1) = (   1.000000   0.000000   0.000000 )
               a(2) = (  -0.500000   0.866025   0.000000 )
               a(3) = (   0.000000   0.000000   0.977927 )

     reciprocal axes: (cart. coord. in units 2 pi/alat)
               b(1) = (  1.000000  0.577350 -0.000000 )
               b(2) = (  0.000000  1.154701  0.000000 )
               b(3) = (  0.000000 -0.000000  1.022571 )

     PseudoPot. # 1 for Ga read from file:
     //group///packages/espresso/pseudo/psl_1.0.0/pslibrary.1.0.0/pbe/PSEUDOPOTENTIALS/Ga.pbe-dn-kjpaw_psl.1.0.0.UPF
     MD5 check sum: cd2a01e492f15b435d17032472d8505c
     Pseudo is Projector augmented-wave + core cor, Zval = 13.0
     Generated using 'atomic' code by A. Dal Corso  v.7.1
     Shape of augmentation charge: PSQ
     Using radial grid of 1205 points,  6 beta functions with:
                l(1) =   0
                l(2) =   0
                l(3) =   1
                l(4) =   1
                l(5) =   2
                l(6) =   2
     Q(r) pseudized with 0 coefficients

     PseudoPot. # 2 for N  read from file:
     //group///packages/espresso/pseudo/psl_1.0.0/pslibrary.1.0.0/pbe/PSEUDOPOTENTIALS/N.pbe-n-kjpaw_psl.1.0.0.UPF
     MD5 check sum: f77f775694dac7e2c3fe1c82443d1a16
     Pseudo is Projector augmented-wave + core cor, Zval =  5.0
     Generated using 'atomic' code by A. Dal Corso  v.7.1
     Shape of augmentation charge: PSQ
     Using radial grid of 1085 points,  4 beta functions with:
                l(1) =   0
                l(2) =   0
                l(3) =   1
                l(4) =   1
     Q(r) pseudized with 0 coefficients

     atomic species   valence    mass     pseudopotential
        Ga            13.00    69.72300     Ga( 1.00)
        N              5.00    14.00700     N ( 1.00)

      2 Sym. Ops. (no inversion) found

                                    s                        frac. trans.

      isym =  1     identity

 cryst.   s( 1) = (     1          0          0      )
                  (     0          1          0      )
                  (     0          0          1      )

 cart.    s( 1) = (  1.0000000  0.0000000  0.0000000 )
                  (  0.0000000  1.0000000  0.0000000 )
                  (  0.0000000  0.0000000  1.0000000 )

      isym =  2     inv. 180 deg rotation - cryst. axis [0,1,0]

 cryst.   s( 2) = (     1          1          0      )
                  (     0         -1          0      )
                  (     0          0          1      )

 cart.    s( 2) = (  0.5000000  0.8660254  0.0000000 )
                  (  0.8660254 -0.5000000  0.0000000 )
                  (  0.0000000  0.0000000  1.0000000 )

     point group C_s (m)
     there are  2 classes
     the character table:

       E     s
A'     1.00  1.00
A''    1.00 -1.00

     the symmetry operations in each class and the name of the first element:

     E        1
          identity
     s        2
          inv. 180 deg rotation - cryst. axis [0,1,0]

   Cartesian axes

     site n.     atom                  positions (alat units)
         1           Ga  tau(   1) = (   0.1000001   0.0577350   0.1627148  )
         2           Ga  tau(   2) = (   0.1000001   0.0577350   0.4886906  )
         3           Ga  tau(   3) = (   0.1000001   0.0577350   0.8146665  )
         4           Ga  tau(   4) = (   0.0000001   0.2309401   0.1627148  )
         5           Ga  tau(   5) = (   0.0000001   0.2309401   0.4886906  )
         6           Ga  tau(   6) = (   0.0000001   0.2309401   0.8146665  )
         7           Ga  tau(   7) = (  -0.0999999   0.4041451   0.1627148  )
         8           Ga  tau(   8) = (  -0.0999999   0.4041451   0.4886906  )
         9           Ga  tau(   9) = (  -0.0999999   0.4041451   0.8146665  )
        10           Ga  tau(  10) = (  -0.1999999   0.5773502   0.1627148  )
        11           Ga  tau(  11) = (  -0.1999999   0.5773502   0.4886906  )
        12           Ga  tau(  12) = (  -0.1999999   0.5773502   0.8146665  )
        13           Ga  tau(  13) = (  -0.2999999   0.7505553   0.1627148  )
        14           Ga  tau(  14) = (  -0.2999999   0.7505553   0.4886906  )
        15           Ga  tau(  15) = (  -0.2999999   0.7505553   0.8146665  )
        16           Ga  tau(  16) = (   0.3000001   0.0577350   0.1627148  )
        17           Ga  tau(  17) = (   0.3000001   0.0577350   0.4886906  )
        18           Ga  tau(  18) = (   0.3000001   0.0577350   0.8146665  )
        19           Ga  tau(  19) = (   0.2000001   0.2309401   0.1627148  )
        20           Ga  tau(  20) = (   0.2000001   0.2309401   0.4886906  )
        21           Ga  tau(  21) = (   0.2000001   0.2309401   0.8146665  )
        22           Ga  tau(  22) = (   0.1000001   0.4041451   0.1627148  )
        23           Ga  tau(  23) = (   0.1000001   0.4041451   0.4886906  )
        24           Ga  tau(  24) = (   0.1000001   0.4041451   0.8146665  )
        25           Ga  tau(  25) = (   0.0000001   0.5773502   0.1627148  )
        26           Ga  tau(  26) = (   0.0000001   0.5773502   0.4886906  )
        27           Ga  tau(  27) = (   0.0000001   0.5773502   0.8146665  )
        28           Ga  tau(  28) = (  -0.0999999   0.7505553   0.1627148  )
        29           Ga  tau(  29) = (  -0.0999999   0.7505553   0.4886906  )
        30           Ga  tau(  30) = (  -0.0999999   0.7505553   0.8146665  )
        31           Ga  tau(  31) = (   0.5000001   0.0577350   0.1627148  )
        32           Ga  tau(  32) = (   0.5000001   0.0577350   0.4886906  )
        33           Ga  tau(  33) = (   0.5000001   0.0577350   0.8146665  )
        34           Ga  tau(  34) = (   0.4000001   0.2309401   0.1627148  )
        35           Ga  tau(  35) = (   0.4000001   0.2309401   0.4886906  )
        36           Ga  tau(  36) = (   0.4000001   0.2309401   0.8146665  )
        37           Ga  tau(  37) = (   0.3000001   0.4041451   0.1627148  )
        38           Ga  tau(  38) = (   0.3000001   0.4041451   0.4886906  )
        39           Ga  tau(  39) = (   0.3000001   0.4041451   0.8146665  )
        40           Ga  tau(  40) = (   0.2000001   0.5773502   0.1627148  )
        41           Ga  tau(  41) = (   0.2000001   0.5773502   0.4886906  )
        42           Ga  tau(  42) = (   0.2000001   0.5773502   0.8146665  )
        43           Ga  tau(  43) = (   0.1000001   0.7505553   0.1627148  )
        44           Ga  tau(  44) = (   0.1000001   0.7505553   0.4886906  )
        45           Ga  tau(  45) = (   0.1000001   0.7505553   0.8146665  )
        46           Ga  tau(  46) = (   0.7000001   0.0577350   0.1627148  )
        47           Ga  tau(  47) = (   0.7000001   0.0577350   0.4886906  )
        48           Ga  tau(  48) = (   0.7000001   0.0577350   0.8146665  )
        49           Ga  tau(  49) = (   0.6000001   0.2309401   0.1627148  )
        50           Ga  tau(  50) = (   0.6000001   0.2309401   0.4886906  )
        51           Ga  tau(  51) = (   0.6000001   0.2309401   0.8146665  )
        52           Ga  tau(  52) = (   0.5000001   0.4041451   0.1627148  )
        53           Ga  tau(  53) = (   0.5000001   0.4041451   0.4886906  )
        54           Ga  tau(  54) = (   0.5000001   0.4041451   0.8146665  )
        55           Ga  tau(  55) = (   0.4000001   0.5773502   0.1627148  )
        56           Ga  tau(  56) = (   0.4000001   0.5773502   0.4886906  )
        57           Ga  tau(  57) = (   0.4000001   0.5773502   0.8146665  )
        58           Ga  tau(  58) = (   0.3000001   0.7505553   0.1627148  )
        59           Ga  tau(  59) = (   0.3000001   0.7505553   0.4886906  )
        60           Ga  tau(  60) = (   0.3000001   0.7505553   0.8146665  )
[...]
       285           N   tau( 285) = (   0.7999999   0.1154701   0.1225140  )
       286           N   tau( 286) = (   0.7999999   0.1154701   0.4484898  )
       287           N   tau( 287) = (   0.7999999   0.1154701   0.7744656  )
       288           N   tau( 288) = (   0.6999999   0.2886752   0.1225140  )
       289           N   tau( 289) = (   0.6999999   0.2886752   0.4484898  )
       290           N   tau( 290) = (   0.6999999   0.2886752   0.7744656  )
       291           N   tau( 291) = (   0.5999999   0.4618803   0.1225140  )
       292           N   tau( 292) = (   0.5999999   0.4618803   0.4484898  )
       293           N   tau( 293) = (   0.5999999   0.4618803   0.7744656  )
       294           N   tau( 294) = (   0.4999999   0.6350854   0.1225140  )
       295           N   tau( 295) = (   0.4999999   0.6350854   0.4484898  )
       296           N   tau( 296) = (   0.4999999   0.6350854   0.7744656  )
       297           N   tau( 297) = (   0.3999999   0.8082905   0.1225140  )
       298           N   tau( 298) = (   0.3999999   0.8082905   0.4484898  )
       299           N   tau( 299) = (   0.3999999   0.8082905   0.7744656  )

   Crystallographic axes

     site n.     atom                  positions (cryst. coord.)
         1           Ga  tau(   1) = (  0.1333334  0.0666666  0.1663874  )
[...]
     atom   44 type  1   force =     0.00000000    0.00000000    0.00000000
     atom   45 type  1   force =     0.00000000    0.00000000    0.00000000
     atom   46 type  1   force =     0.00000000    0.00000000    0.00000000
     atom   47 type  1   force =     0.00000000    0.00000000    0.00000000
     atom   48 type  1   force =     0.00000000    0.00000000    0.00000000
     atom   49 type  1   force =     0.00000000    0.00000000    0.00000000
     atom   50 type  1   force =     0.00000000    0.00000000    0.00000000
     atom   51 type  1   force =     0.00000000    0.00000000    0.00000000
     atom   52 type  1   force =     0.00000000    0.00000000    0.00000000
     atom   53 type  1   force =     0.00000000    0.00000000    0.00000000
     atom   54 type  1   force =     0.00000000    0.00000000    0.00000000
     atom   55 type  1   force =     0.00000000    0.00000000    0.00000000
     atom   56 type  1   force =     0.00000000    0.00000000    0.00000000
     atom   57 type  1   force =     0.00000000    0.00000000    0.00000000
     atom   58 type  1   force =     0.00000000    0.00000000    0.00000000
     atom   59 type  1   force =     0.00000000    0.00000000    0.00000000
     atom   60 type  1   force =     0.00000000    0.00000000    0.00000000
[...]
     atom  285 type  2   force =     0.00000000    0.00000000    0.00000000
     atom  286 type  2   force =     0.00000000    0.00000000    0.00000000
     atom  287 type  2   force =     0.00000000    0.00000000    0.00000000
     atom  288 type  2   force =     0.00000000    0.00000000    0.00000000
     atom  289 type  2   force =     0.00000000    0.00000000    0.00000000
     atom  290 type  2   force =     0.00000000    0.00000000    0.00000000
     atom  291 type  2   force =     0.00000000    0.00000000    0.00000000
     atom  292 type  2   force =     0.00000000    0.00000000    0.00000000
     atom  293 type  2   force =     0.00000000    0.00000000    0.00000000
     atom  294 type  2   force =     0.00000000    0.00000000    0.00000000
     atom  295 type  2   force =     0.00000000    0.00000000    0.00000000
     atom  296 type  2   force =     0.00000000    0.00000000    0.00000000
     atom  297 type  2   force =     0.00000000    0.00000000    0.00000000
     atom  298 type  2   force =     0.00000000    0.00000000    0.00000000
     atom  299 type  2   force =     0.00000000    0.00000000    0.00000000
     The SCF correction term to forces
     atom    1 type  1   force =    -0.00000073   -0.00000042    0.00002087
     atom    2 type  1   force =    -0.00000046   -0.00000027   -0.00000961
     atom    3 type  1   force =    -0.00000023   -0.00000013    0.00000105
     atom    4 type  1   force =     0.00000135   -0.00000186    0.00000867
     atom    5 type  1   force =    -0.00000015    0.00000481   -0.00000480
     atom    6 type  1   force =    -0.00000200    0.00000365    0.00000019
     atom    7 type  1   force =    -0.00000034    0.00000002    0.00000250
     atom    8 type  1   force =    -0.00000405    0.00000353   -0.00000060
     atom    9 type  1   force =    -0.00000190    0.00000157   -0.00000204
     atom   10 type  1   force =    -0.00000015   -0.00000030    0.00000250
     atom   11 type  1   force =     0.00000103   -0.00000527   -0.00000060
     atom   12 type  1   force =     0.00000041   -0.00000244   -0.00000204
     atom   13 type  1   force =    -0.00000094    0.00000210    0.00000867
     atom   14 type  1   force =     0.00000409   -0.00000253   -0.00000480
     atom   15 type  1   force =     0.00000216   -0.00000356    0.00000019
     atom   16 type  1   force =    -0.00000229   -0.00000093    0.00000855
     atom   17 type  1   force =     0.00000421   -0.00000293   -0.00000468
     atom   18 type  1   force =     0.00000400   -0.00000052    0.00000008
     atom   19 type  1   force =    -0.00000195   -0.00000152    0.00000855
     atom   20 type  1   force =    -0.00000043    0.00000511   -0.00000468
     atom   21 type  1   force =     0.00000155    0.00000372    0.00000008
     atom   22 type  1   force =    -0.00000004   -0.00000112    0.00000399
     atom   23 type  1   force =    -0.00000003    0.00000556   -0.00000271
     atom   24 type  1   force =    -0.00000013    0.00000250   -0.00000201
     atom   25 type  1   force =     0.00000056    0.00000033    0.00000466
     atom   26 type  1   force =     0.00000115    0.00000066   -0.00000206
     atom   27 type  1   force =    -0.00000084   -0.00000049   -0.00000257
     atom   28 type  1   force =    -0.00000099    0.00000052    0.00000399
     atom   29 type  1   force =     0.00000480   -0.00000281   -0.00000271
     atom   30 type  1   force =     0.00000210   -0.00000136   -0.00000201
     atom   31 type  1   force =     0.00000024   -0.00000017    0.00000252
     atom   32 type  1   force =     0.00000516    0.00000129   -0.00000064
     atom   33 type  1   force =     0.00000226    0.00000048   -0.00000205
     atom   34 type  1   force =     0.00000162    0.00000093    0.00000385
     atom   35 type  1   force =     0.00000979    0.00000565   -0.00000115
     atom   36 type  1   force =     0.00000319    0.00000184   -0.00000230
     atom   37 type  1   force =    -0.00000003    0.00000029    0.00000252
     atom   38 type  1   force =     0.00000369    0.00000382   -0.00000064
     atom   39 type  1   force =     0.00000155    0.00000172   -0.00000205
     atom   40 type  1   force =    -0.00000060    0.00000031    0.00000485
     atom   41 type  1   force =    -0.00000119    0.00000066   -0.00000217
     atom   42 type  1   force =     0.00000064   -0.00000047   -0.00000256
     atom   43 type  1   force =    -0.00000003   -0.00000068    0.00000485
     atom   44 type  1   force =    -0.00000002   -0.00000136   -0.00000217
     atom   45 type  1   force =    -0.00000009    0.00000079   -0.00000256
     atom   46 type  1   force =    -0.00000004   -0.00000007    0.00000243
     atom   47 type  1   force =    -0.00000505    0.00000137   -0.00000076
     atom   48 type  1   force =    -0.00000217    0.00000063   -0.00000198
     atom   49 type  1   force =     0.00000011    0.00000383    0.00000537
     atom   50 type  1   force =     0.00000011    0.00000536   -0.00000316
     atom   51 type  1   force =     0.00000024    0.00000062   -0.00000364
     atom   52 type  1   force =     0.00000337   -0.00000182    0.00000537
     atom   53 type  1   force =     0.00000469   -0.00000259   -0.00000316
     atom   54 type  1   force =     0.00000066   -0.00000011   -0.00000364
     atom   55 type  1   force =    -0.00000008    0.00000000    0.00000243
     atom   56 type  1   force =    -0.00000133   -0.00000506   -0.00000076
     atom   57 type  1   force =    -0.00000054   -0.00000219   -0.00000198
     atom   58 type  1   force =     0.00000107    0.00000062    0.00000399
     atom   59 type  1   force =    -0.00000476   -0.00000275   -0.00000277
     atom   60 type  1   force =    -0.00000202   -0.00000117   -0.00000185
[...]
     atom  285 type  2   force =     0.00000055   -0.00000040    0.00000176
     atom  286 type  2   force =    -0.00000441    0.00000016   -0.00000065
     atom  287 type  2   force =    -0.00000194    0.00000055   -0.00000099
     atom  288 type  2   force =    -0.00000076    0.00000061    0.00000252
     atom  289 type  2   force =    -0.00000298    0.00000193   -0.00000089
     atom  290 type  2   force =    -0.00000042    0.00000048   -0.00000210
     atom  291 type  2   force =     0.00000015   -0.00000096    0.00000252
     atom  292 type  2   force =     0.00000018   -0.00000355   -0.00000089
     atom  293 type  2   force =     0.00000021   -0.00000061   -0.00000210
     atom  294 type  2   force =    -0.00000008    0.00000068    0.00000176
     atom  295 type  2   force =    -0.00000207   -0.00000390   -0.00000065
     atom  296 type  2   force =    -0.00000050   -0.00000195   -0.00000099
     atom  297 type  2   force =    -0.00000011   -0.00000006    0.00000399
     atom  298 type  2   force =    -0.00000274   -0.00000158   -0.00000245
     atom  299 type  2   force =    -0.00000165   -0.00000095   -0.00000089

     Total force =     0.003649     Total SCF correction =     0.000082

     Computing stress (Cartesian axis) and pressure

     Non-local corr. energy    =      81.68806936 Ry

          total   stress  (Ry/bohr**3)                   (kbar)     P=       -5.74
  -0.00004331   0.00000001   0.00000003           -6.37        0.00        0.00
   0.00000001  -0.00004332   0.00000002            0.00       -6.37        0.00
   0.00000003   0.00000002  -0.00003040            0.00        0.00       -4.47

     kinetic stress (kbar)  18373.91      0.00      0.00
                                0.00  18373.91      0.00
                                0.00      0.00  18369.38

     local   stress (kbar)   5386.63      0.37      0.01
                                0.37   5386.03      0.01
                                0.01      0.01   3750.18

     nonloc. stress (kbar)     84.96      0.00     -0.00
                                0.00     84.96     -0.00
                               -0.00     -0.00     96.01

     hartree stress (kbar)  19614.67     -0.17     -0.01
                               -0.17  19614.87     -0.01
                               -0.01     -0.01  20362.79

     exc-cor stress (kbar)   5227.06     -0.00      0.00
                               -0.00   5227.06      0.00
                                0.00      0.00   5227.33

     corecor stress (kbar) -14106.08     -0.00     -0.00
                               -0.00 -14106.08     -0.00
                               -0.00     -0.00 -14105.52

     ewald   stress (kbar) -34749.52     -0.19      0.00
                               -0.19 -34749.07      0.00
                                0.00      0.00 -33865.76

     hubbard stress (kbar)      0.00      0.00      0.00
                                0.00      0.00      0.00
                                0.00      0.00      0.00

     DFT-D   stress (kbar)      0.00      0.00      0.00
                                0.00      0.00      0.00
                                0.00      0.00      0.00

     XDM     stress (kbar)      0.00      0.00      0.00
                                0.00      0.00      0.00
                                0.00      0.00      0.00

     dft-nl  stress (kbar)    161.97      0.00     -0.00
                                0.00    161.97     -0.00
                               -0.00     -0.00    161.12

     TS-vdW  stress (kbar)      0.00      0.00      0.00
                                0.00      0.00      0.00
                                0.00      0.00      0.00

     MDB     stress (kbar)      0.00      0.00      0.00
                                0.00      0.00      0.00
                                0.00      0.00      0.00

     3D-RISM stress (kbar)      0.00      0.00      0.00
                                0.00      0.00      0.00
                                0.00      0.00      0.00

     Energy error            =      4.4E-05 Ry
     Gradient error          =      9.0E-04 Ry/Bohr

     bfgs converged in   5 scf cycles and   4 bfgs steps
     (criteria: energy <  1.0E-04 Ry, force <  1.0E-03 Ry/Bohr)

     End of BFGS Geometry Optimization

     Final energy             =  -46815.1905063336 Ry

     File ./GaN.bfgs deleted, as requested
Begin final coordinates

ATOMIC_POSITIONS (angstrom)
Ga            1.6217446508        0.9363132397        2.6076172280
Ga            1.6218382848        0.9363672993        7.9473475315
Ga            1.6218859735        0.9363948324       13.2108535041
Ga            0.0010649218        3.7567039302        2.6343656584
Ga            0.0021429727        3.7538130556        7.9291601175
Ga           -0.0005315606        3.7478602823       13.2164217518
Ga           -1.6222663364        6.5577042122        2.6376732854
Ga           -1.6222240727        6.5581531302        7.9299910869
Ga           -1.6224414308        6.5569832843       13.2156952909
Ga           -3.2433644989        9.3655285938        2.6376732854
Ga           -3.2429545927        9.3653407362        7.9299910869
Ga           -3.2440763880        9.3657374215       13.2156952909
Ga           -4.8574362699       12.1718748431        2.6343656584
Ga           -4.8594008153       12.1742538999        7.9291601175
Ga           -4.8658933349       12.1749140728       13.2164217518
Ga            4.8755895178        0.9302008041        2.6340168281
Ga            4.8725091892        0.9305408046        7.9289340808
Ga            4.8685642190        0.9360434484       13.2161072254
Ga            3.2433735597        3.7572817724        2.6340168281
Ga            3.2421278445        3.7544441294        7.9289340808
Ga            3.2449207887        3.7482763630       13.2161072254
Ga            1.6226004898        6.5610151325        2.6374543001
Ga            1.6226130944        6.5615230983        7.9316582405
Ga            1.6225270322        6.5578225253       13.2151257564
Ga            0.0007246295        9.3666214043        2.6383125855
Ga            0.0008208651        9.3666769659        7.9294680783
Ga            0.0004986392        9.3664909287       13.2156729655
Ga           -1.6180637447       12.1740102371        2.6374543001
Ga           -1.6176175312       12.1737671701        7.9316582405
Ga           -1.6208653525       12.1755429245       13.2151257564
Ga            8.1126675145        0.9354982708        2.6375553203
Ga            8.1130076439        0.9352287814        7.9298668431
Ga            8.1121217071        0.9360312751       13.2155743564
Ga            6.4911072426        3.7476410430        2.6382123204
Ga            6.4910207962        3.7475911332        7.9324118720
Ga            6.4901885706        3.7471106475       13.2156520706
Ga            4.8665002989        6.5580248185        2.6375553203
Ga            4.8664369789        6.5584541239        7.9298668431
Ga            4.8666889904        6.5572856332       13.2155743564
Ga            3.2441994701        9.3665574176        2.6385001654
Ga            3.2441097172        9.3666130977        7.9296556084
Ga            3.2444211248        9.3664331456       13.2158579172
Ga            1.6224066358       12.1755850063        2.6385001654
Ga            1.6224099796       12.1754794379        7.9296556084
Ga            1.6224098403       12.1758391008       13.2158579172
Ga           11.3542269066        0.9351646793        2.6375421686
Ga           11.3538435169        0.9348764046        7.9299115177
Ga           11.3548650277        0.9357120463       13.2155934335
Ga            9.7332673801        3.7468911323        2.6387541234
Ga            9.7332618826        3.7468251768        7.9299060847
Ga            9.7332717089        3.7466808634       13.2161747944
Ga            8.1115378696        6.5558090407        2.6387541234
Ga            8.1114780017        6.5558372574        7.9299060847
Ga            8.1113579358        6.5559179239       13.2161747944
Ga            6.4869910961        9.3654643956        2.6375421686
Ga            6.4865497481        9.3652765077        7.9299115177
Ga            6.4877841905        9.3657433412       13.2155934335
Ga            4.8623675670       12.1734922631        2.6377434554
Ga            4.8619403686       12.1732456199        7.9318427835
Ga            4.8652577419       12.1751609063       13.2153676506
[...]
N            12.9805825204        1.8731451029        1.9885765173
N            12.9815674815        1.8729231686        7.2751706980
N            12.9793295231        1.8726325034       12.5643945136
N            11.3564046170        4.6828538301        1.9873149974
N            11.3567329186        4.6826665978        7.2752272941
N            11.3560954272        4.6830379019       12.5641053738
N             9.7336703675        7.4935119975        1.9873149974
N             9.7336723704        7.4938899312        7.2752272941
N             9.7336751834        7.4931521955       12.5641053738
N             8.1124801844       10.3049456857        1.9885765173
N             8.1127804641       10.3059096541        7.2751706980
N             8.1114097615       10.3041168579       12.5643945136
N             6.4880850759       13.1121048543        1.9865197792
N             6.4873809933       13.1116983520        7.2745545752
N             6.4900649691       13.1132479462       12.5645143627
End final coordinates

     Writing all to output data dir ./GaN.save/

     General routines

     Parallel routines

     PAW routines

   This run was terminated on:  21:30:34  18Mar2024

   JOB DONE.