     Program PWSCF v.7.1 starts on 26Mar2024 at 10:49:40

     Reading input from espresso.pwi
Warning: card &CELL ignored
Warning: card    CELL_DYNAMICS    = 'BFGS' ignored
Warning: card / ignored

     Current dimensions of program PWSCF are:
     Max number of different atomic species (ntypx) = 10
     Max number of k-points (npk) =  40000
     Max angular momentum in pseudopotentials (lmaxx) =  4
     file Ga.pbe-dn-kjpaw_psl.1.0.0.UPF: wavefunction(s)  4S renormalized
     file N.pbe-n-kjpaw_psl.1.0.0.UPF: wavefunction(s)  2S renormalized

     IMPORTANT: XC functional enforced from input :
     Exchange-correlation= BEEF-VDW
                           (   1   4  43  14   2   0   0)
     Any further DFT definition will be discarded
     Please, verify this is what you really want

     K-points division:     npool     =       3
     R & G space division:  proc/nbgrp/npool/nimage =      60
     Subspace diagonalization in iterative solution of the eigenvalue problem:
     a serial algorithm will be used

     Using Slab Decomposition

     bravais-lattice index     =            4
     lattice parameter (alat)  =      30.6565  a.u.
     unit-cell volume          =   24400.9461 (a.u.)^3
     number of atoms/cell      =          299
     number of atomic types    =            2
     number of electrons       =      2693.00
     number of Kohn-Sham states=         1616
     kinetic-energy cutoff     =      70.0000  Ry
     charge density cutoff     =     350.0000  Ry
     scf convergence threshold =      1.0E-07
     mixing beta               =       0.7000
     number of iterations used =            8  plain     mixing
     Exchange-correlation= BEEF-VDW
                           (   1   4  43  14   2   0   0)

     celldm(1)=  30.656540  celldm(2)=   0.000000  celldm(3)=   0.977927
     celldm(4)=   0.000000  celldm(5)=   0.000000  celldm(6)=   0.000000

     crystal axes: (cart. coord. in units of alat)
               a(1) = (   1.000000   0.000000   0.000000 )
               a(2) = (  -0.500000   0.866025   0.000000 )
               a(3) = (   0.000000   0.000000   0.977927 )

     reciprocal axes: (cart. coord. in units 2 pi/alat)
               b(1) = (  1.000000  0.577350 -0.000000 )
               b(2) = (  0.000000  1.154701  0.000000 )
               b(3) = (  0.000000 -0.000000  1.022571 )

     PseudoPot. # 1 for Ga read from file:
     //group///packages/espresso/pseudo/psl_1.0.0/pslibrary.1.0.0/pbe/PSEUDOPOTENTIALS/Ga.pbe-dn-kjpaw_psl.1.0.0.UPF
     MD5 check sum: cd2a01e492f15b435d17032472d8505c
     Pseudo is Projector augmented-wave + core cor, Zval = 13.0
     Generated using 'atomic' code by A. Dal Corso  v.7.1
     Shape of augmentation charge: PSQ
     Using radial grid of 1205 points,  6 beta functions with:
                l(1) =   0
                l(2) =   0
                l(3) =   1
                l(4) =   1
                l(5) =   2
                l(6) =   2
     Q(r) pseudized with 0 coefficients

     PseudoPot. # 2 for N  read from file:
     //group///packages/espresso/pseudo/psl_1.0.0/pslibrary.1.0.0/pbe/PSEUDOPOTENTIALS/N.pbe-n-kjpaw_psl.1.0.0.UPF
     MD5 check sum: f77f775694dac7e2c3fe1c82443d1a16
     Pseudo is Projector augmented-wave + core cor, Zval =  5.0
     Generated using 'atomic' code by A. Dal Corso  v.7.1
     Shape of augmentation charge: PSQ
     Using radial grid of 1085 points,  4 beta functions with:
                l(1) =   0
                l(2) =   0
                l(3) =   1
                l(4) =   1
     Q(r) pseudized with 0 coefficients

     atomic species   valence    mass     pseudopotential
        Ga            13.00    69.72300     Ga( 1.00)
        N              5.00    14.00700     N ( 1.00)

      2 Sym. Ops. (no inversion) found

                                    s                        frac. trans.

      isym =  1     identity

 cryst.   s( 1) = (     1          0          0      )
                  (     0          1          0      )
                  (     0          0          1      )

 cart.    s( 1) = (  1.0000000  0.0000000  0.0000000 )
                  (  0.0000000  1.0000000  0.0000000 )
                  (  0.0000000  0.0000000  1.0000000 )

      isym =  2     inv. 180 deg rotation - cryst. axis [0,1,0]

 cryst.   s( 2) = (     1          1          0      )
                  (     0         -1          0      )
                  (     0          0          1      )

 cart.    s( 2) = (  0.5000000  0.8660254  0.0000000 )
                  (  0.8660254 -0.5000000  0.0000000 )
                  (  0.0000000  0.0000000  1.0000000 )

     point group C_s (m)
     there are  2 classes
     the character table:

       E     s
A'     1.00  1.00
A''    1.00 -1.00

     the symmetry operations in each class and the name of the first element:

     E        1
          identity
     s        2
          inv. 180 deg rotation - cryst. axis [0,1,0]

   Cartesian axes

     site n.     atom                  positions (alat units)
         1           Ga  tau(   1) = (   0.1000001   0.0577350   0.1627148  )
         2           Ga  tau(   2) = (   0.1000001   0.0577350   0.4886906  )
         3           Ga  tau(   3) = (   0.1000001   0.0577350   0.8146665  )
         4           Ga  tau(   4) = (   0.0000001   0.2309401   0.1627148  )
         5           Ga  tau(   5) = (   0.0000001   0.2309401   0.4886906  )
         6           Ga  tau(   6) = (   0.0000001   0.2309401   0.8146665  )
         7           Ga  tau(   7) = (  -0.0999999   0.4041451   0.1627148  )
         8           Ga  tau(   8) = (  -0.0999999   0.4041451   0.4886906  )
         9           Ga  tau(   9) = (  -0.0999999   0.4041451   0.8146665  )
        10           Ga  tau(  10) = (  -0.1999999   0.5773502   0.1627148  )
        11           Ga  tau(  11) = (  -0.1999999   0.5773502   0.4886906  )
        12           Ga  tau(  12) = (  -0.1999999   0.5773502   0.8146665  )
        13           Ga  tau(  13) = (  -0.2999999   0.7505553   0.1627148  )
        14           Ga  tau(  14) = (  -0.2999999   0.7505553   0.4886906  )
        15           Ga  tau(  15) = (  -0.2999999   0.7505553   0.8146665  )
        16           Ga  tau(  16) = (   0.3000001   0.0577350   0.1627148  )
        17           Ga  tau(  17) = (   0.3000001   0.0577350   0.4886906  )
        18           Ga  tau(  18) = (   0.3000001   0.0577350   0.8146665  )
        19           Ga  tau(  19) = (   0.2000001   0.2309401   0.1627148  )
        20           Ga  tau(  20) = (   0.2000001   0.2309401   0.4886906  )
        21           Ga  tau(  21) = (   0.2000001   0.2309401   0.8146665  )
        22           Ga  tau(  22) = (   0.1000001   0.4041451   0.1627148  )
        23           Ga  tau(  23) = (   0.1000001   0.4041451   0.4886906  )
        24           Ga  tau(  24) = (   0.1000001   0.4041451   0.8146665  )
        25           Ga  tau(  25) = (   0.0000001   0.5773502   0.1627148  )
        26           Ga  tau(  26) = (   0.0000001   0.5773502   0.4886906  )
        27           Ga  tau(  27) = (   0.0000001   0.5773502   0.8146665  )
        28           Ga  tau(  28) = (  -0.0999999   0.7505553   0.1627148  )
        29           Ga  tau(  29) = (  -0.0999999   0.7505553   0.4886906  )
        30           Ga  tau(  30) = (  -0.0999999   0.7505553   0.8146665  )
        31           Ga  tau(  31) = (   0.5000001   0.0577350   0.1627148  )
        32           Ga  tau(  32) = (   0.5000001   0.0577350   0.4886906  )
        33           Ga  tau(  33) = (   0.5000001   0.0577350   0.8146665  )
        34           Ga  tau(  34) = (   0.4000001   0.2309401   0.1627148  )
        35           Ga  tau(  35) = (   0.4000001   0.2309401   0.4886906  )
        36           Ga  tau(  36) = (   0.4000001   0.2309401   0.8146665  )
        37           Ga  tau(  37) = (   0.3000001   0.4041451   0.1627148  )
        38           Ga  tau(  38) = (   0.3000001   0.4041451   0.4886906  )
        39           Ga  tau(  39) = (   0.3000001   0.4041451   0.8146665  )
        40           Ga  tau(  40) = (   0.2000001   0.5773502   0.1627148  )
        41           Ga  tau(  41) = (   0.2000001   0.5773502   0.4886906  )
        42           Ga  tau(  42) = (   0.2000001   0.5773502   0.8146665  )
        43           Ga  tau(  43) = (   0.1000001   0.7505553   0.1627148  )
        44           Ga  tau(  44) = (   0.1000001   0.7505553   0.4886906  )
        45           Ga  tau(  45) = (   0.1000001   0.7505553   0.8146665  )
        46           Ga  tau(  46) = (   0.7000001   0.0577350   0.1627148  )
        47           Ga  tau(  47) = (   0.7000001   0.0577350   0.4886906  )
        48           Ga  tau(  48) = (   0.7000001   0.0577350   0.8146665  )
        49           Ga  tau(  49) = (   0.6000001   0.2309401   0.1627148  )
        50           Ga  tau(  50) = (   0.6000001   0.2309401   0.4886906  )
        51           Ga  tau(  51) = (   0.6000001   0.2309401   0.8146665  )
        52           Ga  tau(  52) = (   0.5000001   0.4041451   0.1627148  )
        53           Ga  tau(  53) = (   0.5000001   0.4041451   0.4886906  )
        54           Ga  tau(  54) = (   0.5000001   0.4041451   0.8146665  )
        55           Ga  tau(  55) = (   0.4000001   0.5773502   0.1627148  )
        56           Ga  tau(  56) = (   0.4000001   0.5773502   0.4886906  )
        57           Ga  tau(  57) = (   0.4000001   0.5773502   0.8146665  )
        58           Ga  tau(  58) = (   0.3000001   0.7505553   0.1627148  )
        59           Ga  tau(  59) = (   0.3000001   0.7505553   0.4886906  )
        60           Ga  tau(  60) = (   0.3000001   0.7505553   0.8146665  )
[...]
       285           N   tau( 285) = (   0.7999999   0.1154701   0.1225140  )
       286           N   tau( 286) = (   0.7999999   0.1154701   0.4484898  )
       287           N   tau( 287) = (   0.7999999   0.1154701   0.7744656  )
       288           N   tau( 288) = (   0.6999999   0.2886752   0.1225140  )
       289           N   tau( 289) = (   0.6999999   0.2886752   0.4484898  )
       290           N   tau( 290) = (   0.6999999   0.2886752   0.7744656  )
       291           N   tau( 291) = (   0.5999999   0.4618803   0.1225140  )
       292           N   tau( 292) = (   0.5999999   0.4618803   0.4484898  )
       293           N   tau( 293) = (   0.5999999   0.4618803   0.7744656  )
       294           N   tau( 294) = (   0.4999999   0.6350854   0.1225140  )
       295           N   tau( 295) = (   0.4999999   0.6350854   0.4484898  )
       296           N   tau( 296) = (   0.4999999   0.6350854   0.7744656  )
       297           N   tau( 297) = (   0.3999999   0.8082905   0.1225140  )
       298           N   tau( 298) = (   0.3999999   0.8082905   0.4484898  )
       299           N   tau( 299) = (   0.3999999   0.8082905   0.7744656  )

   Crystallographic axes

     site n.     atom                  positions (cryst. coord.)
         1           Ga  tau(   1) = (  0.1333334  0.0666666  0.1663874  )
         2           Ga  tau(   2) = (  0.1333334  0.0666666  0.4997208  )
         3           Ga  tau(   3) = (  0.1333334  0.0666666  0.8330541  )
[...]
     atom   26 type  1   force =     0.00000000    0.00000000    0.00000000
     atom   27 type  1   force =     0.00000000    0.00000000    0.00000000
     atom   28 type  1   force =     0.00000000    0.00000000    0.00000000
     atom   29 type  1   force =     0.00000000    0.00000000    0.00000000
     atom   30 type  1   force =     0.00000000    0.00000000    0.00000000
     atom   31 type  1   force =     0.00000000    0.00000000    0.00000000
     atom   32 type  1   force =     0.00000000    0.00000000    0.00000000
     atom   33 type  1   force =     0.00000000    0.00000000    0.00000000
     atom   34 type  1   force =     0.00000000    0.00000000    0.00000000
     atom   35 type  1   force =     0.00000000    0.00000000    0.00000000
     atom   36 type  1   force =     0.00000000    0.00000000    0.00000000
     atom   37 type  1   force =     0.00000000    0.00000000    0.00000000
     atom   38 type  1   force =     0.00000000    0.00000000    0.00000000
     atom   39 type  1   force =     0.00000000    0.00000000    0.00000000
     atom   40 type  1   force =     0.00000000    0.00000000    0.00000000
     atom   41 type  1   force =     0.00000000    0.00000000    0.00000000
     atom   42 type  1   force =     0.00000000    0.00000000    0.00000000
     atom   43 type  1   force =     0.00000000    0.00000000    0.00000000
     atom   44 type  1   force =     0.00000000    0.00000000    0.00000000
     atom   45 type  1   force =     0.00000000    0.00000000    0.00000000
     atom   46 type  1   force =     0.00000000    0.00000000    0.00000000
     atom   47 type  1   force =     0.00000000    0.00000000    0.00000000
     atom   48 type  1   force =     0.00000000    0.00000000    0.00000000
     atom   49 type  1   force =     0.00000000    0.00000000    0.00000000
     atom   50 type  1   force =     0.00000000    0.00000000    0.00000000
     atom   51 type  1   force =     0.00000000    0.00000000    0.00000000
     atom   52 type  1   force =     0.00000000    0.00000000    0.00000000
     atom   53 type  1   force =     0.00000000    0.00000000    0.00000000
     atom   54 type  1   force =     0.00000000    0.00000000    0.00000000
     atom   55 type  1   force =     0.00000000    0.00000000    0.00000000
     atom   56 type  1   force =     0.00000000    0.00000000    0.00000000
     atom   57 type  1   force =     0.00000000    0.00000000    0.00000000
     atom   58 type  1   force =     0.00000000    0.00000000    0.00000000
     atom   59 type  1   force =     0.00000000    0.00000000    0.00000000
     atom   60 type  1   force =     0.00000000    0.00000000    0.00000000
[...]
     atom  285 type  2   force =     0.00000000    0.00000000    0.00000000
     atom  286 type  2   force =     0.00000000    0.00000000    0.00000000
     atom  287 type  2   force =     0.00000000    0.00000000    0.00000000
     atom  288 type  2   force =     0.00000000    0.00000000    0.00000000
     atom  289 type  2   force =     0.00000000    0.00000000    0.00000000
     atom  290 type  2   force =     0.00000000    0.00000000    0.00000000
     atom  291 type  2   force =     0.00000000    0.00000000    0.00000000
     atom  292 type  2   force =     0.00000000    0.00000000    0.00000000
     atom  293 type  2   force =     0.00000000    0.00000000    0.00000000
     atom  294 type  2   force =     0.00000000    0.00000000    0.00000000
     atom  295 type  2   force =     0.00000000    0.00000000    0.00000000
     atom  296 type  2   force =     0.00000000    0.00000000    0.00000000
     atom  297 type  2   force =     0.00000000    0.00000000    0.00000000
     atom  298 type  2   force =     0.00000000    0.00000000    0.00000000
     atom  299 type  2   force =     0.00000000    0.00000000    0.00000000
     The SCF correction term to forces
     atom    1 type  1   force =    -0.00003287   -0.00001898   -0.00005575
     atom    2 type  1   force =    -0.00003250   -0.00001877    0.00005721
     atom    3 type  1   force =    -0.00003151   -0.00001819   -0.00002295
     atom    4 type  1   force =    -0.00003619    0.00004976   -0.00002515
     atom    5 type  1   force =    -0.00003276    0.00004027    0.00004184
     atom    6 type  1   force =    -0.00003164    0.00003247   -0.00002404
     atom    7 type  1   force =     0.00000938    0.00003176   -0.00001703
     atom    8 type  1   force =     0.00001460    0.00003151    0.00004071
     atom    9 type  1   force =     0.00001618    0.00003864   -0.00002745
     atom   10 type  1   force =     0.00003219   -0.00000775   -0.00001703
     atom   11 type  1   force =     0.00003459   -0.00000311    0.00004071
     atom   12 type  1   force =     0.00004155   -0.00000531   -0.00002745
     atom   13 type  1   force =     0.00002500   -0.00005622   -0.00002515
     atom   14 type  1   force =     0.00001850   -0.00004850    0.00004184
     atom   15 type  1   force =     0.00001231   -0.00004364   -0.00002404
     atom   16 type  1   force =     0.00006202   -0.00003017   -0.00002388
     atom   17 type  1   force =     0.00005102   -0.00002933    0.00004257
     atom   18 type  1   force =     0.00004220   -0.00002630   -0.00002289
     atom   19 type  1   force =     0.00000488    0.00006880   -0.00002388
     atom   20 type  1   force =     0.00000011    0.00005884    0.00004257
     atom   21 type  1   force =    -0.00000168    0.00004970   -0.00002289
     atom   22 type  1   force =    -0.00000255    0.00007090   -0.00001736
     atom   23 type  1   force =    -0.00000243    0.00006710    0.00003928
     atom   24 type  1   force =    -0.00000153    0.00008114   -0.00002950
     atom   25 type  1   force =     0.00003248    0.00001875   -0.00002125
     atom   26 type  1   force =     0.00003339    0.00001928    0.00004341
     atom   27 type  1   force =     0.00004328    0.00002499   -0.00003352
     atom   28 type  1   force =     0.00006012   -0.00003766   -0.00001736
     atom   29 type  1   force =     0.00005690   -0.00003565    0.00003928
     atom   30 type  1   force =     0.00006950   -0.00004190   -0.00002950
     atom   31 type  1   force =     0.00005003   -0.00003989   -0.00001726
     atom   32 type  1   force =     0.00004854   -0.00004530    0.00003913
     atom   33 type  1   force =     0.00005633   -0.00005217   -0.00002895
     atom   34 type  1   force =     0.00003023    0.00001745   -0.00001189
     atom   35 type  1   force =     0.00002268    0.00001310    0.00003651
     atom   36 type  1   force =     0.00002666    0.00001539   -0.00002351
     atom   37 type  1   force =    -0.00000953    0.00006327   -0.00001726
     atom   38 type  1   force =    -0.00001496    0.00006469    0.00003913
     atom   39 type  1   force =    -0.00001702    0.00007487   -0.00002895
     atom   40 type  1   force =    -0.00000829    0.00003494   -0.00002351
     atom   41 type  1   force =    -0.00000759    0.00003643    0.00004377
     atom   42 type  1   force =    -0.00001376    0.00004376   -0.00003617
     atom   43 type  1   force =     0.00002612   -0.00002465   -0.00002351
     atom   44 type  1   force =     0.00002775   -0.00002478    0.00004377
     atom   45 type  1   force =     0.00003102   -0.00003380   -0.00003617
     atom   46 type  1   force =    -0.00000460   -0.00004487   -0.00001922
     atom   47 type  1   force =    -0.00000125   -0.00005057    0.00004041
     atom   48 type  1   force =    -0.00000532   -0.00005851   -0.00003154
     atom   49 type  1   force =     0.00001794   -0.00002064   -0.00000946
     atom   50 type  1   force =     0.00001892   -0.00002542    0.00003906
     atom   51 type  1   force =     0.00002043   -0.00002411   -0.00002364
     atom   52 type  1   force =    -0.00000890    0.00002586   -0.00000946
     atom   53 type  1   force =    -0.00001255    0.00002910    0.00003906
     atom   54 type  1   force =    -0.00001067    0.00002975   -0.00002364
     atom   55 type  1   force =    -0.00004116    0.00001845   -0.00001922
     atom   56 type  1   force =    -0.00004442    0.00002420    0.00004041
     atom   57 type  1   force =    -0.00005333    0.00002464   -0.00003154
     atom   58 type  1   force =    -0.00004346   -0.00002509   -0.00002158
     atom   59 type  1   force =    -0.00004032   -0.00002328    0.00004072
     atom   60 type  1   force =    -0.00005131   -0.00002962   -0.00003482
[...]
     atom  285 type  2   force =    -0.00001512   -0.00001520   -0.00000989
     atom  286 type  2   force =    -0.00001117   -0.00001584    0.00001718
     atom  287 type  2   force =    -0.00001307   -0.00001885   -0.00000895
     atom  288 type  2   force =     0.00000358   -0.00000517   -0.00000791
     atom  289 type  2   force =     0.00000539   -0.00000641    0.00001505
     atom  290 type  2   force =     0.00000387   -0.00000575   -0.00000842
     atom  291 type  2   force =    -0.00000268    0.00000568   -0.00000791
     atom  292 type  2   force =    -0.00000285    0.00000787    0.00001505
     atom  293 type  2   force =    -0.00000304    0.00000623   -0.00000842
     atom  294 type  2   force =    -0.00002072   -0.00000550   -0.00000989
     atom  295 type  2   force =    -0.00001930   -0.00000175    0.00001718
     atom  296 type  2   force =    -0.00002286   -0.00000189   -0.00000895
     atom  297 type  2   force =    -0.00002930   -0.00001691   -0.00001262
     atom  298 type  2   force =    -0.00002724   -0.00001573    0.00001915
     atom  299 type  2   force =    -0.00002948   -0.00001702   -0.00000843

     Total force =     0.005853     Total SCF correction =     0.000797
     SCF correction compared to forces is large: reduce conv_thr to get better values

     Computing stress (Cartesian axis) and pressure

[...]

          total   stress  (Ry/bohr**3)                   (kbar)     P=      -11.87
  -0.00008677   0.00000003   0.00000003          -12.76        0.00        0.00
   0.00000003  -0.00008680   0.00000002            0.00      -12.77        0.00
   0.00000003   0.00000002  -0.00006847            0.00        0.00      -10.07

     kinetic stress (kbar)  18359.64      0.00      0.00
                                0.00  18359.64      0.00
                                0.00      0.00  18360.51

     local   stress (kbar)   5397.66      0.31     -0.04
                                0.31   5397.11     -0.02
                               -0.04     -0.02   3712.63

     nonloc. stress (kbar)     94.14      0.00     -0.00
                                0.00     94.14     -0.00
                               -0.00     -0.00    102.49

     hartree stress (kbar)  19608.71     -0.16      0.01
                               -0.16  19608.89      0.00
                                0.01      0.00  20373.55

     exc-cor stress (kbar)   5228.83     -0.00      0.00
                               -0.00   5228.83      0.00
                                0.00      0.00   5229.28

     corecor stress (kbar) -14105.96     -0.00     -0.00
                               -0.00 -14105.96     -0.00
                               -0.00     -0.00 -14105.49

     ewald   stress (kbar) -34757.77     -0.15      0.03
                               -0.15 -34757.37      0.02
                                0.03      0.02 -33844.10

     hubbard stress (kbar)      0.00      0.00      0.00
                                0.00      0.00      0.00
                                0.00      0.00      0.00

     DFT-D   stress (kbar)      0.00      0.00      0.00
                                0.00      0.00      0.00
                                0.00      0.00      0.00

     XDM     stress (kbar)      0.00      0.00      0.00
                                0.00      0.00      0.00
                                0.00      0.00      0.00

     dft-nl  stress (kbar)    161.97      0.00     -0.00
                                0.00    161.97     -0.00
                               -0.00     -0.00    161.07

     TS-vdW  stress (kbar)      0.00      0.00      0.00
                                0.00      0.00      0.00
                                0.00      0.00      0.00

     MDB     stress (kbar)      0.00      0.00      0.00
                                0.00      0.00      0.00
                                0.00      0.00      0.00

     3D-RISM stress (kbar)      0.00      0.00      0.00
                                0.00      0.00      0.00
                                0.00      0.00      0.00

[...]

     Non-local corr. energy    =      81.68528435 Ry

 BEEFens 2000 ensemble energies
             -0.660318196299036E+02
             -0.594876401165037E+03
             -0.255986530642284E+03
              0.209323982279947E+03
             -0.427840155832004E+03
             -0.550202132803656E+03
              0.282696846261384E+03
             -0.297965795479577E+02
              0.471234610581118E+03
             -0.203889904887133E+02
              0.231364453474620E+03
              0.956689999034791E+01
              0.942872999047472E+01
             -0.202264864018739E+02
              0.308434273552916E+03
             -0.224570867903242E+03
             -0.462721564920522E+03
             -0.151288884827124E+03
              0.112989868783012E+03
             -0.101766417968638E+02
              0.675707429787592E+03
              0.574945253782425E+03
             -0.329206232760580E+03
              0.119118631037517E+03
             -0.721669323337642E+03
              0.578646290378607E+03
              0.188976536965205E+03
              0.562462912405219E+03
              0.369540844983921E+03
             -0.179800606920876E+03
              0.136194594386659E+03
             -0.265684116089107E+03
              0.744902599356648E+02
              0.361743318352663E+03
              0.383557835091929E+03
             -0.138586137752163E+03
              0.851882495057001E+03
             -0.323424690795875E+03
             -0.232767196464093E+03
              0.341469143152980E+03
              0.152706154206155E+03
              0.255586438374824E+03
             -0.487118065475489E+03
             -0.136254166979261E+02
              0.478113200902452E+03
              0.621140580978085E+03
             -0.618392558342459E+03
              0.440003532201036E+02
              0.233081754948301E+03
              0.113631437453239E+03
              0.258558329221487E+03
              0.547595154775840E+03
             -0.331024468476943E+03
             -0.362932493472868E+03
             -0.471864509424433E+03
             -0.729253603350871E+02
             -0.430423495553203E+03
              0.421783257891902E+02
             -0.795825957120978E+02
             -0.335351646975049E+03
[...]
              0.418523588764759E+03
              0.231333006681176E+03
              0.293713333120023E+03
             -0.474877047601390E+03
             -0.454811681862884E+03
             -0.114974520910044E+03
             -0.445672107678656E+03
              0.713381002709398E+03
              0.611390402991919E+03
              0.292195950088928E+03
              0.791292568572544E+03
             -0.411810700937476E+03
             -0.167738810426113E+03
             -0.233514187883236E+03
              0.654616591047905E+03

 BEEF-vdW xc energy contributions
            1 :    -5997.665968900877
            2 :     5401.989452119869
            3 :    -4404.250835952297
            4 :     3296.811579371438
            5 :    -2336.706246529849
            6 :     1647.798105815927
            7 :    -1207.087683840694
            8 :     908.5184355536139
            9 :    -652.8959050350422
           10 :     405.4236994423791
           11 :    -193.2890535394909
           12 :     59.67248602497875
           13 :    -16.43876517439185
           14 :     30.52528450431782
           15 :    -48.45207722621217
           16 :     34.43126441412005
           17 :     9.086629925756824
           18 :    -52.04459628906716
           19 :     66.62485748489235
           20 :    -50.97334954470443
           21 :     29.06763039429006
           22 :    -29.45210078293803
           23 :     61.78626142098346
           24 :    -110.0145234552174
           25 :     146.1641868209381
           26 :    -152.2230510008403
           27 :     132.3334240141503
           28 :    -106.7313262597536
           29 :     93.97235066089706
           30 :    -96.61055459737054
           31 :    -513.6198325676096
           32 :    -351.8955824621216

     Writing all to output data dir ./GaN.save/

     General routines

     Parallel routines

     PAW routines

   This run was terminated on:  11:58:16  26Mar2024

   JOB DONE.