     Program PWSCF v.7.1 starts on 18Feb2024 at 12:10:28

     Reading input from espresso.pwi
Warning: card &CELL ignored
Warning: card    CELL_DYNAMICS    = 'BFGS' ignored
Warning: card / ignored

     Current dimensions of program PWSCF are:
     Max number of different atomic species (ntypx) = 10
     Max number of k-points (npk) =  40000
     Max angular momentum in pseudopotentials (lmaxx) =  4
     file Pb.pbe-dn-kjpaw_psl.1.0.0.UPF: wavefunction(s)  6S 6P 5D renormalized
     file I.pbe-dn-kjpaw_psl.1.0.0.UPF: wavefunction(s)  5S 5P renormalized

     IMPORTANT: XC functional enforced from input :
     Exchange-correlation= BEEF-VDW
                           (   1   4  43  14   2   0   0)
     Any further DFT definition will be discarded
     Please, verify this is what you really want

     R & G space division:  proc/nbgrp/npool/nimage =     128
     Subspace diagonalization in iterative solution of the eigenvalue problem:
     a serial algorithm will be used

     Using Slab Decomposition

     bravais-lattice index     =            4
     lattice parameter (alat)  =      35.6073  a.u.
     unit-cell volume          =   30614.2220 (a.u.)^3
     number of atoms/cell      =           96
     number of atomic types    =            2
     number of electrons       =      1537.00
     number of Kohn-Sham states=          923
     kinetic-energy cutoff     =      70.0000  Ry
     charge density cutoff     =     350.0000  Ry
     scf convergence threshold =      1.0E-07
     mixing beta               =       0.7000
     number of iterations used =            8  plain     mixing
     Exchange-correlation= BEEF-VDW
                           (   1   4  43  14   2   0   0)

     celldm(1)=  35.607290  celldm(2)=   0.000000  celldm(3)=   0.783025
     celldm(4)=   0.000000  celldm(5)=   0.000000  celldm(6)=   0.000000

     crystal axes: (cart. coord. in units of alat)
               a(1) = (   1.000000   0.000000   0.000000 )
               a(2) = (  -0.500000   0.866025   0.000000 )
               a(3) = (   0.000000   0.000000   0.783025 )

     reciprocal axes: (cart. coord. in units 2 pi/alat)
               b(1) = (  1.000000  0.577350 -0.000000 )
               b(2) = (  0.000000  1.154701  0.000000 )
               b(3) = (  0.000000 -0.000000  1.277098 )

     PseudoPot. # 1 for Pb read from file:
     //group///packages/espresso/pseudo/psl_1.0.0/pslibrary.1.0.0/pbe/PSEUDOPOTENTIALS/Pb.pbe-dn-kjpaw_psl.1.0.0.UPF
     MD5 check sum: 39ab5b8a6bbd56b7735ad9f188aac93a
     Pseudo is Projector augmented-wave + core cor, Zval = 14.0
     Generated using 'atomic' code by A. Dal Corso  v.7.1
     Shape of augmentation charge: PSQ
     Using radial grid of 1281 points,  6 beta functions with:
                l(1) =   0
                l(2) =   0
                l(3) =   1
                l(4) =   1
                l(5) =   2
                l(6) =   2
     Q(r) pseudized with 0 coefficients

     PseudoPot. # 2 for I  read from file:
     //group///packages/espresso/pseudo/psl_1.0.0/pslibrary.1.0.0/pbe/PSEUDOPOTENTIALS/I.pbe-dn-kjpaw_psl.1.0.0.UPF
     MD5 check sum: bfa8781bc1224d19af3f3980e3fab11e
     Pseudo is Projector augmented-wave + core cor, Zval = 17.0
     Generated using 'atomic' code by A. Dal Corso  v.7.1
     Shape of augmentation charge: PSQ
     Using radial grid of 1247 points,  6 beta functions with:
                l(1) =   0
                l(2) =   0
                l(3) =   1
                l(4) =   1
                l(5) =   2
                l(6) =   2
     Q(r) pseudized with 0 coefficients

     atomic species   valence    mass     pseudopotential
        Pb            14.00   207.20000     Pb( 1.00)
        I             17.00   126.90447     I ( 1.00)

     No symmetry found

                                    s                        frac. trans.

      isym =  1     identity

 cryst.   s( 1) = (     1          0          0      )
                  (     0          1          0      )
                  (     0          0          1      )

 cart.    s( 1) = (  1.0000000  0.0000000  0.0000000 )
                  (  0.0000000  1.0000000  0.0000000 )
                  (  0.0000000  0.0000000  1.0000000 )

     point group C_1 (1)
     there are  1 classes
     the character table:

       E
A      1.00

     the symmetry operations in each class and the name of the first element:

     E        1
          identity

   Cartesian axes

     site n.     atom                  positions (alat units)
         1           Pb  tau(   1) = (   0.1250034   0.2164916   0.3915076  )
         2           Pb  tau(   2) = (   0.0000077   0.4329922   0.7830161  )
         3           Pb  tau(   3) = (   0.0000025   0.4329968   0.3915034  )
         4           Pb  tau(   4) = (  -0.1249932   0.6494975   0.7830119  )
         5           Pb  tau(   5) = (  -0.1249984   0.6495021   0.3914992  )
         6           Pb  tau(   6) = (  -0.2499941   0.8660028   0.7830077  )
         7           Pb  tau(   7) = (  -0.2499993   0.8660074   0.3914950  )
         8           Pb  tau(   8) = (   0.3750086   0.2164859   0.7830237  )
         9           Pb  tau(   9) = (   0.3750034   0.2164905   0.3915110  )
        10           Pb  tau(  10) = (   0.2500077   0.4329912   0.7830194  )
        11           Pb  tau(  11) = (   0.2500025   0.4329958   0.3915068  )
        12           Pb  tau(  12) = (   0.1250068   0.6494965   0.7830152  )
        13           Pb  tau(  13) = (   0.1250016   0.6495011   0.3915026  )
        14           Pb  tau(  14) = (   0.0000059   0.8660017   0.7830110  )
        15           Pb  tau(  15) = (   0.0000007   0.8660063   0.3914983  )
        16           Pb  tau(  16) = (   0.6250086   0.2164849   0.7830270  )
        17           Pb  tau(  17) = (   0.6250034   0.2164895   0.3915143  )
        18           Pb  tau(  18) = (   0.5000077   0.4329901   0.7830228  )
        19           Pb  tau(  19) = (   0.5000025   0.4329947   0.3915101  )
        20           Pb  tau(  20) = (   0.3750068   0.6494954   0.7830186  )
        21           Pb  tau(  21) = (   0.3750016   0.6495000   0.3915059  )
        22           Pb  tau(  22) = (   0.2500059   0.8660007   0.7830144  )
        23           Pb  tau(  23) = (   0.2500007   0.8660053   0.3915017  )
        24           Pb  tau(  24) = (   0.8750086   0.2164838   0.7830303  )
        25           Pb  tau(  25) = (   0.8750034   0.2164884   0.3915177  )
        26           Pb  tau(  26) = (   0.7500077   0.4329891   0.7830261  )
        27           Pb  tau(  27) = (   0.7500025   0.4329937   0.3915135  )
        28           Pb  tau(  28) = (   0.6250068   0.6494944   0.7830219  )
        29           Pb  tau(  29) = (   0.6250016   0.6494990   0.3915092  )
        30           Pb  tau(  30) = (   0.5000059   0.8659996   0.7830177  )
        31           Pb  tau(  31) = (   0.5000007   0.8660042   0.3915050  )
        32           I   tau(  32) = (   0.1250056   0.0721546   0.2909163  )
        33           I   tau(  33) = (   0.1250108   0.0721500   0.6824290  )
        34           I   tau(  34) = (   0.0000047   0.2886599   0.2909121  )
        35           I   tau(  35) = (   0.0000099   0.2886553   0.6824248  )
        36           I   tau(  36) = (  -0.1249962   0.5051652   0.2909079  )
        37           I   tau(  37) = (  -0.1249910   0.5051606   0.6824206  )
        38           I   tau(  38) = (  -0.2499972   0.7216704   0.2909037  )
        39           I   tau(  39) = (  -0.2499919   0.7216658   0.6824164  )
        40           I   tau(  40) = (   0.3750056   0.0721536   0.2909197  )
        41           I   tau(  41) = (   0.3750108   0.0721490   0.6824324  )
        42           I   tau(  42) = (   0.2500047   0.2886589   0.2909155  )
        43           I   tau(  43) = (   0.2500099   0.2886543   0.6824282  )
        44           I   tau(  44) = (   0.1250038   0.5051641   0.2909113  )
        45           I   tau(  45) = (   0.1250090   0.5051595   0.6824240  )
        46           I   tau(  46) = (   0.0000028   0.7216694   0.2909071  )
        47           I   tau(  47) = (   0.0000081   0.7216648   0.6824197  )
        48           I   tau(  48) = (   0.6250056   0.0721525   0.2909230  )
        49           I   tau(  49) = (   0.6250108   0.0721479   0.6824357  )
        50           I   tau(  50) = (   0.5000047   0.2886578   0.2909188  )
        51           I   tau(  51) = (   0.5000099   0.2886532   0.6824315  )
        52           I   tau(  52) = (   0.3750038   0.5051631   0.2909146  )
        53           I   tau(  53) = (   0.3750090   0.5051585   0.6824273  )
        54           I   tau(  54) = (   0.2500028   0.7216683   0.2909104  )
        55           I   tau(  55) = (   0.2500081   0.7216637   0.6824231  )
        56           I   tau(  56) = (   0.8750056   0.0721515   0.2909264  )
        57           I   tau(  57) = (   0.8750108   0.0721469   0.6824391  )
        58           I   tau(  58) = (   0.7500047   0.2886567   0.2909222  )
        59           I   tau(  59) = (   0.7500099   0.2886521   0.6824348  )
        60           I   tau(  60) = (   0.6250038   0.5051620   0.2909180  )
[...]
        82           I   tau(  82) = (   0.3749973   0.3608329   0.1005958  )
        83           I   tau(  83) = (   0.3750025   0.3608283   0.4921084  )
        84           I   tau(  84) = (   0.2499964   0.5773382   0.1005915  )
        85           I   tau(  85) = (   0.2500016   0.5773336   0.4921042  )
        86           I   tau(  86) = (   0.1249955   0.7938434   0.1005873  )
        87           I   tau(  87) = (   0.1250007   0.7938388   0.4921000  )
        88           I   tau(  88) = (   0.7499982   0.1443266   0.1006033  )
        89           I   tau(  89) = (   0.7500034   0.1443220   0.4921160  )
        90           I   tau(  90) = (   0.6249973   0.3608319   0.1005991  )
        91           I   tau(  91) = (   0.6250025   0.3608273   0.4921118  )
        92           I   tau(  92) = (   0.4999964   0.5773371   0.1005949  )
        93           I   tau(  93) = (   0.5000016   0.5773325   0.4921076  )
        94           I   tau(  94) = (   0.3749955   0.7938424   0.1005907  )
        95           I   tau(  95) = (   0.3750007   0.7938378   0.4921034  )
        96           I   tau(  96) = (   0.1250086   0.2164870   0.7830203  )

   Crystallographic axes

     site n.     atom                  positions (cryst. coord.)
         1           Pb  tau(   1) = (  0.2499949  0.2499829  0.4999935  )
         2           Pb  tau(   2) = (  0.2499959  0.4999764  0.9999882  )
         3           Pb  tau(   3) = (  0.2499933  0.4999817  0.4999882  )
         4           Pb  tau(   4) = (  0.2499944  0.7499751  0.9999828  )
         5           Pb  tau(   5) = (  0.2499918  0.7499804  0.4999828  )
         6           Pb  tau(   6) = (  0.2499928  0.9999739  0.9999774  )
         7           Pb  tau(   7) = (  0.2499903  0.9999792  0.4999774  )
         8           Pb  tau(   8) = (  0.4999968  0.2499764  0.9999978  )
         9           Pb  tau(   9) = (  0.4999943  0.2499817  0.4999978  )
[...]
     atom   26 type  1   force =     0.00000000    0.00000000    0.00000000
     atom   27 type  1   force =     0.00000000    0.00000000    0.00000000
     atom   28 type  1   force =     0.00000000    0.00000000    0.00000000
     atom   29 type  1   force =     0.00000000    0.00000000    0.00000000
     atom   30 type  1   force =     0.00000000    0.00000000    0.00000000
     atom   31 type  1   force =     0.00000000    0.00000000    0.00000000
     atom   32 type  2   force =     0.00000000    0.00000000    0.00000000
     atom   33 type  2   force =     0.00000000    0.00000000    0.00000000
     atom   34 type  2   force =     0.00000000    0.00000000    0.00000000
     atom   35 type  2   force =     0.00000000    0.00000000    0.00000000
     atom   36 type  2   force =     0.00000000    0.00000000    0.00000000
     atom   37 type  2   force =     0.00000000    0.00000000    0.00000000
     atom   38 type  2   force =     0.00000000    0.00000000    0.00000000
     atom   39 type  2   force =     0.00000000    0.00000000    0.00000000
     atom   40 type  2   force =     0.00000000    0.00000000    0.00000000
     atom   41 type  2   force =     0.00000000    0.00000000    0.00000000
     atom   42 type  2   force =     0.00000000    0.00000000    0.00000000
     atom   43 type  2   force =     0.00000000    0.00000000    0.00000000
     atom   44 type  2   force =     0.00000000    0.00000000    0.00000000
     atom   45 type  2   force =     0.00000000    0.00000000    0.00000000
     atom   46 type  2   force =     0.00000000    0.00000000    0.00000000
     atom   47 type  2   force =     0.00000000    0.00000000    0.00000000
     atom   48 type  2   force =     0.00000000    0.00000000    0.00000000
     atom   49 type  2   force =     0.00000000    0.00000000    0.00000000
     atom   50 type  2   force =     0.00000000    0.00000000    0.00000000
     atom   51 type  2   force =     0.00000000    0.00000000    0.00000000
     atom   52 type  2   force =     0.00000000    0.00000000    0.00000000
     atom   53 type  2   force =     0.00000000    0.00000000    0.00000000
     atom   54 type  2   force =     0.00000000    0.00000000    0.00000000
     atom   55 type  2   force =     0.00000000    0.00000000    0.00000000
     atom   56 type  2   force =     0.00000000    0.00000000    0.00000000
     atom   57 type  2   force =     0.00000000    0.00000000    0.00000000
     atom   58 type  2   force =     0.00000000    0.00000000    0.00000000
     atom   59 type  2   force =     0.00000000    0.00000000    0.00000000
     atom   60 type  2   force =     0.00000000    0.00000000    0.00000000
[...]
     atom   82 type  2   force =     0.00000000    0.00000000    0.00000000
     atom   83 type  2   force =     0.00000000    0.00000000    0.00000000
     atom   84 type  2   force =     0.00000000    0.00000000    0.00000000
     atom   85 type  2   force =     0.00000000    0.00000000    0.00000000
     atom   86 type  2   force =     0.00000000    0.00000000    0.00000000
     atom   87 type  2   force =     0.00000000    0.00000000    0.00000000
     atom   88 type  2   force =     0.00000000    0.00000000    0.00000000
     atom   89 type  2   force =     0.00000000    0.00000000    0.00000000
     atom   90 type  2   force =     0.00000000    0.00000000    0.00000000
     atom   91 type  2   force =     0.00000000    0.00000000    0.00000000
     atom   92 type  2   force =     0.00000000    0.00000000    0.00000000
     atom   93 type  2   force =     0.00000000    0.00000000    0.00000000
     atom   94 type  2   force =     0.00000000    0.00000000    0.00000000
     atom   95 type  2   force =     0.00000000    0.00000000    0.00000000
     atom   96 type  2   force =     0.00000000    0.00000000    0.00000000
     The SCF correction term to forces
     atom    1 type  1   force =    -0.00000602    0.00000529   -0.00010033
     atom    2 type  1   force =     0.00006456   -0.00004171    0.00008313
     atom    3 type  1   force =     0.00004842   -0.00000602   -0.00007426
     atom    4 type  1   force =     0.00002284    0.00000482    0.00005666
     atom    5 type  1   force =     0.00002298    0.00000582   -0.00005437
     atom    6 type  1   force =    -0.00001383    0.00005850    0.00011162
     atom    7 type  1   force =    -0.00002116    0.00002018   -0.00007946
     atom    8 type  1   force =    -0.00006138   -0.00001041    0.00010614
     atom    9 type  1   force =    -0.00002814    0.00001061   -0.00007672
     atom   10 type  1   force =    -0.00003918   -0.00000544    0.00009645
     atom   11 type  1   force =    -0.00001162    0.00002268   -0.00007559
     atom   12 type  1   force =     0.00003406   -0.00003324    0.00005225
     atom   13 type  1   force =     0.00004262   -0.00001507   -0.00005407
     atom   14 type  1   force =    -0.00000756    0.00000562    0.00005477
     atom   15 type  1   force =     0.00001508   -0.00000749   -0.00005214
     atom   16 type  1   force =     0.00000650   -0.00002185    0.00005629
     atom   17 type  1   force =     0.00000615   -0.00002256   -0.00005338
     atom   18 type  1   force =    -0.00005334    0.00000754    0.00006111
     atom   19 type  1   force =    -0.00004598    0.00002180   -0.00005423
     atom   20 type  1   force =    -0.00002298    0.00001206    0.00005823
     atom   21 type  1   force =    -0.00002268    0.00001246   -0.00005399
     atom   22 type  1   force =     0.00004584   -0.00001154    0.00005263
     atom   23 type  1   force =     0.00003372   -0.00002843   -0.00005389
     atom   24 type  1   force =     0.00006800   -0.00003580    0.00008584
     atom   25 type  1   force =     0.00002822   -0.00003911   -0.00007492
     atom   26 type  1   force =     0.00002854   -0.00001764    0.00005787
     atom   27 type  1   force =     0.00000886   -0.00000631   -0.00005572
     atom   28 type  1   force =    -0.00003401    0.00003808    0.00006301
     atom   29 type  1   force =    -0.00004269    0.00002694   -0.00005548
     atom   30 type  1   force =    -0.00002336    0.00003710    0.00010473
     atom   31 type  1   force =    -0.00002807   -0.00000085   -0.00007905
     atom   32 type  2   force =    -0.00002567    0.00002767   -0.00009898
     atom   33 type  2   force =    -0.00002742    0.00000593    0.00009020
     atom   34 type  2   force =     0.00004537   -0.00002718   -0.00009483
     atom   35 type  2   force =     0.00000350    0.00000019    0.00009140
     atom   36 type  2   force =     0.00004977   -0.00001347   -0.00004428
     atom   37 type  2   force =     0.00005623   -0.00002543    0.00003550
     atom   38 type  2   force =    -0.00002427    0.00003863   -0.00004426
     atom   39 type  2   force =    -0.00001424    0.00003290    0.00003516
     atom   40 type  2   force =    -0.00004388    0.00002701   -0.00007794
     atom   41 type  2   force =    -0.00002150    0.00001796    0.00006843
     atom   42 type  2   force =    -0.00003432    0.00000886   -0.00009628
     atom   43 type  2   force =    -0.00001202    0.00002718    0.00009089
     atom   44 type  2   force =     0.00003788   -0.00002213   -0.00005742
     atom   45 type  2   force =     0.00002612   -0.00001659    0.00006246
     atom   46 type  2   force =     0.00003974   -0.00001182   -0.00002457
     atom   47 type  2   force =     0.00003840   -0.00000906    0.00001955
     atom   48 type  2   force =     0.00003043   -0.00002740   -0.00002431
     atom   49 type  2   force =     0.00002691   -0.00002686    0.00001933
     atom   50 type  2   force =    -0.00004681    0.00000173   -0.00004306
     atom   51 type  2   force =    -0.00004304   -0.00000322    0.00003474
     atom   52 type  2   force =    -0.00004939    0.00002005   -0.00002872
     atom   53 type  2   force =    -0.00004867    0.00001625    0.00003424
     atom   54 type  2   force =     0.00002785   -0.00001588   -0.00001171
     atom   55 type  2   force =     0.00001988   -0.00001177    0.00002094
     atom   56 type  2   force =     0.00003837   -0.00001947   -0.00006013
     atom   57 type  2   force =     0.00002064   -0.00001194    0.00006426
     atom   58 type  2   force =     0.00003590   -0.00003764   -0.00004402
     atom   59 type  2   force =     0.00004911   -0.00003683    0.00003592
     atom   60 type  2   force =    -0.00003842    0.00002110   -0.00003026
[...]
     atom   82 type  2   force =    -0.00008694   -0.00001104    0.00005948
     atom   83 type  2   force =    -0.00002821    0.00003451   -0.00006587
     atom   84 type  2   force =    -0.00001342   -0.00003519    0.00005678
     atom   85 type  2   force =     0.00000720    0.00001430   -0.00006827
     atom   86 type  2   force =     0.00003923   -0.00002204    0.00005841
     atom   87 type  2   force =     0.00004511   -0.00002491   -0.00005533
     atom   88 type  2   force =     0.00008111   -0.00003187    0.00005554
     atom   89 type  2   force =     0.00002884   -0.00004637   -0.00005339
     atom   90 type  2   force =    -0.00001517   -0.00001101    0.00006532
     atom   91 type  2   force =    -0.00001837   -0.00000256   -0.00005293
     atom   92 type  2   force =    -0.00005567    0.00003047    0.00006547
     atom   93 type  2   force =    -0.00005564    0.00002962   -0.00006669
     atom   94 type  2   force =     0.00002250    0.00003110    0.00005817
     atom   95 type  2   force =    -0.00001282   -0.00001482   -0.00006949
     atom   96 type  2   force =    -0.00001874    0.00001777    0.00023273

     Total force =     0.004001     Total SCF correction =     0.000793
     SCF correction compared to forces is large: reduce conv_thr to get better values

     Computing stress (Cartesian axis) and pressure

[...]

          total   stress  (Ry/bohr**3)                   (kbar)     P=       -6.12
  -0.00004127   0.00000011  -0.00000013           -6.07        0.02       -0.02
   0.00000011  -0.00004111   0.00000009            0.02       -6.05        0.01
  -0.00000013   0.00000009  -0.00004243           -0.02        0.01       -6.24

     kinetic stress (kbar)  14921.20      0.04     -0.06
                                0.04  14921.26      0.04
                               -0.06      0.04  14930.05

     local   stress (kbar)  -7474.31      0.81     -1.28
                                0.81  -7473.14      0.90
                               -1.28      0.90   1400.53

     nonloc. stress (kbar)   -969.97      0.03     -0.05
                                0.03   -969.92      0.04
                               -0.05      0.04   -977.48

     hartree stress (kbar)  12077.85     -0.27      0.48
                               -0.27  12077.45     -0.34
                                0.48     -0.34   8074.39

     exc-cor stress (kbar)   6987.89     -0.00     -0.00
                               -0.00   6987.89      0.00
                               -0.00      0.00   6986.81

     corecor stress (kbar) -11365.60     -0.00      0.00
                               -0.00 -11365.60     -0.00
                                0.00     -0.00 -11365.50

     ewald   stress (kbar) -14267.02     -0.59      0.89
                               -0.59 -14267.87     -0.63
                                0.89     -0.63 -19140.22

     hubbard stress (kbar)      0.00      0.00      0.00
                                0.00      0.00      0.00
                                0.00      0.00      0.00

     DFT-D   stress (kbar)      0.00      0.00      0.00
                                0.00      0.00      0.00
                                0.00      0.00      0.00

     XDM     stress (kbar)      0.00      0.00      0.00
                                0.00      0.00      0.00
                                0.00      0.00      0.00

     dft-nl  stress (kbar)     83.88      0.00     -0.00
                                0.00     83.88      0.00
                               -0.00      0.00     85.18

     TS-vdW  stress (kbar)      0.00      0.00      0.00
                                0.00      0.00      0.00
                                0.00      0.00      0.00

     MDB     stress (kbar)      0.00      0.00      0.00
                                0.00      0.00      0.00
                                0.00      0.00      0.00

     3D-RISM stress (kbar)      0.00      0.00      0.00
                                0.00      0.00      0.00
                                0.00      0.00      0.00

[...]

     Non-local corr. energy    =      46.32978373 Ry

 BEEFens 2000 ensemble energies
             -0.388226490308036E+02
             -0.390904826642038E+03
             -0.177915784994867E+03
              0.136488505634052E+03
             -0.298796901735640E+03
             -0.365869217643357E+03
              0.187779147959553E+03
              0.828698372536337E+00
              0.316437718654186E+03
             -0.200677116164122E+02
              0.162074846798115E+03
              0.165868017711721E+02
             -0.124521916224923E+02
             -0.100612829820247E+02
              0.202033639149574E+03
             -0.152026682498936E+03
             -0.298513189348873E+03
             -0.963694617372696E+02
              0.863760386570107E+02
             -0.180894907258562E+01
              0.440269432894133E+03
              0.367453255576419E+03
             -0.226406254984713E+03
              0.781993302396947E+02
             -0.471595433230221E+03
              0.387107481657730E+03
              0.132335299381770E+03
              0.349549543459334E+03
              0.235579645727616E+03
             -0.109364976435977E+03
              0.862166982425588E+02
             -0.154136900085323E+03
              0.644000626300227E+02
              0.234404513383491E+03
              0.252129859433894E+03
             -0.109635756948079E+03
              0.556359288693660E+03
             -0.223877317202393E+03
             -0.149170210479129E+03
              0.222523273217759E+03
              0.980937823875479E+02
              0.169060735397125E+03
             -0.326527513751807E+03
             -0.211701255088319E+02
              0.313319073781343E+03
              0.409524578877819E+03
             -0.415775750901861E+03
              0.266880108729582E+02
              0.144191184155576E+03
              0.931540012487599E+02
              0.162580438104330E+03
              0.356981025863112E+03
             -0.231827125967151E+03
             -0.225022253720153E+03
             -0.313529614875989E+03
             -0.454869119085231E+02
             -0.267516652564954E+03
              0.345547981878649E+02
             -0.385354737082630E+02
             -0.212108277945850E+03
[...]
              0.264845666425103E+03
              0.169725045277369E+03
              0.173007630409489E+03
             -0.320171707336929E+03
             -0.330740705933749E+03
             -0.745322370170672E+02
             -0.295595029567833E+03
              0.469286062295675E+03
              0.395304007945823E+03
              0.186424947859235E+03
              0.513997757815012E+03
             -0.256931177683573E+03
             -0.110582076469976E+03
             -0.159426786786421E+03
              0.444658733324160E+03

 BEEF-vdW xc energy contributions
            1 :    -4018.996608788411
            2 :     3682.697336673145
            3 :    -3109.327196196757
            4 :     2451.750002441971
            5 :    -1853.825315080154
            6 :     1404.070724120936
            7 :    -1121.291199761457
            8 :     967.9098574912314
            9 :    -878.4331940996453
           10 :     790.8512395022581
           11 :    -670.2772036118931
           12 :     516.6456840913097
           13 :    -355.1330192947889
           14 :     216.8440931020696
           15 :    -121.4090619460867
           16 :     69.53832047361902
           17 :    -46.35397856820509
           18 :     31.14182236754459
           19 :    -7.875150655067046
           20 :    -28.09410496152123
           21 :     69.75442196091535
           22 :    -104.2397840056865
           23 :     121.2674387273519
           24 :    -119.3236087324449
           25 :     106.2911347373065
           26 :    -94.72528389977833
           27 :     94.90472740034147
           28 :    -109.5075089710053
           29 :     132.4919921925557
           30 :    -152.5413323699404
           31 :    -345.2907968751197
           32 :    -248.3212974263670

     Writing all to output data dir ./PbI2.save/

     General routines

     Parallel routines

     PAW routines

   This run was terminated on:  12:26:55  18Feb2024

   JOB DONE.