     Program PWSCF v.7.1 starts on 29Sep2023 at 11:29:26

     Reading input from espresso.pwi
Warning: card &CELL ignored
Warning: card    CELL_DYNAMICS    = 'BFGS' ignored
Warning: card / ignored

     Current dimensions of program PWSCF are:
     Max number of different atomic species (ntypx) = 10
     Max number of k-points (npk) =  40000
     Max angular momentum in pseudopotentials (lmaxx) =  4
     file C.pbe-n-kjpaw_psl.1.0.0.UPF: wavefunction(s)  2S 2P renormalized

     IMPORTANT: XC functional enforced from input :
     Exchange-correlation= BEEF-VDW
                           (   1   4  43  14   2   0   0)
     Any further DFT definition will be discarded
     Please, verify this is what you really want

     K-points division:     npool     =       4
     R & G space division:  proc/nbgrp/npool/nimage =      64
     Subspace diagonalization in iterative solution of the eigenvalue problem:
     a serial algorithm will be used

     Using Slab Decomposition

     bravais-lattice index     =            1
     lattice parameter (alat)  =      20.2520  a.u.
     unit-cell volume          =    8306.2556 (a.u.)^3
     number of atoms/cell      =          215
     number of atomic types    =            1
     number of electrons       =       861.00
     number of Kohn-Sham states=          517
     kinetic-energy cutoff     =      70.0000  Ry
     charge density cutoff     =     350.0000  Ry
     scf convergence threshold =      1.0E-08
     mixing beta               =       0.7000
     number of iterations used =            8  plain     mixing
     energy convergence thresh.=      1.0E-04
     force convergence thresh. =      1.0E-03
     Exchange-correlation= BEEF-VDW
                           (   1   4  43  14   2   0   0)
     nstep                     =           50

     celldm(1)=  20.252024  celldm(2)=   0.000000  celldm(3)=   0.000000
     celldm(4)=   0.000000  celldm(5)=   0.000000  celldm(6)=   0.000000

     crystal axes: (cart. coord. in units of alat)
               a(1) = (   1.000000   0.000000   0.000000 )
               a(2) = (   0.000000   1.000000   0.000000 )
               a(3) = (   0.000000   0.000000   1.000000 )

     reciprocal axes: (cart. coord. in units 2 pi/alat)
               b(1) = (  1.000000  0.000000  0.000000 )
               b(2) = (  0.000000  1.000000  0.000000 )
               b(3) = (  0.000000  0.000000  1.000000 )

     PseudoPot. # 1 for C  read from file:
     /trace/group/acmegroup/atimmins/packages/espresso/pseudo/psl_1.0.0/pslibrary.1.0.0/pbe/PSEUDOPOTENTIALS/C.pbe-n-kjpaw_psl.1.0.0.UPF
     MD5 check sum: 5459cf7f2c8c37df2f7cde8914797f4d
     Pseudo is Projector augmented-wave + core cor, Zval =  4.0
     Generated using 'atomic' code by A. Dal Corso  v.7.1
     Shape of augmentation charge: PSQ
     Using radial grid of 1073 points,  4 beta functions with:
                l(1) =   0
                l(2) =   0
                l(3) =   1
                l(4) =   1
     Q(r) pseudized with 0 coefficients

     atomic species   valence    mass     pseudopotential
        C              4.00    12.01100     C ( 1.00)

      6 Sym. Ops. (no inversion) found ( 4 have fractional translation)

                                    s                        frac. trans.

      isym =  1     identity

 cryst.   s( 1) = (     1          0          0      )
                  (     0          1          0      )
                  (     0          0          1      )

 cart.    s( 1) = (  1.0000000  0.0000000  0.0000000 )
                  (  0.0000000  1.0000000  0.0000000 )
                  (  0.0000000  0.0000000  1.0000000 )

      isym =  2     120 deg rotation - cart. axis [1,-1,1]

 cryst.   s( 2) = (     0          0          1      )    f =( -0.3333333 )
                  (    -1          0          0      )       ( -0.3333333 )
                  (     0         -1          0      )       (  0.0000000 )

 cart.    s( 2) = (  0.0000000 -1.0000000  0.0000000 )    f =( -0.3333333 )
                  (  0.0000000  0.0000000 -1.0000000 )       ( -0.3333333 )
                  (  1.0000000  0.0000000  0.0000000 )       (  0.0000000 )

      isym =  3     120 deg rotation - cart. axis [-1,1,-1]

[...]

      isym =  4     inv. 180 deg rotation - cart. axis [1,1,0]

[...]

 cryst.   s( 5) = (     0          0          1      )
                  (     0          1          0      )
                  (     1          0          0      )

 cart.    s( 5) = (  0.0000000  0.0000000  1.0000000 )
                  (  0.0000000  1.0000000  0.0000000 )
                  (  1.0000000  0.0000000  0.0000000 )

      isym =  6     inv. 180 deg rotation - cart. axis [0,1,1]

 cryst.   s( 6) = (     1          0          0      )    f =(  0.0000000 )
                  (     0          0         -1      )       ( -0.3333333 )
                  (     0         -1          0      )       ( -0.3333333 )

 cart.    s( 6) = (  1.0000000  0.0000000  0.0000000 )    f =(  0.0000000 )
                  (  0.0000000  0.0000000 -1.0000000 )       ( -0.3333333 )
                  (  0.0000000 -1.0000000  0.0000000 )       ( -0.3333333 )

     point group C_3v (3m)
     there are  3 classes
     the character table:

       E     2C3   3s_v
A_1    1.00  1.00  1.00
A_2    1.00  1.00 -1.00
E      2.00 -1.00  0.00

     the symmetry operations in each class and the name of the first element:

     E        1
          identity
     2C3      2    3
          120 deg rotation - cart. axis [1,-1,1]
     3s_v     4    5    6
          inv. 180 deg rotation - cart. axis [1,1,0]

   Cartesian axes

     site n.     atom                  positions (alat units)
         1           C   tau(   1) = (   0.0833353   0.2499980   0.4166687  )
         2           C   tau(   2) = (   0.0833353   0.2499980   0.7500020  )
         3           C   tau(   3) = (   0.0833353   0.5833313   0.0833353  )
         4           C   tau(   4) = (   0.0833353   0.5833313   0.4166687  )
         5           C   tau(   5) = (   0.0833353   0.5833313   0.7500020  )
         6           C   tau(   6) = (   0.0833353   0.9166647   0.0833353  )
         7           C   tau(   7) = (   0.0833353   0.9166647   0.4166687  )
         8           C   tau(   8) = (   0.0833353   0.9166647   0.7500020  )
         9           C   tau(   9) = (   0.4166687   0.2499980   0.0833353  )
        10           C   tau(  10) = (   0.4166687   0.2499980   0.4166687  )
        11           C   tau(  11) = (   0.4166687   0.2499980   0.7500020  )
        12           C   tau(  12) = (   0.4166687   0.5833313   0.0833353  )
        13           C   tau(  13) = (   0.4166687   0.5833313   0.4166687  )
        14           C   tau(  14) = (   0.4166687   0.5833313   0.7500020  )
        15           C   tau(  15) = (   0.4166687   0.9166647   0.0833353  )
        16           C   tau(  16) = (   0.4166687   0.9166647   0.4166687  )
        17           C   tau(  17) = (   0.4166687   0.9166647   0.7500020  )
        18           C   tau(  18) = (   0.7500020   0.2499980   0.0833353  )
        19           C   tau(  19) = (   0.7500020   0.2499980   0.4166687  )
        20           C   tau(  20) = (   0.7500020   0.2499980   0.7500020  )
        21           C   tau(  21) = (   0.7500020   0.5833313   0.0833353  )
        22           C   tau(  22) = (   0.7500020   0.5833313   0.4166687  )
        23           C   tau(  23) = (   0.7500020   0.5833313   0.7500020  )
        24           C   tau(  24) = (   0.7500020   0.9166647   0.0833353  )
        25           C   tau(  25) = (   0.7500020   0.9166647   0.4166687  )
        26           C   tau(  26) = (   0.7500020   0.9166647   0.7500020  )
        27           C   tau(  27) = (   0.0000000   0.0000000   0.1666667  )
        28           C   tau(  28) = (   0.0000000   0.0000000   0.5000000  )
        29           C   tau(  29) = (   0.0000000   0.0000000   0.8333333  )
        30           C   tau(  30) = (   0.0000000   0.3333333   0.1666667  )
        31           C   tau(  31) = (   0.0000000   0.3333333   0.5000000  )
        32           C   tau(  32) = (   0.0000000   0.3333333   0.8333333  )
        33           C   tau(  33) = (   0.0000000   0.6666667   0.1666667  )
        34           C   tau(  34) = (   0.0000000   0.6666667   0.5000000  )
        35           C   tau(  35) = (   0.0000000   0.6666667   0.8333333  )
        36           C   tau(  36) = (   0.3333333   0.0000000   0.1666667  )
        37           C   tau(  37) = (   0.3333333   0.0000000   0.5000000  )
        38           C   tau(  38) = (   0.3333333   0.0000000   0.8333333  )
        39           C   tau(  39) = (   0.3333333   0.3333333   0.1666667  )
        40           C   tau(  40) = (   0.3333333   0.3333333   0.5000000  )
        41           C   tau(  41) = (   0.3333333   0.3333333   0.8333333  )
        42           C   tau(  42) = (   0.3333333   0.6666667   0.1666667  )
        43           C   tau(  43) = (   0.3333333   0.6666667   0.5000000  )
        44           C   tau(  44) = (   0.3333333   0.6666667   0.8333333  )
        45           C   tau(  45) = (   0.6666667   0.0000000   0.1666667  )
        46           C   tau(  46) = (   0.6666667   0.0000000   0.5000000  )
        47           C   tau(  47) = (   0.6666667   0.0000000   0.8333333  )
        48           C   tau(  48) = (   0.6666667   0.3333333   0.1666667  )
        49           C   tau(  49) = (   0.6666667   0.3333333   0.5000000  )
        50           C   tau(  50) = (   0.6666667   0.3333333   0.8333333  )
        51           C   tau(  51) = (   0.6666667   0.6666667   0.1666667  )
        52           C   tau(  52) = (   0.6666667   0.6666667   0.5000000  )
        53           C   tau(  53) = (   0.6666667   0.6666667   0.8333333  )
        54           C   tau(  54) = (   0.0833353   0.0833353   0.2499980  )
        55           C   tau(  55) = (   0.0833353   0.0833353   0.5833313  )
        56           C   tau(  56) = (   0.0833353   0.0833353   0.9166647  )
        57           C   tau(  57) = (   0.0833353   0.4166687   0.2499980  )
        58           C   tau(  58) = (   0.0833353   0.4166687   0.5833313  )
        59           C   tau(  59) = (   0.0833353   0.4166687   0.9166647  )
        60           C   tau(  60) = (   0.0833353   0.7500020   0.2499980  )
[...]
       201           C   tau( 201) = (   0.5000000   0.5000000   0.1666667  )
       202           C   tau( 202) = (   0.5000000   0.5000000   0.5000000  )
       203           C   tau( 203) = (   0.5000000   0.5000000   0.8333333  )
       204           C   tau( 204) = (   0.5000000   0.8333333   0.1666667  )
       205           C   tau( 205) = (   0.5000000   0.8333333   0.5000000  )
       206           C   tau( 206) = (   0.5000000   0.8333333   0.8333333  )
       207           C   tau( 207) = (   0.8333333   0.1666667   0.1666667  )
       208           C   tau( 208) = (   0.8333333   0.1666667   0.5000000  )
       209           C   tau( 209) = (   0.8333333   0.1666667   0.8333333  )
       210           C   tau( 210) = (   0.8333333   0.5000000   0.1666667  )
[...]
     atom   44 type  1   force =     0.00000000    0.00000000    0.00000000
     atom   45 type  1   force =     0.00000000    0.00000000    0.00000000
     atom   46 type  1   force =     0.00000000    0.00000000    0.00000000
     atom   47 type  1   force =     0.00000000    0.00000000    0.00000000
     atom   48 type  1   force =     0.00000000    0.00000000    0.00000000
     atom   49 type  1   force =     0.00000000    0.00000000    0.00000000
     atom   50 type  1   force =     0.00000000    0.00000000    0.00000000
     atom   51 type  1   force =     0.00000000    0.00000000    0.00000000
     atom   52 type  1   force =     0.00000000    0.00000000    0.00000000
     atom   53 type  1   force =     0.00000000    0.00000000    0.00000000
     atom   54 type  1   force =     0.00000000    0.00000000    0.00000000
     atom   55 type  1   force =     0.00000000    0.00000000    0.00000000
     atom   56 type  1   force =     0.00000000    0.00000000    0.00000000
     atom   57 type  1   force =     0.00000000    0.00000000    0.00000000
     atom   58 type  1   force =     0.00000000    0.00000000    0.00000000
     atom   59 type  1   force =     0.00000000    0.00000000    0.00000000
     atom   60 type  1   force =     0.00000000    0.00000000    0.00000000
[...]
     atom  201 type  1   force =     0.00000000    0.00000000    0.00000000
     atom  202 type  1   force =     0.00000000    0.00000000    0.00000000
     atom  203 type  1   force =     0.00000000    0.00000000    0.00000000
     atom  204 type  1   force =     0.00000000    0.00000000    0.00000000
     atom  205 type  1   force =     0.00000000    0.00000000    0.00000000
     atom  206 type  1   force =     0.00000000    0.00000000    0.00000000
     atom  207 type  1   force =     0.00000000    0.00000000    0.00000000
     atom  208 type  1   force =     0.00000000    0.00000000    0.00000000
     atom  209 type  1   force =     0.00000000    0.00000000    0.00000000
     atom  210 type  1   force =     0.00000000    0.00000000    0.00000000
     atom  211 type  1   force =     0.00000000    0.00000000    0.00000000
     atom  212 type  1   force =     0.00000000    0.00000000    0.00000000
     atom  213 type  1   force =     0.00000000    0.00000000    0.00000000
     atom  214 type  1   force =     0.00000000    0.00000000    0.00000000
     atom  215 type  1   force =     0.00000000    0.00000000    0.00000000
     The SCF correction term to forces
     atom    1 type  1   force =    -0.00000017    0.00000017   -0.00000203
     atom    2 type  1   force =    -0.00000007    0.00000007    0.00000229
     atom    3 type  1   force =    -0.00000007   -0.00000229   -0.00000007
     atom    4 type  1   force =     0.00000022    0.00000131    0.00000123
     atom    5 type  1   force =    -0.00000008    0.00000120   -0.00000120
     atom    6 type  1   force =    -0.00000017    0.00000203   -0.00000017
     atom    7 type  1   force =    -0.00000033   -0.00000143    0.00000143
     atom    8 type  1   force =     0.00000022   -0.00000123   -0.00000131
     atom    9 type  1   force =    -0.00000203    0.00000017   -0.00000017
     atom   10 type  1   force =     0.00000143    0.00000033    0.00000143
     atom   11 type  1   force =     0.00000123   -0.00000022   -0.00000131
     atom   12 type  1   force =     0.00000123    0.00000131    0.00000022
     atom   13 type  1   force =     0.00000023    0.00000025    0.00000023
     atom   14 type  1   force =     0.00000066    0.00000084   -0.00000084
     atom   15 type  1   force =     0.00000143   -0.00000143   -0.00000033
     atom   16 type  1   force =     0.00000091   -0.00000091    0.00000091
     atom   17 type  1   force =     0.00000023   -0.00000023   -0.00000025
     atom   18 type  1   force =     0.00000229    0.00000007   -0.00000007
     atom   19 type  1   force =    -0.00000131   -0.00000022    0.00000123
     atom   20 type  1   force =    -0.00000120    0.00000008   -0.00000120
     atom   21 type  1   force =    -0.00000120    0.00000120   -0.00000008
     atom   22 type  1   force =    -0.00000084    0.00000084    0.00000066
     atom   23 type  1   force =    -0.00000021    0.00000021   -0.00000021
     atom   24 type  1   force =    -0.00000131   -0.00000123    0.00000022
     atom   25 type  1   force =    -0.00000025   -0.00000023    0.00000023
     atom   26 type  1   force =    -0.00000084   -0.00000066   -0.00000084
     atom   27 type  1   force =     0.00000012    0.00000220   -0.00000067
     atom   28 type  1   force =    -0.00000003   -0.00000235    0.00000032
     atom   29 type  1   force =     0.00000038    0.00000027    0.00000011
     atom   30 type  1   force =     0.00000108   -0.00000108   -0.00000143
     atom   31 type  1   force =    -0.00000029    0.00000029   -0.00000060
     atom   32 type  1   force =     0.00000055   -0.00000055    0.00000240
     atom   33 type  1   force =    -0.00000037   -0.00000080    0.00000025
     atom   34 type  1   force =     0.00000131    0.00000153    0.00000149
     atom   35 type  1   force =     0.00000026    0.00000009   -0.00000221
     atom   36 type  1   force =     0.00000029   -0.00000029   -0.00000042
     atom   37 type  1   force =     0.00000062   -0.00000062    0.00000074
     atom   38 type  1   force =     0.00000043   -0.00000043   -0.00000050
     atom   39 type  1   force =    -0.00000220   -0.00000012   -0.00000067
     atom   40 type  1   force =     0.00000235    0.00000003    0.00000032
     atom   41 type  1   force =    -0.00000027   -0.00000038    0.00000011
     atom   42 type  1   force =     0.00000236    0.00000009   -0.00000013
     atom   43 type  1   force =    -0.00000107    0.00000060    0.00000065
     atom   44 type  1   force =     0.00000045    0.00000058   -0.00000058
     atom   45 type  1   force =    -0.00000009   -0.00000236   -0.00000013
     atom   46 type  1   force =    -0.00000060    0.00000107    0.00000065
     atom   47 type  1   force =    -0.00000058   -0.00000045   -0.00000058
     atom   48 type  1   force =     0.00000080    0.00000037    0.00000025
     atom   49 type  1   force =    -0.00000153   -0.00000131    0.00000149
     atom   50 type  1   force =    -0.00000009   -0.00000026   -0.00000221
     atom   51 type  1   force =    -0.00000149    0.00000149   -0.00000118
     atom   52 type  1   force =    -0.00000007    0.00000007   -0.00000013
     atom   53 type  1   force =    -0.00000067    0.00000067    0.00000114
     atom   54 type  1   force =    -0.00000088    0.00000152   -0.00000152
     atom   55 type  1   force =    -0.00000009   -0.00000159    0.00000020
     atom   56 type  1   force =    -0.00000016    0.00000192    0.00000161
     atom   57 type  1   force =    -0.00000016   -0.00000161   -0.00000192
     atom   58 type  1   force =     0.00000008    0.00000163    0.00000021
     atom   59 type  1   force =    -0.00000005   -0.00000181    0.00000181
     atom   60 type  1   force =    -0.00000009   -0.00000020    0.00000159
[...]
     atom  201 type  1   force =     0.00000025    0.00000239   -0.00000009
     atom  202 type  1   force =     0.00000054   -0.00000105    0.00000054
     atom  203 type  1   force =     0.00000051    0.00000056   -0.00000056
     atom  204 type  1   force =     0.00000167   -0.00000167   -0.00000123
     atom  205 type  1   force =     0.00000006   -0.00000006    0.00000006
     atom  206 type  1   force =     0.00000054   -0.00000054    0.00000105
     atom  207 type  1   force =     0.00000230    0.00000063   -0.00000063
     atom  208 type  1   force =    -0.00000239    0.00000009    0.00000025
     atom  209 type  1   force =     0.00000018    0.00000043    0.00000018
     atom  210 type  1   force =     0.00000018   -0.00000018   -0.00000043
     atom  211 type  1   force =    -0.00000056    0.00000056    0.00000051
     atom  212 type  1   force =    -0.00000021    0.00000021   -0.00000021
     atom  213 type  1   force =    -0.00000239   -0.00000025   -0.00000009
     atom  214 type  1   force =     0.00000105   -0.00000054    0.00000054
     atom  215 type  1   force =    -0.00000056   -0.00000051   -0.00000056

     Total force =     0.002824     Total SCF correction =     0.000026

     Computing stress (Cartesian axis) and pressure

     Non-local corr. energy    =       7.36225628 Ry

          total   stress  (Ry/bohr**3)                   (kbar)     P=       25.33
   0.00017222  -0.00000003   0.00000003           25.33       -0.00        0.00
  -0.00000003   0.00017222  -0.00000003           -0.00       25.33       -0.00
   0.00000003  -0.00000003   0.00017222            0.00       -0.00       25.33

     kinetic stress (kbar)  18928.99      0.00     -0.00
                                0.00  18928.99      0.00
                               -0.00      0.00  18928.99

     local   stress (kbar)  -3586.33      0.06     -0.06
                                0.06  -3586.33      0.06
                               -0.06      0.06  -3586.33

     nonloc. stress (kbar)   4309.97      0.00     -0.00
                                0.00   4309.97      0.00
                               -0.00      0.00   4309.97

     hartree stress (kbar)   1305.87     -0.02      0.02
                               -0.02   1305.87     -0.02
                                0.02     -0.02   1305.87

     exc-cor stress (kbar)   -416.10      0.00     -0.00
                                0.00   -416.10      0.00
                               -0.00      0.00   -416.10

     corecor stress (kbar)  -4415.02     -0.00      0.00
                               -0.00  -4415.02     -0.00
                                0.00     -0.00  -4415.02

     ewald   stress (kbar) -16126.88     -0.05      0.05
                               -0.05 -16126.88     -0.05
                                0.05     -0.05 -16126.88

     hubbard stress (kbar)      0.00      0.00      0.00
                                0.00      0.00      0.00
                                0.00      0.00      0.00

     DFT-D   stress (kbar)      0.00      0.00      0.00
                                0.00      0.00      0.00
                                0.00      0.00      0.00

     XDM     stress (kbar)      0.00      0.00      0.00
                                0.00      0.00      0.00
                                0.00      0.00      0.00

     dft-nl  stress (kbar)     24.82      0.00     -0.00
                                0.00     24.82      0.00
                               -0.00      0.00     24.82

     TS-vdW  stress (kbar)      0.00      0.00      0.00
                                0.00      0.00      0.00
                                0.00      0.00      0.00

     MDB     stress (kbar)      0.00      0.00      0.00
                                0.00      0.00      0.00
                                0.00      0.00      0.00

     3D-RISM stress (kbar)      0.00      0.00      0.00
                                0.00      0.00      0.00
                                0.00      0.00      0.00

     Energy error            =      3.5E-05 Ry
     Gradient error          =      2.3E-04 Ry/Bohr

     bfgs converged in   7 scf cycles and   6 bfgs steps
     (criteria: energy <  1.0E-04 Ry, force <  1.0E-03 Ry/Bohr)

     End of BFGS Geometry Optimization

     Final energy             =   -4081.8683515580 Ry

     File ./diamond.bfgs deleted, as requested
Begin final coordinates

ATOMIC_POSITIONS (angstrom)
C             0.8931500808        2.6791530722        4.4607718011
C             0.8930703679        2.6792327851        8.0423553433
C             0.8930703679        6.2468572632        0.8930703679
C             0.8921411982        6.2543576074        4.4682723206
C             0.8940768801        6.2543991871        8.0348134194
C             0.8931500808        9.8284408054        0.8931500808
C             0.8939878737        9.8209352086        4.4682773979
C             0.8921411982        9.8209402859        8.0348549991
C             4.4607718011        2.6791530722        0.8931500808
C             4.4682773979        2.6783152793        4.4682773979
C             4.4682723206        2.6801619548        8.0348549991
C             4.4682723206        6.2543576074        0.8921411982
C             4.4639868174        6.2500856707        4.4639868174
C             4.4649820348        6.2510809547        8.0381316518
C             4.4682773979        9.8209352086        0.8939878737
C             4.4649809948        9.8242316117        4.4649809948
C             4.4639868174        9.8252257891        8.0391269358
C             8.0423553433        2.6792327851        0.8930703679
C             8.0348549991        2.6801619548        4.4682723206
C             8.0348134194        2.6782262729        8.0348134194
C             8.0348134194        6.2543991871        0.8940768801
C             8.0381316518        6.2510809547        4.4649820348
C             8.0391361496        6.2500764569        8.0391361496
C             8.0348549991        9.8209402859        0.8921411982
C             8.0391269358        9.8252257891        4.4639868174
C             8.0381316518        9.8242305717        8.0381316518
C             0.0044451977        0.0070143865        1.7818303647
C             0.0004815192        0.0009508566        5.3575100243
C             0.0007073587       -0.0074094638        8.9235066313
C            -0.0637158211        3.6360189723        1.8499608033
C             0.0005144479        3.5717887033        5.3576995978
C             0.0044358051        3.5678673461        8.9377309752
C             0.0004855771        7.1438172775        1.7856721282
C             0.0005089936        7.1462312836        5.3600329725
C             0.0005129192        7.1436550075        8.9316638057
C             3.5797483486       -0.0074451974        1.7854485174
C             3.5721847433        0.0001184079        5.3594777925
C             3.5696177140        0.0026854372        8.9333755207
C             3.5652887647        3.5678579535        1.7818303647
C             3.5713522946        3.5718216320        5.3575100243
C             3.5797126150        3.5715957925        8.9235066313
C             3.5713575385        7.1436409333        1.7856257191
C             3.5718670793        7.1438378837        5.3576748880
C             3.5722001044        7.1456580039        8.9308602616
C             7.1455716713        0.0009456127        1.7856257191
C             7.1453747209        0.0004360719        5.3576748880
C             7.1435546007        0.0001030468        8.9308602616
C             7.1453953271        3.5718175741        1.7856721282
C             7.1429813210        3.5717941576        5.3600329725
C             7.1455575971        3.5717902320        8.9316638057
C             7.1429660490        7.1462465556        1.7856203178
C             7.1447720985        7.1444405061        5.3582744337
C             7.1453816738        7.1438309308        8.9311768645
C             0.9024317520        0.9034849654        2.6688181876
C             0.8930973832        0.8941528023        6.2515036627
C             0.8837968872        0.9037081919        9.8344584611
C             0.8837968872        4.4547541454        2.6685949611
C             0.8931170406        4.4643811470        6.2514958183
C             0.9025506717        4.4548843136        9.8343282929
C             0.8930973832        8.0377089438        2.6781503507
[...]
C             5.3574769489        5.3575278635        1.7856112930
C             5.3576529782        5.3580300348        5.3576529782
C             5.3595089707        5.3583475896        8.9308650169
C             5.3600896302        8.9291229763        1.7855800496
C             5.3582652225        8.9309473840        5.3582652225
C             5.3576529782        8.9315596283        8.9311825717
C             8.9379355927        1.7906691784        1.7816339746
C             8.9316847430        1.7866918600        5.3574769489
C             8.9232421686        1.7868297738        8.9232421686
C             8.9232421686        5.3659704379        1.7854733792
C             8.9308650169        5.3583475896        5.3595089707
C             8.9334930934        5.3557195131        8.9334930934
C             8.9316847430        8.9317356576        1.7856112930
C             8.9311825717        8.9315596283        5.3576529782
C             8.9308650169        8.9297036358        8.9308650169
End final coordinates

     Writing all to output data dir ./diamond.save/

     General routines

     Parallel routines

     PAW routines

   This run was terminated on:  12:33:27  29Sep2023

   JOB DONE.