     Program PWSCF v.7.1 starts on 28Mar2024 at  5:58: 1

     Reading input from espresso.pwi
Warning: card &CELL ignored
Warning: card    CELL_DYNAMICS    = 'BFGS' ignored
Warning: card / ignored

     Current dimensions of program PWSCF are:
     Max number of different atomic species (ntypx) = 10
     Max number of k-points (npk) =  40000
     Max angular momentum in pseudopotentials (lmaxx) =  4
     file Ga.pbe-dn-kjpaw_psl.1.0.0.UPF: wavefunction(s)  4S renormalized
     file N.pbe-n-kjpaw_psl.1.0.0.UPF: wavefunction(s)  2S renormalized

     IMPORTANT: XC functional enforced from input :
     Exchange-correlation= BEEF-VDW
                           (   1   4  43  14   2   0   0)
     Any further DFT definition will be discarded
     Please, verify this is what you really want

     Found identity + (  0.0000  0.0000  0.5000) symmetry
     This is a supercell, fractional translations are disabled

     R & G space division:  proc/nbgrp/npool/nimage =      27
     Subspace diagonalization in iterative solution of the eigenvalue problem:
     a serial algorithm will be used

     Using Slab Decomposition

     bravais-lattice index     =            4
     lattice parameter (alat)  =      12.2626  a.u.
     unit-cell volume          =    2602.7676 (a.u.)^3
     number of atoms/cell      =           32
     number of atomic types    =            2
     number of electrons       =       288.00
     number of Kohn-Sham states=          173
     kinetic-energy cutoff     =      70.0000  Ry
     charge density cutoff     =     350.0000  Ry
     scf convergence threshold =      1.0E-07
     mixing beta               =       0.7000
     number of iterations used =            8  plain     mixing
     Exchange-correlation= BEEF-VDW
                           (   1   4  43  14   2   0   0)

     celldm(1)=  12.262616  celldm(2)=   0.000000  celldm(3)=   1.629879
     celldm(4)=   0.000000  celldm(5)=   0.000000  celldm(6)=   0.000000

     crystal axes: (cart. coord. in units of alat)
               a(1) = (   1.000000   0.000000   0.000000 )
               a(2) = (  -0.500000   0.866025   0.000000 )
               a(3) = (   0.000000   0.000000   1.629879 )

     reciprocal axes: (cart. coord. in units 2 pi/alat)
               b(1) = (  1.000000  0.577350 -0.000000 )
               b(2) = (  0.000000  1.154701  0.000000 )
               b(3) = (  0.000000 -0.000000  0.613542 )

     PseudoPot. # 1 for Ga read from file:
     /trace/group/acmegroup/atimmins/packages/espresso/pseudo/psl_1.0.0/pslibrary.1.0.0/pbe/PSEUDOPOTENTIALS/Ga.pbe-dn-kjpaw_psl.1.0.0.UPF
     MD5 check sum: cd2a01e492f15b435d17032472d8505c
     Pseudo is Projector augmented-wave + core cor, Zval = 13.0
     Generated using 'atomic' code by A. Dal Corso  v.7.1
     Shape of augmentation charge: PSQ
     Using radial grid of 1205 points,  6 beta functions with:
                l(1) =   0
                l(2) =   0
                l(3) =   1
                l(4) =   1
                l(5) =   2
                l(6) =   2
     Q(r) pseudized with 0 coefficients

     PseudoPot. # 2 for N  read from file:
     /trace/group/acmegroup/atimmins/packages/espresso/pseudo/psl_1.0.0/pslibrary.1.0.0/pbe/PSEUDOPOTENTIALS/N.pbe-n-kjpaw_psl.1.0.0.UPF
     MD5 check sum: f77f775694dac7e2c3fe1c82443d1a16
     Pseudo is Projector augmented-wave + core cor, Zval =  5.0
     Generated using 'atomic' code by A. Dal Corso  v.7.1
     Shape of augmentation charge: PSQ
     Using radial grid of 1085 points,  4 beta functions with:
                l(1) =   0
                l(2) =   0
                l(3) =   1
                l(4) =   1
     Q(r) pseudized with 0 coefficients

     atomic species   valence    mass     pseudopotential
        Ga            13.00    69.72300     Ga( 1.00)
        N              5.00    14.00700     N ( 1.00)

      6 Sym. Ops. (no inversion) found

                                    s                        frac. trans.

      isym =  1     identity

 cryst.   s( 1) = (     1          0          0      )
                  (     0          1          0      )
                  (     0          0          1      )

 cart.    s( 1) = (  1.0000000  0.0000000  0.0000000 )
                  (  0.0000000  1.0000000  0.0000000 )
                  (  0.0000000  0.0000000  1.0000000 )

      isym =  2     120 deg rotation - cryst. axis [0,0,1]

[...]

      isym =  3     120 deg rotation - cryst. axis [0,0,-1]

[...]

      isym =  4     inv. 180 deg rotation - cart. axis [1,0,0]

[...]

      isym =  5     inv. 180 deg rotation - cryst. axis [0,1,0]

[...]

      isym =  6     inv. 180 deg rotation - cryst. axis [1,1,0]

 cryst.   s( 6) = (     0         -1          0      )
                  (    -1          0          0      )
                  (     0          0          1      )

 cart.    s( 6) = (  0.5000000 -0.8660254  0.0000000 )
                  ( -0.8660254 -0.5000000  0.0000000 )
                  (  0.0000000  0.0000000  1.0000000 )

     point group C_3v (3m)
     there are  3 classes
     the character table:

       E     2C3   3s_v
A_1    1.00  1.00  1.00
A_2    1.00  1.00 -1.00
E      2.00 -1.00  0.00

     the symmetry operations in each class and the name of the first element:

     E        1
          identity
     2C3      2    3
          120 deg rotation - cryst. axis [0,0,1]
     3s_v     4    5    6
          inv. 180 deg rotation - cart. axis [1,0,0]

   Cartesian axes

     site n.     atom                  positions (alat units)
         1           Ga  tau(   1) = (   0.2500002   0.1443375   0.4067871  )
         2           Ga  tau(   2) = (   0.2500002   0.1443375   1.2217266  )
         3           Ga  tau(   3) = (   0.0000002   0.5773502   0.4067871  )
         4           Ga  tau(   4) = (   0.0000002   0.5773502   1.2217266  )
         5           Ga  tau(   5) = (   0.7500002   0.1443375   0.4067871  )
         6           Ga  tau(   6) = (   0.7500002   0.1443375   1.2217266  )
         7           Ga  tau(   7) = (   0.5000002   0.5773502   0.4067871  )
         8           Ga  tau(   8) = (   0.5000002   0.5773502   1.2217266  )
         9           Ga  tau(   9) = (  -0.0000003   0.2886754   0.8142568  )
        10           Ga  tau(  10) = (  -0.0000003   0.2886754   1.6291964  )
        11           Ga  tau(  11) = (  -0.2500003   0.7216881   0.8142568  )
        12           Ga  tau(  12) = (  -0.2500003   0.7216881   1.6291964  )
        13           Ga  tau(  13) = (   0.4999997   0.2886754   0.8142568  )
        14           Ga  tau(  14) = (   0.4999997   0.2886754   1.6291964  )
        15           Ga  tau(  15) = (   0.2499997   0.7216881   0.8142568  )
        16           Ga  tau(  16) = (   0.2499997   0.7216881   1.6291964  )
        17           N   tau(  17) = (   0.2500002   0.1443375   0.7137548  )
        18           N   tau(  18) = (   0.2500002   0.1443375   1.5286943  )
        19           N   tau(  19) = (   0.0000002   0.5773502   0.7137548  )
        20           N   tau(  20) = (   0.0000002   0.5773502   1.5286943  )
        21           N   tau(  21) = (   0.7500002   0.1443375   0.7137548  )
        22           N   tau(  22) = (   0.7500002   0.1443375   1.5286943  )
        23           N   tau(  23) = (   0.5000002   0.5773502   0.7137548  )
        24           N   tau(  24) = (   0.5000002   0.5773502   1.5286943  )
        25           N   tau(  25) = (  -0.0000003   0.2886754   0.3062850  )
        26           N   tau(  26) = (  -0.0000003   0.2886754   1.1212245  )
        27           N   tau(  27) = (  -0.2500003   0.7216881   0.3062850  )
        28           N   tau(  28) = (  -0.2500003   0.7216881   1.1212245  )
        29           N   tau(  29) = (   0.4999997   0.2886754   0.3062850  )
        30           N   tau(  30) = (   0.4999997   0.2886754   1.1212245  )
        31           N   tau(  31) = (   0.2499997   0.7216881   0.3062850  )
        32           N   tau(  32) = (   0.2499997   0.7216881   1.1212245  )

   Crystallographic axes

     site n.     atom                  positions (cryst. coord.)
         1           Ga  tau(   1) = (  0.3333335  0.1666666  0.2495811  )
         2           Ga  tau(   2) = (  0.3333335  0.1666666  0.7495811  )
         3           Ga  tau(   3) = (  0.3333335  0.6666666  0.2495811  )
         4           Ga  tau(   4) = (  0.3333335  0.6666666  0.7495811  )
         5           Ga  tau(   5) = (  0.8333335  0.1666666  0.2495811  )
         6           Ga  tau(   6) = (  0.8333335  0.1666666  0.7495811  )
         7           Ga  tau(   7) = (  0.8333335  0.6666666  0.2495811  )
         8           Ga  tau(   8) = (  0.8333335  0.6666666  0.7495811  )
         9           Ga  tau(   9) = (  0.1666665  0.3333336  0.4995811  )
        10           Ga  tau(  10) = (  0.1666665  0.3333336  0.9995811  )
        11           Ga  tau(  11) = (  0.1666665  0.8333336  0.4995811  )
        12           Ga  tau(  12) = (  0.1666665  0.8333336  0.9995811  )
        13           Ga  tau(  13) = (  0.6666665  0.3333336  0.4995811  )
        14           Ga  tau(  14) = (  0.6666665  0.3333336  0.9995811  )
        15           Ga  tau(  15) = (  0.6666665  0.8333336  0.4995811  )
        16           Ga  tau(  16) = (  0.6666665  0.8333336  0.9995811  )
        17           N   tau(  17) = (  0.3333335  0.1666666  0.4379189  )
        18           N   tau(  18) = (  0.3333335  0.1666666  0.9379189  )
        19           N   tau(  19) = (  0.3333335  0.6666666  0.4379189  )
        20           N   tau(  20) = (  0.3333335  0.6666666  0.9379189  )
        21           N   tau(  21) = (  0.8333335  0.1666666  0.4379189  )
        22           N   tau(  22) = (  0.8333335  0.1666666  0.9379189  )
        23           N   tau(  23) = (  0.8333335  0.6666666  0.4379189  )
        24           N   tau(  24) = (  0.8333335  0.6666666  0.9379189  )
        25           N   tau(  25) = (  0.1666665  0.3333336  0.1879189  )
        26           N   tau(  26) = (  0.1666665  0.3333336  0.6879189  )
        27           N   tau(  27) = (  0.1666665  0.8333336  0.1879189  )
        28           N   tau(  28) = (  0.1666665  0.8333336  0.6879189  )
        29           N   tau(  29) = (  0.6666665  0.3333336  0.1879189  )
        30           N   tau(  30) = (  0.6666665  0.3333336  0.6879189  )
        31           N   tau(  31) = (  0.6666665  0.8333336  0.1879189  )
        32           N   tau(  32) = (  0.6666665  0.8333336  0.6879189  )

     number of k points=     8  Gaussian smearing, width (Ry)=  0.0100
                       cart. coord. in units 2pi/alat
        k(    1) = (   0.0000000   0.0000000   0.0000000), wk =   0.0625000
        k(    2) = (   0.0000000   0.0000000  -0.3067712), wk =   0.0625000
        k(    3) = (   0.0000000   0.2886751   0.0000000), wk =   0.3750000
        k(    4) = (   0.0000000   0.2886751  -0.3067712), wk =   0.3750000
        k(    5) = (   0.0000000  -0.5773503   0.0000000), wk =   0.1875000
        k(    6) = (   0.0000000  -0.5773503  -0.3067712), wk =   0.1875000
        k(    7) = (   0.2500000   0.4330127   0.0000000), wk =   0.3750000
[...]
     atom    5 type  1   force =    -0.00056963    0.00026439   -0.15983942
     atom    6 type  1   force =    -0.00056144    0.00025966   -0.15971323
     atom    7 type  1   force =    -0.00049345    0.00013244   -0.15983942
     atom    8 type  1   force =    -0.00049345    0.00014189   -0.15971323
     atom    9 type  1   force =     0.00067497   -0.00045201   -0.15976065
     atom   10 type  1   force =     0.00067497   -0.00042550   -0.15982543
     atom   11 type  1   force =     0.00073763   -0.00056061   -0.15976065
     atom   12 type  1   force =     0.00076059   -0.00057386   -0.15982543
     atom   13 type  1   force =     0.00068033   -0.00052749   -0.15975825
     atom   14 type  1   force =     0.00068033   -0.00052748   -0.15981876
     atom   15 type  1   force =     0.00061230   -0.00056061   -0.15976065
     atom   16 type  1   force =     0.00058935   -0.00057386   -0.15982543
     atom   17 type  2   force =    -0.00002978    0.00002407    0.14489653
     atom   18 type  2   force =    -0.00003311    0.00002215    0.14487079
     atom   19 type  2   force =    -0.00004073    0.00001825    0.14488690
     atom   20 type  2   force =    -0.00004073    0.00001825    0.14487446
     atom   21 type  2   force =    -0.00005081    0.00002407    0.14489653
     atom   22 type  2   force =    -0.00004748    0.00002215    0.14487079
     atom   23 type  2   force =    -0.00004029    0.00000585    0.14489653
     atom   24 type  2   force =    -0.00004029    0.00000970    0.14487079
     atom   25 type  2   force =     0.00005512   -0.00002577    0.14486211
     atom   26 type  2   force =     0.00005512   -0.00003241    0.14491498
     atom   27 type  2   force =     0.00006988   -0.00005135    0.14486211
     atom   28 type  2   force =     0.00006413   -0.00004803    0.14491498
     atom   29 type  2   force =     0.00005555   -0.00004307    0.14486600
     atom   30 type  2   force =     0.00005555   -0.00004307    0.14491445
     atom   31 type  2   force =     0.00004035   -0.00005135    0.14486211
     atom   32 type  2   force =     0.00004610   -0.00004803    0.14491498
     The core correction contribution to forces
     atom    1 type  1   force =    -0.00005547    0.00000539    0.00007359
     atom    2 type  1   force =    -0.00005564    0.00000529    0.00007405
     atom    3 type  1   force =    -0.00003691    0.00001654    0.00005802
     atom    4 type  1   force =    -0.00003691    0.00001654    0.00005838
     atom    5 type  1   force =    -0.00001759    0.00000538    0.00007359
     atom    6 type  1   force =    -0.00001741    0.00000528    0.00007405
     atom    7 type  1   force =    -0.00003654    0.00003818    0.00007359
     atom    8 type  1   force =    -0.00003654    0.00003838    0.00007405
     atom    9 type  1   force =     0.00004998   -0.00006054    0.00007324
     atom   10 type  1   force =     0.00004998   -0.00006072    0.00007418
     atom   11 type  1   force =     0.00003114   -0.00002795    0.00007324
     atom   12 type  1   force =     0.00003099   -0.00002787    0.00007417
     atom   13 type  1   force =     0.00005034   -0.00003903    0.00005784
     atom   14 type  1   force =     0.00005034   -0.00003903    0.00005854
     atom   15 type  1   force =     0.00006879   -0.00002798    0.00007324
     atom   16 type  1   force =     0.00006894   -0.00002789    0.00007418
     atom   17 type  2   force =    -0.00000072   -0.00000153   -0.00022579
     atom   18 type  2   force =    -0.00000079   -0.00000157   -0.00022580
     atom   19 type  2   force =     0.00000110   -0.00000049   -0.00022527
     atom   20 type  2   force =     0.00000110   -0.00000049   -0.00022520
     atom   21 type  2   force =     0.00000289   -0.00000153   -0.00022579
     atom   22 type  2   force =     0.00000296   -0.00000157   -0.00022580
     atom   23 type  2   force =     0.00000108    0.00000160   -0.00022579
     atom   24 type  2   force =     0.00000108    0.00000168   -0.00022580
     atom   25 type  2   force =    -0.00000148   -0.00000084   -0.00022566
     atom   26 type  2   force =    -0.00000148   -0.00000100   -0.00022624
     atom   27 type  2   force =    -0.00000322    0.00000215   -0.00022566
     atom   28 type  2   force =    -0.00000336    0.00000223   -0.00022624
     atom   29 type  2   force =    -0.00000150    0.00000116   -0.00022505
     atom   30 type  2   force =    -0.00000150    0.00000116   -0.00022562
     atom   31 type  2   force =     0.00000025    0.00000215   -0.00022566
     atom   32 type  2   force =     0.00000039    0.00000223   -0.00022624
     The Hubbard contrib.    to forces
     atom    1 type  1   force =     0.00000000    0.00000000    0.00000000
     atom    2 type  1   force =     0.00000000    0.00000000    0.00000000
     atom    3 type  1   force =     0.00000000    0.00000000    0.00000000
     atom    4 type  1   force =     0.00000000    0.00000000    0.00000000
     atom    5 type  1   force =     0.00000000    0.00000000    0.00000000
     atom    6 type  1   force =     0.00000000    0.00000000    0.00000000
     atom    7 type  1   force =     0.00000000    0.00000000    0.00000000
     atom    8 type  1   force =     0.00000000    0.00000000    0.00000000
     atom    9 type  1   force =     0.00000000    0.00000000    0.00000000
     atom   10 type  1   force =     0.00000000    0.00000000    0.00000000
     atom   11 type  1   force =     0.00000000    0.00000000    0.00000000
     atom   12 type  1   force =     0.00000000    0.00000000    0.00000000
     atom   13 type  1   force =     0.00000000    0.00000000    0.00000000
     atom   14 type  1   force =     0.00000000    0.00000000    0.00000000
     atom   15 type  1   force =     0.00000000    0.00000000    0.00000000
     atom   16 type  1   force =     0.00000000    0.00000000    0.00000000
     atom   17 type  2   force =     0.00000000    0.00000000    0.00000000
     atom   18 type  2   force =     0.00000000    0.00000000    0.00000000
     atom   19 type  2   force =     0.00000000    0.00000000    0.00000000
     atom   20 type  2   force =     0.00000000    0.00000000    0.00000000
     atom   21 type  2   force =     0.00000000    0.00000000    0.00000000
     atom   22 type  2   force =     0.00000000    0.00000000    0.00000000
     atom   23 type  2   force =     0.00000000    0.00000000    0.00000000
     atom   24 type  2   force =     0.00000000    0.00000000    0.00000000
     atom   25 type  2   force =     0.00000000    0.00000000    0.00000000
     atom   26 type  2   force =     0.00000000    0.00000000    0.00000000
     atom   27 type  2   force =     0.00000000    0.00000000    0.00000000
     atom   28 type  2   force =     0.00000000    0.00000000    0.00000000
     atom   29 type  2   force =     0.00000000    0.00000000    0.00000000
     atom   30 type  2   force =     0.00000000    0.00000000    0.00000000
     atom   31 type  2   force =     0.00000000    0.00000000    0.00000000
     atom   32 type  2   force =     0.00000000    0.00000000    0.00000000
     The SCF correction term to forces
     atom    1 type  1   force =    -0.00002727   -0.00001575    0.00007307
     atom    2 type  1   force =    -0.00001982   -0.00001145   -0.00008595
     atom    3 type  1   force =     0.00000000   -0.00000000    0.00008810
     atom    4 type  1   force =     0.00000000   -0.00000000   -0.00011296
     atom    5 type  1   force =     0.00002728   -0.00001575    0.00007307
     atom    6 type  1   force =     0.00001983   -0.00001145   -0.00008595
     atom    7 type  1   force =     0.00000000    0.00003149    0.00007307
     atom    8 type  1   force =     0.00000000    0.00002289   -0.00008595
     atom    9 type  1   force =    -0.00000000   -0.00001239   -0.00003875
     atom   10 type  1   force =    -0.00000000   -0.00004356    0.00005423
     atom   11 type  1   force =    -0.00001073    0.00000620   -0.00003875
     atom   12 type  1   force =    -0.00003773    0.00002178    0.00005423
     atom   13 type  1   force =    -0.00000000    0.00000000   -0.00004153
     atom   14 type  1   force =    -0.00000000    0.00000000    0.00004199
     atom   15 type  1   force =     0.00001072    0.00000620   -0.00003875
     atom   16 type  1   force =     0.00003772    0.00002178    0.00005423
     atom   17 type  2   force =    -0.00000831   -0.00000480   -0.00000820
     atom   18 type  2   force =    -0.00000529   -0.00000305    0.00001594
     atom   19 type  2   force =    -0.00000000    0.00000000   -0.00000616
     atom   20 type  2   force =     0.00000000   -0.00000000    0.00001251
     atom   21 type  2   force =     0.00000831   -0.00000480   -0.00000820
     atom   22 type  2   force =     0.00000529   -0.00000305    0.00001594
     atom   23 type  2   force =    -0.00000000    0.00000959   -0.00000820
     atom   24 type  2   force =     0.00000000    0.00000610    0.00001594
     atom   25 type  2   force =     0.00000000   -0.00001132    0.00003533
     atom   26 type  2   force =     0.00000000   -0.00000855   -0.00004454
     atom   27 type  2   force =    -0.00000980    0.00000566    0.00003533
     atom   28 type  2   force =    -0.00000740    0.00000427   -0.00004454
     atom   29 type  2   force =    -0.00000000    0.00000000    0.00002757
     atom   30 type  2   force =    -0.00000000    0.00000000   -0.00004208
     atom   31 type  2   force =     0.00000980    0.00000566    0.00003533
     atom   32 type  2   force =     0.00000740    0.00000427   -0.00004454

     Total force =     0.000908     Total SCF correction =     0.000317
     SCF correction compared to forces is large: reduce conv_thr to get better values

     Computing stress (Cartesian axis) and pressure

[...]

          total   stress  (Ry/bohr**3)                   (kbar)     P=        0.96
   0.00000335   0.00000000   0.00000000            0.49        0.00        0.00
   0.00000000   0.00000335   0.00000000            0.00        0.49        0.00
   0.00000000   0.00000000   0.00001287            0.00        0.00        1.89

     kinetic stress (kbar)  18449.13      0.00      0.00
                                0.00  18449.13     -0.00
                                0.00      0.00  18444.04

     local   stress (kbar)   5447.23     -0.07     -0.00
                               -0.07   5447.14      0.00
                               -0.00      0.00   3811.54

     nonloc. stress (kbar)     61.07      0.00      0.00
                                0.00     61.07      0.00
                                0.00      0.00     72.92

     hartree stress (kbar)  19596.26     -0.00     -0.00
                               -0.00  19596.26     -0.00
                               -0.00     -0.00  20346.42

     exc-cor stress (kbar)   5218.02      0.00      0.00
                                0.00   5218.02     -0.00
                                0.00     -0.00   5218.25

     corecor stress (kbar) -14110.27     -0.00     -0.00
                               -0.00 -14110.27      0.00
                               -0.00      0.00 -14109.70

     ewald   stress (kbar) -34823.05      0.10      0.00
                                0.10 -34822.93     -0.00
                                0.00     -0.00 -33942.83

     hubbard stress (kbar)      0.00      0.00      0.00
                                0.00      0.00      0.00
                                0.00      0.00      0.00

     DFT-D   stress (kbar)      0.00      0.00      0.00
                                0.00      0.00      0.00
                                0.00      0.00      0.00

     XDM     stress (kbar)      0.00      0.00      0.00
                                0.00      0.00      0.00
                                0.00      0.00      0.00

     dft-nl  stress (kbar)    162.09     -0.00     -0.00
                               -0.00    162.09      0.00
                               -0.00      0.00    161.24

     TS-vdW  stress (kbar)      0.00      0.00      0.00
                                0.00      0.00      0.00
                                0.00      0.00      0.00

     MDB     stress (kbar)      0.00      0.00      0.00
                                0.00      0.00      0.00
                                0.00      0.00      0.00

     3D-RISM stress (kbar)      0.00      0.00      0.00
                                0.00      0.00      0.00
                                0.00      0.00      0.00

[...]

     Non-local corr. energy    =       8.72080254 Ry

 BEEFens 2000 ensemble energies
             -0.705663642193892E+01
             -0.635348338529567E+02
             -0.273267766255674E+02
              0.223579338951021E+02
             -0.456803958446436E+02
             -0.587503693316100E+02
              0.301881095973472E+02
             -0.318046829328304E+01
              0.503253506371051E+02
             -0.217403187835978E+01
              0.246871634120314E+02
              0.102458484433920E+01
              0.101394141612195E+01
             -0.215570526931242E+01
              0.329374779596998E+02
             -0.239820118079732E+02
             -0.494286657221721E+02
             -0.161521115525989E+02
              0.120694878810177E+02
             -0.108319594606735E+01
              0.721454946306349E+02
              0.614019756877990E+02
             -0.351489206539094E+02
              0.127276266833690E+02
             -0.770653028015028E+02
              0.617931926885215E+02
              0.201805075704797E+02
              0.600746715829852E+02
              0.394738665871341E+02
             -0.192131862306831E+02
              0.145427077085411E+02
             -0.283877015074900E+02
              0.794366379262200E+01
              0.386218379957186E+02
              0.409555210943341E+02
             -0.147940523117655E+02
              0.909782726051458E+02
             -0.345303649520750E+02
             -0.248578393044461E+02
              0.364617561662357E+02
              0.163089903512856E+02
              0.272914394140062E+02
             -0.520159926014336E+02
             -0.145909710264607E+01
              0.510603040850824E+02
              0.663242755577940E+02
             -0.660278718015498E+02
              0.470306143205726E+01
              0.248952614403321E+02
              0.121218853480114E+02
              0.276099748912538E+02
              0.584825669438490E+02
             -0.353526473539488E+02
             -0.387556787022889E+02
             -0.503906160509923E+02
             -0.779765083544049E+01
             -0.459640575068216E+02
              0.450118994576957E+01
             -0.850785047818715E+01
             -0.358219756073240E+02
[...]
              0.447050867575829E+02
              0.246980813721478E+02
              0.313803808321441E+02
             -0.507154752328850E+02
             -0.485539576877635E+02
             -0.122819557947584E+02
             -0.475894721150847E+02
              0.761881784510180E+02
              0.652966429399469E+02
              0.312028535229149E+02
              0.844976165716101E+02
             -0.439758856147469E+02
             -0.179194596392452E+02
             -0.249327566027487E+02
              0.698923040403768E+02

 BEEF-vdW xc energy contributions
            1 :    -640.5315008390592
            2 :     576.9379882222023
            3 :    -470.3941306770600
            4 :     352.0842496784621
            5 :    -249.4502645001662
            6 :     175.7544031407256
            7 :    -128.5960602206557
            8 :     96.68812378853465
            9 :    -69.43443443815363
           10 :     43.08008901995936
           11 :    -20.48455752604855
           12 :     6.241189435018441
           13 :    -1.632402516676507
           14 :     3.156631654772468
           15 :    -5.117658917869903
           16 :     3.681242077862976
           17 :    0.9192199086794517
           18 :    -5.493391297645758
           19 :     7.065165501887122
           20 :    -5.412111298822310
           21 :     3.073312898387258
           22 :    -3.097065500118333
           23 :     6.535674693266287
           24 :    -11.69689484898947
           25 :     15.59655783573589
           26 :    -16.29025184911882
           27 :     14.19109461095456
           28 :    -11.44524954245799
           29 :     10.04498950877587
           30 :    -10.29022160282432
           31 :    -54.88112412871419
           32 :    -37.60792484344813

     Writing all to output data dir ./GaN.save/

     General routines

     Parallel routines

     PAW routines

   This run was terminated on:   5:59:14  28Mar2024

   JOB DONE.