     Program PWSCF v.7.1 starts on 28Mar2024 at  6:23:45

     Reading input from espresso.pwi
Warning: card &CELL ignored
Warning: card    CELL_DYNAMICS    = 'BFGS' ignored
Warning: card / ignored

     Current dimensions of program PWSCF are:
     Max number of different atomic species (ntypx) = 10
     Max number of k-points (npk) =  40000
     Max angular momentum in pseudopotentials (lmaxx) =  4
     file Ga.pbe-dn-kjpaw_psl.1.0.0.UPF: wavefunction(s)  4S renormalized
     file N.pbe-n-kjpaw_psl.1.0.0.UPF: wavefunction(s)  2S renormalized

     IMPORTANT: XC functional enforced from input :
     Exchange-correlation= BEEF-VDW
                           (   1   4  43  14   2   0   0)
     Any further DFT definition will be discarded
     Please, verify this is what you really want

     R & G space division:  proc/nbgrp/npool/nimage =      27
     Subspace diagonalization in iterative solution of the eigenvalue problem:
     a serial algorithm will be used

     Using Slab Decomposition

     bravais-lattice index     =            4
     lattice parameter (alat)  =      12.2626  a.u.
     unit-cell volume          =    2602.7676 (a.u.)^3
     number of atoms/cell      =           31
     number of atomic types    =            2
     number of electrons       =       283.00
     number of Kohn-Sham states=          170
     kinetic-energy cutoff     =      70.0000  Ry
     charge density cutoff     =     350.0000  Ry
     scf convergence threshold =      1.0E-07
     mixing beta               =       0.7000
     number of iterations used =            8  plain     mixing
     Exchange-correlation= BEEF-VDW
                           (   1   4  43  14   2   0   0)

     celldm(1)=  12.262616  celldm(2)=   0.000000  celldm(3)=   1.629879
     celldm(4)=   0.000000  celldm(5)=   0.000000  celldm(6)=   0.000000

     crystal axes: (cart. coord. in units of alat)
               a(1) = (   1.000000   0.000000   0.000000 )
               a(2) = (  -0.500000   0.866025   0.000000 )
               a(3) = (   0.000000   0.000000   1.629879 )

     reciprocal axes: (cart. coord. in units 2 pi/alat)
               b(1) = (  1.000000  0.577350 -0.000000 )
               b(2) = (  0.000000  1.154701  0.000000 )
               b(3) = (  0.000000 -0.000000  0.613542 )

     PseudoPot. # 1 for Ga read from file:
     /trace/group/acmegroup/atimmins/packages/espresso/pseudo/psl_1.0.0/pslibrary.1.0.0/pbe/PSEUDOPOTENTIALS/Ga.pbe-dn-kjpaw_psl.1.0.0.UPF
     MD5 check sum: cd2a01e492f15b435d17032472d8505c
     Pseudo is Projector augmented-wave + core cor, Zval = 13.0
     Generated using 'atomic' code by A. Dal Corso  v.7.1
     Shape of augmentation charge: PSQ
     Using radial grid of 1205 points,  6 beta functions with:
                l(1) =   0
                l(2) =   0
                l(3) =   1
                l(4) =   1
                l(5) =   2
                l(6) =   2
     Q(r) pseudized with 0 coefficients

     PseudoPot. # 2 for N  read from file:
     /trace/group/acmegroup/atimmins/packages/espresso/pseudo/psl_1.0.0/pslibrary.1.0.0/pbe/PSEUDOPOTENTIALS/N.pbe-n-kjpaw_psl.1.0.0.UPF
     MD5 check sum: f77f775694dac7e2c3fe1c82443d1a16
     Pseudo is Projector augmented-wave + core cor, Zval =  5.0
     Generated using 'atomic' code by A. Dal Corso  v.7.1
     Shape of augmentation charge: PSQ
     Using radial grid of 1085 points,  4 beta functions with:
                l(1) =   0
                l(2) =   0
                l(3) =   1
                l(4) =   1
     Q(r) pseudized with 0 coefficients

     atomic species   valence    mass     pseudopotential
        Ga            13.00    69.72300     Ga( 1.00)
        N              5.00    14.00700     N ( 1.00)

      6 Sym. Ops. (no inversion) found ( 4 have fractional translation)

                                    s                        frac. trans.

      isym =  1     identity

 cryst.   s( 1) = (     1          0          0      )
                  (     0          1          0      )
                  (     0          0          1      )

 cart.    s( 1) = (  1.0000000  0.0000000  0.0000000 )
                  (  0.0000000  1.0000000  0.0000000 )
                  (  0.0000000  0.0000000  1.0000000 )

      isym =  2     120 deg rotation - cryst. axis [0,0,1]

 cryst.   s( 2) = (     0          1          0      )    f =(  0.4999999 )
                  (    -1         -1          0      )       (  0.0000004 )
                  (     0          0          1      )       (  0.0000000 )

 cart.    s( 2) = ( -0.5000000 -0.8660254  0.0000000 )    f =(  0.4999998 )
                  (  0.8660254 -0.5000000  0.0000000 )       (  0.0000003 )
                  (  0.0000000  0.0000000  1.0000000 )       (  0.0000000 )

      isym =  3     120 deg rotation - cryst. axis [0,0,-1]

[...]

      isym =  4     inv. 180 deg rotation - cart. axis [1,0,0]

[...]

      isym =  5     inv. 180 deg rotation - cryst. axis [0,1,0]

 cryst.   s( 5) = (     1          1          0      )
                  (     0         -1          0      )
                  (     0          0          1      )

 cart.    s( 5) = (  0.5000000  0.8660254  0.0000000 )
                  (  0.8660254 -0.5000000  0.0000000 )
                  (  0.0000000  0.0000000  1.0000000 )

      isym =  6     inv. 180 deg rotation - cryst. axis [1,1,0]

 cryst.   s( 6) = (     0         -1          0      )    f =(  0.4999999 )
                  (    -1          0          0      )       (  0.4999999 )
                  (     0          0          1      )       (  0.0000000 )

 cart.    s( 6) = (  0.5000000 -0.8660254  0.0000000 )    f =(  0.2500000 )
                  ( -0.8660254 -0.5000000  0.0000000 )       (  0.4330127 )
                  (  0.0000000  0.0000000  1.0000000 )       (  0.0000000 )

     point group C_3v (3m)
     there are  3 classes
     the character table:

       E     2C3   3s_v
A_1    1.00  1.00  1.00
A_2    1.00  1.00 -1.00
E      2.00 -1.00  0.00

     the symmetry operations in each class and the name of the first element:

     E        1
          identity
     2C3      2    3
          120 deg rotation - cryst. axis [0,0,1]
     3s_v     4    5    6
          inv. 180 deg rotation - cart. axis [1,0,0]

   Cartesian axes

     site n.     atom                  positions (alat units)
         1           Ga  tau(   1) = (   0.2500002   0.1443375   0.4067871  )
         2           Ga  tau(   2) = (   0.2500002   0.1443375   1.2217266  )
         3           Ga  tau(   3) = (   0.0000002   0.5773502   0.4067871  )
         4           Ga  tau(   4) = (   0.0000002   0.5773502   1.2217266  )
         5           Ga  tau(   5) = (   0.7500002   0.1443375   0.4067871  )
         6           Ga  tau(   6) = (   0.7500002   0.1443375   1.2217266  )
         7           Ga  tau(   7) = (   0.5000002   0.5773502   0.4067871  )
         8           Ga  tau(   8) = (   0.5000002   0.5773502   1.2217266  )
         9           Ga  tau(   9) = (  -0.0000003   0.2886754   0.8142568  )
        10           Ga  tau(  10) = (  -0.0000003   0.2886754   1.6291964  )
        11           Ga  tau(  11) = (  -0.2500003   0.7216881   0.8142568  )
        12           Ga  tau(  12) = (  -0.2500003   0.7216881   1.6291964  )
        13           Ga  tau(  13) = (   0.4999997   0.2886754   0.8142568  )
        14           Ga  tau(  14) = (   0.4999997   0.2886754   1.6291964  )
        15           Ga  tau(  15) = (   0.2499997   0.7216881   0.8142568  )
        16           Ga  tau(  16) = (   0.2499997   0.7216881   1.6291964  )
        17           N   tau(  17) = (   0.2500002   0.1443375   1.5286943  )
        18           N   tau(  18) = (   0.0000002   0.5773502   0.7137548  )
        19           N   tau(  19) = (   0.0000002   0.5773502   1.5286943  )
        20           N   tau(  20) = (   0.7500002   0.1443375   0.7137548  )
        21           N   tau(  21) = (   0.7500002   0.1443375   1.5286943  )
        22           N   tau(  22) = (   0.5000002   0.5773502   0.7137548  )
        23           N   tau(  23) = (   0.5000002   0.5773502   1.5286943  )
        24           N   tau(  24) = (  -0.0000003   0.2886754   0.3062850  )
        25           N   tau(  25) = (  -0.0000003   0.2886754   1.1212245  )
        26           N   tau(  26) = (  -0.2500003   0.7216881   0.3062850  )
        27           N   tau(  27) = (  -0.2500003   0.7216881   1.1212245  )
        28           N   tau(  28) = (   0.4999997   0.2886754   0.3062850  )
        29           N   tau(  29) = (   0.4999997   0.2886754   1.1212245  )
        30           N   tau(  30) = (   0.2499997   0.7216881   0.3062850  )
        31           N   tau(  31) = (   0.2499997   0.7216881   1.1212245  )

   Crystallographic axes

     site n.     atom                  positions (cryst. coord.)
         1           Ga  tau(   1) = (  0.3333335  0.1666666  0.2495811  )
         2           Ga  tau(   2) = (  0.3333335  0.1666666  0.7495811  )
         3           Ga  tau(   3) = (  0.3333335  0.6666666  0.2495811  )
         4           Ga  tau(   4) = (  0.3333335  0.6666666  0.7495811  )
         5           Ga  tau(   5) = (  0.8333335  0.1666666  0.2495811  )
         6           Ga  tau(   6) = (  0.8333335  0.1666666  0.7495811  )
         7           Ga  tau(   7) = (  0.8333335  0.6666666  0.2495811  )
         8           Ga  tau(   8) = (  0.8333335  0.6666666  0.7495811  )
         9           Ga  tau(   9) = (  0.1666665  0.3333336  0.4995811  )
        10           Ga  tau(  10) = (  0.1666665  0.3333336  0.9995811  )
        11           Ga  tau(  11) = (  0.1666665  0.8333336  0.4995811  )
        12           Ga  tau(  12) = (  0.1666665  0.8333336  0.9995811  )
        13           Ga  tau(  13) = (  0.6666665  0.3333336  0.4995811  )
        14           Ga  tau(  14) = (  0.6666665  0.3333336  0.9995811  )
        15           Ga  tau(  15) = (  0.6666665  0.8333336  0.4995811  )
        16           Ga  tau(  16) = (  0.6666665  0.8333336  0.9995811  )
        17           N   tau(  17) = (  0.3333335  0.1666666  0.9379189  )
        18           N   tau(  18) = (  0.3333335  0.6666666  0.4379189  )
        19           N   tau(  19) = (  0.3333335  0.6666666  0.9379189  )
        20           N   tau(  20) = (  0.8333335  0.1666666  0.4379189  )
        21           N   tau(  21) = (  0.8333335  0.1666666  0.9379189  )
        22           N   tau(  22) = (  0.8333335  0.6666666  0.4379189  )
        23           N   tau(  23) = (  0.8333335  0.6666666  0.9379189  )
        24           N   tau(  24) = (  0.1666665  0.3333336  0.1879189  )
        25           N   tau(  25) = (  0.1666665  0.3333336  0.6879189  )
        26           N   tau(  26) = (  0.1666665  0.8333336  0.1879189  )
        27           N   tau(  27) = (  0.1666665  0.8333336  0.6879189  )
        28           N   tau(  28) = (  0.6666665  0.3333336  0.1879189  )
        29           N   tau(  29) = (  0.6666665  0.3333336  0.6879189  )
        30           N   tau(  30) = (  0.6666665  0.8333336  0.1879189  )
        31           N   tau(  31) = (  0.6666665  0.8333336  0.6879189  )

[...]
     atom   31 type  2   force =     0.00002971   -0.00001847   -0.71679680
     The local contribution  to forces
     atom    1 type  1   force =    -0.00007619    0.00024295   -7.98698484
     atom    2 type  1   force =    -0.00007734    0.00024644    2.39798579
     atom    3 type  1   force =     0.26720306    0.15456587   -1.78026213
     atom    4 type  1   force =     0.37468504    0.21662190    1.45840278
     atom    5 type  1   force =    -0.00007277   -0.30838541   -1.78026228
     atom    6 type  1   force =    -0.00007201   -0.43249517    1.45840240
     atom    7 type  1   force =    -0.26735741    0.15456874   -1.78026219
     atom    8 type  1   force =    -0.37483974    0.21662199    1.45840280
     atom    9 type  1   force =    -5.10582968    2.94798255    2.04733592
     atom   10 type  1   force =    -0.04507836    0.02615757   -0.97117255
     atom   11 type  1   force =     0.00107286   -5.89749656    2.04735113
     atom   12 type  1   force =     0.00109024   -0.05380925   -0.97117369
     atom   13 type  1   force =     5.10804537    2.94801309    2.04735727
     atom   14 type  1   force =     0.04726995    0.02615792   -0.97117394
     atom   15 type  1   force =     0.00110403   -0.00049766    0.41025033
     atom   16 type  1   force =     0.00109698   -0.00049545   -0.50230353
     atom   17 type  2   force =    -0.00001038    0.00002248    0.10320255
     atom   18 type  2   force =     0.34979252    0.20196539   -0.28391418
     atom   19 type  2   force =     0.05160067    0.02982063    0.25824674
     atom   20 type  2   force =    -0.00001414   -0.40388800   -0.28391315
     atom   21 type  2   force =    -0.00000986   -0.05957310    0.25824680
     atom   22 type  2   force =    -0.34981089    0.20198469   -0.28391460
     atom   23 type  2   force =    -0.05162122    0.02982049    0.25824664
     atom   24 type  2   force =    -0.37526830    0.21667192   -0.58289934
     atom   25 type  2   force =    -0.13262971    0.07658442    1.34886273
     atom   26 type  2   force =     0.00008335   -0.43345996   -0.58290097
     atom   27 type  2   force =     0.00008384   -0.15328396    1.34886515
     atom   28 type  2   force =     0.37544027    0.21667326   -0.58290157
     atom   29 type  2   force =     0.13280026    0.07658533    1.34886524
     atom   30 type  2   force =     0.00008687   -0.00003849   -0.33569365
     atom   31 type  2   force =     0.00008598   -0.00003829    0.71316056
     The core correction contribution to forces
     atom    1 type  1   force =    -0.00000623    0.00001817   -0.00053034
     atom    2 type  1   force =    -0.00000626    0.00001824    0.00038966
     atom    3 type  1   force =     0.00017085    0.00012083    0.00063880
     atom    4 type  1   force =     0.00002282    0.00003548   -0.00029949
     atom    5 type  1   force =    -0.00000590   -0.00018646    0.00063879
     atom    6 type  1   force =    -0.00000587   -0.00001558   -0.00029950
     atom    7 type  1   force =    -0.00018336    0.00012098    0.00063879
     atom    8 type  1   force =    -0.00003535    0.00003549   -0.00029949
     atom    9 type  1   force =     0.00411457   -0.00236658   -0.00295632
     atom   10 type  1   force =     0.00006055   -0.00002553   -0.00025287
     atom   11 type  1   force =     0.00008018    0.00462201   -0.00295657
     atom   12 type  1   force =     0.00008021   -0.00005957   -0.00025287
     atom   13 type  1   force =    -0.00395426   -0.00236612   -0.00295639
     atom   14 type  1   force =     0.00010064   -0.00002553   -0.00025287
     atom   15 type  1   force =     0.00008063   -0.00003668    0.00021446
     atom   16 type  1   force =     0.00008061   -0.00003666    0.00006320
     atom   17 type  2   force =     0.00000025   -0.00000033   -0.00019377
     atom   18 type  2   force =    -0.00074302   -0.00042954    0.00066613
     atom   19 type  2   force =    -0.00004155   -0.00002447   -0.00046263
     atom   20 type  2   force =     0.00000018    0.00085794    0.00066611
     atom   21 type  2   force =     0.00000023    0.00004793   -0.00046263
     atom   22 type  2   force =     0.00074350   -0.00042938    0.00066613
     atom   23 type  2   force =     0.00004204   -0.00002447   -0.00046263
     atom   24 type  2   force =    -0.00009377    0.00005411   -0.00048188
     atom   25 type  2   force =    -0.00034729    0.00020047   -0.00067161
     atom   26 type  2   force =    -0.00000238   -0.00010432   -0.00048204
     atom   27 type  2   force =    -0.00000237   -0.00039702   -0.00067145
     atom   28 type  2   force =     0.00008910    0.00005417   -0.00048205
     atom   29 type  2   force =     0.00034259    0.00020051   -0.00067145
     atom   30 type  2   force =    -0.00000234    0.00000130   -0.00037407
     atom   31 type  2   force =    -0.00000233    0.00000130   -0.00006064
     The Hubbard contrib.    to forces
     atom    1 type  1   force =     0.00000000    0.00000000    0.00000000
     atom    2 type  1   force =     0.00000000    0.00000000    0.00000000
     atom    3 type  1   force =     0.00000000    0.00000000    0.00000000
     atom    4 type  1   force =     0.00000000    0.00000000    0.00000000
     atom    5 type  1   force =     0.00000000    0.00000000    0.00000000
     atom    6 type  1   force =     0.00000000    0.00000000    0.00000000
     atom    7 type  1   force =     0.00000000    0.00000000    0.00000000
     atom    8 type  1   force =     0.00000000    0.00000000    0.00000000
     atom    9 type  1   force =     0.00000000    0.00000000    0.00000000
     atom   10 type  1   force =     0.00000000    0.00000000    0.00000000
     atom   11 type  1   force =     0.00000000    0.00000000    0.00000000
     atom   12 type  1   force =     0.00000000    0.00000000    0.00000000
     atom   13 type  1   force =     0.00000000    0.00000000    0.00000000
     atom   14 type  1   force =     0.00000000    0.00000000    0.00000000
     atom   15 type  1   force =     0.00000000    0.00000000    0.00000000
     atom   16 type  1   force =     0.00000000    0.00000000    0.00000000
     atom   17 type  2   force =     0.00000000    0.00000000    0.00000000
     atom   18 type  2   force =     0.00000000    0.00000000    0.00000000
     atom   19 type  2   force =     0.00000000    0.00000000    0.00000000
     atom   20 type  2   force =     0.00000000    0.00000000    0.00000000
     atom   21 type  2   force =     0.00000000    0.00000000    0.00000000
     atom   22 type  2   force =     0.00000000    0.00000000    0.00000000
     atom   23 type  2   force =     0.00000000    0.00000000    0.00000000
     atom   24 type  2   force =     0.00000000    0.00000000    0.00000000
     atom   25 type  2   force =     0.00000000    0.00000000    0.00000000
     atom   26 type  2   force =     0.00000000    0.00000000    0.00000000
     atom   27 type  2   force =     0.00000000    0.00000000    0.00000000
     atom   28 type  2   force =     0.00000000    0.00000000    0.00000000
     atom   29 type  2   force =     0.00000000    0.00000000    0.00000000
     atom   30 type  2   force =     0.00000000    0.00000000    0.00000000
     atom   31 type  2   force =     0.00000000    0.00000000    0.00000000
     The SCF correction term to forces
     atom    1 type  1   force =    -0.00000000    0.00000000    0.00000148
     atom    2 type  1   force =    -0.00000000   -0.00000000   -0.00003693
     atom    3 type  1   force =     0.00001589    0.00000917    0.00000961
     atom    4 type  1   force =     0.00000303    0.00000175   -0.00004067
     atom    5 type  1   force =     0.00000000   -0.00001835    0.00000961
     atom    6 type  1   force =     0.00000000   -0.00000349   -0.00004067
     atom    7 type  1   force =    -0.00001589    0.00000917    0.00000961
     atom    8 type  1   force =    -0.00000303    0.00000175   -0.00004067
     atom    9 type  1   force =     0.00000894   -0.00000516    0.00001764
     atom   10 type  1   force =    -0.00000194    0.00000112    0.00000133
     atom   11 type  1   force =    -0.00000000    0.00001032    0.00001764
     atom   12 type  1   force =     0.00000000   -0.00000225    0.00000133
     atom   13 type  1   force =    -0.00000894   -0.00000516    0.00001764
     atom   14 type  1   force =     0.00000194    0.00000112    0.00000133
     atom   15 type  1   force =     0.00000000   -0.00000000    0.00000685
     atom   16 type  1   force =     0.00000000   -0.00000000    0.00004428
     atom   17 type  2   force =     0.00000000   -0.00000000   -0.00000069
     atom   18 type  2   force =     0.00000485    0.00000280    0.00000542
     atom   19 type  2   force =    -0.00000183   -0.00000106   -0.00000150
     atom   20 type  2   force =     0.00000000   -0.00000560    0.00000542
     atom   21 type  2   force =     0.00000000    0.00000211   -0.00000150
     atom   22 type  2   force =    -0.00000485    0.00000280    0.00000542
     atom   23 type  2   force =     0.00000183   -0.00000106   -0.00000150
     atom   24 type  2   force =    -0.00000078    0.00000045    0.00000729
     atom   25 type  2   force =    -0.00000314    0.00000181   -0.00001166
     atom   26 type  2   force =     0.00000000   -0.00000091    0.00000729
     atom   27 type  2   force =     0.00000000   -0.00000363   -0.00001166
     atom   28 type  2   force =     0.00000078    0.00000045    0.00000729
     atom   29 type  2   force =     0.00000314    0.00000181   -0.00001166
     atom   30 type  2   force =     0.00000000   -0.00000000    0.00001389
     atom   31 type  2   force =     0.00000000   -0.00000000   -0.00001571

     Total force =     0.001850     Total SCF correction =     0.000110

     Computing stress (Cartesian axis) and pressure

[...]

          total   stress  (Ry/bohr**3)                   (kbar)     P=        0.53
   0.00002072   0.00000000   0.00000000            3.05        0.00        0.00
  -0.00000000   0.00002072   0.00000000           -0.00        3.05        0.00
   0.00000000   0.00000000  -0.00003072            0.00        0.00       -4.52

     kinetic stress (kbar)  17785.98      0.00      0.00
                                0.00  17785.98      0.00
                                0.00      0.00  17770.99

     local   stress (kbar)   4986.59     -0.07      0.00
                               -0.07   4986.50     -0.00
                                0.00     -0.00   3844.63

     nonloc. stress (kbar)    302.19      0.00      0.00
                                0.00    302.19      0.00
                                0.00      0.00    318.74

     hartree stress (kbar)  19710.34     -0.00     -0.00
                               -0.00  19710.34      0.00
                               -0.00      0.00  20243.59

     exc-cor stress (kbar)   5289.55      0.00     -0.00
                                0.00   5289.55      0.00
                               -0.00      0.00   5289.23

     corecor stress (kbar) -14072.80     -0.00     -0.00
                               -0.00 -14072.80     -0.00
                               -0.00     -0.00 -14072.29

     ewald   stress (kbar) -34159.64      0.09     -0.00
                                0.09 -34159.53      0.00
                               -0.00      0.00 -33559.63

     hubbard stress (kbar)      0.00      0.00      0.00
                                0.00      0.00      0.00
                                0.00      0.00      0.00

     DFT-D   stress (kbar)      0.00      0.00      0.00
                                0.00      0.00      0.00
                                0.00      0.00      0.00

     XDM     stress (kbar)      0.00      0.00      0.00
                                0.00      0.00      0.00
                                0.00      0.00      0.00

     dft-nl  stress (kbar)    160.83     -0.00      0.00
                               -0.00    160.83     -0.00
                                0.00     -0.00    160.23

     TS-vdW  stress (kbar)      0.00      0.00      0.00
                                0.00      0.00      0.00
                                0.00      0.00      0.00

     MDB     stress (kbar)      0.00      0.00      0.00
                                0.00      0.00      0.00
                                0.00      0.00      0.00

     3D-RISM stress (kbar)      0.00      0.00      0.00
                                0.00      0.00      0.00
                                0.00      0.00      0.00

[...]

     Non-local corr. energy    =       8.64443556 Ry

 BEEFens 2000 ensemble energies
             -0.696476171926292E+01
             -0.629377981418843E+02
             -0.271281754916278E+02
              0.221458689899334E+02
             -0.453561381712469E+02
             -0.582738455759973E+02
              0.299200328335147E+02
             -0.313590279330074E+01
              0.498866404257069E+02
             -0.216679297887171E+01
              0.245799260713943E+02
              0.101990514088439E+01
              0.931936282805424E+00
             -0.215291456555371E+01
              0.326390369307674E+02
             -0.237735086571348E+02
             -0.489067096623801E+02
             -0.160011610160109E+02
              0.119597254902850E+02
             -0.109594036724309E+01
              0.715759166790683E+02
              0.608214786439239E+02
             -0.349097046281875E+02
              0.125604785142572E+02
             -0.764072041827177E+02
              0.612611977833552E+02
              0.200046579179937E+02
              0.594760411708288E+02
              0.390691924647097E+02
             -0.189750309280461E+02
              0.144173743270840E+02
             -0.280173070390730E+02
              0.794762014018771E+01
              0.383321131642769E+02
              0.406134096022403E+02
             -0.146802678971684E+02
              0.901609900443925E+02
             -0.343029411468746E+02
             -0.246198026938341E+02
              0.361576496245588E+02
              0.161741462527764E+02
              0.270795314717434E+02
             -0.515886228120489E+02
             -0.144205499611269E+01
              0.505861290053521E+02
              0.657704010647610E+02
             -0.655213514042487E+02
              0.462596102554900E+01
              0.246389104445140E+02
              0.121184329660217E+02
              0.273442851218973E+02
              0.579568944203641E+02
             -0.350566037882570E+02
             -0.384605078643191E+02
             -0.499742311574154E+02
             -0.765687674603691E+01
             -0.455595083773573E+02
              0.449073850408644E+01
             -0.835990458636434E+01
             -0.354773946871494E+02
[...]
              0.442412759110727E+02
              0.245184974331509E+02
              0.310342619850858E+02
             -0.502777394007108E+02
             -0.482541272455080E+02
             -0.121518951261712E+02
             -0.472156836463190E+02
              0.755020431511400E+02
              0.646842696053182E+02
              0.309188159314547E+02
              0.837953057989515E+02
             -0.435719853540780E+02
             -0.177286655440295E+02
             -0.247657903526305E+02
              0.693685900311208E+02

 BEEF-vdW xc energy contributions
            1 :    -634.9160772524051
            2 :     571.9219221947419
            3 :    -466.4416466467569
            4 :     349.4418217908012
            5 :    -248.1382419659813
            6 :     175.6157593979963
            7 :    -129.3650811655629
            8 :     98.05017607930404
            9 :    -71.07106000982299
           10 :     44.70852997746681
           11 :    -21.89586664093792
           12 :     7.325599553722896
           13 :    -2.374593815334947
           14 :     3.597632258057956
           15 :    -5.304408308566394
           16 :     3.636948574499343
           17 :     1.184989917941607
           18 :    -5.947714576740736
           19 :     7.624044672212676
           20 :    -5.952022950789342
           21 :     3.479314681477263
           22 :    -3.312191031729412
           23 :     6.572320047713674
           24 :    -11.60086283738315
           25 :     15.39461278160434
           26 :    -15.96825433594984
           27 :     13.72625371086701
           28 :    -10.86993105620036
           29 :     9.488151694896828
           30 :    -9.952950246160640
           31 :    -54.21462972735344
           32 :    -37.14621997841277

     Writing all to output data dir ./GaN.save/

     General routines

     Parallel routines

     PAW routines

   This run was terminated on:   6:24:25  28Mar2024

   JOB DONE.