     Program PWSCF v.7.1 starts on  2Oct2023 at 22:15:27

     Reading input from espresso.pwi
Warning: card &CELL ignored
Warning: card    CELL_DYNAMICS    = 'BFGS' ignored
Warning: card / ignored

     Current dimensions of program PWSCF are:
     Max number of different atomic species (ntypx) = 10
     Max number of k-points (npk) =  40000
     Max angular momentum in pseudopotentials (lmaxx) =  4
     file C.pbe-n-kjpaw_psl.1.0.0.UPF: wavefunction(s)  2S 2P renormalized

     IMPORTANT: XC functional enforced from input :
     Exchange-correlation= BEEF-VDW
                           (   1   4  43  14   2   0   0)
     Any further DFT definition will be discarded
     Please, verify this is what you really want

     K-points division:     npool     =       8
     R & G space division:  proc/nbgrp/npool/nimage =      16
     Subspace diagonalization in iterative solution of the eigenvalue problem:
     a serial algorithm will be used

     Using Slab Decomposition

     bravais-lattice index     =            4
     lattice parameter (alat)  =       4.7468  a.u.
     unit-cell volume          =     154.1541 (a.u.)^3
     number of atoms/cell      =            4
     number of atomic types    =            1
     number of electrons       =        16.00
     number of Kohn-Sham states=           12
     kinetic-energy cutoff     =      70.0000  Ry
     charge density cutoff     =     350.0000  Ry
     scf convergence threshold =      1.0E-08
     mixing beta               =       0.7000
     number of iterations used =            8  plain     mixing
     Exchange-correlation= BEEF-VDW
                           (   1   4  43  14   2   0   0)

     celldm(1)=   4.746817  celldm(2)=   0.000000  celldm(3)=   1.664244
     celldm(4)=   0.000000  celldm(5)=   0.000000  celldm(6)=   0.000000

     crystal axes: (cart. coord. in units of alat)
               a(1) = (   1.000000   0.000000   0.000000 )
               a(2) = (  -0.500000   0.866025   0.000000 )
               a(3) = (   0.000000   0.000000   1.664244 )

     reciprocal axes: (cart. coord. in units 2 pi/alat)
               b(1) = (  1.000000  0.577350 -0.000000 )
               b(2) = (  0.000000  1.154701  0.000000 )
               b(3) = (  0.000000 -0.000000  0.600873 )

     PseudoPot. # 1 for C  read from file:
     /trace/group/acmegroup/atimmins/packages/espresso/pseudo/psl_1.0.0/pslibrary.1.0.0/pbe/PSEUDOPOTENTIALS/C.pbe-n-kjpaw_psl.1.0.0.UPF
     MD5 check sum: 5459cf7f2c8c37df2f7cde8914797f4d
     Pseudo is Projector augmented-wave + core cor, Zval =  4.0
     Generated using 'atomic' code by A. Dal Corso  v.7.1
     Shape of augmentation charge: PSQ
     Using radial grid of 1073 points,  4 beta functions with:
                l(1) =   0
                l(2) =   0
                l(3) =   1
                l(4) =   1
     Q(r) pseudized with 0 coefficients

     atomic species   valence    mass     pseudopotential
        C              4.00    12.01100     C ( 1.00)

     24 Sym. Ops., with inversion, found (12 have fractional translation)

                                    s                        frac. trans.

      isym =  1     identity

 cryst.   s( 1) = (     1          0          0      )
                  (     0          1          0      )
                  (     0          0          1      )

 cart.    s( 1) = (  1.0000000  0.0000000  0.0000000 )
                  (  0.0000000  1.0000000  0.0000000 )
                  (  0.0000000  0.0000000  1.0000000 )

      isym =  2     180 deg rotation - cart. axis [0,0,1]

 cryst.   s( 2) = (    -1          0          0      )    f =(  0.0000003 )
                  (     0         -1          0      )       (  0.0000002 )
                  (     0          0          1      )       (  0.5000000 )

 cart.    s( 2) = ( -1.0000000  0.0000000  0.0000000 )    f =(  0.0000002 )
                  (  0.0000000 -1.0000000  0.0000000 )       (  0.0000002 )
                  (  0.0000000  0.0000000  1.0000000 )       (  0.8321220 )

[...]

      isym =  4     180 deg rotation - cart. axis [1,0,0]

[...]

      isym =  5      60 deg rotation - cryst. axis [0,0,1]

[...]

 cryst.   s( 8) = (    -1         -1          0      )
                  (     1          0          0      )
                  (     0          0          1      )

 cart.    s( 8) = ( -0.5000000  0.8660254  0.0000000 )
                  ( -0.8660254 -0.5000000  0.0000000 )
                  (  0.0000000  0.0000000  1.0000000 )

[...]

 cryst.   s( 9) = (     0         -1          0      )    f =(  0.0000003 )
                  (    -1          0          0      )       (  0.0000003 )
                  (     0          0         -1      )       ( -0.5000000 )

 cart.    s( 9) = (  0.5000000 -0.8660254  0.0000000 )    f =(  0.0000002 )
                  ( -0.8660254 -0.5000000  0.0000000 )       (  0.0000003 )
                  (  0.0000000  0.0000000 -1.0000000 )       ( -0.8321220 )

[...]

 cryst.   s(10) = (     1          1          0      )    f =(  0.0000000 )
                  (     0         -1          0      )       ( -0.0000009 )
                  (     0          0         -1      )       ( -0.5000000 )

 cart.    s(10) = (  0.5000000  0.8660254  0.0000000 )    f =(  0.0000005 )
                  (  0.8660254 -0.5000000  0.0000000 )       ( -0.0000008 )
                  (  0.0000000  0.0000000 -1.0000000 )       ( -0.8321220 )

[...]

 cryst.   s(11) = (    -1         -1          0      )
                  (     0          1          0      )
                  (     0          0         -1      )

 cart.    s(11) = ( -0.5000000 -0.8660254  0.0000000 )
                  ( -0.8660254  0.5000000  0.0000000 )
                  (  0.0000000  0.0000000 -1.0000000 )

      isym = 12     180 deg rotation - cryst. axis [1,1,0]

[...]

      isym = 13     inversion

[...]

      isym = 14     inv. 180 deg rotation - cart. axis [0,0,1]

[...]

      isym = 16     inv. 180 deg rotation - cart. axis [1,0,0]

[...]

      isym = 17     inv.  60 deg rotation - cryst. axis [0,0,1]

[...]

 cryst.   s(22) = (    -1         -1          0      )    f =(  0.0000003 )
                  (     0          1          0      )       ( -0.0000008 )
                  (     0          0          1      )       (  0.5000000 )

 cart.    s(22) = ( -0.5000000 -0.8660254  0.0000000 )    f =(  0.0000007 )
                  ( -0.8660254  0.5000000  0.0000000 )       ( -0.0000007 )
                  (  0.0000000  0.0000000  1.0000000 )       (  0.8321220 )

[...]

      isym = 24     inv. 180 deg rotation - cryst. axis [1,1,0]

 cryst.   s(24) = (     0         -1          0      )
                  (    -1          0          0      )
                  (     0          0          1      )

 cart.    s(24) = (  0.5000000 -0.8660254  0.0000000 )
                  ( -0.8660254 -0.5000000  0.0000000 )
                  (  0.0000000  0.0000000  1.0000000 )

     point group D_6h(6/mmm)
     there are 12 classes
     the character table:

       E     2C6   2C3   C2    3C2'  3C2'' i     2S3   2S6   s_h   3s_d  3s_v
A_1g   1.00  1.00  1.00  1.00  1.00  1.00  1.00  1.00  1.00  1.00  1.00  1.00
A_2g   1.00  1.00  1.00  1.00 -1.00 -1.00  1.00  1.00  1.00  1.00 -1.00 -1.00
B_1g   1.00 -1.00  1.00 -1.00  1.00 -1.00  1.00 -1.00  1.00 -1.00  1.00 -1.00
B_2g   1.00 -1.00  1.00 -1.00 -1.00  1.00  1.00 -1.00  1.00 -1.00 -1.00  1.00
E_1g   2.00  1.00 -1.00 -2.00  0.00  0.00  2.00  1.00 -1.00 -2.00  0.00  0.00
E_2g   2.00 -1.00 -1.00  2.00  0.00  0.00  2.00 -1.00 -1.00  2.00  0.00  0.00
A_1u   1.00  1.00  1.00  1.00  1.00  1.00 -1.00 -1.00 -1.00 -1.00 -1.00 -1.00
A_2u   1.00  1.00  1.00  1.00 -1.00 -1.00 -1.00 -1.00 -1.00 -1.00  1.00  1.00
B_1u   1.00 -1.00  1.00 -1.00  1.00 -1.00 -1.00  1.00 -1.00  1.00 -1.00  1.00
B_2u   1.00 -1.00  1.00 -1.00 -1.00  1.00 -1.00  1.00 -1.00  1.00  1.00 -1.00
E_1u   2.00  1.00 -1.00 -2.00  0.00  0.00 -2.00 -1.00  1.00  2.00  0.00  0.00
E_2u   2.00 -1.00 -1.00  2.00  0.00  0.00 -2.00  1.00  1.00 -2.00  0.00  0.00

     the symmetry operations in each class and the name of the first element:

     E        1
          identity
     2C6      5    6
           60 deg rotation - cryst. axis [0,0,1]
     2C3      7    8
          120 deg rotation - cryst. axis [0,0,1]
     C2       2
          180 deg rotation - cart. axis [0,0,1]
     3C2'     4   12   11
          180 deg rotation - cart. axis [1,0,0]
     3C2''    3    9   10
          180 deg rotation - cart. axis [0,1,0]
     i       13
          inversion
     2S3     17   18
          inv.  60 deg rotation - cryst. axis [0,0,1]
     2S6     19   20
          inv. 120 deg rotation - cryst. axis [0,0,1]
     s_h     14
          inv. 180 deg rotation - cart. axis [0,0,1]
     3s_d    16   24   23
          inv. 180 deg rotation - cart. axis [1,0,0]
     3s_v    15   21   22
          inv. 180 deg rotation - cart. axis [0,1,0]

   Cartesian axes

     site n.     atom                  positions (alat units)
         1           C   tau(   1) = (  -0.0000006   0.5773504   0.1043497  )
         2           C   tau(   2) = (   0.5000004   0.2886748   0.9364716  )
         3           C   tau(   3) = (   0.5000004   0.2886748   1.5598942  )
         4           C   tau(   4) = (  -0.0000006   0.5773504   0.7277723  )

   Crystallographic axes

     site n.     atom                  positions (cryst. coord.)
         1           C   tau(   1) = (  0.3333328  0.6666669  0.0627010  )
         2           C   tau(   2) = (  0.6666669  0.3333329  0.5627010  )
         3           C   tau(   3) = (  0.6666669  0.3333329  0.9372990  )
         4           C   tau(   4) = (  0.3333328  0.6666669  0.4372990  )

     number of k points=    84  Gaussian smearing, width (Ry)=  0.0100
                       cart. coord. in units 2pi/alat
        k(    1) = (   0.0000000   0.0000000   0.0000000), wk =   0.0020000
        k(    2) = (   0.0000000   0.0000000   0.0600873), wk =   0.0040000
        k(    3) = (   0.0000000   0.0000000   0.1201747), wk =   0.0040000
        k(    4) = (   0.0000000   0.0000000   0.1802620), wk =   0.0040000
        k(    5) = (   0.0000000   0.0000000   0.2403494), wk =   0.0040000
        k(    6) = (   0.0000000   0.0000000  -0.3004367), wk =   0.0020000
        k(    7) = (   0.0000000   0.1154701   0.0000000), wk =   0.0120000
        k(    8) = (   0.0000000   0.1154701   0.0600873), wk =   0.0240000
        k(    9) = (   0.0000000   0.1154701   0.1201747), wk =   0.0240000
        k(   10) = (   0.0000000   0.1154701   0.1802620), wk =   0.0240000
        k(   11) = (   0.0000000   0.1154701   0.2403494), wk =   0.0240000
        k(   12) = (   0.0000000   0.1154701  -0.3004367), wk =   0.0120000
        k(   13) = (   0.0000000   0.2309401   0.0000000), wk =   0.0120000
        k(   14) = (   0.0000000   0.2309401   0.0600873), wk =   0.0240000
        k(   15) = (   0.0000000   0.2309401   0.1201747), wk =   0.0240000
        k(   16) = (   0.0000000   0.2309401   0.1802620), wk =   0.0240000
        k(   17) = (   0.0000000   0.2309401   0.2403494), wk =   0.0240000
        k(   18) = (   0.0000000   0.2309401  -0.3004367), wk =   0.0120000
[...]
        k(   50) = (   0.1000000   0.3000000   0.1000000), wk =   0.0480000
        k(   51) = (   0.1000000   0.3000000   0.2000000), wk =   0.0480000
        k(   52) = (   0.1000000   0.3000000   0.3000000), wk =   0.0480000
        k(   53) = (   0.1000000   0.3000000   0.4000000), wk =   0.0480000
        k(   54) = (   0.1000000   0.3000000  -0.5000000), wk =   0.0240000
        k(   55) = (   0.1000000   0.4000000   0.0000000), wk =   0.0240000
        k(   56) = (   0.1000000   0.4000000   0.1000000), wk =   0.0480000
        k(   57) = (   0.1000000   0.4000000   0.2000000), wk =   0.0480000
        k(   58) = (   0.1000000   0.4000000   0.3000000), wk =   0.0480000
        k(   59) = (   0.1000000   0.4000000   0.4000000), wk =   0.0480000
        k(   60) = (   0.1000000   0.4000000  -0.5000000), wk =   0.0240000
[...]
        k(   70) = (   0.2000000   0.3000000   0.3000000), wk =   0.0480000
        k(   71) = (   0.2000000   0.3000000   0.4000000), wk =   0.0480000
        k(   72) = (   0.2000000   0.3000000  -0.5000000), wk =   0.0240000
        k(   73) = (   0.2000000   0.4000000   0.0000000), wk =   0.0120000
        k(   74) = (   0.2000000   0.4000000   0.1000000), wk =   0.0240000
        k(   75) = (   0.2000000   0.4000000   0.2000000), wk =   0.0240000
        k(   76) = (   0.2000000   0.4000000   0.3000000), wk =   0.0240000
        k(   77) = (   0.2000000   0.4000000   0.4000000), wk =   0.0240000
        k(   78) = (   0.2000000   0.4000000  -0.5000000), wk =   0.0120000
        k(   79) = (   0.3000000   0.3000000   0.0000000), wk =   0.0120000
        k(   80) = (   0.3000000   0.3000000   0.1000000), wk =   0.0240000
        k(   81) = (   0.3000000   0.3000000   0.2000000), wk =   0.0240000
        k(   82) = (   0.3000000   0.3000000   0.3000000), wk =   0.0240000
        k(   83) = (   0.3000000   0.3000000   0.4000000), wk =   0.0240000
        k(   84) = (   0.3000000   0.3000000  -0.5000000), wk =   0.0120000

     Check: negative core charge=   -0.000014

     Initial potential from superposition of free atoms

     starting charge      15.9998, renormalised to      16.0000

     %%%%%%%%%%%%%%%%%%%%%%%%%%%%%%%%%%%%%%%%%%%%%%%%%%%%%%%%%%%%%%%%%%%%%%%%
     %                                                                      %
     % You are using vdW-DF, which was implemented by the Thonhauser group. %
     % Please cite the following two papers that made this development      %
     % possible and the two reviews that describe the various versions:     %
     %                                                                      %
     %   T. Thonhauser et al., PRL 115, 136402 (2015).                      %
     %   T. Thonhauser et al., PRB 76, 125112 (2007).                       %
     %   K. Berland et al., Rep. Prog. Phys. 78, 066501 (2015).             %
     %   D.C. Langreth et al., J. Phys.: Condens. Matter 21, 084203 (2009). %
     %                                                                      %
     % If you are calculating stress with vdW-DF, please also cite:         %
     %                                                                      %
     %   R. Sabatini et al., J. Phys.: Condens. Matter 24, 424209 (2012).   %
     %                                                                      %
     %%%%%%%%%%%%%%%%%%%%%%%%%%%%%%%%%%%%%%%%%%%%%%%%%%%%%%%%%%%%%%%%%%%%%%%%

     %%%%%%%%%%%%%%%%%%%%%%%%%%%%%%%%%%%%%%%%%%%%%%%%%%%%%%%%%%%%%%%%%%%%%%%%
     %                                                                      %
     %  vdW-DF NEWS:                                                        %
     %                                                                      %
     %  * vdW-DF3 is now available. DOI: 10.1021/acs.jctc.0c00471           %
     %    use with input_dft = 'vdW-DF3-opt1' or 'vdW-DF3-opt2'             %
     %                                                                      %
     %  * Unscreened and range-separated vdW-DF hybrid functionals          %
     %    DOI: 10.1063/1.4986522 and 10.1088/1361-648X/ac2ad2               %
     %    use with input_dft = 'vdW-DF-cx0' (etc) and 'vdW-DF-ahcx'         %
     %                                                                      %
     %%%%%%%%%%%%%%%%%%%%%%%%%%%%%%%%%%%%%%%%%%%%%%%%%%%%%%%%%%%%%%%%%%%%%%%%

     Carrying out vdW-DF run using the following parameters:
     Nqs    =  20  Npoints =  1024  r_max =  100.000
     q_mesh =  0.00001000  0.04494208  0.09755937  0.15916263
               0.23128650  0.31572767  0.41458969  0.53033537
               0.66584808  0.82450364  1.01025438  1.22772762
               1.48234092  1.78043706  2.12944203  2.53805004
               3.01644009  3.57652955  4.23227104  5.00000000

     Non-local corr. energy    =       0.10085848 Ry

     Starting wfcs are   16 randomized atomic wfcs
     Checking if some PAW data can be deallocated...

     Self-consistent Calculation

     iteration #  1     ecut=    70.00 Ry     beta= 0.70
     Davidson diagonalization with overlap

     ethr =  1.00E-02,  avg # of iterations =  2.7

[...]

     total energy              =     -75.94960884 Ry
     estimated scf accuracy    <       0.23656824 Ry

[...]

     total energy              =     -75.96304249 Ry
     estimated scf accuracy    <       0.00000003 Ry

     iteration #  6     ecut=    70.00 Ry     beta= 0.70
     Davidson diagonalization with overlap

     ethr =  1.88E-10,  avg # of iterations =  4.7

[...]

     End of self-consistent calculation

          k = 0.0000 0.0000 0.0000 (  1521 PWs)   bands (ev):

    -8.4994  -3.0415  -0.3118  10.1421  10.1422  12.7379  13.1909  13.1910
    18.2580  18.2581  18.6174  21.2591

     occupation numbers
     1.0000   1.0000   1.0000   1.0000   1.0000   1.0000   1.0000   1.0000
     0.0000   0.0000   0.0000   0.0000

[...]

          k = 0.3000 0.5196-0.3004 (  1502 PWs)   bands (ev):

    -0.9697  -0.9697   1.1395   1.1395   4.1758   4.1758   8.8918   8.8918
    20.6003  20.6003  22.7445  22.7445

     occupation numbers
     1.0000   1.0000   1.0000   1.0000   1.0000   1.0000   1.0000   1.0000
     0.0000   0.0000   0.0000   0.0000

     the Fermi energy is    15.2575 ev

!    total energy              =     -75.96304251 Ry
     total all-electron energy =      -307.019431 Ry
     estimated scf accuracy    <          2.7E-10 Ry
     smearing contrib. (-TS)   =      -0.00000000 Ry
     internal energy E=F+TS    =     -75.96304251 Ry

     The total energy is F=E-TS. E is the sum of the following terms:
     one-electron contribution =      16.61950529 Ry
     hartree contribution      =       4.04124466 Ry
     xc contribution           =     -19.49439442 Ry
     ewald contribution        =     -50.96410359 Ry
     one-center paw contrib.   =     -26.16529446 Ry
      -> PAW hartree energy AE =       8.95770305 Ry
      -> PAW hartree energy PS =      -8.94938741 Ry
      -> PAW xc energy AE      =     -11.10569115 Ry
      -> PAW xc energy PS      =       4.55605189 Ry
      -> total E_H with PAW    =       4.04956030 Ry
      -> total E_XC with PAW   =     -26.04403367 Ry

     convergence has been achieved in   6 iterations

[...]

     Forces acting on atoms (cartesian axes, Ry/au):

     atom    1 type  1   force =     0.00000000    0.00000000    0.00025888
     atom    2 type  1   force =     0.00000000    0.00000000    0.00025888
     atom    3 type  1   force =     0.00000000   -0.00000000   -0.00025888
     atom    4 type  1   force =    -0.00000000   -0.00000000   -0.00025888
     The non-local contrib.  to forces
     atom    1 type  1   force =     0.00000000    0.00000000    0.01609894
     atom    2 type  1   force =    -0.00000000   -0.00000000    0.01609894
     atom    3 type  1   force =     0.00000000    0.00000000   -0.01609894
     atom    4 type  1   force =    -0.00000000   -0.00000000   -0.01609894
     The ionic contribution  to forces
     atom    1 type  1   force =     0.00001231   -0.00000600    0.19746405
     atom    2 type  1   force =    -0.00001231    0.00000600    0.19746406
     atom    3 type  1   force =    -0.00001231    0.00000600   -0.19746405
     atom    4 type  1   force =     0.00001231   -0.00000600   -0.19746406
     The local contribution  to forces
     atom    1 type  1   force =     0.00001019   -0.00000312   -0.21291253
     atom    2 type  1   force =    -0.00001996    0.00000998   -0.21290262
     atom    3 type  1   force =    -0.00001251    0.00000795    0.21290829
     atom    4 type  1   force =     0.00000273   -0.00000109    0.21291805
     The core correction contribution to forces
     atom    1 type  1   force =    -0.00000031    0.00000005   -0.00038747
     atom    2 type  1   force =     0.00000088   -0.00000056   -0.00038729
     atom    3 type  1   force =     0.00000103   -0.00000060    0.00038679
     atom    4 type  1   force =    -0.00000045    0.00000009    0.00038698
     The Hubbard contrib.    to forces
     atom    1 type  1   force =     0.00000000    0.00000000    0.00000000
     atom    2 type  1   force =     0.00000000    0.00000000    0.00000000
     atom    3 type  1   force =     0.00000000    0.00000000    0.00000000
     atom    4 type  1   force =     0.00000000    0.00000000    0.00000000
     The SCF correction term to forces
     atom    1 type  1   force =     0.00000000   -0.00000000   -0.00000660
     atom    2 type  1   force =    -0.00000000    0.00000000   -0.00000660
     atom    3 type  1   force =    -0.00000000    0.00000000    0.00000660
     atom    4 type  1   force =     0.00000000   -0.00000000    0.00000660

     Total force =     0.000518     Total SCF correction =     0.000013

     Computing stress (Cartesian axis) and pressure

[...]

          total   stress  (Ry/bohr**3)                   (kbar)     P=        0.17
   0.00000002  -0.00000000   0.00000000            0.00       -0.00        0.00
   0.00000000   0.00000002   0.00000000            0.00        0.00        0.00
   0.00000000   0.00000000   0.00000347            0.00        0.00        0.51

     kinetic stress (kbar)  18958.87     -0.00     -0.00
                               -0.00  18958.87      0.00
                                0.00     -0.00  18912.63

     local   stress (kbar)  -3479.02     -0.03      0.00
                               -0.03  -3479.05     -0.00
                                0.00     -0.00  -3623.49

     nonloc. stress (kbar)   4324.85      0.00      0.00
                                0.00   4324.85     -0.00
                                0.00     -0.00   4314.06

     hartree stress (kbar)   1239.89      0.00     -0.00
                                0.00   1239.89      0.00
                               -0.00      0.00   1376.68

     exc-cor stress (kbar)   -411.87      0.00      0.00
                                0.00   -411.87     -0.00
                                0.00     -0.00   -411.50

     corecor stress (kbar)  -4427.35     -0.00     -0.00
                               -0.00  -4427.35      0.00
                               -0.00      0.00  -4419.52

     ewald   stress (kbar) -16230.85      0.06      0.00
                                0.06 -16230.79     -0.00
                                0.00     -0.00 -16172.02

     hubbard stress (kbar)      0.00      0.00      0.00
                                0.00      0.00      0.00
                                0.00      0.00      0.00

     DFT-D   stress (kbar)      0.00      0.00      0.00
                                0.00      0.00      0.00
                                0.00      0.00      0.00

     XDM     stress (kbar)      0.00      0.00      0.00
                                0.00      0.00      0.00
                                0.00      0.00      0.00

     dft-nl  stress (kbar)     25.47     -0.00     -0.00
                               -0.00     25.47      0.00
                               -0.00      0.00     23.68

     TS-vdW  stress (kbar)      0.00      0.00      0.00
                                0.00      0.00      0.00
                                0.00      0.00      0.00

     MDB     stress (kbar)      0.00      0.00      0.00
                                0.00      0.00      0.00
                                0.00      0.00      0.00

     3D-RISM stress (kbar)      0.00      0.00      0.00
                                0.00      0.00      0.00
                                0.00      0.00      0.00

[...]

     Non-local corr. energy    =       0.13662736 Ry

 BEEFens 2000 ensemble energies
             -0.242284613174776E+00
             -0.168509921161522E+01
             -0.593767778423093E+00
              0.659258289031006E+00
             -0.111101291920883E+01
             -0.155808564833160E+01
              0.916317848140878E+00
             -0.191707502793448E+00
              0.127993451349210E+01
             -0.203834670859075E-01
              0.522325847000538E+00
              0.237943798840425E-01
              0.762154329206171E-01
             -0.148680350416766E+00
              0.863954034252694E+00
             -0.646274160334483E+00
             -0.148759602352081E+01
             -0.411316144327708E+00
              0.333391523887233E+00
              0.352093448891537E-01
              0.178076449386416E+01
              0.161330245897945E+01
             -0.792759904653982E+00
              0.445403860100828E+00
             -0.202226548197154E+01
              0.162623160707182E+01
              0.580350531334137E+00
              0.170983967246986E+01
              0.107982489319009E+01
             -0.673076639835852E+00
              0.418020842613394E+00
             -0.880405832289114E+00
              0.273773190752389E-01
              0.864415659669891E+00
              0.111073125238942E+01
             -0.275307197723981E+00
              0.239869753858694E+01
             -0.838329129708089E+00
             -0.611811794666837E+00
              0.933557733682768E+00
              0.325632565574346E+00
              0.779397098537054E+00
             -0.136474176762896E+01
             -0.576957934146840E-01
              0.144251952350302E+01
              0.176360448682957E+01
             -0.159897437265395E+01
              0.133762894437306E+00
              0.635048050998148E+00
              0.148567576489002E+00
              0.773997423134181E+00
              0.154968628319567E+01
             -0.103632693637806E+01
             -0.109408398475583E+01
             -0.138275788838359E+01
             -0.379372156110320E+00
             -0.116000088480270E+01
              0.618559475360643E-01
             -0.309161624362085E+00
             -0.104906967431340E+01
[...]
              0.136193172317489E+01
              0.555731171680463E+00
              0.949178644789477E+00
             -0.135586399015225E+01
             -0.105554348605827E+01
             -0.428766930307813E+00
             -0.116807570746940E+01
              0.209455931836886E+01
              0.179726806103427E+01
              0.783306630728522E+00
              0.212464997176077E+01
             -0.113652279578766E+01
             -0.545896894986421E+00
             -0.565735696526511E+00
              0.167141379663384E+01

 BEEF-vdW xc energy contributions
            1 :    -16.36591174533298
            2 :     14.44332840299821
            3 :    -11.12837983311491
            4 :     7.280399296700661
            5 :    -3.774928016525426
            6 :     1.214177187979413
            7 :    0.2225468359728424
            8 :   -0.7431724347317541
            9 :    0.7632804070624921
           10 :   -0.6829671792723566
           11 :    0.7258049934560979
           12 :   -0.8999853846915755
           13 :     1.073502329088203
           14 :    -1.101139079951270
           15 :    0.9265649527515087
           16 :   -0.6100212529267743
           17 :    0.2808321162219016
           18 :   -5.5358189995249774E-002
           19 :   -2.6259065741896848E-002
           20 :    1.0089010882591509E-002
           21 :    1.3668416444208020E-002
           22 :    2.6545684206741527E-002
           23 :   -0.1398536844161278
           24 :    0.2721287208554806
           25 :   -0.3443732576127658
           26 :    0.3039305352451613
           27 :   -0.1572381092677766
           28 :   -3.3545666444734223E-002
           29 :    0.1853357505826025
           30 :   -0.2382172102889015
           31 :    -2.141406873917038
           32 :    -1.555071318332040

     Writing all to output data dir ./GaN.save/

     General routines

     Parallel routines

     PAW routines

   This run was terminated on:  22:15:30   2Oct2023

   JOB DONE.