     Program PWSCF v.7.1 starts on 18Feb2024 at 22:51: 0

     Reading input from espresso.pwi
Warning: card &CELL ignored
Warning: card    CELL_DYNAMICS    = 'BFGS' ignored
Warning: card / ignored

     Current dimensions of program PWSCF are:
     Max number of different atomic species (ntypx) = 10
     Max number of k-points (npk) =  40000
     Max angular momentum in pseudopotentials (lmaxx) =  4
     file C.pbe-n-kjpaw_psl.1.0.0.UPF: wavefunction(s)  2S 2P renormalized

     IMPORTANT: XC functional enforced from input :
     Exchange-correlation= BEEF-VDW
                           (   1   4  43  14   2   0   0)
     Any further DFT definition will be discarded
     Please, verify this is what you really want

     R & G space division:  proc/nbgrp/npool/nimage =     256
     wavefunctions fft division:  task group distribution
                                  #TG    x Z-proc =       8     32
     Subspace diagonalization in iterative solution of the eigenvalue problem:
     a serial algorithm will be used

     Using Pencil Decomposition

     bravais-lattice index     =            1
     lattice parameter (alat)  =      33.7534  a.u.
     unit-cell volume          =   38454.8879 (a.u.)^3
     number of atoms/cell      =          999
     number of atomic types    =            1
     number of electrons       =      3996.00
     number of Kohn-Sham states=         2398
     kinetic-energy cutoff     =      70.0000  Ry
     charge density cutoff     =     350.0000  Ry
     scf convergence threshold =      1.0E-07
     mixing beta               =       0.7000
     number of iterations used =            8  plain     mixing
     energy convergence thresh.=      1.0E-04
     force convergence thresh. =      1.0E-03
     Exchange-correlation= BEEF-VDW
                           (   1   4  43  14   2   0   0)
     nstep                     =           50

     celldm(1)=  33.753373  celldm(2)=   0.000000  celldm(3)=   0.000000
     celldm(4)=   0.000000  celldm(5)=   0.000000  celldm(6)=   0.000000

     crystal axes: (cart. coord. in units of alat)
               a(1) = (   1.000000   0.000000   0.000000 )
               a(2) = (   0.000000   1.000000   0.000000 )
               a(3) = (   0.000000   0.000000   1.000000 )

     reciprocal axes: (cart. coord. in units 2 pi/alat)
               b(1) = (  1.000000  0.000000  0.000000 )
               b(2) = (  0.000000  1.000000  0.000000 )
               b(3) = (  0.000000  0.000000  1.000000 )

     PseudoPot. # 1 for C  read from file:
     /trace/group/acmegroup/atimmins/packages/espresso/pseudo/psl_1.0.0/pslibrary.1.0.0/pbe/PSEUDOPOTENTIALS/C.pbe-n-kjpaw_psl.1.0.0.UPF
     MD5 check sum: 5459cf7f2c8c37df2f7cde8914797f4d
     Pseudo is Projector augmented-wave + core cor, Zval =  4.0
     Generated using 'atomic' code by A. Dal Corso  v.7.1
     Shape of augmentation charge: PSQ
     Using radial grid of 1073 points,  4 beta functions with:
                l(1) =   0
                l(2) =   0
                l(3) =   1
                l(4) =   1
     Q(r) pseudized with 0 coefficients

     atomic species   valence    mass     pseudopotential
        C              4.00    12.01100     C ( 1.00)

      2 Sym. Ops. (no inversion) found

                                    s                        frac. trans.

      isym =  1     identity

 cryst.   s( 1) = (     1          0          0      )
                  (     0          1          0      )
                  (     0          0          1      )

 cart.    s( 1) = (  1.0000000  0.0000000  0.0000000 )
                  (  0.0000000  1.0000000  0.0000000 )
                  (  0.0000000  0.0000000  1.0000000 )

      isym =  2     inv. 180 deg rotation - cart. axis [-1,0,1]

 cryst.   s( 2) = (     0          0          1      )
                  (     0          1          0      )
                  (     1          0          0      )

 cart.    s( 2) = (  0.0000000  0.0000000  1.0000000 )
                  (  0.0000000  1.0000000  0.0000000 )
                  (  1.0000000  0.0000000  0.0000000 )

     point group C_s (m)
     there are  2 classes
     the character table:

       E     s
A'     1.00  1.00
A''    1.00 -1.00

     the symmetry operations in each class and the name of the first element:

     E        1
          identity
     s        2
          inv. 180 deg rotation - cart. axis [-1,0,1]

   Cartesian axes

     site n.     atom                  positions (alat units)
         1           C   tau(   1) = (   0.0500012   0.1499988   0.2500012  )
         2           C   tau(   2) = (   0.0500012   0.1499988   0.4500012  )
         3           C   tau(   3) = (   0.0500012   0.1499988   0.6500012  )
         4           C   tau(   4) = (   0.0500012   0.1499988   0.8500012  )
         5           C   tau(   5) = (   0.0500012   0.3499988   0.0500012  )
         6           C   tau(   6) = (   0.0500012   0.3499988   0.2500012  )
         7           C   tau(   7) = (   0.0500012   0.3499988   0.4500012  )
         8           C   tau(   8) = (   0.0500012   0.3499988   0.6500012  )
         9           C   tau(   9) = (   0.0500012   0.3499988   0.8500012  )
        10           C   tau(  10) = (   0.0500012   0.5499988   0.0500012  )
        11           C   tau(  11) = (   0.0500012   0.5499988   0.2500012  )
        12           C   tau(  12) = (   0.0500012   0.5499988   0.4500012  )
        13           C   tau(  13) = (   0.0500012   0.5499988   0.6500012  )
        14           C   tau(  14) = (   0.0500012   0.5499988   0.8500012  )
        15           C   tau(  15) = (   0.0500012   0.7499988   0.0500012  )
        16           C   tau(  16) = (   0.0500012   0.7499988   0.2500012  )
        17           C   tau(  17) = (   0.0500012   0.7499988   0.4500012  )
        18           C   tau(  18) = (   0.0500012   0.7499988   0.6500012  )
        19           C   tau(  19) = (   0.0500012   0.7499988   0.8500012  )
        20           C   tau(  20) = (   0.0500012   0.9499988   0.0500012  )
        21           C   tau(  21) = (   0.0500012   0.9499988   0.2500012  )
        22           C   tau(  22) = (   0.0500012   0.9499988   0.4500012  )
        23           C   tau(  23) = (   0.0500012   0.9499988   0.6500012  )
        24           C   tau(  24) = (   0.0500012   0.9499988   0.8500012  )
        25           C   tau(  25) = (   0.2500012   0.1499988   0.0500012  )
        26           C   tau(  26) = (   0.2500012   0.1499988   0.2500012  )
        27           C   tau(  27) = (   0.2500012   0.1499988   0.4500012  )
        28           C   tau(  28) = (   0.2500012   0.1499988   0.6500012  )
        29           C   tau(  29) = (   0.2500012   0.1499988   0.8500012  )
        30           C   tau(  30) = (   0.2500012   0.3499988   0.0500012  )
        31           C   tau(  31) = (   0.2500012   0.3499988   0.2500012  )
        32           C   tau(  32) = (   0.2500012   0.3499988   0.4500012  )
        33           C   tau(  33) = (   0.2500012   0.3499988   0.6500012  )
        34           C   tau(  34) = (   0.2500012   0.3499988   0.8500012  )
        35           C   tau(  35) = (   0.2500012   0.5499988   0.0500012  )
        36           C   tau(  36) = (   0.2500012   0.5499988   0.2500012  )
        37           C   tau(  37) = (   0.2500012   0.5499988   0.4500012  )
        38           C   tau(  38) = (   0.2500012   0.5499988   0.6500012  )
        39           C   tau(  39) = (   0.2500012   0.5499988   0.8500012  )
        40           C   tau(  40) = (   0.2500012   0.7499988   0.0500012  )
        41           C   tau(  41) = (   0.2500012   0.7499988   0.2500012  )
        42           C   tau(  42) = (   0.2500012   0.7499988   0.4500012  )
        43           C   tau(  43) = (   0.2500012   0.7499988   0.6500012  )
        44           C   tau(  44) = (   0.2500012   0.7499988   0.8500012  )
        45           C   tau(  45) = (   0.2500012   0.9499988   0.0500012  )
        46           C   tau(  46) = (   0.2500012   0.9499988   0.2500012  )
        47           C   tau(  47) = (   0.2500012   0.9499988   0.4500012  )
        48           C   tau(  48) = (   0.2500012   0.9499988   0.6500012  )
        49           C   tau(  49) = (   0.2500012   0.9499988   0.8500012  )
        50           C   tau(  50) = (   0.4500012   0.1499988   0.0500012  )
        51           C   tau(  51) = (   0.4500012   0.1499988   0.2500012  )
        52           C   tau(  52) = (   0.4500012   0.1499988   0.4500012  )
        53           C   tau(  53) = (   0.4500012   0.1499988   0.6500012  )
        54           C   tau(  54) = (   0.4500012   0.1499988   0.8500012  )
        55           C   tau(  55) = (   0.4500012   0.3499988   0.0500012  )
        56           C   tau(  56) = (   0.4500012   0.3499988   0.2500012  )
        57           C   tau(  57) = (   0.4500012   0.3499988   0.4500012  )
        58           C   tau(  58) = (   0.4500012   0.3499988   0.6500012  )
        59           C   tau(  59) = (   0.4500012   0.3499988   0.8500012  )
        60           C   tau(  60) = (   0.4500012   0.5499988   0.0500012  )
[...]
       985           C   tau( 985) = (   0.9000000   0.5000000   0.1000000  )
       986           C   tau( 986) = (   0.9000000   0.5000000   0.3000000  )
       987           C   tau( 987) = (   0.9000000   0.5000000   0.5000000  )
       988           C   tau( 988) = (   0.9000000   0.5000000   0.7000000  )
       989           C   tau( 989) = (   0.9000000   0.5000000   0.9000000  )
       990           C   tau( 990) = (   0.9000000   0.7000000   0.1000000  )
       991           C   tau( 991) = (   0.9000000   0.7000000   0.3000000  )
       992           C   tau( 992) = (   0.9000000   0.7000000   0.5000000  )
       993           C   tau( 993) = (   0.9000000   0.7000000   0.7000000  )
       994           C   tau( 994) = (   0.9000000   0.7000000   0.9000000  )
       995           C   tau( 995) = (   0.9000000   0.9000000   0.1000000  )
       996           C   tau( 996) = (   0.9000000   0.9000000   0.3000000  )
       997           C   tau( 997) = (   0.9000000   0.9000000   0.5000000  )
       998           C   tau( 998) = (   0.9000000   0.9000000   0.7000000  )
       999           C   tau( 999) = (   0.9000000   0.9000000   0.9000000  )

   Crystallographic axes

     site n.     atom                  positions (cryst. coord.)
         1           C   tau(   1) = (  0.0500012  0.1499988  0.2500012  )
         2           C   tau(   2) = (  0.0500012  0.1499988  0.4500012  )
         3           C   tau(   3) = (  0.0500012  0.1499988  0.6500012  )
         4           C   tau(   4) = (  0.0500012  0.1499988  0.8500012  )
         5           C   tau(   5) = (  0.0500012  0.3499988  0.0500012  )
         6           C   tau(   6) = (  0.0500012  0.3499988  0.2500012  )
         7           C   tau(   7) = (  0.0500012  0.3499988  0.4500012  )
         8           C   tau(   8) = (  0.0500012  0.3499988  0.6500012  )
         9           C   tau(   9) = (  0.0500012  0.3499988  0.8500012  )
        10           C   tau(  10) = (  0.0500012  0.5499988  0.0500012  )
[...]
     atom   45 type  1   force =     0.00000000    0.00000000    0.00000000
     atom   46 type  1   force =     0.00000000    0.00000000    0.00000000
     atom   47 type  1   force =     0.00000000    0.00000000    0.00000000
     atom   48 type  1   force =     0.00000000    0.00000000    0.00000000
     atom   49 type  1   force =     0.00000000    0.00000000    0.00000000
     atom   50 type  1   force =     0.00000000    0.00000000    0.00000000
     atom   51 type  1   force =     0.00000000    0.00000000    0.00000000
     atom   52 type  1   force =     0.00000000    0.00000000    0.00000000
     atom   53 type  1   force =     0.00000000    0.00000000    0.00000000
     atom   54 type  1   force =     0.00000000    0.00000000    0.00000000
     atom   55 type  1   force =     0.00000000    0.00000000    0.00000000
     atom   56 type  1   force =     0.00000000    0.00000000    0.00000000
     atom   57 type  1   force =     0.00000000    0.00000000    0.00000000
     atom   58 type  1   force =     0.00000000    0.00000000    0.00000000
     atom   59 type  1   force =     0.00000000    0.00000000    0.00000000
     atom   60 type  1   force =     0.00000000    0.00000000    0.00000000
[...]
     atom  985 type  1   force =     0.00000000    0.00000000    0.00000000
     atom  986 type  1   force =     0.00000000    0.00000000    0.00000000
     atom  987 type  1   force =     0.00000000    0.00000000    0.00000000
     atom  988 type  1   force =     0.00000000    0.00000000    0.00000000
     atom  989 type  1   force =     0.00000000    0.00000000    0.00000000
     atom  990 type  1   force =     0.00000000    0.00000000    0.00000000
     atom  991 type  1   force =     0.00000000    0.00000000    0.00000000
     atom  992 type  1   force =     0.00000000    0.00000000    0.00000000
     atom  993 type  1   force =     0.00000000    0.00000000    0.00000000
     atom  994 type  1   force =     0.00000000    0.00000000    0.00000000
     atom  995 type  1   force =     0.00000000    0.00000000    0.00000000
     atom  996 type  1   force =     0.00000000    0.00000000    0.00000000
     atom  997 type  1   force =     0.00000000    0.00000000    0.00000000
     atom  998 type  1   force =     0.00000000    0.00000000    0.00000000
     atom  999 type  1   force =     0.00000000    0.00000000    0.00000000
     The SCF correction term to forces
     atom    1 type  1   force =     0.00000606   -0.00000476   -0.00000162
     atom    2 type  1   force =    -0.00000199    0.00000679   -0.00000609
     atom    3 type  1   force =    -0.00000428    0.00000636    0.00000937
     atom    4 type  1   force =    -0.00001233   -0.00000742    0.00000248
     atom    5 type  1   force =    -0.00000175    0.00001675   -0.00000175
     atom    6 type  1   force =    -0.00000709    0.00000082   -0.00000125
     atom    7 type  1   force =    -0.00000611    0.00000719   -0.00000167
     atom    8 type  1   force =    -0.00000131    0.00000725    0.00000487
     atom    9 type  1   force =     0.00000237    0.00000194   -0.00000025
     atom   10 type  1   force =    -0.00000269   -0.00000398   -0.00000269
     atom   11 type  1   force =    -0.00000555   -0.00000468    0.00000155
     atom   12 type  1   force =    -0.00000515   -0.00000633   -0.00000071
     atom   13 type  1   force =    -0.00000189   -0.00000546    0.00000459
     atom   14 type  1   force =    -0.00000013   -0.00000394   -0.00000274
     atom   15 type  1   force =    -0.00000303    0.00000353   -0.00000303
     atom   16 type  1   force =     0.00000057   -0.00000146   -0.00000252
     atom   17 type  1   force =    -0.00000098   -0.00000612   -0.00000192
     atom   18 type  1   force =    -0.00000443   -0.00000576    0.00000703
     atom   19 type  1   force =    -0.00000672   -0.00000075    0.00000050
     atom   20 type  1   force =    -0.00000441    0.00001265   -0.00000441
     atom   21 type  1   force =     0.00000847    0.00000986   -0.00001667
     atom   22 type  1   force =     0.00000111   -0.00000157   -0.00000542
     atom   23 type  1   force =    -0.00000585   -0.00000234    0.00001019
     atom   24 type  1   force =    -0.00001568    0.00001027    0.00001648
     atom   25 type  1   force =    -0.00000162   -0.00000476    0.00000606
     atom   26 type  1   force =    -0.00001272   -0.00000589   -0.00001272
     atom   27 type  1   force =    -0.00000135    0.00000396   -0.00000482
     atom   28 type  1   force =    -0.00000047    0.00000938    0.00000602
     atom   29 type  1   force =    -0.00000560    0.00000899    0.00000531
     atom   30 type  1   force =    -0.00000125    0.00000082   -0.00000709
     atom   31 type  1   force =     0.00000008    0.00000397    0.00000008
     atom   32 type  1   force =     0.00001421    0.00002185    0.00000682
     atom   33 type  1   force =     0.00001694    0.00002460    0.00000625
     atom   34 type  1   force =     0.00000349    0.00000905   -0.00000332
     atom   35 type  1   force =     0.00000155   -0.00000468   -0.00000555
     atom   36 type  1   force =     0.00001510    0.00000361    0.00001510
     atom   37 type  1   force =     0.00004642    0.00000907    0.00001438
     atom   38 type  1   force =     0.00005028    0.00000376   -0.00000355
     atom   39 type  1   force =     0.00001808   -0.00000604   -0.00001881
     atom   40 type  1   force =    -0.00000252   -0.00000146    0.00000057
     atom   41 type  1   force =     0.00001439   -0.00000231    0.00001439
     atom   42 type  1   force =     0.00004875   -0.00001480    0.00000794
     atom   43 type  1   force =     0.00004670   -0.00002132   -0.00000923
     atom   44 type  1   force =     0.00001342   -0.00001344   -0.00001558
     atom   45 type  1   force =    -0.00001667    0.00000986    0.00000847
     atom   46 type  1   force =    -0.00000620    0.00000191   -0.00000620
     atom   47 type  1   force =     0.00001501   -0.00001823   -0.00000454
     atom   48 type  1   force =     0.00001392   -0.00001804   -0.00000250
     atom   49 type  1   force =    -0.00000521   -0.00000166    0.00000318
     atom   50 type  1   force =    -0.00000609    0.00000679   -0.00000199
     atom   51 type  1   force =    -0.00000482    0.00000396   -0.00000135
     atom   52 type  1   force =    -0.00000188    0.00000580   -0.00000188
     atom   53 type  1   force =    -0.00000093    0.00000965    0.00000600
     atom   54 type  1   force =    -0.00000179    0.00001096   -0.00000064
     atom   55 type  1   force =    -0.00000167    0.00000719   -0.00000611
     atom   56 type  1   force =     0.00000682    0.00002185    0.00001421
     atom   57 type  1   force =     0.00001416    0.00005477    0.00001416
     atom   58 type  1   force =     0.00000945    0.00005829   -0.00000221
     atom   59 type  1   force =    -0.00000077    0.00002498   -0.00001827
     atom   60 type  1   force =    -0.00000071   -0.00000633   -0.00000515
[...]
     atom  985 type  1   force =    -0.00000538   -0.00000661    0.00000543
     atom  986 type  1   force =    -0.00002341   -0.00000226    0.00000897
     atom  987 type  1   force =    -0.00004143    0.00000506    0.00000180
     atom  988 type  1   force =    -0.00003051    0.00000613   -0.00000606
     atom  989 type  1   force =    -0.00000831   -0.00000053   -0.00000831
     atom  990 type  1   force =    -0.00000333   -0.00000419   -0.00000071
     atom  991 type  1   force =    -0.00002275   -0.00001166    0.00000892
     atom  992 type  1   force =    -0.00004931   -0.00001322    0.00000554
     atom  993 type  1   force =    -0.00004057   -0.00000752   -0.00000287
     atom  994 type  1   force =    -0.00001185   -0.00000112   -0.00001185
     atom  995 type  1   force =     0.00000711    0.00001307   -0.00001198
     atom  996 type  1   force =    -0.00000477   -0.00000285   -0.00000439
     atom  997 type  1   force =    -0.00002254   -0.00001435    0.00000526
     atom  998 type  1   force =    -0.00002094   -0.00001009    0.00001003
     atom  999 type  1   force =    -0.00000102    0.00001269   -0.00000102

     Total force =     0.004434     Total SCF correction =     0.001018
     SCF correction compared to forces is large: reduce conv_thr to get better values

     Computing stress (Cartesian axis) and pressure

     Non-local corr. energy    =      34.16088270 Ry

          total   stress  (Ry/bohr**3)                   (kbar)     P=        0.22
   0.00000167   0.00000003  -0.00000004            0.25        0.01       -0.01
   0.00000003   0.00000120   0.00000003            0.01        0.18        0.01
  -0.00000004   0.00000003   0.00000167           -0.01        0.01        0.25

     kinetic stress (kbar)  18977.35      0.01     -0.01
                                0.01  18977.28      0.01
                               -0.01      0.01  18977.35

     local   stress (kbar)  -3509.08     -0.02     -0.02
                               -0.02  -3509.20     -0.02
                               -0.02     -0.02  -3509.08

     nonloc. stress (kbar)   4319.84      0.00     -0.00
                                0.00   4319.84      0.00
                               -0.00      0.00   4319.84

     hartree stress (kbar)   1276.92      0.00      0.02
                                0.00   1276.98      0.00
                                0.02      0.00   1276.92

     exc-cor stress (kbar)   -413.55      0.00     -0.00
                                0.00   -413.54      0.00
                               -0.00      0.00   -413.55

     corecor stress (kbar)  -4430.61     -0.00      0.00
                               -0.00  -4430.63     -0.00
                                0.00     -0.00  -4430.61

     ewald   stress (kbar) -16245.44      0.02      0.01
                                0.02 -16245.37      0.02
                                0.01      0.02 -16245.44

     hubbard stress (kbar)      0.00      0.00      0.00
                                0.00      0.00      0.00
                                0.00      0.00      0.00

     DFT-D   stress (kbar)      0.00      0.00      0.00
                                0.00      0.00      0.00
                                0.00      0.00      0.00

     XDM     stress (kbar)      0.00      0.00      0.00
                                0.00      0.00      0.00
                                0.00      0.00      0.00

     dft-nl  stress (kbar)     24.81     -0.00      0.00
                               -0.00     24.81     -0.00
                                0.00     -0.00     24.81

     TS-vdW  stress (kbar)      0.00      0.00      0.00
                                0.00      0.00      0.00
                                0.00      0.00      0.00

     MDB     stress (kbar)      0.00      0.00      0.00
                                0.00      0.00      0.00
                                0.00      0.00      0.00

     3D-RISM stress (kbar)      0.00      0.00      0.00
                                0.00      0.00      0.00
                                0.00      0.00      0.00

     BFGS Geometry Optimization
     Energy error            =      0.0E+00 Ry
     Gradient error          =      3.4E-04 Ry/Bohr

     bfgs converged in   1 scf cycles and   0 bfgs steps
     (criteria: energy <  1.0E-04 Ry, force <  1.0E-03 Ry/Bohr)

     End of BFGS Geometry Optimization

     Final energy             =  -18973.3271860223 Ry
Begin final coordinates

ATOMIC_POSITIONS (angstrom)
C             0.8927694319        2.6794051545        4.4625672312
C             0.8927814425        2.6793718535        8.0377259939
C             0.8929295402        2.6793867359       11.6103428173
C             0.8930394251        2.6793043902       15.1848429335
C             0.8929568975        6.2481824843        0.8929568975
C             0.8931241337        6.2533066247        4.4674318228
C             0.8928124082        6.2511943395        8.0378092909
C             0.8929017256        6.2512661931       11.6102734051
C             0.8924774120        6.2532522337       15.1802622329
C             0.8927139101        9.8232668108        0.8927139101
C             0.8927080039        9.8233263968        4.4651421491
C             0.8927197751        9.8236266655        8.0381147180
C             0.8927929772        9.8236850042       11.6101061832
C             0.8927588803        9.8234270078       15.1822471071
C             0.8926809800       13.3962595090        0.8926809800
C             0.8926876972       13.3962866212        4.4652599431
C             0.8926880250       13.3961495773        8.0381619880
C             0.8926517642       13.3960831350       11.6100724408
C             0.8926869320       13.3962408093       15.1821676657
C             0.8928525911       16.9721028909        0.8928525911
C             0.8922107863       16.9667343236        4.4676297024
C             0.8926873239       16.9689019417        8.0378878980
C             0.8928109078       16.9688315078       11.6102297599
C             0.8932256349       16.9666779899       15.1800987167
C             4.4625672312        2.6794051545        0.8927694319
C             4.4676143243        2.6798522574        4.4676143243
C             4.4652130516        2.6794742055        8.0379402410
C             4.4652450551        2.6794316812       11.6103162900
C             4.4675269874        2.6790416141       15.1800345355
C             4.4674318228        6.2533066247        0.8931241337
C             4.4643544868        6.2503587138        4.4643544868
C             4.4653864784        6.2512998006        8.0379749180
C             4.4654026186        6.2513399074       11.6101390373
C             4.4650918486        6.2510723020       15.1822941712
C             4.4651421491        9.8233263968        0.8927080039
C             4.4653350042        9.8233947066        4.4653350042
C             4.4654882833        9.8234598566        8.0380462882
C             4.4653947749        9.8234395292       11.6101877827
C             4.4653307511        9.8234935707       15.1820450079
C             4.4652599431       13.3962866212        0.8926876972
C             4.4653809617       13.3960998857        4.4653809617
C             4.4653430065       13.3961524110        8.0380147699
C             4.4653722953       13.3961526155       11.6101787472
C             4.4653361149       13.3962454727       15.1820988411
C             4.4676297024       16.9667343236        0.8922107863
C             4.4650997648       16.9690620254        4.4650997648
C             4.4652656199       16.9688178376        8.0380986389
C             4.4652843102       16.9688848624       11.6102823935
C             4.4644212996       16.9698512028       15.1830239275
C             8.0377259939        2.6793718535        0.8927814425
C             8.0379402410        2.6794742055        4.4652130516
C             8.0380557685        2.6794730459        8.0380557685
C             8.0379176557        2.6794228740       11.6100329947
C             8.0376668231        2.6793624370       15.1822286835
C             8.0378092909        6.2511943395        0.8928124082
C             8.0379749180        6.2512998006        4.4653864784
C             8.0379438662        6.2514165796        8.0379438662
C             8.0377991416        6.2513734723       11.6101229842
C             8.0378548315        6.2513840359       15.1820819064
C             8.0381147180        9.8236266655        0.8927197751
[...]
C            16.0757259199        8.9305761036        1.7857980104
C            16.0755169899        8.9309471217        5.3581415457
C            16.0755403310        8.9307853230        8.9307805700
C            16.0755812224        8.9307528534       12.5035169414
C            16.0756412525        8.9305136770       16.0756412525
C            16.0755572881       12.5032791475        1.7859631180
C            16.0755935205       12.5033969887        5.3581484920
C            16.0755631916       12.5034841799        8.9307849946
C            16.0754716776       12.5033136746       12.5033092696
C            16.0755210263       12.5032092761       16.0755210263
C            16.0763534532       16.0764932662        1.7858062845
C            16.0756660813       16.0760838575        5.3577583462
C            16.0755661005       16.0756106409        8.9307132996
C            16.0754513973       16.0754128301       12.5029421689
C            16.0748948424       16.0740929736       16.0748948424
End final coordinates

     Writing all to output data dir ./diamond.save/

     General routines

     Parallel routines

     PAW routines

   This run was terminated on:   7:32:37  19Feb2024

   JOB DONE.