     Program PWSCF v.7.1 starts on 28Mar2024 at  6:20:18

     Reading input from espresso.pwi
Warning: card &CELL ignored
Warning: card    CELL_DYNAMICS    = 'BFGS' ignored
Warning: card / ignored

     Current dimensions of program PWSCF are:
     Max number of different atomic species (ntypx) = 10
     Max number of k-points (npk) =  40000
     Max angular momentum in pseudopotentials (lmaxx) =  4
     file Ga.pbe-dn-kjpaw_psl.1.0.0.UPF: wavefunction(s)  4S renormalized
     file N.pbe-n-kjpaw_psl.1.0.0.UPF: wavefunction(s)  2S renormalized

     IMPORTANT: XC functional enforced from input :
     Exchange-correlation= BEEF-VDW
                           (   1   4  43  14   2   0   0)
     Any further DFT definition will be discarded
     Please, verify this is what you really want

     R & G space division:  proc/nbgrp/npool/nimage =      27
     Subspace diagonalization in iterative solution of the eigenvalue problem:
     a serial algorithm will be used

     Using Slab Decomposition

     bravais-lattice index     =            4
     lattice parameter (alat)  =      12.2626  a.u.
     unit-cell volume          =    2602.7676 (a.u.)^3
     number of atoms/cell      =           32
     number of atomic types    =            2
     number of electrons       =       280.00
     number of Kohn-Sham states=          168
     kinetic-energy cutoff     =      70.0000  Ry
     charge density cutoff     =     350.0000  Ry
     scf convergence threshold =      1.0E-07
     mixing beta               =       0.7000
     number of iterations used =            8  plain     mixing
     Exchange-correlation= BEEF-VDW
                           (   1   4  43  14   2   0   0)

     celldm(1)=  12.262616  celldm(2)=   0.000000  celldm(3)=   1.629879
     celldm(4)=   0.000000  celldm(5)=   0.000000  celldm(6)=   0.000000

     crystal axes: (cart. coord. in units of alat)
               a(1) = (   1.000000   0.000000   0.000000 )
               a(2) = (  -0.500000   0.866025   0.000000 )
               a(3) = (   0.000000   0.000000   1.629879 )

     reciprocal axes: (cart. coord. in units 2 pi/alat)
               b(1) = (  1.000000  0.577350 -0.000000 )
               b(2) = (  0.000000  1.154701  0.000000 )
               b(3) = (  0.000000 -0.000000  0.613542 )

     PseudoPot. # 1 for Ga read from file:
     /trace/group/acmegroup/atimmins/packages/espresso/pseudo/psl_1.0.0/pslibrary.1.0.0/pbe/PSEUDOPOTENTIALS/Ga.pbe-dn-kjpaw_psl.1.0.0.UPF
     MD5 check sum: cd2a01e492f15b435d17032472d8505c
     Pseudo is Projector augmented-wave + core cor, Zval = 13.0
     Generated using 'atomic' code by A. Dal Corso  v.7.1
     Shape of augmentation charge: PSQ
     Using radial grid of 1205 points,  6 beta functions with:
                l(1) =   0
                l(2) =   0
                l(3) =   1
                l(4) =   1
                l(5) =   2
                l(6) =   2
     Q(r) pseudized with 0 coefficients

     PseudoPot. # 2 for N  read from file:
     /trace/group/acmegroup/atimmins/packages/espresso/pseudo/psl_1.0.0/pslibrary.1.0.0/pbe/PSEUDOPOTENTIALS/N.pbe-n-kjpaw_psl.1.0.0.UPF
     MD5 check sum: f77f775694dac7e2c3fe1c82443d1a16
     Pseudo is Projector augmented-wave + core cor, Zval =  5.0
     Generated using 'atomic' code by A. Dal Corso  v.7.1
     Shape of augmentation charge: PSQ
     Using radial grid of 1085 points,  4 beta functions with:
                l(1) =   0
                l(2) =   0
                l(3) =   1
                l(4) =   1
     Q(r) pseudized with 0 coefficients

     atomic species   valence    mass     pseudopotential
        Ga            13.00    69.72300     Ga( 1.00)
        N              5.00    14.00700     N ( 1.00)

      6 Sym. Ops. (no inversion) found ( 4 have fractional translation)

                                    s                        frac. trans.

      isym =  1     identity

 cryst.   s( 1) = (     1          0          0      )
                  (     0          1          0      )
                  (     0          0          1      )

 cart.    s( 1) = (  1.0000000  0.0000000  0.0000000 )
                  (  0.0000000  1.0000000  0.0000000 )
                  (  0.0000000  0.0000000  1.0000000 )

      isym =  2     120 deg rotation - cryst. axis [0,0,1]

 cryst.   s( 2) = (     0          1          0      )    f =(  0.4999999 )
                  (    -1         -1          0      )       (  0.0000004 )
                  (     0          0          1      )       (  0.0000000 )

 cart.    s( 2) = ( -0.5000000 -0.8660254  0.0000000 )    f =(  0.4999998 )
                  (  0.8660254 -0.5000000  0.0000000 )       (  0.0000003 )
                  (  0.0000000  0.0000000  1.0000000 )       (  0.0000000 )

      isym =  3     120 deg rotation - cryst. axis [0,0,-1]

[...]

      isym =  4     inv. 180 deg rotation - cart. axis [1,0,0]

[...]

      isym =  5     inv. 180 deg rotation - cryst. axis [0,1,0]

 cryst.   s( 5) = (     1          1          0      )
                  (     0         -1          0      )
                  (     0          0          1      )

 cart.    s( 5) = (  0.5000000  0.8660254  0.0000000 )
                  (  0.8660254 -0.5000000  0.0000000 )
                  (  0.0000000  0.0000000  1.0000000 )

      isym =  6     inv. 180 deg rotation - cryst. axis [1,1,0]

 cryst.   s( 6) = (     0         -1          0      )    f =(  0.4999999 )
                  (    -1          0          0      )       (  0.4999999 )
                  (     0          0          1      )       (  0.0000000 )

 cart.    s( 6) = (  0.5000000 -0.8660254  0.0000000 )    f =(  0.2500000 )
                  ( -0.8660254 -0.5000000  0.0000000 )       (  0.4330127 )
                  (  0.0000000  0.0000000  1.0000000 )       (  0.0000000 )

     point group C_3v (3m)
     there are  3 classes
     the character table:

       E     2C3   3s_v
A_1    1.00  1.00  1.00
A_2    1.00  1.00 -1.00
E      2.00 -1.00  0.00

     the symmetry operations in each class and the name of the first element:

     E        1
          identity
     2C3      2    3
          120 deg rotation - cryst. axis [0,0,1]
     3s_v     4    5    6
          inv. 180 deg rotation - cart. axis [1,0,0]

   Cartesian axes

     site n.     atom                  positions (alat units)
         1           Ga  tau(   1) = (   0.2500002   0.1443375   1.2217266  )
         2           Ga  tau(   2) = (   0.0000002   0.5773502   0.4067871  )
         3           Ga  tau(   3) = (   0.0000002   0.5773502   1.2217266  )
         4           Ga  tau(   4) = (   0.7500002   0.1443375   0.4067871  )
         5           Ga  tau(   5) = (   0.7500002   0.1443375   1.2217266  )
         6           Ga  tau(   6) = (   0.5000002   0.5773502   0.4067871  )
         7           Ga  tau(   7) = (   0.5000002   0.5773502   1.2217266  )
         8           Ga  tau(   8) = (  -0.0000003   0.2886754   0.8142568  )
         9           Ga  tau(   9) = (  -0.0000003   0.2886754   1.6291964  )
        10           Ga  tau(  10) = (  -0.2500003   0.7216881   0.8142568  )
        11           Ga  tau(  11) = (  -0.2500003   0.7216881   1.6291964  )
        12           Ga  tau(  12) = (   0.4999997   0.2886754   0.8142568  )
        13           Ga  tau(  13) = (   0.4999997   0.2886754   1.6291964  )
        14           Ga  tau(  14) = (   0.2499997   0.7216881   0.8142568  )
        15           Ga  tau(  15) = (   0.2499997   0.7216881   1.6291964  )
        16           N   tau(  16) = (   0.2500002   0.1443375   0.7137548  )
        17           N   tau(  17) = (   0.2500002   0.1443375   1.5286943  )
        18           N   tau(  18) = (   0.0000002   0.5773502   0.7137548  )
        19           N   tau(  19) = (   0.0000002   0.5773502   1.5286943  )
        20           N   tau(  20) = (   0.7500002   0.1443375   0.7137548  )
        21           N   tau(  21) = (   0.7500002   0.1443375   1.5286943  )
        22           N   tau(  22) = (   0.5000002   0.5773502   0.7137548  )
        23           N   tau(  23) = (   0.5000002   0.5773502   1.5286943  )
        24           N   tau(  24) = (  -0.0000003   0.2886754   0.3062850  )
        25           N   tau(  25) = (  -0.0000003   0.2886754   1.1212245  )
        26           N   tau(  26) = (  -0.2500003   0.7216881   0.3062850  )
        27           N   tau(  27) = (  -0.2500003   0.7216881   1.1212245  )
        28           N   tau(  28) = (   0.4999997   0.2886754   0.3062850  )
        29           N   tau(  29) = (   0.4999997   0.2886754   1.1212245  )
        30           N   tau(  30) = (   0.2499997   0.7216881   0.3062850  )
        31           N   tau(  31) = (   0.2499997   0.7216881   1.1212245  )
        32           N   tau(  32) = (   0.2500002   0.1443375   0.4067871  )

   Crystallographic axes

     site n.     atom                  positions (cryst. coord.)
         1           Ga  tau(   1) = (  0.3333335  0.1666666  0.7495811  )
         2           Ga  tau(   2) = (  0.3333335  0.6666666  0.2495811  )
         3           Ga  tau(   3) = (  0.3333335  0.6666666  0.7495811  )
         4           Ga  tau(   4) = (  0.8333335  0.1666666  0.2495811  )
         5           Ga  tau(   5) = (  0.8333335  0.1666666  0.7495811  )
         6           Ga  tau(   6) = (  0.8333335  0.6666666  0.2495811  )
         7           Ga  tau(   7) = (  0.8333335  0.6666666  0.7495811  )
         8           Ga  tau(   8) = (  0.1666665  0.3333336  0.4995811  )
         9           Ga  tau(   9) = (  0.1666665  0.3333336  0.9995811  )
        10           Ga  tau(  10) = (  0.1666665  0.8333336  0.4995811  )
        11           Ga  tau(  11) = (  0.1666665  0.8333336  0.9995811  )
        12           Ga  tau(  12) = (  0.6666665  0.3333336  0.4995811  )
        13           Ga  tau(  13) = (  0.6666665  0.3333336  0.9995811  )
        14           Ga  tau(  14) = (  0.6666665  0.8333336  0.4995811  )
        15           Ga  tau(  15) = (  0.6666665  0.8333336  0.9995811  )
        16           N   tau(  16) = (  0.3333335  0.1666666  0.4379189  )
        17           N   tau(  17) = (  0.3333335  0.1666666  0.9379189  )
        18           N   tau(  18) = (  0.3333335  0.6666666  0.4379189  )
        19           N   tau(  19) = (  0.3333335  0.6666666  0.9379189  )
        20           N   tau(  20) = (  0.8333335  0.1666666  0.4379189  )
        21           N   tau(  21) = (  0.8333335  0.1666666  0.9379189  )
        22           N   tau(  22) = (  0.8333335  0.6666666  0.4379189  )
        23           N   tau(  23) = (  0.8333335  0.6666666  0.9379189  )
        24           N   tau(  24) = (  0.1666665  0.3333336  0.1879189  )
        25           N   tau(  25) = (  0.1666665  0.3333336  0.6879189  )
        26           N   tau(  26) = (  0.1666665  0.8333336  0.1879189  )
        27           N   tau(  27) = (  0.1666665  0.8333336  0.6879189  )
        28           N   tau(  28) = (  0.6666665  0.3333336  0.1879189  )
        29           N   tau(  29) = (  0.6666665  0.3333336  0.6879189  )
        30           N   tau(  30) = (  0.6666665  0.8333336  0.1879189  )
[...]
     atom    3 type  1   force =     0.51162053    0.29568281   -0.10533128
     atom    4 type  1   force =    -0.00010480    1.57671556   -1.13422320
     atom    5 type  1   force =    -0.00007171   -0.59061475   -0.10533104
     atom    6 type  1   force =     1.36518223   -0.78794850   -1.13422419
     atom    7 type  1   force =    -0.51177500    0.29568257   -0.10533127
     atom    8 type  1   force =    -4.33826243    2.50482196    3.50779966
     atom    9 type  1   force =    -2.25591053    1.30258273   -3.80109945
     atom   10 type  1   force =     0.00108416   -5.01118366    3.50781073
     atom   11 type  1   force =     0.00109021   -2.60666577   -3.80111842
     atom   12 type  1   force =     4.34047113    2.50485146    3.50781311
     atom   13 type  1   force =     2.25811010    1.30258527   -3.80112132
     atom   14 type  1   force =     0.00110106   -0.00049738    2.81185611
     atom   15 type  1   force =     0.00109929   -0.00049715   -2.72318849
     atom   16 type  2   force =    -0.00000805    0.00002244    0.64914508
     atom   17 type  2   force =    -0.00000992    0.00002222   -1.58931784
     atom   18 type  2   force =    -0.66473832   -0.38375654    1.70198429
     atom   19 type  2   force =     0.28551770    0.16487359   -0.70971068
     atom   20 type  2   force =    -0.00000997    0.76758178    1.70198279
     atom   21 type  2   force =    -0.00000919   -0.32967754   -0.70971004
     atom   22 type  2   force =     0.66471783   -0.38375641    1.70198586
     atom   23 type  2   force =    -0.28553678    0.16487250   -0.70971117
     atom   24 type  2   force =    -4.55721437    2.63111918   -1.63450321
     atom   25 type  2   force =    -0.46996519    0.27134551    0.51332725
     atom   26 type  2   force =     0.00006768   -5.26239205   -1.63451676
     atom   27 type  2   force =     0.00008707   -0.54280810    0.51333354
     atom   28 type  2   force =     4.55741729    2.63115012   -1.63452463
     atom   29 type  2   force =     0.47013981    0.27134524    0.51333420
     atom   30 type  2   force =     0.00008968   -0.00003869   -0.53843475
     atom   31 type  2   force =     0.00008723   -0.00003881    0.45436967
     atom   32 type  2   force =    -0.00000730    0.00003913    5.09119308
     The core correction contribution to forces
     atom    1 type  1   force =    -0.00000626    0.00001825    0.00213038
     atom    2 type  1   force =    -0.00200936   -0.00114763   -0.00302825
     atom    3 type  1   force =     0.00065415    0.00040000    0.00210894
     atom    4 type  1   force =    -0.00000876    0.00233543   -0.00302822
     atom    5 type  1   force =    -0.00000586   -0.00074458    0.00210892
     atom    6 type  1   force =     0.00200010   -0.00113732   -0.00302827
     atom    7 type  1   force =    -0.00066668    0.00040001    0.00210894
     atom    8 type  1   force =    -0.00429088    0.00248599    0.00261120
     atom    9 type  1   force =    -0.00001519    0.00001823    0.00214587
     atom   10 type  1   force =     0.00008072   -0.00508510    0.00261127
     atom   11 type  1   force =     0.00008022   -0.00014707    0.00214585
     atom   12 type  1   force =     0.00445180    0.00248719    0.00261135
     atom   13 type  1   force =     0.00017647    0.00001810    0.00214584
     atom   14 type  1   force =     0.00008053   -0.00003671    0.00196107
     atom   15 type  1   force =     0.00008060   -0.00003673   -0.00056184
     atom   16 type  2   force =     0.00000023   -0.00000032    0.01420401
     atom   17 type  2   force =     0.00000025   -0.00000033    0.00089891
     atom   18 type  2   force =     0.00123270    0.00071123   -0.00237386
     atom   19 type  2   force =    -0.00078537   -0.00045393    0.00113538
     atom   20 type  2   force =     0.00000023   -0.00142343   -0.00237385
     atom   21 type  2   force =     0.00000024    0.00090683    0.00113538
     atom   22 type  2   force =    -0.00123224    0.00071127   -0.00237385
     atom   23 type  2   force =     0.00078588   -0.00045394    0.00113537
     atom   24 type  2   force =     0.00449466   -0.00259504    0.00289461
     atom   25 type  2   force =    -0.00007181    0.00004142    0.00111405
     atom   26 type  2   force =    -0.00000245    0.00519393    0.00289428
     atom   27 type  2   force =    -0.00000240   -0.00007888    0.00111414
     atom   28 type  2   force =    -0.00449933   -0.00259486    0.00289428
     atom   29 type  2   force =     0.00006706    0.00004146    0.00111414
     atom   30 type  2   force =    -0.00000239    0.00000133   -0.00018299
     atom   31 type  2   force =    -0.00000234    0.00000130    0.00027913
     atom   32 type  2   force =     0.00000013   -0.00000021   -0.03454679
     The Hubbard contrib.    to forces
     atom    1 type  1   force =     0.00000000    0.00000000    0.00000000
     atom    2 type  1   force =     0.00000000    0.00000000    0.00000000
     atom    3 type  1   force =     0.00000000    0.00000000    0.00000000
     atom    4 type  1   force =     0.00000000    0.00000000    0.00000000
     atom    5 type  1   force =     0.00000000    0.00000000    0.00000000
     atom    6 type  1   force =     0.00000000    0.00000000    0.00000000
     atom    7 type  1   force =     0.00000000    0.00000000    0.00000000
     atom    8 type  1   force =     0.00000000    0.00000000    0.00000000
     atom    9 type  1   force =     0.00000000    0.00000000    0.00000000
     atom   10 type  1   force =     0.00000000    0.00000000    0.00000000
     atom   11 type  1   force =     0.00000000    0.00000000    0.00000000
     atom   12 type  1   force =     0.00000000    0.00000000    0.00000000
     atom   13 type  1   force =     0.00000000    0.00000000    0.00000000
     atom   14 type  1   force =     0.00000000    0.00000000    0.00000000
     atom   15 type  1   force =     0.00000000    0.00000000    0.00000000
     atom   16 type  2   force =     0.00000000    0.00000000    0.00000000
     atom   17 type  2   force =     0.00000000    0.00000000    0.00000000
     atom   18 type  2   force =     0.00000000    0.00000000    0.00000000
     atom   19 type  2   force =     0.00000000    0.00000000    0.00000000
     atom   20 type  2   force =     0.00000000    0.00000000    0.00000000
     atom   21 type  2   force =     0.00000000    0.00000000    0.00000000
     atom   22 type  2   force =     0.00000000    0.00000000    0.00000000
     atom   23 type  2   force =     0.00000000    0.00000000    0.00000000
     atom   24 type  2   force =     0.00000000    0.00000000    0.00000000
     atom   25 type  2   force =     0.00000000    0.00000000    0.00000000
     atom   26 type  2   force =     0.00000000    0.00000000    0.00000000
     atom   27 type  2   force =     0.00000000    0.00000000    0.00000000
     atom   28 type  2   force =     0.00000000    0.00000000    0.00000000
     atom   29 type  2   force =     0.00000000    0.00000000    0.00000000
     atom   30 type  2   force =     0.00000000    0.00000000    0.00000000
     atom   31 type  2   force =     0.00000000    0.00000000    0.00000000
     atom   32 type  2   force =     0.00000000    0.00000000    0.00000000
     The SCF correction term to forces
     atom    1 type  1   force =    -0.00000000    0.00000000    0.00006091
     atom    2 type  1   force =     0.00001702    0.00000983    0.00000082
     atom    3 type  1   force =     0.00000162    0.00000094    0.00001652
     atom    4 type  1   force =     0.00000000   -0.00001966    0.00000082
     atom    5 type  1   force =    -0.00000000   -0.00000187    0.00001652
     atom    6 type  1   force =    -0.00001702    0.00000983    0.00000082
     atom    7 type  1   force =    -0.00000162    0.00000094    0.00001652
     atom    8 type  1   force =    -0.00002652    0.00001531    0.00003737
     atom    9 type  1   force =     0.00002191   -0.00001265   -0.00006081
     atom   10 type  1   force =    -0.00000000   -0.00003063    0.00003737
     atom   11 type  1   force =    -0.00000000    0.00002530   -0.00006081
     atom   12 type  1   force =     0.00002652    0.00001531    0.00003737
     atom   13 type  1   force =    -0.00002191   -0.00001265   -0.00006081
     atom   14 type  1   force =     0.00000000   -0.00000000    0.00004381
     atom   15 type  1   force =    -0.00000000    0.00000000   -0.00004607
     atom   16 type  2   force =     0.00000000   -0.00000000   -0.00002723
     atom   17 type  2   force =    -0.00000000    0.00000000   -0.00001783
     atom   18 type  2   force =     0.00000378    0.00000218    0.00001361
     atom   19 type  2   force =    -0.00000501   -0.00000289   -0.00002116
     atom   20 type  2   force =    -0.00000000   -0.00000436    0.00001361
     atom   21 type  2   force =     0.00000000    0.00000578   -0.00002116
     atom   22 type  2   force =    -0.00000378    0.00000218    0.00001361
     atom   23 type  2   force =     0.00000501   -0.00000289   -0.00002116
     atom   24 type  2   force =     0.00000960   -0.00000554   -0.00000665
     atom   25 type  2   force =    -0.00000646    0.00000373    0.00002056
     atom   26 type  2   force =    -0.00000000    0.00001109   -0.00000665
     atom   27 type  2   force =     0.00000000   -0.00000746    0.00002056
     atom   28 type  2   force =    -0.00000960   -0.00000554   -0.00000665
     atom   29 type  2   force =     0.00000646    0.00000373    0.00002056
     atom   30 type  2   force =    -0.00000000    0.00000000   -0.00000249
     atom   31 type  2   force =     0.00000000   -0.00000000    0.00001137
     atom   32 type  2   force =    -0.00000000    0.00000000   -0.00004033

     Total force =     0.002078     Total SCF correction =     0.000191

     Computing stress (Cartesian axis) and pressure

[...]

          total   stress  (Ry/bohr**3)                   (kbar)     P=        2.79
   0.00008517  -0.00000000   0.00000000           12.53       -0.00        0.00
  -0.00000000   0.00008517   0.00000000           -0.00       12.53        0.00
   0.00000000  -0.00000000  -0.00011337            0.00       -0.00      -16.68

     kinetic stress (kbar)  18173.44      0.00      0.00
                                0.00  18173.44      0.00
                                0.00     -0.00  18069.81

     local   stress (kbar)   4763.64     -0.07     -0.00
                               -0.07   4763.55      0.00
                               -0.00      0.00    863.55

     nonloc. stress (kbar)    137.18     -0.00      0.00
                               -0.00    137.18      0.00
                                0.00      0.00    117.03

     hartree stress (kbar)  18657.38     -0.00      0.00
                               -0.00  18657.38     -0.00
                                0.00     -0.00  20091.26

     exc-cor stress (kbar)   4771.74      0.00     -0.00
                                0.00   4771.74      0.00
                               -0.00      0.00   4784.58

     corecor stress (kbar) -13307.45     -0.00     -0.00
                               -0.00 -13307.45     -0.00
                               -0.00     -0.00 -13307.73

     ewald   stress (kbar) -33338.33      0.09      0.00
                                0.09 -33338.21     -0.00
                                0.00     -0.00 -30786.31

     hubbard stress (kbar)      0.00      0.00      0.00
                                0.00      0.00      0.00
                                0.00      0.00      0.00

     DFT-D   stress (kbar)      0.00      0.00      0.00
                                0.00      0.00      0.00
                                0.00      0.00      0.00

     XDM     stress (kbar)      0.00      0.00      0.00
                                0.00      0.00      0.00
                                0.00      0.00      0.00

     dft-nl  stress (kbar)    154.91     -0.00      0.00
                               -0.00    154.91     -0.00
                                0.00     -0.00    151.14

     TS-vdW  stress (kbar)      0.00      0.00      0.00
                                0.00      0.00      0.00
                                0.00      0.00      0.00

     MDB     stress (kbar)      0.00      0.00      0.00
                                0.00      0.00      0.00
                                0.00      0.00      0.00

     3D-RISM stress (kbar)      0.00      0.00      0.00
                                0.00      0.00      0.00
                                0.00      0.00      0.00

[...]

     Non-local corr. energy    =       8.31235992 Ry

 BEEFens 2000 ensemble energies
             -0.677644191334178E+01
             -0.605596635654566E+02
             -0.259768719984094E+02
              0.213669027649533E+02
             -0.434519058276562E+02
             -0.559809055230299E+02
              0.288716205961917E+02
             -0.314849675331234E+01
              0.479096051315051E+02
             -0.204842080262696E+01
              0.234404865069193E+02
              0.948941224908182E+00
              0.102435536026164E+01
             -0.213782974169624E+01
              0.313663020625429E+02
             -0.228957111534856E+02
             -0.472442918420629E+02
             -0.154107461237480E+02
              0.114806108106534E+02
             -0.100994525528495E+01
              0.686816782632939E+02
              0.585351573624566E+02
             -0.333693986430709E+02
              0.122140619013863E+02
             -0.734339540611337E+02
              0.588763430927905E+02
              0.192749316545940E+02
              0.573626593340249E+02
              0.376428684259821E+02
             -0.184294515574547E+02
              0.138975849446518E+02
             -0.271610053997602E+02
              0.742564655293646E+01
              0.367047100329177E+02
              0.390873895356796E+02
             -0.140186200907282E+02
              0.866955803791086E+02
             -0.328497409924117E+02
             -0.236547154774506E+02
              0.347208277617156E+02
              0.154642975763581E+02
              0.260575151854972E+02
             -0.495669035224873E+02
             -0.139290220074986E+01
              0.487500468229505E+02
              0.632465904166169E+02
             -0.628540833243483E+02
              0.448613093254949E+01
              0.237206011382077E+02
              0.114036639238933E+02
              0.263558618913672E+02
              0.557468521369825E+02
             -0.337446385469291E+02
             -0.369690809578725E+02
             -0.480352074485822E+02
             -0.754045203541949E+01
             -0.437754814713408E+02
              0.422653460826996E+01
             -0.819458909094311E+01
             -0.342123265774093E+02
[...]
              0.427633132648667E+02
              0.234551387511307E+02
              0.299878453286537E+02
             -0.483355811236737E+02
             -0.460669079974060E+02
             -0.117747071698318E+02
             -0.452725460658767E+02
              0.726644616203474E+02
              0.622872770648606E+02
              0.297366832166793E+02
              0.804448795939673E+02
             -0.419077776791305E+02
             -0.171408708465363E+02
             -0.236913314992937E+02
              0.664895558904822E+02

 BEEF-vdW xc energy contributions
            1 :    -609.9943802539592
            2 :     549.0223971418367
            3 :    -446.9141852025684
            4 :     333.6136731082354
            5 :    -235.4366413392490
            6 :     165.0631580119855
            7 :    -120.1532074054946
            8 :     89.87758694178774
            9 :    -64.09507110436050
           10 :     39.21256786208789
           11 :    -17.94273464737057
           12 :     4.642907499643229
           13 :   -0.5246504569536228
           14 :     2.267746226268173
           15 :    -4.475531017596495
           16 :     3.500383242781709
           17 :    0.4867267000959146
           18 :    -4.542805361119918
           19 :     5.918405139597098
           20 :    -4.416438857538878
           21 :     2.381795353103371
           22 :    -2.597227543035387
           23 :     5.969951218084475
           24 :    -10.87270263116352
           25 :     14.52783142464511
           26 :    -15.17996611333228
           27 :     13.29133924999678
           28 :    -10.91420164240435
           29 :     9.900151238283456
           30 :    -10.46301075461884
           31 :    -52.68330741179216
           32 :    -36.06301489546001

     Writing all to output data dir ./GaN.save/

     General routines

     Parallel routines

     PAW routines

   This run was terminated on:   6:21: 0  28Mar2024

   JOB DONE.