     Program PWSCF v.7.1 starts on 27Mar2024 at 20: 2:28

     Reading input from espresso.pwi
Warning: card &CELL ignored
Warning: card    CELL_DYNAMICS    = 'BFGS' ignored
Warning: card / ignored

     Current dimensions of program PWSCF are:
     Max number of different atomic species (ntypx) = 10
     Max number of k-points (npk) =  40000
     Max angular momentum in pseudopotentials (lmaxx) =  4
     file Ga.pbe-dn-kjpaw_psl.1.0.0.UPF: wavefunction(s)  4S renormalized
     file N.pbe-n-kjpaw_psl.1.0.0.UPF: wavefunction(s)  2S renormalized

     IMPORTANT: XC functional enforced from input :
     Exchange-correlation= BEEF-VDW
                           (   1   4  43  14   2   0   0)
     Any further DFT definition will be discarded
     Please, verify this is what you really want

     R & G space division:  proc/nbgrp/npool/nimage =      27
     Subspace diagonalization in iterative solution of the eigenvalue problem:
     a serial algorithm will be used

     Using Slab Decomposition

     bravais-lattice index     =            4
     lattice parameter (alat)  =      12.2626  a.u.
     unit-cell volume          =    2602.7676 (a.u.)^3
     number of atoms/cell      =           32
     number of atomic types    =            2
     number of electrons       =       280.00
     number of Kohn-Sham states=          168
     kinetic-energy cutoff     =      70.0000  Ry
     charge density cutoff     =     350.0000  Ry
     scf convergence threshold =      1.0E-07
     mixing beta               =       0.7000
     number of iterations used =            8  plain     mixing
     energy convergence thresh.=      1.0E-04
     force convergence thresh. =      1.0E-03
     Exchange-correlation= BEEF-VDW
                           (   1   4  43  14   2   0   0)
     nstep                     =           50

     celldm(1)=  12.262616  celldm(2)=   0.000000  celldm(3)=   1.629879
     celldm(4)=   0.000000  celldm(5)=   0.000000  celldm(6)=   0.000000

     crystal axes: (cart. coord. in units of alat)
               a(1) = (   1.000000   0.000000   0.000000 )
               a(2) = (  -0.500000   0.866025   0.000000 )
               a(3) = (   0.000000   0.000000   1.629879 )

     reciprocal axes: (cart. coord. in units 2 pi/alat)
               b(1) = (  1.000000  0.577350 -0.000000 )
               b(2) = (  0.000000  1.154701  0.000000 )
               b(3) = (  0.000000 -0.000000  0.613542 )

     PseudoPot. # 1 for Ga read from file:
     /trace/group/acmegroup/atimmins/packages/espresso/pseudo/psl_1.0.0/pslibrary.1.0.0/pbe/PSEUDOPOTENTIALS/Ga.pbe-dn-kjpaw_psl.1.0.0.UPF
     MD5 check sum: cd2a01e492f15b435d17032472d8505c
     Pseudo is Projector augmented-wave + core cor, Zval = 13.0
     Generated using 'atomic' code by A. Dal Corso  v.7.1
     Shape of augmentation charge: PSQ
     Using radial grid of 1205 points,  6 beta functions with:
                l(1) =   0
                l(2) =   0
                l(3) =   1
                l(4) =   1
                l(5) =   2
                l(6) =   2
     Q(r) pseudized with 0 coefficients

     PseudoPot. # 2 for N  read from file:
     /trace/group/acmegroup/atimmins/packages/espresso/pseudo/psl_1.0.0/pslibrary.1.0.0/pbe/PSEUDOPOTENTIALS/N.pbe-n-kjpaw_psl.1.0.0.UPF
     MD5 check sum: f77f775694dac7e2c3fe1c82443d1a16
     Pseudo is Projector augmented-wave + core cor, Zval =  5.0
     Generated using 'atomic' code by A. Dal Corso  v.7.1
     Shape of augmentation charge: PSQ
     Using radial grid of 1085 points,  4 beta functions with:
                l(1) =   0
                l(2) =   0
                l(3) =   1
                l(4) =   1
     Q(r) pseudized with 0 coefficients

     atomic species   valence    mass     pseudopotential
        Ga            13.00    69.72300     Ga( 1.00)
        N              5.00    14.00700     N ( 1.00)

      6 Sym. Ops. (no inversion) found ( 4 have fractional translation)

                                    s                        frac. trans.

      isym =  1     identity

 cryst.   s( 1) = (     1          0          0      )
                  (     0          1          0      )
                  (     0          0          1      )

 cart.    s( 1) = (  1.0000000  0.0000000  0.0000000 )
                  (  0.0000000  1.0000000  0.0000000 )
                  (  0.0000000  0.0000000  1.0000000 )

      isym =  2     120 deg rotation - cryst. axis [0,0,1]

 cryst.   s( 2) = (     0          1          0      )    f =(  0.4999999 )
                  (    -1         -1          0      )       (  0.0000004 )
                  (     0          0          1      )       (  0.0000000 )

 cart.    s( 2) = ( -0.5000000 -0.8660254  0.0000000 )    f =(  0.4999998 )
                  (  0.8660254 -0.5000000  0.0000000 )       (  0.0000003 )
                  (  0.0000000  0.0000000  1.0000000 )       (  0.0000000 )

      isym =  3     120 deg rotation - cryst. axis [0,0,-1]

[...]

      isym =  4     inv. 180 deg rotation - cart. axis [1,0,0]

[...]

      isym =  5     inv. 180 deg rotation - cryst. axis [0,1,0]

 cryst.   s( 5) = (     1          1          0      )
                  (     0         -1          0      )
                  (     0          0          1      )

 cart.    s( 5) = (  0.5000000  0.8660254  0.0000000 )
                  (  0.8660254 -0.5000000  0.0000000 )
                  (  0.0000000  0.0000000  1.0000000 )

      isym =  6     inv. 180 deg rotation - cryst. axis [1,1,0]

 cryst.   s( 6) = (     0         -1          0      )    f =(  0.4999999 )
                  (    -1          0          0      )       (  0.4999999 )
                  (     0          0          1      )       (  0.0000000 )

 cart.    s( 6) = (  0.5000000 -0.8660254  0.0000000 )    f =(  0.2500000 )
                  ( -0.8660254 -0.5000000  0.0000000 )       (  0.4330127 )
                  (  0.0000000  0.0000000  1.0000000 )       (  0.0000000 )

     point group C_3v (3m)
     there are  3 classes
     the character table:

       E     2C3   3s_v
A_1    1.00  1.00  1.00
A_2    1.00  1.00 -1.00
E      2.00 -1.00  0.00

     the symmetry operations in each class and the name of the first element:

     E        1
          identity
     2C3      2    3
          120 deg rotation - cryst. axis [0,0,1]
     3s_v     4    5    6
          inv. 180 deg rotation - cart. axis [1,0,0]

   Cartesian axes

     site n.     atom                  positions (alat units)
         1           Ga  tau(   1) = (   0.2500002   0.1443375   1.2217266  )
         2           Ga  tau(   2) = (   0.0000002   0.5773502   0.4067871  )
         3           Ga  tau(   3) = (   0.0000002   0.5773502   1.2217266  )
         4           Ga  tau(   4) = (   0.7500002   0.1443375   0.4067871  )
         5           Ga  tau(   5) = (   0.7500002   0.1443375   1.2217266  )
         6           Ga  tau(   6) = (   0.5000002   0.5773502   0.4067871  )
         7           Ga  tau(   7) = (   0.5000002   0.5773502   1.2217266  )
         8           Ga  tau(   8) = (  -0.0000003   0.2886754   0.8142568  )
         9           Ga  tau(   9) = (  -0.0000003   0.2886754   1.6291964  )
        10           Ga  tau(  10) = (  -0.2500003   0.7216881   0.8142568  )
        11           Ga  tau(  11) = (  -0.2500003   0.7216881   1.6291964  )
        12           Ga  tau(  12) = (   0.4999997   0.2886754   0.8142568  )
        13           Ga  tau(  13) = (   0.4999997   0.2886754   1.6291964  )
        14           Ga  tau(  14) = (   0.2499997   0.7216881   0.8142568  )
        15           Ga  tau(  15) = (   0.2499997   0.7216881   1.6291964  )
        16           N   tau(  16) = (   0.2500002   0.1443375   0.7137548  )
        17           N   tau(  17) = (   0.2500002   0.1443375   1.5286943  )
        18           N   tau(  18) = (   0.0000002   0.5773502   0.7137548  )
        19           N   tau(  19) = (   0.0000002   0.5773502   1.5286943  )
        20           N   tau(  20) = (   0.7500002   0.1443375   0.7137548  )
        21           N   tau(  21) = (   0.7500002   0.1443375   1.5286943  )
        22           N   tau(  22) = (   0.5000002   0.5773502   0.7137548  )
        23           N   tau(  23) = (   0.5000002   0.5773502   1.5286943  )
        24           N   tau(  24) = (  -0.0000003   0.2886754   0.3062850  )
        25           N   tau(  25) = (  -0.0000003   0.2886754   1.1212245  )
        26           N   tau(  26) = (  -0.2500003   0.7216881   0.3062850  )
        27           N   tau(  27) = (  -0.2500003   0.7216881   1.1212245  )
        28           N   tau(  28) = (   0.4999997   0.2886754   0.3062850  )
        29           N   tau(  29) = (   0.4999997   0.2886754   1.1212245  )
        30           N   tau(  30) = (   0.2499997   0.7216881   0.3062850  )
        31           N   tau(  31) = (   0.2499997   0.7216881   1.1212245  )
        32           N   tau(  32) = (   0.2500002   0.1443375   0.4067871  )

   Crystallographic axes

     site n.     atom                  positions (cryst. coord.)
         1           Ga  tau(   1) = (  0.3333335  0.1666666  0.7495811  )
         2           Ga  tau(   2) = (  0.3333335  0.6666666  0.2495811  )
         3           Ga  tau(   3) = (  0.3333335  0.6666666  0.7495811  )
         4           Ga  tau(   4) = (  0.8333335  0.1666666  0.2495811  )
         5           Ga  tau(   5) = (  0.8333335  0.1666666  0.7495811  )
         6           Ga  tau(   6) = (  0.8333335  0.6666666  0.2495811  )
         7           Ga  tau(   7) = (  0.8333335  0.6666666  0.7495811  )
         8           Ga  tau(   8) = (  0.1666665  0.3333336  0.4995811  )
         9           Ga  tau(   9) = (  0.1666665  0.3333336  0.9995811  )
        10           Ga  tau(  10) = (  0.1666665  0.8333336  0.4995811  )
        11           Ga  tau(  11) = (  0.1666665  0.8333336  0.9995811  )
        12           Ga  tau(  12) = (  0.6666665  0.3333336  0.4995811  )
        13           Ga  tau(  13) = (  0.6666665  0.3333336  0.9995811  )
        14           Ga  tau(  14) = (  0.6666665  0.8333336  0.4995811  )
        15           Ga  tau(  15) = (  0.6666665  0.8333336  0.9995811  )
        16           N   tau(  16) = (  0.3333335  0.1666666  0.4379189  )
        17           N   tau(  17) = (  0.3333335  0.1666666  0.9379189  )
        18           N   tau(  18) = (  0.3333335  0.6666666  0.4379189  )
        19           N   tau(  19) = (  0.3333335  0.6666666  0.9379189  )
        20           N   tau(  20) = (  0.8333335  0.1666666  0.4379189  )
        21           N   tau(  21) = (  0.8333335  0.1666666  0.9379189  )
        22           N   tau(  22) = (  0.8333335  0.6666666  0.4379189  )
        23           N   tau(  23) = (  0.8333335  0.6666666  0.9379189  )
        24           N   tau(  24) = (  0.1666665  0.3333336  0.1879189  )
        25           N   tau(  25) = (  0.1666665  0.3333336  0.6879189  )
        26           N   tau(  26) = (  0.1666665  0.8333336  0.1879189  )
        27           N   tau(  27) = (  0.1666665  0.8333336  0.6879189  )
        28           N   tau(  28) = (  0.6666665  0.3333336  0.1879189  )
[...]
     atom   17 type  2   force =    -0.00002850    0.00001771    1.64312277
     atom   18 type  2   force =     0.74082224    0.42774677   -1.84784987
     atom   19 type  2   force =    -0.33387474   -0.19272935    0.77861150
     atom   20 type  2   force =    -0.00002677   -0.85544150   -1.84784955
     atom   21 type  2   force =    -0.00002713    0.38551107    0.77861178
     atom   22 type  2   force =    -0.74088473    0.42775206   -1.84785141
     atom   23 type  2   force =     0.33381795   -0.19272782    0.77861053
     atom   24 type  2   force =     4.82629434   -2.78646558    1.80238757
     atom   25 type  2   force =     0.46586508   -0.26896942   -0.44545928
     atom   26 type  2   force =     0.00004598    5.57292028    1.80240287
     atom   27 type  2   force =     0.00002749    0.53788446   -0.44546102
     atom   28 type  2   force =    -4.82626639   -2.78650252    1.80240196
     atom   29 type  2   force =    -0.46580902   -0.26896873   -0.44546117
     atom   30 type  2   force =     0.00002752   -0.00001708    0.52634118
     atom   31 type  2   force =     0.00002913   -0.00001810   -0.43717022
     atom   32 type  2   force =    -0.00000947    0.00000571   -7.09498026
     The local contribution  to forces
     atom    1 type  1   force =    -0.00007730    0.00024672    0.73645948
     atom    2 type  1   force =    -1.36528504   -0.78805980   -1.13422412
     atom    3 type  1   force =     0.51161926    0.29568208   -0.10531220
     atom    4 type  1   force =    -0.00010480    1.57669483   -1.13422336
     atom    5 type  1   force =    -0.00007171   -0.59061329   -0.10531196
     atom    6 type  1   force =     1.36516428   -0.78793814   -1.13422435
     atom    7 type  1   force =    -0.51177374    0.29568184   -0.10531220
     atom    8 type  1   force =    -4.33829238    2.50483925    3.50783585
     atom    9 type  1   force =    -2.25589015    1.30257096   -3.80116156
     atom   10 type  1   force =     0.00108416   -5.01121824    3.50784692
     atom   11 type  1   force =     0.00109021   -2.60664224   -3.80118053
     atom   12 type  1   force =     4.34050108    2.50486875    3.50784930
     atom   13 type  1   force =     2.25808973    1.30257351   -3.80118343
     atom   14 type  1   force =     0.00110106   -0.00049738    2.81189636
     atom   15 type  1   force =     0.00109929   -0.00049715   -2.72323491
     atom   16 type  2   force =    -0.00000805    0.00002243    0.64910244
     atom   17 type  2   force =    -0.00000992    0.00002222   -1.58933682
     atom   18 type  2   force =    -0.66473491   -0.38375457    1.70199595
     atom   19 type  2   force =     0.28550956    0.16486889   -0.70973073
     atom   20 type  2   force =    -0.00000997    0.76757785    1.70199446
     atom   21 type  2   force =    -0.00000919   -0.32966814   -0.70973009
     atom   22 type  2   force =     0.66471442   -0.38375444    1.70199753
     atom   23 type  2   force =    -0.28552864    0.16486779   -0.70973122
     atom   24 type  2   force =    -4.55720280    2.63111250   -1.63450390
     atom   25 type  2   force =    -0.46997390    0.27135054    0.51334538
     atom   26 type  2   force =     0.00006767   -5.26237869   -1.63451745
     atom   27 type  2   force =     0.00008707   -0.54281816    0.51335166
     atom   28 type  2   force =     4.55740573    2.63114344   -1.63452533
     atom   29 type  2   force =     0.47014853    0.27135027    0.51335232
     atom   30 type  2   force =     0.00008968   -0.00003869   -0.53843336
     atom   31 type  2   force =     0.00008723   -0.00003881    0.45438144
     atom   32 type  2   force =    -0.00000730    0.00003913    5.09114846
     The core correction contribution to forces
     atom    1 type  1   force =    -0.00000626    0.00001825    0.00213039
     atom    2 type  1   force =    -0.00200943   -0.00114766   -0.00302845
     atom    3 type  1   force =     0.00065380    0.00039980    0.00210918
     atom    4 type  1   force =    -0.00000876    0.00233551   -0.00302842
     atom    5 type  1   force =    -0.00000586   -0.00074418    0.00210917
     atom    6 type  1   force =     0.00200016   -0.00113736   -0.00302848
     atom    7 type  1   force =    -0.00066633    0.00039980    0.00210918
     atom    8 type  1   force =    -0.00429104    0.00248608    0.00261103
     atom    9 type  1   force =    -0.00001554    0.00001843    0.00214600
     atom   10 type  1   force =     0.00008072   -0.00508528    0.00261109
     atom   11 type  1   force =     0.00008022   -0.00014747    0.00214598
     atom   12 type  1   force =     0.00445196    0.00248728    0.00261118
     atom   13 type  1   force =     0.00017682    0.00001830    0.00214597
     atom   14 type  1   force =     0.00008053   -0.00003671    0.00196055
     atom   15 type  1   force =     0.00008060   -0.00003673   -0.00056181
     atom   16 type  2   force =     0.00000023   -0.00000032    0.01420406
     atom   17 type  2   force =     0.00000025   -0.00000033    0.00089903
     atom   18 type  2   force =     0.00123266    0.00071121   -0.00237398
     atom   19 type  2   force =    -0.00078536   -0.00045392    0.00113551
     atom   20 type  2   force =     0.00000023   -0.00142339   -0.00237397
     atom   21 type  2   force =     0.00000024    0.00090682    0.00113551
     atom   22 type  2   force =    -0.00123220    0.00071124   -0.00237397
     atom   23 type  2   force =     0.00078586   -0.00045393    0.00113551
     atom   24 type  2   force =     0.00449466   -0.00259504    0.00289476
     atom   25 type  2   force =    -0.00007179    0.00004141    0.00111387
     atom   26 type  2   force =    -0.00000245    0.00519393    0.00289444
     atom   27 type  2   force =    -0.00000240   -0.00007885    0.00111396
     atom   28 type  2   force =    -0.00449933   -0.00259486    0.00289443
     atom   29 type  2   force =     0.00006704    0.00004145    0.00111396
     atom   30 type  2   force =    -0.00000239    0.00000133   -0.00018294
     atom   31 type  2   force =    -0.00000234    0.00000130    0.00027908
     atom   32 type  2   force =     0.00000013   -0.00000021   -0.03454652
     The Hubbard contrib.    to forces
     atom    1 type  1   force =     0.00000000    0.00000000    0.00000000
     atom    2 type  1   force =     0.00000000    0.00000000    0.00000000
     atom    3 type  1   force =     0.00000000    0.00000000    0.00000000
     atom    4 type  1   force =     0.00000000    0.00000000    0.00000000
     atom    5 type  1   force =     0.00000000    0.00000000    0.00000000
     atom    6 type  1   force =     0.00000000    0.00000000    0.00000000
     atom    7 type  1   force =     0.00000000    0.00000000    0.00000000
     atom    8 type  1   force =     0.00000000    0.00000000    0.00000000
     atom    9 type  1   force =     0.00000000    0.00000000    0.00000000
     atom   10 type  1   force =     0.00000000    0.00000000    0.00000000
     atom   11 type  1   force =     0.00000000    0.00000000    0.00000000
     atom   12 type  1   force =     0.00000000    0.00000000    0.00000000
     atom   13 type  1   force =     0.00000000    0.00000000    0.00000000
     atom   14 type  1   force =     0.00000000    0.00000000    0.00000000
     atom   15 type  1   force =     0.00000000    0.00000000    0.00000000
     atom   16 type  2   force =     0.00000000    0.00000000    0.00000000
     atom   17 type  2   force =     0.00000000    0.00000000    0.00000000
     atom   18 type  2   force =     0.00000000    0.00000000    0.00000000
     atom   19 type  2   force =     0.00000000    0.00000000    0.00000000
     atom   20 type  2   force =     0.00000000    0.00000000    0.00000000
     atom   21 type  2   force =     0.00000000    0.00000000    0.00000000
     atom   22 type  2   force =     0.00000000    0.00000000    0.00000000
     atom   23 type  2   force =     0.00000000    0.00000000    0.00000000
     atom   24 type  2   force =     0.00000000    0.00000000    0.00000000
     atom   25 type  2   force =     0.00000000    0.00000000    0.00000000
     atom   26 type  2   force =     0.00000000    0.00000000    0.00000000
     atom   27 type  2   force =     0.00000000    0.00000000    0.00000000
     atom   28 type  2   force =     0.00000000    0.00000000    0.00000000
     atom   29 type  2   force =     0.00000000    0.00000000    0.00000000
     atom   30 type  2   force =     0.00000000    0.00000000    0.00000000
     atom   31 type  2   force =     0.00000000    0.00000000    0.00000000
     atom   32 type  2   force =     0.00000000    0.00000000    0.00000000
     The SCF correction term to forces
     atom    1 type  1   force =    -0.00000000    0.00000000   -0.00001540
     atom    2 type  1   force =    -0.00000876   -0.00000506   -0.00000182
     atom    3 type  1   force =    -0.00000145   -0.00000084   -0.00000572
     atom    4 type  1   force =     0.00000000    0.00001011   -0.00000182
     atom    5 type  1   force =     0.00000000    0.00000167   -0.00000572
     atom    6 type  1   force =     0.00000876   -0.00000506   -0.00000182
     atom    7 type  1   force =     0.00000145   -0.00000084   -0.00000572
     atom    8 type  1   force =     0.00001021   -0.00000590   -0.00000986
     atom    9 type  1   force =    -0.00000794    0.00000458    0.00001392
     atom   10 type  1   force =    -0.00000000    0.00001179   -0.00000986
     atom   11 type  1   force =     0.00000000   -0.00000917    0.00001392
     atom   12 type  1   force =    -0.00001021   -0.00000590   -0.00000986
     atom   13 type  1   force =     0.00000794    0.00000458    0.00001392
     atom   14 type  1   force =     0.00000000   -0.00000000   -0.00000991
     atom   15 type  1   force =     0.00000000   -0.00000000    0.00001221
     atom   16 type  2   force =    -0.00000000    0.00000000    0.00000833
     atom   17 type  2   force =     0.00000000   -0.00000000    0.00000596
     atom   18 type  2   force =    -0.00000211   -0.00000122   -0.00000328
     atom   19 type  2   force =     0.00000417    0.00000241    0.00000516
     atom   20 type  2   force =     0.00000000    0.00000244   -0.00000328
     atom   21 type  2   force =    -0.00000000   -0.00000481    0.00000516
     atom   22 type  2   force =     0.00000211   -0.00000122   -0.00000328
     atom   23 type  2   force =    -0.00000417    0.00000241    0.00000516
     atom   24 type  2   force =    -0.00000287    0.00000166    0.00000094
     atom   25 type  2   force =     0.00000290   -0.00000168   -0.00000618
     atom   26 type  2   force =     0.00000000   -0.00000331    0.00000094
     atom   27 type  2   force =    -0.00000000    0.00000335   -0.00000618
     atom   28 type  2   force =     0.00000287    0.00000166    0.00000094
     atom   29 type  2   force =    -0.00000290   -0.00000168   -0.00000618
     atom   30 type  2   force =     0.00000000   -0.00000000   -0.00000220
     atom   31 type  2   force =    -0.00000000    0.00000000   -0.00000272
     atom   32 type  2   force =     0.00000000   -0.00000000    0.00001563

     Total force =     0.002052     Total SCF correction =     0.000057

     Computing stress (Cartesian axis) and pressure

     Non-local corr. energy    =       8.31235990 Ry

          total   stress  (Ry/bohr**3)                   (kbar)     P=        2.80
   0.00008518  -0.00000000   0.00000000           12.53       -0.00        0.00
   0.00000000   0.00008518   0.00000000            0.00       12.53        0.00
   0.00000000   0.00000000  -0.00011334            0.00        0.00      -16.67

     kinetic stress (kbar)  18173.44     -0.00      0.00
                               -0.00  18173.44     -0.00
                                0.00     -0.00  18069.81

     local   stress (kbar)   4763.64     -0.07     -0.00
                               -0.07   4763.55      0.00
                               -0.00      0.00    863.55

     nonloc. stress (kbar)    137.19      0.00      0.00
                                0.00    137.19      0.00
                                0.00      0.00    117.03

     hartree stress (kbar)  18657.38     -0.00      0.00
                               -0.00  18657.38     -0.00
                                0.00     -0.00  20091.26

     exc-cor stress (kbar)   4771.74      0.00     -0.00
                                0.00   4771.74      0.00
                               -0.00      0.00   4784.58

     corecor stress (kbar) -13307.45     -0.00     -0.00
                               -0.00 -13307.45     -0.00
                               -0.00     -0.00 -13307.73

     ewald   stress (kbar) -33338.33      0.09      0.00
                                0.09 -33338.21     -0.00
                                0.00     -0.00 -30786.31

     hubbard stress (kbar)      0.00      0.00      0.00
                                0.00      0.00      0.00
                                0.00      0.00      0.00

     DFT-D   stress (kbar)      0.00      0.00      0.00
                                0.00      0.00      0.00
                                0.00      0.00      0.00

     XDM     stress (kbar)      0.00      0.00      0.00
                                0.00      0.00      0.00
                                0.00      0.00      0.00

     dft-nl  stress (kbar)    154.91     -0.00      0.00
                               -0.00    154.91     -0.00
                                0.00     -0.00    151.14

     TS-vdW  stress (kbar)      0.00      0.00      0.00
                                0.00      0.00      0.00
                                0.00      0.00      0.00

     MDB     stress (kbar)      0.00      0.00      0.00
                                0.00      0.00      0.00
                                0.00      0.00      0.00

     3D-RISM stress (kbar)      0.00      0.00      0.00
                                0.00      0.00      0.00
                                0.00      0.00      0.00

     Energy error            =      1.4E-05 Ry
     Gradient error          =      6.0E-04 Ry/Bohr

     bfgs converged in  25 scf cycles and  24 bfgs steps
     (criteria: energy <  1.0E-04 Ry, force <  1.0E-03 Ry/Bohr)

     End of BFGS Geometry Optimization

     Final energy             =   -4741.6820292535 Ry

     File ./GaN.bfgs deleted, as requested
Begin final coordinates

ATOMIC_POSITIONS (angstrom)
Ga            1.6222756606        0.9366198184        7.9482997255
Ga            0.0056362964        3.7497344504        2.6018166410
Ga            0.0041049275        3.7488503141        7.9390357810
Ga            4.8668240777        0.9301132606        2.6018166410
Ga            4.8668240777        0.9318815331        7.9390357810
Ga            3.2389150248        3.7497344504        2.6018166410
Ga            3.2404463937        3.7488503141        7.9390357810
Ga           -0.0641887364        1.9103006964        5.2665699196
Ga            0.0110734201        1.8668480701       10.6240284416
Ga           -1.6222761733        4.6089872999        5.2665699196
Ga           -1.6222761733        4.6958925525       10.6240284416
Ga            3.3087332239        1.9103006964        5.2665699196
Ga            3.2334710674        1.8668480701       10.6240284416
Ga            1.6222722437        4.6831037996        5.2989455608
Ga            1.6222722437        4.6831037996       10.5564822345
N             1.6222756606        0.9366198184        4.3673989671
N             1.6222756606        0.9366198184        9.9142224625
N             0.0134876670        3.7542674413        4.6203743057
N            -0.0047075264        3.7437624415        9.9051512127
N             4.8668240777        0.9210472787        4.6203743057
N             4.8668240777        0.9420572784        9.9051512127
N             3.2310636542        3.7542674413        4.6203743057
N             3.2492588476        3.7437624415        9.9051512127
N            -0.0796919207        1.9192514640        1.9956553064
N             0.0109311854        1.8669301893        7.2345441096
N            -1.6222761733        4.5910857646        1.9956553064
N            -1.6222761733        4.6957283140        7.2345441096
N             3.3242364082        1.9192514640        1.9956553064
N             3.2336133021        1.8669301893        7.2345441096
N             1.6222722437        4.6831037996        1.9731654471
N             1.6222722437        4.6831037996        7.2707374476
N             1.6222756606        0.9366198184        3.0616413904
End final coordinates

     Writing all to output data dir ./GaN.save/

     General routines

     Parallel routines

     PAW routines

   This run was terminated on:  21:15:39  27Mar2024

   JOB DONE.