     Program PWSCF v.7.2 starts on 27Mar2024 at 22:23:23

     Reading input from espresso.pwi
Warning: card &CELL ignored
Warning: card    CELL_DYNAMICS    = 'BFGS' ignored
Warning: card / ignored

     Current dimensions of program PWSCF are:
     Max number of different atomic species (ntypx) = 10
     Max number of k-points (npk) =  40000
     Max angular momentum in pseudopotentials (lmaxx) =  4
     file C.pbe-n-kjpaw_psl.1.0.0.UPF: wavefunction(s)  2S 2P renormalized

     IMPORTANT: XC functional enforced from input :
     Exchange-correlation= BEEF-VDW
                           (   1   4  43  14   2   0   0)
     Any further DFT definition will be discarded
     Please, verify this is what you really want

     R & G space division:  proc/nbgrp/npool/nimage =      10
     Subspace diagonalization in iterative solution of the eigenvalue problem:
     a serial algorithm will be used

     Using Slab Decomposition

     bravais-lattice index     =            1
     lattice parameter (alat)  =       6.7507  a.u.
     unit-cell volume          =     307.6390 (a.u.)^3
     number of atoms/cell      =            7
     number of atomic types    =            1
     number of electrons       =        26.00
     number of Kohn-Sham states=           17
     kinetic-energy cutoff     =      70.0000  Ry
     charge density cutoff     =     350.0000  Ry
     scf convergence threshold =      1.0E-07
     mixing beta               =       0.7000
     number of iterations used =            8  plain     mixing
     Exchange-correlation= BEEF-VDW
                           (   1   4  43  14   2   0   0)

     celldm(1)=   6.750674  celldm(2)=   0.000000  celldm(3)=   0.000000
     celldm(4)=   0.000000  celldm(5)=   0.000000  celldm(6)=   0.000000

     crystal axes: (cart. coord. in units of alat)
               a(1) = (   1.000000   0.000000   0.000000 )
               a(2) = (   0.000000   1.000000   0.000000 )
               a(3) = (   0.000000   0.000000   1.000000 )

     reciprocal axes: (cart. coord. in units 2 pi/alat)
               b(1) = (  1.000000  0.000000  0.000000 )
               b(2) = (  0.000000  1.000000  0.000000 )
               b(3) = (  0.000000  0.000000  1.000000 )

     PseudoPot. # 1 for C  read from file:
     /trace/group/acmegroup/atimmins/packages/espresso/pseudo/psl_1.0.0/pslibrary.1.0.0/pbe/PSEUDOPOTENTIALS/C.pbe-n-kjpaw_psl.1.0.0.UPF
     MD5 check sum: 5459cf7f2c8c37df2f7cde8914797f4d
     Pseudo is Projector augmented-wave + core cor, Zval =  4.0
     Generated using 'atomic' code by A. Dal Corso  v.7.1
     Shape of augmentation charge: PSQ
     Using radial grid of 1073 points,  4 beta functions with:
                l(1) =   0
                l(2) =   0
                l(3) =   1
                l(4) =   1
     Q(r) pseudized with 0 coefficients

     atomic species   valence    mass     pseudopotential
        C              4.00    12.01100     C ( 1.00)

      6 Sym. Ops. (no inversion) found

                                    s                        frac. trans.

      isym =  1     identity

 cryst.   s( 1) = (     1          0          0      )
                  (     0          1          0      )
                  (     0          0          1      )

 cart.    s( 1) = (  1.0000000  0.0000000  0.0000000 )
                  (  0.0000000  1.0000000  0.0000000 )
                  (  0.0000000  0.0000000  1.0000000 )

      isym =  2     120 deg rotation - cart. axis [1,-1,1]

[...]

      isym =  3     120 deg rotation - cart. axis [-1,1,-1]

[...]

      isym =  4     inv. 180 deg rotation - cart. axis [1,1,0]

[...]

      isym =  6     inv. 180 deg rotation - cart. axis [0,1,1]

 cryst.   s( 6) = (     1          0          0      )
                  (     0          0         -1      )
                  (     0         -1          0      )

 cart.    s( 6) = (  1.0000000  0.0000000  0.0000000 )
                  (  0.0000000  0.0000000 -1.0000000 )
                  (  0.0000000 -1.0000000  0.0000000 )

     point group C_3v (3m)
     there are  3 classes
     the character table:

       E     2C3   3s_v
A_1    1.00  1.00  1.00
A_2    1.00  1.00 -1.00
E      2.00 -1.00  0.00

     the symmetry operations in each class and the name of the first element:

     E        1
          identity
     2C3      2    3
          120 deg rotation - cart. axis [1,-1,1]
     3s_v     4    5    6
          inv. 180 deg rotation - cart. axis [1,1,0]

   Cartesian axes

     site n.     atom                  positions (alat units)
         1           C   tau(   1) = (   0.0000000   0.0000000   0.5000000  )
         2           C   tau(   2) = (   0.2500061   0.2500061   0.7499939  )
         3           C   tau(   3) = (   0.0000000   0.5000000   0.0000000  )
         4           C   tau(   4) = (   0.7499939   0.7499939   0.7499939  )
         5           C   tau(   5) = (   0.5000000   0.0000000   0.0000000  )
         6           C   tau(   6) = (   0.7499939   0.2500061   0.2500061  )
         7           C   tau(   7) = (   0.5000000   0.5000000   0.5000000  )

   Crystallographic axes

     site n.     atom                  positions (cryst. coord.)
         1           C   tau(   1) = (  0.0000000  0.0000000  0.5000000  )
         2           C   tau(   2) = (  0.2500061  0.2500061  0.7499939  )
         3           C   tau(   3) = (  0.0000000  0.5000000  0.0000000  )
         4           C   tau(   4) = (  0.7499939  0.7499939  0.7499939  )
         5           C   tau(   5) = (  0.5000000  0.0000000  0.0000000  )
         6           C   tau(   6) = (  0.7499939  0.2500061  0.2500061  )
         7           C   tau(   7) = (  0.5000000  0.5000000  0.5000000  )

     number of k points=    13  Gaussian smearing, width (Ry)=  0.0100
                       cart. coord. in units 2pi/alat
        k(    1) = (   0.0000000   0.0000000   0.0000000), wk =   0.0312500
        k(    2) = (   0.0000000   0.0000000   0.2500000), wk =   0.1875000
        k(    3) = (   0.0000000   0.0000000  -0.5000000), wk =   0.0937500
        k(    4) = (   0.0000000   0.2500000   0.2500000), wk =   0.1875000
        k(    5) = (   0.0000000   0.2500000  -0.5000000), wk =   0.3750000
        k(    6) = (   0.0000000  -0.5000000  -0.5000000), wk =   0.0937500
        k(    7) = (   0.2500000   0.2500000   0.2500000), wk =   0.1875000
        k(    8) = (   0.2500000   0.2500000  -0.5000000), wk =   0.1875000
        k(    9) = (   0.2500000  -0.5000000  -0.5000000), wk =   0.1875000
        k(   10) = (  -0.5000000  -0.5000000  -0.5000000), wk =   0.0312500
        k(   11) = (   0.2500000   0.0000000   0.2500000), wk =   0.1875000
        k(   12) = (   0.2500000  -0.2500000   0.2500000), wk =   0.0625000
        k(   13) = (   0.2500000  -0.2500000  -0.5000000), wk =   0.1875000

                       cryst. coord.
        k(    1) = (   0.0000000   0.0000000   0.0000000), wk =   0.0312500
        k(    2) = (   0.0000000   0.0000000   0.2500000), wk =   0.1875000
        k(    3) = (   0.0000000   0.0000000  -0.5000000), wk =   0.0937500
        k(    4) = (   0.0000000   0.2500000   0.2500000), wk =   0.1875000
        k(    5) = (   0.0000000   0.2500000  -0.5000000), wk =   0.3750000
        k(    6) = (   0.0000000  -0.5000000  -0.5000000), wk =   0.0937500
        k(    7) = (   0.2500000   0.2500000   0.2500000), wk =   0.1875000
        k(    8) = (   0.2500000   0.2500000  -0.5000000), wk =   0.1875000
        k(    9) = (   0.2500000  -0.5000000  -0.5000000), wk =   0.1875000
        k(   10) = (  -0.5000000  -0.5000000  -0.5000000), wk =   0.0312500
        k(   11) = (   0.2500000   0.0000000   0.2500000), wk =   0.1875000
        k(   12) = (   0.2500000  -0.2500000   0.2500000), wk =   0.0625000
        k(   13) = (   0.2500000  -0.2500000  -0.5000000), wk =   0.1875000

     Atomic positions and unit cell read from directory:
     ./diamond.save/
     Atomic positions from file used, from input discarded

     Check: negative core charge=   -0.000014

     The initial density is read from file :
     ./diamond.save/charge-density

     %%%%%%%%%%%%%%%%%%%%%%%%%%%%%%%%%%%%%%%%%%%%%%%%%%%%%%%%%%%%%%%%%%%%%%%%
     %                                                                      %
     % You are using vdW-DF, which was implemented by the Thonhauser group. %
     % Please cite the following two papers that made this development      %
     % possible and the two reviews that describe the various versions:     %
     %                                                                      %
     %   T. Thonhauser et al., PRL 115, 136402 (2015).                      %
     %   T. Thonhauser et al., PRB 76, 125112 (2007).                       %
     %   K. Berland et al., Rep. Prog. Phys. 78, 066501 (2015).             %
     %   D.C. Langreth et al., J. Phys.: Condens. Matter 21, 084203 (2009). %
     %                                                                      %
     % If you are calculating stress with vdW-DF, please also cite:         %
     %                                                                      %
     %   R. Sabatini et al., J. Phys.: Condens. Matter 24, 424209 (2012).   %
     %                                                                      %
     %%%%%%%%%%%%%%%%%%%%%%%%%%%%%%%%%%%%%%%%%%%%%%%%%%%%%%%%%%%%%%%%%%%%%%%%

     %%%%%%%%%%%%%%%%%%%%%%%%%%%%%%%%%%%%%%%%%%%%%%%%%%%%%%%%%%%%%%%%%%%%%%%%
     %                                                                      %
     %  vdW-DF NEWS:                                                        %
     %                                                                      %
     %  * vdW-DF3 is now available. DOI: 10.1021/acs.jctc.0c00471           %
     %    use with input_dft = 'vdW-DF3-opt1' or 'vdW-DF3-opt2'             %
     %                                                                      %
     %  * Unscreened and range-separated hybrid vdW-DF-cx functionals       %
     %    DOI: 10.1063/1.4986522 and 10.1088/1361-648X/ac2ad2               %
     %    use with input_dft = 'vdW-DF-cx0'    and 'vdW-DF-ahcx'            %
     %  * Unscreened and range-separated hybrid vdW-DF2-b86r functionals    %
     %    DOI: 10.1063/1.4986522 and DOI: 10.1103/PhysRevX.12.041003        %
     %    use with input_dft = 'vdW-DF2-br0' and 'vdW-DF2-ahbr'             %
     %                                                                      %
     %%%%%%%%%%%%%%%%%%%%%%%%%%%%%%%%%%%%%%%%%%%%%%%%%%%%%%%%%%%%%%%%%%%%%%%%

     Carrying out vdW-DF run using the following parameters:
     Nqs    =  20  Npoints =  1024  r_max =  100.000
     q_mesh =  0.00001000  0.04494208  0.09755937  0.15916263
               0.23128650  0.31572767  0.41458969  0.53033537
               0.66584808  0.82450364  1.01025438  1.22772762
               1.48234092  1.78043706  2.12944203  2.53805004
               3.01644009  3.57652955  4.23227104  5.00000000

     Non-local corr. energy    =       0.26463458 Ry

     Starting wfcs from file
     Checking if some PAW data can be deallocated...

     Self-consistent Calculation

     iteration #  1     ecut=    70.00 Ry     beta= 0.70
     Davidson diagonalization with overlap

     ethr =  1.00E-05,  avg # of iterations =  1.0

     Threshold (ethr) on eigenvalues was too large:
     Diagonalizing with lowered threshold

     Davidson diagonalization with overlap

     c_bands:  1 eigenvalues not converged
     c_bands:  1 eigenvalues not converged
     c_bands:  1 eigenvalues not converged
     ethr =  2.73E-12,  avg # of iterations =  9.5

[...]

     End of self-consistent calculation

          k = 0.0000 0.0000 0.0000 (  2969 PWs)   bands (ev):

   -10.7471  -2.7677  -2.7677  -2.1270  -2.1268  -2.1267   4.4911   4.4911
     4.4912   4.5670   5.6598   5.6598   5.6604  14.0023  14.0024  14.0035
    15.7232

     occupation numbers
     1.0000   1.0000   1.0000   1.0000   1.0000   1.0000   1.0000   1.0000
     1.0000   1.0000   1.0000   1.0000   1.0000   0.0000   0.0000   0.0000
     0.0000

[...]

          k =-0.5000-0.5000-0.5000 (  3112 PWs)   bands (ev):

[...]

          k = 0.2500-0.2500-0.5000 (  3050 PWs)   bands (ev):

    -8.6418  -6.4564  -4.8015  -3.4782   0.0583   0.4429   1.6348   2.7115
     3.9307   6.1811   6.7070   6.8273   7.8435  11.4199  12.7005  13.4531
    17.6007

     occupation numbers
     1.0000   1.0000   1.0000   1.0000   1.0000   1.0000   1.0000   1.0000
     1.0000   1.0000   1.0000   1.0000   1.0000   0.0000   0.0000   0.0000
     0.0000

     the Fermi energy is    10.0276 ev

!    total energy              =    -134.17805003 Ry
     total all-electron energy =      -538.526730 Ry
     estimated scf accuracy    <          1.1E-09 Ry
     smearing contrib. (-TS)   =      -0.00000000 Ry
     internal energy E=F+TS    =    -134.17805003 Ry

     The total energy is F=E-TS. E is the sum of the following terms:
     one-electron contribution =       8.04074061 Ry
     hartree contribution      =      12.96458217 Ry
     xc contribution           =     -31.87836995 Ry
     ewald contribution        =     -77.48672890 Ry
     one-center paw contrib.   =     -45.81827397 Ry
      -> PAW hartree energy AE =       7.55763638 Ry
      -> PAW hartree energy PS =      -7.54917543 Ry
      -> PAW xc energy AE      =     -10.76532553 Ry
      -> PAW xc energy PS      =       4.20606847 Ry
      -> total E_H with PAW    =      12.97304312 Ry
      -> total E_XC with PAW   =     -38.43762701 Ry

     convergence has been achieved in   1 iterations

[...]

     Forces acting on atoms (cartesian axes, Ry/au):

     atom    1 type  1   force =    -0.00003790    0.00003790   -0.00015711
     atom    2 type  1   force =     0.00010208   -0.00002330    0.00002330
     atom    3 type  1   force =    -0.00003790    0.00015711   -0.00003790
     atom    4 type  1   force =     0.00002330   -0.00010208    0.00002330
     atom    5 type  1   force =    -0.00015711    0.00003790   -0.00003790
     atom    6 type  1   force =     0.00002330   -0.00002330    0.00010208
     atom    7 type  1   force =     0.00008424   -0.00008424    0.00008424
     The non-local contrib.  to forces
     atom    1 type  1   force =    -0.24245307    0.24245307    0.24256540
     atom    2 type  1   force =     0.00015885   -0.00001748    0.00001748
     atom    3 type  1   force =    -0.24245307   -0.24256540   -0.24245307
     atom    4 type  1   force =     0.00001748   -0.00015885    0.00001748
     atom    5 type  1   force =     0.24256540    0.24245307   -0.24245307
     atom    6 type  1   force =     0.00001748   -0.00001748    0.00015885
     atom    7 type  1   force =     0.24218261   -0.24218261    0.24218261
     The ionic contribution  to forces
     atom    1 type  1   force =     2.24622667   -2.24622682   -2.24597387
     atom    2 type  1   force =    -0.00061039   -0.00009204    0.00009204
     atom    3 type  1   force =     2.24622673    2.24597397    2.24622673
     atom    4 type  1   force =     0.00009204    0.00061047    0.00009204
     atom    5 type  1   force =    -2.24597387   -2.24622682    2.24622667
     atom    6 type  1   force =     0.00009204   -0.00009204   -0.00061039
     atom    7 type  1   force =    -2.24605322    2.24605328   -2.24605322
     The local contribution  to forces
     atom    1 type  1   force =    -2.00822587    2.00822587    2.00791843
     atom    2 type  1   force =     0.00031708    0.00002177   -0.00002154
     atom    3 type  1   force =    -2.00822580   -2.00791828   -2.00822580
     atom    4 type  1   force =    -0.00002154   -0.00031703   -0.00002154
     atom    5 type  1   force =     2.00791843    2.00822587   -2.00822587
     atom    6 type  1   force =    -0.00002154    0.00002177    0.00031708
     atom    7 type  1   force =     2.00832944   -2.00832936    2.00832944
     The core correction contribution to forces
     atom    1 type  1   force =     0.00442380   -0.00442380   -0.00465238
     atom    2 type  1   force =     0.00022414    0.00003783   -0.00003784
     atom    3 type  1   force =     0.00442380    0.00465237    0.00442380
     atom    4 type  1   force =    -0.00003784   -0.00022415   -0.00003784
     atom    5 type  1   force =    -0.00465238   -0.00442380    0.00442380
     atom    6 type  1   force =    -0.00003784    0.00003783    0.00022414
     atom    7 type  1   force =    -0.00435836    0.00435835   -0.00435836
     The Hubbard contrib.    to forces
     atom    1 type  1   force =     0.00000000    0.00000000    0.00000000
     atom    2 type  1   force =     0.00000000    0.00000000    0.00000000
     atom    3 type  1   force =     0.00000000    0.00000000    0.00000000
     atom    4 type  1   force =     0.00000000    0.00000000    0.00000000
     atom    5 type  1   force =     0.00000000    0.00000000    0.00000000
     atom    6 type  1   force =     0.00000000    0.00000000    0.00000000
     atom    7 type  1   force =     0.00000000    0.00000000    0.00000000
     The SCF correction term to forces
     atom    1 type  1   force =    -0.00000127    0.00000127   -0.00000635
     atom    2 type  1   force =     0.00002071    0.00001850   -0.00001850
     atom    3 type  1   force =    -0.00000127    0.00000635   -0.00000127
     atom    4 type  1   force =    -0.00001850   -0.00002071   -0.00001850
     atom    5 type  1   force =    -0.00000635    0.00000127   -0.00000127
     atom    6 type  1   force =    -0.00001850    0.00001850    0.00002071
     atom    7 type  1   force =    -0.00000792    0.00000792   -0.00000792

     Total force =     0.000372     Total SCF correction =     0.000060
     SCF correction compared to forces is large: reduce conv_thr to get better values

     Computing stress (Cartesian axis) and pressure

[...]

          total   stress  (Ry/bohr**3)                   (kbar)     P=     -904.36
  -0.00614768  -0.00000051   0.00000051         -904.36       -0.08        0.08
  -0.00000051  -0.00614768  -0.00000051           -0.08     -904.36       -0.08
   0.00000051  -0.00000051  -0.00614768            0.08       -0.08     -904.36

     kinetic stress (kbar)  15134.34     -0.09      0.09
                               -0.09  15134.34     -0.09
                                0.09     -0.09  15134.34

     local   stress (kbar)  -5843.33     -0.44      0.43
                               -0.44  -5843.33     -0.44
                                0.43     -0.44  -5843.33

     nonloc. stress (kbar)   3969.02      0.02     -0.02
                                0.02   3969.02      0.02
                               -0.02      0.02   3969.02

     hartree stress (kbar)   2066.44      0.07     -0.07
                                0.07   2066.44      0.07
                               -0.07      0.07   2066.44

     exc-cor stress (kbar)    -54.55      0.04     -0.04
                                0.04    -54.55      0.04
                               -0.04      0.04    -54.55

     corecor stress (kbar)  -3851.44     -0.05      0.05
                               -0.05  -3851.44     -0.05
                                0.05     -0.05  -3851.44

     ewald   stress (kbar) -12350.72      0.38     -0.38
                                0.38 -12350.72      0.38
                               -0.38      0.38 -12350.72

     hubbard stress (kbar)      0.00      0.00      0.00
                                0.00      0.00      0.00
                                0.00      0.00      0.00

     DFT-D   stress (kbar)      0.00      0.00      0.00
                                0.00      0.00      0.00
                                0.00      0.00      0.00

     XDM     stress (kbar)      0.00      0.00      0.00
                                0.00      0.00      0.00
                                0.00      0.00      0.00

     dft-nl  stress (kbar)     25.87     -0.00      0.00
                               -0.00     25.87     -0.00
                                0.00     -0.00     25.87

     TS-vdW  stress (kbar)      0.00      0.00      0.00
                                0.00      0.00      0.00
                                0.00      0.00      0.00

     MDB     stress (kbar)      0.00      0.00      0.00
                                0.00      0.00      0.00
                                0.00      0.00      0.00

     3D-RISM stress (kbar)      0.00      0.00      0.00
                                0.00      0.00      0.00
                                0.00      0.00      0.00

[...]

     Non-local corr. energy    =       0.26463460 Ry

 BEEFens 2000 ensemble energies
             -0.231577359234836E+01
             -0.165703145999387E+00
             -0.487332965537041E+00
              0.164963698471682E+01
             -0.723250800265045E+00
             -0.580973271017225E+00
             -0.169009412465220E+01
             -0.350637771299816E+01
             -0.124801249163287E+01
             -0.138669638164875E+01
             -0.143997701410489E+01
              0.254955929463536E+00
              0.154118678621783E+00
             -0.216438282593526E+00
              0.153437452914496E+00
              0.172891660565406E+01
             -0.681624099222400E+00
             -0.379316544946806E+00
              0.864901316907691E+00
             -0.400312366865158E+01
              0.215458589551178E+01
             -0.732682551254790E+00
             -0.225741961933128E+00
             -0.312884408413712E+00
              0.395845517644062E-01
             -0.176235646808408E+00
              0.312196754877839E+01
             -0.952062460908798E+00
             -0.288052030433601E+00
             -0.210044927477836E+01
              0.248554982249701E+01
             -0.156531694272062E+00
             -0.152327752771036E+01
              0.698346405791565E+00
             -0.118390142888380E+00
              0.107145237232371E+01
              0.890327585032420E-01
             -0.134919556386119E-01
              0.134877900793698E+01
             -0.360255492572416E+01
              0.193632703198419E+01
              0.467569675349247E+00
             -0.453551585756649E+00
             -0.112886316406030E+01
              0.420519669807073E+00
             -0.703559069183271E+00
              0.185192557223521E+01
              0.127952546368238E+01
             -0.675755563735930E+00
             -0.120039601181493E+01
             -0.116165767523730E+01
             -0.130213041643406E+01
              0.697150066527623E+00
             -0.190983806889554E+01
              0.598484367104103E+00
              0.221517252259082E+01
              0.279758624508629E+01
              0.112964680630114E+01
              0.556006594045700E+00
              0.115769780671983E+01
[...]
             -0.276676496969631E+01
              0.150014829326697E+00
              0.175875551514525E-01
             -0.419002834791755E+00
              0.162567382080182E+00
             -0.238087174997237E+01
             -0.348444894634014E+00
              0.407147786733154E+00
              0.482912865013777E+00
              0.186546669185189E+01
             -0.161071691106538E+01
              0.185660630260411E+01
             -0.141013585564294E+01
              0.984122043224714E+00
              0.160683999835700E+01

 BEEF-vdW xc energy contributions
            1 :    -26.66367839023372
            2 :     23.14329401394085
            3 :    -17.24767202528309
            4 :     10.73848703084400
            5 :    -5.230166677762607
            6 :     1.594517084363744
            7 :    0.1943682054209610
            8 :   -0.7761394464242422
            9 :    0.9161493846305682
           10 :    -1.108735463536267
           11 :     1.448674120352980
           12 :    -1.756713554382998
           13 :     1.811183912376887
           14 :    -1.524936912044293
           15 :    0.9883134548696262
           16 :   -0.3978080652562177
           17 :   -5.6086185482588036E-002
           18 :    0.2730571574446294
           19 :   -0.2673215232585129
           20 :    0.1367303128477992
           21 :   -1.5826592456527067E-003
           22 :   -5.6208844932289281E-002
           23 :    2.6814472561138558E-002
           24 :    3.5272144882377177E-002
           25 :   -5.4555491529146849E-002
           26 :   -1.2551907093563131E-002
           27 :    0.1479643289592971
           28 :   -0.2839612302632766
           29 :    0.3481263897164588
           30 :   -0.3102093772256431
           31 :    -3.496613452722283
           32 :    -2.453480728879860

     Writing all to output data dir ./diamond.save/

     General routines

     Parallel routines

     PAW routines

   This run was terminated on:  22:23:28  27Mar2024

   JOB DONE.