     Program PWSCF v.7.1 starts on 18Feb2024 at  6:41: 0

     Reading input from espresso.pwi
Warning: card &CELL ignored
Warning: card    CELL_DYNAMICS    = 'BFGS' ignored
Warning: card / ignored

     Current dimensions of program PWSCF are:
     Max number of different atomic species (ntypx) = 10
     Max number of k-points (npk) =  40000
     Max angular momentum in pseudopotentials (lmaxx) =  4
     file Ga.pbe-dn-kjpaw_psl.1.0.0.UPF: wavefunction(s)  4S renormalized
     file N.pbe-n-kjpaw_psl.1.0.0.UPF: wavefunction(s)  2S renormalized

     IMPORTANT: XC functional enforced from input :
     Exchange-correlation= BEEF-VDW
                           (   1   4  43  14   2   0   0)
     Any further DFT definition will be discarded
     Please, verify this is what you really want

     Found identity + (  0.0000  0.0000  0.3333) symmetry
     This is a supercell, fractional translations are disabled

     K-points division:     npool     =       4
     R & G space division:  proc/nbgrp/npool/nimage =      64
     Subspace diagonalization in iterative solution of the eigenvalue problem:
     a serial algorithm will be used

     Using Slab Decomposition

     bravais-lattice index     =            4
     lattice parameter (alat)  =      30.6565  a.u.
     unit-cell volume          =   24400.9461 (a.u.)^3
     number of atoms/cell      =          300
     number of atomic types    =            2
     number of electrons       =      2700.00
     number of Kohn-Sham states=         1620
     kinetic-energy cutoff     =      70.0000  Ry
     charge density cutoff     =     350.0000  Ry
     scf convergence threshold =      1.0E-07
     mixing beta               =       0.7000
     number of iterations used =            8  plain     mixing
     Exchange-correlation= BEEF-VDW
                           (   1   4  43  14   2   0   0)

     celldm(1)=  30.656540  celldm(2)=   0.000000  celldm(3)=   0.977927
     celldm(4)=   0.000000  celldm(5)=   0.000000  celldm(6)=   0.000000

     crystal axes: (cart. coord. in units of alat)
               a(1) = (   1.000000   0.000000   0.000000 )
               a(2) = (  -0.500000   0.866025   0.000000 )
               a(3) = (   0.000000   0.000000   0.977927 )

     reciprocal axes: (cart. coord. in units 2 pi/alat)
               b(1) = (  1.000000  0.577350 -0.000000 )
               b(2) = (  0.000000  1.154701  0.000000 )
               b(3) = (  0.000000 -0.000000  1.022571 )

     PseudoPot. # 1 for Ga read from file:
     //group///packages/espresso/pseudo/psl_1.0.0/pslibrary.1.0.0/pbe/PSEUDOPOTENTIALS/Ga.pbe-dn-kjpaw_psl.1.0.0.UPF
     MD5 check sum: cd2a01e492f15b435d17032472d8505c
     Pseudo is Projector augmented-wave + core cor, Zval = 13.0
     Generated using 'atomic' code by A. Dal Corso  v.7.1
     Shape of augmentation charge: PSQ
     Using radial grid of 1205 points,  6 beta functions with:
                l(1) =   0
                l(2) =   0
                l(3) =   1
                l(4) =   1
                l(5) =   2
                l(6) =   2
     Q(r) pseudized with 0 coefficients

     PseudoPot. # 2 for N  read from file:
     //group///packages/espresso/pseudo/psl_1.0.0/pslibrary.1.0.0/pbe/PSEUDOPOTENTIALS/N.pbe-n-kjpaw_psl.1.0.0.UPF
     MD5 check sum: f77f775694dac7e2c3fe1c82443d1a16
     Pseudo is Projector augmented-wave + core cor, Zval =  5.0
     Generated using 'atomic' code by A. Dal Corso  v.7.1
     Shape of augmentation charge: PSQ
     Using radial grid of 1085 points,  4 beta functions with:
                l(1) =   0
                l(2) =   0
                l(3) =   1
                l(4) =   1
     Q(r) pseudized with 0 coefficients

     atomic species   valence    mass     pseudopotential
        Ga            13.00    69.72300     Ga( 1.00)
        N              5.00    14.00700     N ( 1.00)

      6 Sym. Ops. (no inversion) found

                                    s                        frac. trans.

      isym =  1     identity

 cryst.   s( 1) = (     1          0          0      )
                  (     0          1          0      )
                  (     0          0          1      )

 cart.    s( 1) = (  1.0000000  0.0000000  0.0000000 )
                  (  0.0000000  1.0000000  0.0000000 )
                  (  0.0000000  0.0000000  1.0000000 )

      isym =  2     120 deg rotation - cryst. axis [0,0,1]

[...]

      isym =  3     120 deg rotation - cryst. axis [0,0,-1]

[...]

      isym =  4     inv. 180 deg rotation - cart. axis [1,0,0]

[...]

      isym =  5     inv. 180 deg rotation - cryst. axis [0,1,0]

[...]

      isym =  6     inv. 180 deg rotation - cryst. axis [1,1,0]

 cryst.   s( 6) = (     0         -1          0      )
                  (    -1          0          0      )
                  (     0          0          1      )

 cart.    s( 6) = (  0.5000000 -0.8660254  0.0000000 )
                  ( -0.8660254 -0.5000000  0.0000000 )
                  (  0.0000000  0.0000000  1.0000000 )

     point group C_3v (3m)
     there are  3 classes
     the character table:

       E     2C3   3s_v
A_1    1.00  1.00  1.00
A_2    1.00  1.00 -1.00
E      2.00 -1.00  0.00

     the symmetry operations in each class and the name of the first element:

     E        1
          identity
     2C3      2    3
          120 deg rotation - cryst. axis [0,0,1]
     3s_v     4    5    6
          inv. 180 deg rotation - cart. axis [1,0,0]

   Cartesian axes

     site n.     atom                  positions (alat units)
         1           Ga  tau(   1) = (   0.1000001   0.0577350   0.1627148  )
         2           Ga  tau(   2) = (   0.1000001   0.0577350   0.4886906  )
         3           Ga  tau(   3) = (   0.1000001   0.0577350   0.8146665  )
         4           Ga  tau(   4) = (   0.0000001   0.2309401   0.1627148  )
         5           Ga  tau(   5) = (   0.0000001   0.2309401   0.4886906  )
         6           Ga  tau(   6) = (   0.0000001   0.2309401   0.8146665  )
         7           Ga  tau(   7) = (  -0.0999999   0.4041451   0.1627148  )
         8           Ga  tau(   8) = (  -0.0999999   0.4041451   0.4886906  )
         9           Ga  tau(   9) = (  -0.0999999   0.4041451   0.8146665  )
        10           Ga  tau(  10) = (  -0.1999999   0.5773502   0.1627148  )
        11           Ga  tau(  11) = (  -0.1999999   0.5773502   0.4886906  )
        12           Ga  tau(  12) = (  -0.1999999   0.5773502   0.8146665  )
        13           Ga  tau(  13) = (  -0.2999999   0.7505553   0.1627148  )
        14           Ga  tau(  14) = (  -0.2999999   0.7505553   0.4886906  )
        15           Ga  tau(  15) = (  -0.2999999   0.7505553   0.8146665  )
        16           Ga  tau(  16) = (   0.3000001   0.0577350   0.1627148  )
        17           Ga  tau(  17) = (   0.3000001   0.0577350   0.4886906  )
        18           Ga  tau(  18) = (   0.3000001   0.0577350   0.8146665  )
        19           Ga  tau(  19) = (   0.2000001   0.2309401   0.1627148  )
        20           Ga  tau(  20) = (   0.2000001   0.2309401   0.4886906  )
        21           Ga  tau(  21) = (   0.2000001   0.2309401   0.8146665  )
        22           Ga  tau(  22) = (   0.1000001   0.4041451   0.1627148  )
        23           Ga  tau(  23) = (   0.1000001   0.4041451   0.4886906  )
        24           Ga  tau(  24) = (   0.1000001   0.4041451   0.8146665  )
        25           Ga  tau(  25) = (   0.0000001   0.5773502   0.1627148  )
        26           Ga  tau(  26) = (   0.0000001   0.5773502   0.4886906  )
        27           Ga  tau(  27) = (   0.0000001   0.5773502   0.8146665  )
        28           Ga  tau(  28) = (  -0.0999999   0.7505553   0.1627148  )
        29           Ga  tau(  29) = (  -0.0999999   0.7505553   0.4886906  )
        30           Ga  tau(  30) = (  -0.0999999   0.7505553   0.8146665  )
        31           Ga  tau(  31) = (   0.5000001   0.0577350   0.1627148  )
        32           Ga  tau(  32) = (   0.5000001   0.0577350   0.4886906  )
        33           Ga  tau(  33) = (   0.5000001   0.0577350   0.8146665  )
        34           Ga  tau(  34) = (   0.4000001   0.2309401   0.1627148  )
        35           Ga  tau(  35) = (   0.4000001   0.2309401   0.4886906  )
        36           Ga  tau(  36) = (   0.4000001   0.2309401   0.8146665  )
        37           Ga  tau(  37) = (   0.3000001   0.4041451   0.1627148  )
        38           Ga  tau(  38) = (   0.3000001   0.4041451   0.4886906  )
        39           Ga  tau(  39) = (   0.3000001   0.4041451   0.8146665  )
        40           Ga  tau(  40) = (   0.2000001   0.5773502   0.1627148  )
        41           Ga  tau(  41) = (   0.2000001   0.5773502   0.4886906  )
        42           Ga  tau(  42) = (   0.2000001   0.5773502   0.8146665  )
        43           Ga  tau(  43) = (   0.1000001   0.7505553   0.1627148  )
        44           Ga  tau(  44) = (   0.1000001   0.7505553   0.4886906  )
        45           Ga  tau(  45) = (   0.1000001   0.7505553   0.8146665  )
        46           Ga  tau(  46) = (   0.7000001   0.0577350   0.1627148  )
        47           Ga  tau(  47) = (   0.7000001   0.0577350   0.4886906  )
        48           Ga  tau(  48) = (   0.7000001   0.0577350   0.8146665  )
        49           Ga  tau(  49) = (   0.6000001   0.2309401   0.1627148  )
        50           Ga  tau(  50) = (   0.6000001   0.2309401   0.4886906  )
        51           Ga  tau(  51) = (   0.6000001   0.2309401   0.8146665  )
        52           Ga  tau(  52) = (   0.5000001   0.4041451   0.1627148  )
        53           Ga  tau(  53) = (   0.5000001   0.4041451   0.4886906  )
        54           Ga  tau(  54) = (   0.5000001   0.4041451   0.8146665  )
        55           Ga  tau(  55) = (   0.4000001   0.5773502   0.1627148  )
        56           Ga  tau(  56) = (   0.4000001   0.5773502   0.4886906  )
        57           Ga  tau(  57) = (   0.4000001   0.5773502   0.8146665  )
        58           Ga  tau(  58) = (   0.3000001   0.7505553   0.1627148  )
        59           Ga  tau(  59) = (   0.3000001   0.7505553   0.4886906  )
        60           Ga  tau(  60) = (   0.3000001   0.7505553   0.8146665  )
[...]
       286           N   tau( 286) = (   0.7999999   0.1154701   0.1225140  )
       287           N   tau( 287) = (   0.7999999   0.1154701   0.4484898  )
       288           N   tau( 288) = (   0.7999999   0.1154701   0.7744656  )
       289           N   tau( 289) = (   0.6999999   0.2886752   0.1225140  )
       290           N   tau( 290) = (   0.6999999   0.2886752   0.4484898  )
       291           N   tau( 291) = (   0.6999999   0.2886752   0.7744656  )
       292           N   tau( 292) = (   0.5999999   0.4618803   0.1225140  )
       293           N   tau( 293) = (   0.5999999   0.4618803   0.4484898  )
       294           N   tau( 294) = (   0.5999999   0.4618803   0.7744656  )
       295           N   tau( 295) = (   0.4999999   0.6350854   0.1225140  )
       296           N   tau( 296) = (   0.4999999   0.6350854   0.4484898  )
       297           N   tau( 297) = (   0.4999999   0.6350854   0.7744656  )
[...]
     atom   25 type  1   force =     0.00000000    0.00000000    0.00000000
     atom   26 type  1   force =     0.00000000    0.00000000    0.00000000
     atom   27 type  1   force =     0.00000000    0.00000000    0.00000000
     atom   28 type  1   force =     0.00000000    0.00000000    0.00000000
     atom   29 type  1   force =     0.00000000    0.00000000    0.00000000
     atom   30 type  1   force =     0.00000000    0.00000000    0.00000000
     atom   31 type  1   force =     0.00000000    0.00000000    0.00000000
     atom   32 type  1   force =     0.00000000    0.00000000    0.00000000
     atom   33 type  1   force =     0.00000000    0.00000000    0.00000000
     atom   34 type  1   force =     0.00000000    0.00000000    0.00000000
     atom   35 type  1   force =     0.00000000    0.00000000    0.00000000
     atom   36 type  1   force =     0.00000000    0.00000000    0.00000000
     atom   37 type  1   force =     0.00000000    0.00000000    0.00000000
     atom   38 type  1   force =     0.00000000    0.00000000    0.00000000
     atom   39 type  1   force =     0.00000000    0.00000000    0.00000000
     atom   40 type  1   force =     0.00000000    0.00000000    0.00000000
     atom   41 type  1   force =     0.00000000    0.00000000    0.00000000
     atom   42 type  1   force =     0.00000000    0.00000000    0.00000000
     atom   43 type  1   force =     0.00000000    0.00000000    0.00000000
     atom   44 type  1   force =     0.00000000    0.00000000    0.00000000
     atom   45 type  1   force =     0.00000000    0.00000000    0.00000000
     atom   46 type  1   force =     0.00000000    0.00000000    0.00000000
     atom   47 type  1   force =     0.00000000    0.00000000    0.00000000
     atom   48 type  1   force =     0.00000000    0.00000000    0.00000000
     atom   49 type  1   force =     0.00000000    0.00000000    0.00000000
     atom   50 type  1   force =     0.00000000    0.00000000    0.00000000
     atom   51 type  1   force =     0.00000000    0.00000000    0.00000000
     atom   52 type  1   force =     0.00000000    0.00000000    0.00000000
     atom   53 type  1   force =     0.00000000    0.00000000    0.00000000
     atom   54 type  1   force =     0.00000000    0.00000000    0.00000000
     atom   55 type  1   force =     0.00000000    0.00000000    0.00000000
     atom   56 type  1   force =     0.00000000    0.00000000    0.00000000
     atom   57 type  1   force =     0.00000000    0.00000000    0.00000000
     atom   58 type  1   force =     0.00000000    0.00000000    0.00000000
     atom   59 type  1   force =     0.00000000    0.00000000    0.00000000
     atom   60 type  1   force =     0.00000000    0.00000000    0.00000000
[...]
     atom  286 type  2   force =     0.00000000    0.00000000    0.00000000
     atom  287 type  2   force =     0.00000000    0.00000000    0.00000000
     atom  288 type  2   force =     0.00000000    0.00000000    0.00000000
     atom  289 type  2   force =     0.00000000    0.00000000    0.00000000
     atom  290 type  2   force =     0.00000000    0.00000000    0.00000000
     atom  291 type  2   force =     0.00000000    0.00000000    0.00000000
     atom  292 type  2   force =     0.00000000    0.00000000    0.00000000
     atom  293 type  2   force =     0.00000000    0.00000000    0.00000000
     atom  294 type  2   force =     0.00000000    0.00000000    0.00000000
     atom  295 type  2   force =     0.00000000    0.00000000    0.00000000
     atom  296 type  2   force =     0.00000000    0.00000000    0.00000000
     atom  297 type  2   force =     0.00000000    0.00000000    0.00000000
     atom  298 type  2   force =     0.00000000    0.00000000    0.00000000
     atom  299 type  2   force =     0.00000000    0.00000000    0.00000000
     atom  300 type  2   force =     0.00000000    0.00000000    0.00000000
     The SCF correction term to forces
     atom    1 type  1   force =     0.00000727    0.00000420   -0.00000861
     atom    2 type  1   force =     0.00000148    0.00000085   -0.00000039
     atom    3 type  1   force =     0.00001900    0.00001097    0.00000917
     atom    4 type  1   force =     0.00000000    0.00001366   -0.00001321
     atom    5 type  1   force =     0.00000000    0.00000157    0.00000024
     atom    6 type  1   force =     0.00000000    0.00002281    0.00000814
     atom    7 type  1   force =     0.00000291   -0.00000033   -0.00001558
     atom    8 type  1   force =    -0.00000406   -0.00000298   -0.00000517
     atom    9 type  1   force =    -0.00000485    0.00000134    0.00001442
     atom   10 type  1   force =     0.00000117    0.00000269   -0.00001558
     atom   11 type  1   force =    -0.00000461   -0.00000202   -0.00000517
     atom   12 type  1   force =    -0.00000127   -0.00000487    0.00001442
     atom   13 type  1   force =     0.00001183   -0.00000683   -0.00001321
     atom   14 type  1   force =     0.00000136   -0.00000079    0.00000024
     atom   15 type  1   force =     0.00001975   -0.00001140    0.00000814
     atom   16 type  1   force =     0.00001156    0.00000367   -0.00001416
     atom   17 type  1   force =     0.00000220   -0.00000033   -0.00000455
     atom   18 type  1   force =     0.00001343    0.00000225    0.00000975
     atom   19 type  1   force =     0.00000896    0.00000818   -0.00001416
     atom   20 type  1   force =     0.00000081    0.00000207   -0.00000455
     atom   21 type  1   force =     0.00000867    0.00001051    0.00000975
     atom   22 type  1   force =    -0.00000291   -0.00000033   -0.00001558
     atom   23 type  1   force =     0.00000406   -0.00000298   -0.00000517
     atom   24 type  1   force =     0.00000485    0.00000134    0.00001442
     atom   25 type  1   force =     0.00000000   -0.00000000   -0.00001360
     atom   26 type  1   force =     0.00000000   -0.00000000   -0.00001129
     atom   27 type  1   force =     0.00000000   -0.00000000    0.00001709
     atom   28 type  1   force =    -0.00000174   -0.00000236   -0.00001558
     atom   29 type  1   force =    -0.00000055    0.00000501   -0.00000517
     atom   30 type  1   force =     0.00000358    0.00000353    0.00001442
     atom   31 type  1   force =     0.00000000    0.00001450   -0.00001245
     atom   32 type  1   force =     0.00000000    0.00000012   -0.00000706
     atom   33 type  1   force =     0.00000000   -0.00000156    0.00001614
     atom   34 type  1   force =     0.00001356    0.00000783   -0.00000712
     atom   35 type  1   force =     0.00000227    0.00000131   -0.00002092
     atom   36 type  1   force =     0.00000533    0.00000307    0.00002470
     atom   37 type  1   force =     0.00001255   -0.00000725   -0.00001245
     atom   38 type  1   force =     0.00000010   -0.00000006   -0.00000706
     atom   39 type  1   force =    -0.00000135    0.00000078    0.00001614
     atom   40 type  1   force =    -0.00000117    0.00000269   -0.00001558
     atom   41 type  1   force =     0.00000461   -0.00000202   -0.00000517
     atom   42 type  1   force =     0.00000127   -0.00000487    0.00001442
     atom   43 type  1   force =     0.00000174   -0.00000236   -0.00001558
     atom   44 type  1   force =     0.00000055    0.00000501   -0.00000517
     atom   45 type  1   force =    -0.00000358    0.00000353    0.00001442
     atom   46 type  1   force =    -0.00001156    0.00000367   -0.00001416
     atom   47 type  1   force =    -0.00000220   -0.00000033   -0.00000455
     atom   48 type  1   force =    -0.00001343    0.00000225    0.00000975
     atom   49 type  1   force =    -0.00001356    0.00000783   -0.00000712
     atom   50 type  1   force =    -0.00000227    0.00000131   -0.00002092
     atom   51 type  1   force =    -0.00000533    0.00000307    0.00002470
     atom   52 type  1   force =     0.00000000   -0.00001566   -0.00000712
     atom   53 type  1   force =     0.00000000   -0.00000262   -0.00002092
     atom   54 type  1   force =     0.00000000   -0.00000615    0.00002470
     atom   55 type  1   force =    -0.00000261   -0.00001185   -0.00001416
     atom   56 type  1   force =    -0.00000138   -0.00000174   -0.00000455
     atom   57 type  1   force =    -0.00000477   -0.00001276    0.00000975
     atom   58 type  1   force =    -0.00001183   -0.00000683   -0.00001321
     atom   59 type  1   force =    -0.00000136   -0.00000079    0.00000024
     atom   60 type  1   force =    -0.00001975   -0.00001140    0.00000814
[...]
     atom  286 type  2   force =    -0.00000547    0.00000316   -0.00000389
     atom  287 type  2   force =    -0.00000103    0.00000059   -0.00000076
     atom  288 type  2   force =    -0.00000606    0.00000350    0.00000399
     atom  289 type  2   force =    -0.00000626    0.00000149   -0.00000396
     atom  290 type  2   force =    -0.00000244    0.00000119   -0.00000498
     atom  291 type  2   force =    -0.00000004    0.00000252    0.00000853
     atom  292 type  2   force =    -0.00000184   -0.00000616   -0.00000396
     atom  293 type  2   force =    -0.00000019   -0.00000271   -0.00000498
     atom  294 type  2   force =     0.00000216   -0.00000130    0.00000853
     atom  295 type  2   force =    -0.00000000   -0.00000631   -0.00000389
     atom  296 type  2   force =    -0.00000000   -0.00000118   -0.00000076
     atom  297 type  2   force =     0.00000000   -0.00000700    0.00000399
     atom  298 type  2   force =    -0.00000433   -0.00000250   -0.00000253
     atom  299 type  2   force =    -0.00000082   -0.00000047    0.00000046
     atom  300 type  2   force =    -0.00000620   -0.00000358    0.00000147

     Total force =     0.004329     Total SCF correction =     0.000199

     Computing stress (Cartesian axis) and pressure

[...]

          total   stress  (Ry/bohr**3)                   (kbar)     P=        1.11
   0.00000398  -0.00000000   0.00000000            0.59       -0.00        0.00
   0.00000000   0.00000398   0.00000000            0.00        0.59        0.00
   0.00000000   0.00000000   0.00001477            0.00        0.00        2.17

     kinetic stress (kbar)  18449.01     -0.00      0.00
                               -0.00  18449.01     -0.00
                                0.00      0.00  18443.79

     local   stress (kbar)   5447.03     -0.07     -0.00
                               -0.07   5446.94      0.00
                               -0.00      0.00   3811.83

     nonloc. stress (kbar)     61.57     -0.00      0.00
                               -0.00     61.57     -0.00
                                0.00     -0.00     73.48

     hartree stress (kbar)  19596.13      0.00      0.00
                                0.00  19596.13     -0.00
                                0.00     -0.00  20346.07

     exc-cor stress (kbar)   5218.06      0.00      0.00
                                0.00   5218.06     -0.00
                                0.00     -0.00   5218.27

     corecor stress (kbar) -14110.26     -0.00     -0.00
                               -0.00 -14110.26      0.00
                               -0.00      0.00 -14109.69

     ewald   stress (kbar) -34823.05      0.10      0.00
                                0.10 -34822.93     -0.00
                                0.00     -0.00 -33942.83

     hubbard stress (kbar)      0.00      0.00      0.00
                                0.00      0.00      0.00
                                0.00      0.00      0.00

     DFT-D   stress (kbar)      0.00      0.00      0.00
                                0.00      0.00      0.00
                                0.00      0.00      0.00

     XDM     stress (kbar)      0.00      0.00      0.00
                                0.00      0.00      0.00
                                0.00      0.00      0.00

     dft-nl  stress (kbar)    162.09     -0.00     -0.00
                               -0.00    162.09      0.00
                               -0.00      0.00    161.24

     TS-vdW  stress (kbar)      0.00      0.00      0.00
                                0.00      0.00      0.00
                                0.00      0.00      0.00

     MDB     stress (kbar)      0.00      0.00      0.00
                                0.00      0.00      0.00
                                0.00      0.00      0.00

     3D-RISM stress (kbar)      0.00      0.00      0.00
                                0.00      0.00      0.00
                                0.00      0.00      0.00

[...]

     Non-local corr. energy    =      81.75640011 Ry

 BEEFens 2000 ensemble energies
             -0.661562996033349E+02
             -0.595636709398619E+03
             -0.256185101396075E+03
              0.209606076669086E+03
             -0.428252705836422E+03
             -0.550783102686672E+03
              0.283014011299290E+03
             -0.298170830222339E+02
              0.471798044042790E+03
             -0.203807769806153E+02
              0.231439998342272E+03
              0.960654005794845E+01
              0.950390088234258E+01
             -0.202109788454591E+02
              0.308786907823786E+03
             -0.224830917828826E+03
             -0.463393581562875E+03
             -0.151423699534838E+03
              0.113151660672355E+03
             -0.101544037236217E+02
              0.676359367794800E+03
              0.575639737270998E+03
             -0.329520089431136E+03
              0.119321075584510E+03
             -0.722484941387919E+03
              0.579309139999024E+03
              0.189191953798557E+03
              0.563198397399080E+03
              0.370066232539801E+03
             -0.180125043195864E+03
              0.136337798376881E+03
             -0.266132405149114E+03
              0.744700816303764E+02
              0.362076377237782E+03
              0.383956825505114E+03
             -0.138691039418778E+03
              0.852918482546795E+03
             -0.323722219479327E+03
             -0.233039430460931E+03
              0.341826734209897E+03
              0.152895703237198E+03
              0.255858492195567E+03
             -0.487648418830118E+03
             -0.136800364276423E+02
              0.478689121188116E+03
              0.621787185678837E+03
             -0.619008288757688E+03
              0.440898922811020E+02
              0.233390496956139E+03
              0.113641864433146E+03
              0.258841004396802E+03
              0.548272536613429E+03
             -0.331433049000316E+03
             -0.363336440223368E+03
             -0.472412584917412E+03
             -0.731034709912342E+02
             -0.430910245259799E+03
              0.421983503429115E+02
             -0.797603624518188E+02
             -0.335832388743457E+03
[...]
              0.419109857974393E+03
              0.231542335362390E+03
              0.294191894145720E+03
             -0.475457506214479E+03
             -0.455191168752378E+03
             -0.115144350049857E+03
             -0.446149688973707E+03
              0.714263513171206E+03
              0.612153946481992E+03
              0.292523980855686E+03
              0.792161308495229E+03
             -0.412270566013729E+03
             -0.167995286953300E+03
             -0.233744302140536E+03
              0.655236167778585E+03

 BEEF-vdW xc energy contributions
            1 :    -6004.962207900957
            2 :     5408.779072893847
            3 :    -4409.935051076469
            4 :     3300.775735025722
            5 :    -2338.569833224154
            6 :     1647.660671881991
            7 :    -1205.554170796978
            8 :     906.4367495088700
            9 :    -650.9599892358183
           10 :     403.9057665382988
           11 :    -192.0708772799162
           12 :     58.52040695759206
           13 :    -15.29052877983941
           14 :     29.56821207536450
           15 :    -47.95589953475701
           16 :     34.50040323361645
           17 :     8.621571289027997
           18 :    -51.50612724219536
           19 :     66.24762810049469
           20 :    -50.75102313580555
           21 :     28.81491149645717
           22 :    -29.02174732165986
           23 :     61.24814657216302
           24 :    -109.6375557981646
           25 :     146.2112268157052
           26 :    -152.7290140113701
           27 :     133.0527237623919
           28 :    -107.3010771539412
           29 :     94.16134559580860
           30 :    -96.45824016540791
           31 :    -514.5097573404746
           32 :    -352.5744606168537

     Writing all to output data dir ./GaN.save/

     General routines

     Parallel routines

     PAW routines

   This run was terminated on:   9:25:15  18Feb2024

   JOB DONE.