     Program PWSCF v.7.1 starts on 14Feb2024 at  8:46: 6

     Reading input from espresso.pwi
Warning: card &CELL ignored
Warning: card    CELL_DYNAMICS    = 'BFGS' ignored
Warning: card / ignored

     Current dimensions of program PWSCF are:
     Max number of different atomic species (ntypx) = 10
     Max number of k-points (npk) =  40000
     Max angular momentum in pseudopotentials (lmaxx) =  4
     file Pb.pbe-dn-kjpaw_psl.1.0.0.UPF: wavefunction(s)  6S 6P 5D renormalized
     file I.pbe-dn-kjpaw_psl.1.0.0.UPF: wavefunction(s)  5S 5P renormalized

     IMPORTANT: XC functional enforced from input :
     Exchange-correlation= BEEF-VDW
                           (   1   4  43  14   2   0   0)
     Any further DFT definition will be discarded
     Please, verify this is what you really want

     R & G space division:  proc/nbgrp/npool/nimage =     256
     wavefunctions fft division:  task group distribution
                                  #TG    x Z-proc =       8     32
     Subspace diagonalization in iterative solution of the eigenvalue problem:
     a serial algorithm will be used

     Using Pencil Decomposition

     bravais-lattice index     =            4
     lattice parameter (alat)  =      35.6120  a.u.
     unit-cell volume          =   45937.3577 (a.u.)^3
     number of atoms/cell      =          144
     number of atomic types    =            2
     number of electrons       =      2304.00
     number of Kohn-Sham states=         1382
     kinetic-energy cutoff     =      70.0000  Ry
     charge density cutoff     =     350.0000  Ry
     scf convergence threshold =      1.0E-07
     mixing beta               =       0.7000
     number of iterations used =            8  plain     mixing
     energy convergence thresh.=      1.0E-04
     force convergence thresh. =      1.0E-03
     Exchange-correlation= BEEF-VDW
                           (   1   4  43  14   2   0   0)
     nstep                     =           50

     celldm(1)=  35.612033  celldm(2)=   0.000000  celldm(3)=   1.174479
     celldm(4)=   0.000000  celldm(5)=   0.000000  celldm(6)=   0.000000

     crystal axes: (cart. coord. in units of alat)
               a(1) = (   1.000000   0.000000   0.000000 )
               a(2) = (  -0.500000   0.866025   0.000000 )
               a(3) = (   0.000000   0.000000   1.174479 )

     reciprocal axes: (cart. coord. in units 2 pi/alat)
               b(1) = (  1.000000  0.577350 -0.000000 )
               b(2) = (  0.000000  1.154701  0.000000 )
               b(3) = (  0.000000 -0.000000  0.851442 )

     PseudoPot. # 1 for Pb read from file:
     /trace/group/acmegroup/atimmins/packages/espresso/pseudo/psl_1.0.0/pslibrary.1.0.0/pbe/PSEUDOPOTENTIALS/Pb.pbe-dn-kjpaw_psl.1.0.0.UPF
     MD5 check sum: 39ab5b8a6bbd56b7735ad9f188aac93a
     Pseudo is Projector augmented-wave + core cor, Zval = 14.0
     Generated using 'atomic' code by A. Dal Corso  v.7.1
     Shape of augmentation charge: PSQ
     Using radial grid of 1281 points,  6 beta functions with:
                l(1) =   0
                l(2) =   0
                l(3) =   1
                l(4) =   1
                l(5) =   2
                l(6) =   2
     Q(r) pseudized with 0 coefficients

     PseudoPot. # 2 for I  read from file:
     /trace/group/acmegroup/atimmins/packages/espresso/pseudo/psl_1.0.0/pslibrary.1.0.0/pbe/PSEUDOPOTENTIALS/I.pbe-dn-kjpaw_psl.1.0.0.UPF
     MD5 check sum: bfa8781bc1224d19af3f3980e3fab11e
     Pseudo is Projector augmented-wave + core cor, Zval = 17.0
     Generated using 'atomic' code by A. Dal Corso  v.7.1
     Shape of augmentation charge: PSQ
     Using radial grid of 1247 points,  6 beta functions with:
                l(1) =   0
                l(2) =   0
                l(3) =   1
                l(4) =   1
                l(5) =   2
                l(6) =   2
     Q(r) pseudized with 0 coefficients

     atomic species   valence    mass     pseudopotential
        Pb            14.00   207.20000     Pb( 1.00)
        I             17.00   126.90447     I ( 1.00)

     No symmetry found

                                    s                        frac. trans.

      isym =  1     identity

 cryst.   s( 1) = (     1          0          0      )
                  (     0          1          0      )
                  (     0          0          1      )

 cart.    s( 1) = (  1.0000000  0.0000000  0.0000000 )
                  (  0.0000000  1.0000000  0.0000000 )
                  (  0.0000000  0.0000000  1.0000000 )

     point group C_1 (1)
     there are  1 classes
     the character table:

       E
A      1.00

     the symmetry operations in each class and the name of the first element:

     E        1
          identity

   Cartesian axes

     site n.     atom                  positions (alat units)
         1           Pb  tau(   1) = (   0.1250136   0.2164827   1.1744753  )
         2           Pb  tau(   2) = (   0.1250034   0.2164918   0.3914896  )
         3           Pb  tau(   3) = (   0.1250085   0.2164873   0.7829825  )
         4           Pb  tau(   4) = (   0.0000128   0.4329881   1.1744712  )
         5           Pb  tau(   5) = (   0.0000026   0.4329971   0.3914855  )
         6           Pb  tau(   6) = (   0.0000077   0.4329926   0.7829784  )
         7           Pb  tau(   7) = (  -0.1249881   0.6494934   1.1744671  )
         8           Pb  tau(   8) = (  -0.1249983   0.6495025   0.3914814  )
         9           Pb  tau(   9) = (  -0.1249932   0.6494980   0.7829742  )
        10           Pb  tau(  10) = (  -0.2499889   0.8659988   1.1744630  )
        11           Pb  tau(  11) = (  -0.2499991   0.8660078   0.3914773  )
        12           Pb  tau(  12) = (  -0.2499940   0.8660033   0.7829701  )
        13           Pb  tau(  13) = (   0.3750136   0.2164818   1.1744786  )
        14           Pb  tau(  14) = (   0.3750034   0.2164908   0.3914929  )
        15           Pb  tau(  15) = (   0.3750085   0.2164863   0.7829857  )
        16           Pb  tau(  16) = (   0.2500128   0.4329871   1.1744745  )
        17           Pb  tau(  17) = (   0.2500026   0.4329962   0.3914888  )
        18           Pb  tau(  18) = (   0.2500077   0.4329916   0.7829816  )
        19           Pb  tau(  19) = (   0.1250119   0.6494925   1.1744703  )
        20           Pb  tau(  20) = (   0.1250017   0.6495015   0.3914847  )
        21           Pb  tau(  21) = (   0.1250068   0.6494970   0.7829775  )
        22           Pb  tau(  22) = (   0.0000111   0.8659978   1.1744662  )
        23           Pb  tau(  23) = (   0.0000009   0.8660069   0.3914805  )
        24           Pb  tau(  24) = (   0.0000060   0.8660024   0.7829734  )
        25           Pb  tau(  25) = (   0.6250136   0.2164808   1.1744818  )
        26           Pb  tau(  26) = (   0.6250034   0.2164898   0.3914962  )
        27           Pb  tau(  27) = (   0.6250085   0.2164853   0.7829890  )
        28           Pb  tau(  28) = (   0.5000128   0.4329862   1.1744777  )
        29           Pb  tau(  29) = (   0.5000026   0.4329952   0.3914920  )
        30           Pb  tau(  30) = (   0.5000077   0.4329907   0.7829849  )
        31           Pb  tau(  31) = (   0.3750119   0.6494915   1.1744736  )
        32           Pb  tau(  32) = (   0.3750017   0.6495006   0.3914879  )
        33           Pb  tau(  33) = (   0.3750068   0.6494960   0.7829808  )
        34           Pb  tau(  34) = (   0.2500111   0.8659969   1.1744695  )
        35           Pb  tau(  35) = (   0.2500009   0.8660059   0.3914838  )
        36           Pb  tau(  36) = (   0.2500060   0.8660014   0.7829766  )
        37           Pb  tau(  37) = (   0.8750136   0.2164798   1.1744851  )
        38           Pb  tau(  38) = (   0.8750034   0.2164889   0.3914994  )
        39           Pb  tau(  39) = (   0.8750085   0.2164844   0.7829923  )
        40           Pb  tau(  40) = (   0.7500128   0.4329852   1.1744810  )
        41           Pb  tau(  41) = (   0.7500026   0.4329942   0.3914953  )
        42           Pb  tau(  42) = (   0.7500077   0.4329897   0.7829881  )
        43           Pb  tau(  43) = (   0.6250119   0.6494906   1.1744769  )
        44           Pb  tau(  44) = (   0.6250017   0.6494996   0.3914912  )
        45           Pb  tau(  45) = (   0.6250068   0.6494951   0.7829840  )
        46           Pb  tau(  46) = (   0.5000111   0.8659959   1.1744727  )
        47           Pb  tau(  47) = (   0.5000009   0.8660050   0.3914870  )
        48           Pb  tau(  48) = (   0.5000060   0.8660004   0.7829799  )
        49           I   tau(  49) = (   0.1250054   0.0721550   0.2909325  )
        50           I   tau(  50) = (   0.1250105   0.0721505   0.6824253  )
        51           I   tau(  51) = (   0.1250156   0.0721459   1.0739182  )
        52           I   tau(  52) = (   0.0000045   0.2886603   0.2909283  )
        53           I   tau(  53) = (   0.0000096   0.2886558   0.6824212  )
        54           I   tau(  54) = (   0.0000147   0.2886513   1.0739140  )
        55           I   tau(  55) = (  -0.1249963   0.5051657   0.2909242  )
        56           I   tau(  56) = (  -0.1249912   0.5051612   0.6824171  )
        57           I   tau(  57) = (  -0.1249861   0.5051566   1.0739099  )
        58           I   tau(  58) = (  -0.2499971   0.7216710   0.2909201  )
        59           I   tau(  59) = (  -0.2499920   0.7216665   0.6824129  )
        60           I   tau(  60) = (  -0.2499869   0.7216620   1.0739058  )
[...]
       130           I   tau( 130) = (   0.1249958   0.7938439   0.1005496  )
       131           I   tau( 131) = (   0.1250009   0.7938394   0.4920425  )
       132           I   tau( 132) = (   0.1250060   0.7938348   0.8835353  )
       133           I   tau( 133) = (   0.7499983   0.1443268   0.1005653  )
       134           I   tau( 134) = (   0.7500034   0.1443223   0.4920581  )
       135           I   tau( 135) = (   0.7500085   0.1443178   0.8835509  )
       136           I   tau( 136) = (   0.6249975   0.3608322   0.1005611  )
       137           I   tau( 137) = (   0.6250026   0.3608277   0.4920540  )
       138           I   tau( 138) = (   0.6250077   0.3608232   0.8835468  )
       139           I   tau( 139) = (   0.4999966   0.5773376   0.1005570  )
       140           I   tau( 140) = (   0.5000017   0.5773330   0.4920499  )
       141           I   tau( 141) = (   0.5000068   0.5773285   0.8835427  )
       142           I   tau( 142) = (   0.3749958   0.7938429   0.1005529  )
       143           I   tau( 143) = (   0.3750009   0.7938384   0.4920457  )
       144           I   tau( 144) = (   0.3750060   0.7938339   0.8835386  )

   Crystallographic axes

     site n.     atom                  positions (cryst. coord.)
         1           Pb  tau(   1) = (  0.2500000  0.2499727  0.9999973  )
         2           Pb  tau(   2) = (  0.2499950  0.2499832  0.3333306  )
         3           Pb  tau(   3) = (  0.2499975  0.2499780  0.6666639  )
         4           Pb  tau(   4) = (  0.2499986  0.4999716  0.9999938  )
         5           Pb  tau(   5) = (  0.2499936  0.4999820  0.3333271  )
[...]
     atom   45 type  1   force =     0.00000000    0.00000000    0.00000000
     atom   46 type  1   force =     0.00000000    0.00000000    0.00000000
     atom   47 type  1   force =     0.00000000    0.00000000    0.00000000
     atom   48 type  1   force =     0.00000000    0.00000000    0.00000000
     atom   49 type  2   force =     0.00000000    0.00000000    0.00000000
     atom   50 type  2   force =     0.00000000    0.00000000    0.00000000
     atom   51 type  2   force =     0.00000000    0.00000000    0.00000000
     atom   52 type  2   force =     0.00000000    0.00000000    0.00000000
     atom   53 type  2   force =     0.00000000    0.00000000    0.00000000
     atom   54 type  2   force =     0.00000000    0.00000000    0.00000000
     atom   55 type  2   force =     0.00000000    0.00000000    0.00000000
     atom   56 type  2   force =     0.00000000    0.00000000    0.00000000
     atom   57 type  2   force =     0.00000000    0.00000000    0.00000000
     atom   58 type  2   force =     0.00000000    0.00000000    0.00000000
     atom   59 type  2   force =     0.00000000    0.00000000    0.00000000
     atom   60 type  2   force =     0.00000000    0.00000000    0.00000000
[...]
     atom  130 type  2   force =     0.00000000    0.00000000    0.00000000
     atom  131 type  2   force =     0.00000000    0.00000000    0.00000000
     atom  132 type  2   force =     0.00000000    0.00000000    0.00000000
     atom  133 type  2   force =     0.00000000    0.00000000    0.00000000
     atom  134 type  2   force =     0.00000000    0.00000000    0.00000000
     atom  135 type  2   force =     0.00000000    0.00000000    0.00000000
     atom  136 type  2   force =     0.00000000    0.00000000    0.00000000
     atom  137 type  2   force =     0.00000000    0.00000000    0.00000000
     atom  138 type  2   force =     0.00000000    0.00000000    0.00000000
     atom  139 type  2   force =     0.00000000    0.00000000    0.00000000
     atom  140 type  2   force =     0.00000000    0.00000000    0.00000000
     atom  141 type  2   force =     0.00000000    0.00000000    0.00000000
     atom  142 type  2   force =     0.00000000    0.00000000    0.00000000
     atom  143 type  2   force =     0.00000000    0.00000000    0.00000000
     atom  144 type  2   force =     0.00000000    0.00000000    0.00000000
     The SCF correction term to forces
     atom    1 type  1   force =     0.00000005   -0.00000049   -0.00002715
     atom    2 type  1   force =    -0.00000000    0.00000077    0.00001756
     atom    3 type  1   force =     0.00000089   -0.00000006    0.00000879
     atom    4 type  1   force =     0.00000011    0.00000024   -0.00002379
     atom    5 type  1   force =     0.00000000    0.00000038    0.00001740
     atom    6 type  1   force =     0.00000112   -0.00000071    0.00001026
     atom    7 type  1   force =     0.00000010   -0.00000047   -0.00002306
     atom    8 type  1   force =    -0.00000005   -0.00000042    0.00001580
     atom    9 type  1   force =     0.00000074    0.00000103    0.00001003
     atom   10 type  1   force =    -0.00000003   -0.00000122   -0.00002758
     atom   11 type  1   force =     0.00000008   -0.00000041    0.00001562
     atom   12 type  1   force =     0.00000038    0.00000170    0.00000867
     atom   13 type  1   force =     0.00000056    0.00000001   -0.00002881
     atom   14 type  1   force =    -0.00000014    0.00000070    0.00001711
     atom   15 type  1   force =    -0.00000029   -0.00000016    0.00000786
     atom   16 type  1   force =     0.00000080    0.00000060   -0.00002568
     atom   17 type  1   force =    -0.00000018    0.00000034    0.00001723
     atom   18 type  1   force =    -0.00000001   -0.00000084    0.00000901
     atom   19 type  1   force =     0.00000067   -0.00000030   -0.00002529
     atom   20 type  1   force =     0.00000012   -0.00000034    0.00001596
     atom   21 type  1   force =     0.00000049    0.00000002    0.00000869
     atom   22 type  1   force =     0.00000022   -0.00000078   -0.00002920
     atom   23 type  1   force =    -0.00000011   -0.00000048    0.00001555
     atom   24 type  1   force =    -0.00000021    0.00000130    0.00000725
     atom   25 type  1   force =     0.00000083    0.00000027   -0.00002760
     atom   26 type  1   force =    -0.00000033    0.00000089    0.00001603
     atom   27 type  1   force =    -0.00000097   -0.00000083    0.00000831
     atom   28 type  1   force =     0.00000083    0.00000058   -0.00002483
     atom   29 type  1   force =     0.00000008    0.00000023    0.00001645
     atom   30 type  1   force =    -0.00000092   -0.00000112    0.00000947
     atom   31 type  1   force =     0.00000106   -0.00000016   -0.00002472
     atom   32 type  1   force =     0.00000004   -0.00000023    0.00001566
     atom   33 type  1   force =    -0.00000074   -0.00000003    0.00000905
     atom   34 type  1   force =     0.00000037   -0.00000074   -0.00002848
     atom   35 type  1   force =     0.00000009   -0.00000049    0.00001530
     atom   36 type  1   force =    -0.00000054    0.00000078    0.00000732
     atom   37 type  1   force =     0.00000050   -0.00000021   -0.00002485
     atom   38 type  1   force =     0.00000018    0.00000054    0.00001690
     atom   39 type  1   force =     0.00000020   -0.00000049    0.00000963
     atom   40 type  1   force =     0.00000020    0.00000033   -0.00002188
     atom   41 type  1   force =    -0.00000004    0.00000054    0.00001651
     atom   42 type  1   force =    -0.00000026   -0.00000091    0.00001122
     atom   43 type  1   force =     0.00000037   -0.00000036   -0.00002142
     atom   44 type  1   force =    -0.00000024   -0.00000046    0.00001583
     atom   45 type  1   force =    -0.00000046    0.00000036    0.00001108
     atom   46 type  1   force =     0.00000022   -0.00000127   -0.00002600
     atom   47 type  1   force =    -0.00000034   -0.00000068    0.00001570
     atom   48 type  1   force =    -0.00000009    0.00000104    0.00000914
     atom   49 type  2   force =     0.00000053    0.00000124    0.00001839
     atom   50 type  2   force =     0.00000091    0.00000302    0.00001108
     atom   51 type  2   force =     0.00000052    0.00000163   -0.00001733
     atom   52 type  2   force =     0.00000093    0.00000082    0.00001931
     atom   53 type  2   force =     0.00000201   -0.00000058    0.00001118
     atom   54 type  2   force =     0.00000096   -0.00000047   -0.00001650
     atom   55 type  2   force =     0.00000056   -0.00000056    0.00001721
     atom   56 type  2   force =     0.00000204   -0.00000161    0.00000967
     atom   57 type  2   force =     0.00000081   -0.00000094   -0.00001537
     atom   58 type  2   force =     0.00000040   -0.00000013    0.00001722
     atom   59 type  2   force =     0.00000080    0.00000246    0.00000987
     atom   60 type  2   force =     0.00000032    0.00000215   -0.00001575
[...]
     atom  130 type  2   force =     0.00000018   -0.00000077   -0.00002241
     atom  131 type  2   force =     0.00000027   -0.00000003    0.00001213
     atom  132 type  2   force =     0.00000014    0.00000106    0.00000094
     atom  133 type  2   force =     0.00000010    0.00000201   -0.00002280
     atom  134 type  2   force =    -0.00000026    0.00000092    0.00001194
     atom  135 type  2   force =    -0.00000059    0.00000071    0.00000013
     atom  136 type  2   force =     0.00000007    0.00000083   -0.00002316
     atom  137 type  2   force =    -0.00000139   -0.00000096    0.00000980
     atom  138 type  2   force =    -0.00000147   -0.00000196    0.00000020
     atom  139 type  2   force =    -0.00000006   -0.00000093   -0.00002234
     atom  140 type  2   force =    -0.00000142   -0.00000152    0.00001009
     atom  141 type  2   force =    -0.00000132   -0.00000185    0.00000050
     atom  142 type  2   force =     0.00000054   -0.00000095   -0.00002238
     atom  143 type  2   force =    -0.00000079   -0.00000007    0.00001163
     atom  144 type  2   force =    -0.00000080    0.00000072    0.00000132

     Total force =     0.000870     Total SCF correction =     0.000197
     SCF correction compared to forces is large: reduce conv_thr to get better values

     Computing stress (Cartesian axis) and pressure

     Non-local corr. energy    =      69.03749352 Ry

          total   stress  (Ry/bohr**3)                   (kbar)     P=        1.50
   0.00000934  -0.00000000   0.00000001            1.37       -0.00        0.00
  -0.00000000   0.00000934  -0.00000001           -0.00        1.37       -0.00
   0.00000001  -0.00000001   0.00001201            0.00       -0.00        1.77

     kinetic stress (kbar)  14991.22      0.00      0.00
                                0.00  14991.22     -0.00
                                0.00     -0.00  15002.53

     local   stress (kbar)  -7536.43      0.10     -0.09
                                0.10  -7536.25      0.08
                               -0.09      0.08   1578.49

     nonloc. stress (kbar)  -1072.40     -0.00      0.00
                               -0.00  -1072.40     -0.00
                                0.00     -0.00  -1078.40

     hartree stress (kbar)  12048.79     -0.04      0.03
                               -0.04  12048.72     -0.03
                                0.03     -0.03   7941.91

     exc-cor stress (kbar)   6946.52     -0.00      0.00
                               -0.00   6946.52     -0.00
                                0.00     -0.00   6945.36

     corecor stress (kbar) -11310.03      0.00     -0.00
                                0.00 -11310.03      0.00
                               -0.00      0.00 -11309.96

     ewald   stress (kbar) -14149.57     -0.06      0.06
                               -0.06 -14149.69     -0.05
                                0.06     -0.05 -19162.80

     hubbard stress (kbar)      0.00      0.00      0.00
                                0.00      0.00      0.00
                                0.00      0.00      0.00

     DFT-D   stress (kbar)      0.00      0.00      0.00
                                0.00      0.00      0.00
                                0.00      0.00      0.00

     XDM     stress (kbar)      0.00      0.00      0.00
                                0.00      0.00      0.00
                                0.00      0.00      0.00

     dft-nl  stress (kbar)     83.29      0.00     -0.00
                                0.00     83.29      0.00
                               -0.00      0.00     84.64

     TS-vdW  stress (kbar)      0.00      0.00      0.00
                                0.00      0.00      0.00
                                0.00      0.00      0.00

     MDB     stress (kbar)      0.00      0.00      0.00
                                0.00      0.00      0.00
                                0.00      0.00      0.00

     3D-RISM stress (kbar)      0.00      0.00      0.00
                                0.00      0.00      0.00
                                0.00      0.00      0.00

     Energy error            =      1.0E-04 Ry
     Gradient error          =      1.1E-04 Ry/Bohr

     bfgs converged in   7 scf cycles and   6 bfgs steps
     (criteria: energy <  1.0E-04 Ry, force <  1.0E-03 Ry/Bohr)

     End of BFGS Geometry Optimization

     Final energy             =  -97134.3820420594 Ry

     File ./PbI2.bfgs deleted, as requested
Begin final coordinates

ATOMIC_POSITIONS (angstrom)
Pb            2.3558559387        4.0796484154       22.1331264143
Pb            2.3557298091        4.0797892162        7.3777901322
Pb            2.3558038948        4.0796914258       14.7552151759
Pb            0.0001968512        8.1597102476       22.1329900466
Pb            0.0000882743        8.1598058079        7.3776402731
Pb            0.0001651074        8.1597487000       14.7551309808
Pb           -2.3554404633       12.2397730234       22.1328971895
Pb           -2.3555710221       12.2399065178        7.3775835748
Pb           -2.3554965942       12.2398118885       14.7551095263
Pb           -4.7110728079       16.3198432584       22.1329364010
Pb           -4.7112269535       16.3200063151        7.3776098300
Pb           -4.7111349267       16.3198714889       14.7551034505
Pb            7.0671269757        4.0796170037       22.1332155978
Pb            7.0669602191        4.0797758087        7.3778736754
Pb            7.0670762503        4.0796656517       14.7553256756
Pb            4.7114665745        8.1596814945       22.1330941948
Pb            4.7113260561        8.1597840346        7.3777617928
Pb            4.7114275169        8.1597344345       14.7551859532
Pb            2.3558065776       12.2397581752       22.1329988378
Pb            2.3556803418       12.2398514002        7.3776961362
Pb            2.3557798342       12.2398023975       14.7551857267
Pb            0.0001765792       16.3198184057       22.1330297660
Pb            0.0000308707       16.3199679613        7.3776991782
Pb            0.0001364982       16.3198595512       14.7552139097
Pb           11.7783992484        4.0796112266       22.1332463192
Pb           11.7782356582        4.0797503894        7.3779253054
Pb           11.7783571383        4.0796587344       14.7554062389
Pb            9.4227600006        8.1596636001       22.1331152372
Pb            9.4225854053        8.1597719990        7.3778170288
Pb            9.4227029527        8.1597238176       14.7552700891
Pb            7.0670955863       12.2397367295       22.1330457789
Pb            7.0669441736       12.2398478881        7.3777726361
Pb            7.0670554002       12.2397863230       14.7552112663
Pb            4.7114446094       16.3198175973       22.1330732691
Pb            4.7113217671       16.3199395795        7.3777681010
Pb            4.7114212611       16.3198380423       14.7552539509
Pb           16.4896516245        4.0796123188       22.1332234491
Pb           16.4895314903        4.0797443562        7.3778986169
Pb           16.4896087774        4.0796344294       14.7553838532
Pb           14.1340143836        8.1596607067       22.1330859950
Pb           14.1338650771        8.1597601016        7.3777716752
Pb           14.1339607730        8.1597121720       14.7552888185
Pb           11.7783686966       12.2397270849       22.1330159291
Pb           11.7782045634       12.2398525163        7.3777342961
Pb           11.7783095373       12.2397812384       14.7552241707
Pb            9.4227255013       16.3198004065       22.1330568550
Pb            9.4225820578       16.3199458166        7.3777632601
Pb            9.4226648175       16.3198272748       14.7552234092
I             2.3556977536        1.3597974311        5.4927088137
I             2.3557382331        1.3596791086       12.8687608289
I             2.3557704379        1.3596434171       20.2495100451
I             0.0000845475        5.4398021181        5.4927381293
I             0.0001315313        5.4397034334       12.8688021830
I             0.0001072003        5.4397396790       20.2495758258
I            -2.3555698048        9.5198333130        5.4926465603
I            -2.3555088541        9.5197849774       12.8687390942
I            -2.3555384452        9.5198128001       20.2494765264
I            -4.7112450615       13.5999825547        5.4925919996
I            -4.7111820522       13.5999139273       12.8686950943
I            -4.7111331765       13.5998610136       20.2493957795
[...]
I             2.3556669524       14.9599318586        1.8833940106
I             2.3556758711       14.9599413704        9.2640971127
I             2.3557617931       14.9598578344       16.6402356693
I            14.1339145909        2.7197289020        1.8836050612
I            14.1338954289        2.7197318493        9.2642821685
I            14.1339849378        2.7196139638       16.6403475559
I            11.7782678173        6.7998327587        1.8835886571
I            11.7781994116        6.7998292942        9.2642471589
I            11.7783532575        6.7998013471       16.6403752928
I             9.4226301785       10.8798877629        1.8834979478
I             9.4225479406       10.8799207293        9.2641961123
I             9.4227075192       10.8798775979       16.6402954894
I             7.0669918307       14.9599388768        1.8834490830
I             7.0669706428       14.9599609067        9.2641659871
I             7.0670399922       14.9598655027       16.6402445542
End final coordinates

     Writing all to output data dir ./PbI2.save/

     General routines

     Parallel routines

     PAW routines

   This run was terminated on:   2:37:17  15Feb2024

   JOB DONE.