     Program PWSCF v.7.1 starts on 19Nov2023 at  7:53:12

     Reading input from espresso.pwi
Warning: card &CELL ignored
Warning: card    CELL_DYNAMICS    = 'BFGS' ignored
Warning: card / ignored

     Current dimensions of program PWSCF are:
     Max number of different atomic species (ntypx) = 10
     Max number of k-points (npk) =  40000
     Max angular momentum in pseudopotentials (lmaxx) =  4
     file Ga.pbe-dn-kjpaw_psl.1.0.0.UPF: wavefunction(s)  4S renormalized
     file N.pbe-n-kjpaw_psl.1.0.0.UPF: wavefunction(s)  2S renormalized

     IMPORTANT: XC functional enforced from input :
     Exchange-correlation= BEEF-VDW
                           (   1   4  43  14   2   0   0)
     Any further DFT definition will be discarded
     Please, verify this is what you really want

     K-points division:     npool     =       4
     R & G space division:  proc/nbgrp/npool/nimage =      64
     Subspace diagonalization in iterative solution of the eigenvalue problem:
     a serial algorithm will be used

     Using Slab Decomposition

     bravais-lattice index     =            4
     lattice parameter (alat)  =      30.6565  a.u.
     unit-cell volume          =   24400.9461 (a.u.)^3
     number of atoms/cell      =          300
     number of atomic types    =            2
     number of electrons       =      2708.00
     number of Kohn-Sham states=         1625
     kinetic-energy cutoff     =      70.0000  Ry
     charge density cutoff     =     350.0000  Ry
     scf convergence threshold =      1.0E-09
     mixing beta               =       0.7000
     number of iterations used =            8  plain     mixing
     energy convergence thresh.=      1.0E-04
     force convergence thresh. =      1.0E-03
     Exchange-correlation= BEEF-VDW
                           (   1   4  43  14   2   0   0)
     nstep                     =           50

     celldm(1)=  30.656540  celldm(2)=   0.000000  celldm(3)=   0.977927
     celldm(4)=   0.000000  celldm(5)=   0.000000  celldm(6)=   0.000000

     crystal axes: (cart. coord. in units of alat)
               a(1) = (   1.000000   0.000000   0.000000 )
               a(2) = (  -0.500000   0.866025   0.000000 )
               a(3) = (   0.000000   0.000000   0.977927 )

     reciprocal axes: (cart. coord. in units 2 pi/alat)
               b(1) = (  1.000000  0.577350 -0.000000 )
               b(2) = (  0.000000  1.154701  0.000000 )
               b(3) = (  0.000000 -0.000000  1.022571 )

     PseudoPot. # 1 for Ga read from file:
     /trace/group/acmegroup/atimmins/packages/espresso/pseudo/psl_1.0.0/pslibrary.1.0.0/pbe/PSEUDOPOTENTIALS/Ga.pbe-dn-kjpaw_psl.1.0.0.UPF
     MD5 check sum: cd2a01e492f15b435d17032472d8505c
     Pseudo is Projector augmented-wave + core cor, Zval = 13.0
     Generated using 'atomic' code by A. Dal Corso  v.7.1
     Shape of augmentation charge: PSQ
     Using radial grid of 1205 points,  6 beta functions with:
                l(1) =   0
                l(2) =   0
                l(3) =   1
                l(4) =   1
                l(5) =   2
                l(6) =   2
     Q(r) pseudized with 0 coefficients

     PseudoPot. # 2 for N  read from file:
     /trace/group/acmegroup/atimmins/packages/espresso/pseudo/psl_1.0.0/pslibrary.1.0.0/pbe/PSEUDOPOTENTIALS/N.pbe-n-kjpaw_psl.1.0.0.UPF
     MD5 check sum: f77f775694dac7e2c3fe1c82443d1a16
     Pseudo is Projector augmented-wave + core cor, Zval =  5.0
     Generated using 'atomic' code by A. Dal Corso  v.7.1
     Shape of augmentation charge: PSQ
     Using radial grid of 1085 points,  4 beta functions with:
                l(1) =   0
                l(2) =   0
                l(3) =   1
                l(4) =   1
     Q(r) pseudized with 0 coefficients

     atomic species   valence    mass     pseudopotential
        Ga            13.00    69.72300     Ga( 1.00)
        N              5.00    14.00700     N ( 1.00)

      2 Sym. Ops. (no inversion) found

                                    s                        frac. trans.

      isym =  1     identity

 cryst.   s( 1) = (     1          0          0      )
                  (     0          1          0      )
                  (     0          0          1      )

 cart.    s( 1) = (  1.0000000  0.0000000  0.0000000 )
                  (  0.0000000  1.0000000  0.0000000 )
                  (  0.0000000  0.0000000  1.0000000 )

      isym =  2     inv. 180 deg rotation - cryst. axis [0,1,0]

 cryst.   s( 2) = (     1          1          0      )
                  (     0         -1          0      )
                  (     0          0          1      )

 cart.    s( 2) = (  0.5000000  0.8660254  0.0000000 )
                  (  0.8660254 -0.5000000  0.0000000 )
                  (  0.0000000  0.0000000  1.0000000 )

     point group C_s (m)
     there are  2 classes
     the character table:

       E     s
A'     1.00  1.00
A''    1.00 -1.00

     the symmetry operations in each class and the name of the first element:

     E        1
          identity
     s        2
          inv. 180 deg rotation - cryst. axis [0,1,0]

   Cartesian axes

     site n.     atom                  positions (alat units)
         1           Ga  tau(   1) = (   0.1000001   0.0577350   0.1627148  )
         2           Ga  tau(   2) = (   0.1000001   0.0577350   0.4886906  )
         3           Ga  tau(   3) = (   0.1000001   0.0577350   0.8146665  )
         4           Ga  tau(   4) = (   0.0000001   0.2309401   0.1627148  )
         5           Ga  tau(   5) = (   0.0000001   0.2309401   0.4886906  )
         6           Ga  tau(   6) = (   0.0000001   0.2309401   0.8146665  )
         7           Ga  tau(   7) = (  -0.0999999   0.4041451   0.1627148  )
         8           Ga  tau(   8) = (  -0.0999999   0.4041451   0.4886906  )
         9           Ga  tau(   9) = (  -0.0999999   0.4041451   0.8146665  )
        10           Ga  tau(  10) = (  -0.1999999   0.5773502   0.1627148  )
        11           Ga  tau(  11) = (  -0.1999999   0.5773502   0.4886906  )
        12           Ga  tau(  12) = (  -0.1999999   0.5773502   0.8146665  )
        13           Ga  tau(  13) = (  -0.2999999   0.7505553   0.1627148  )
        14           Ga  tau(  14) = (  -0.2999999   0.7505553   0.4886906  )
        15           Ga  tau(  15) = (  -0.2999999   0.7505553   0.8146665  )
        16           Ga  tau(  16) = (   0.3000001   0.0577350   0.1627148  )
        17           Ga  tau(  17) = (   0.3000001   0.0577350   0.4886906  )
        18           Ga  tau(  18) = (   0.3000001   0.0577350   0.8146665  )
        19           Ga  tau(  19) = (   0.2000001   0.2309401   0.1627148  )
        20           Ga  tau(  20) = (   0.2000001   0.2309401   0.4886906  )
        21           Ga  tau(  21) = (   0.2000001   0.2309401   0.8146665  )
        22           Ga  tau(  22) = (   0.1000001   0.4041451   0.1627148  )
        23           Ga  tau(  23) = (   0.1000001   0.4041451   0.4886906  )
        24           Ga  tau(  24) = (   0.1000001   0.4041451   0.8146665  )
        25           Ga  tau(  25) = (   0.0000001   0.5773502   0.1627148  )
        26           Ga  tau(  26) = (   0.0000001   0.5773502   0.4886906  )
        27           Ga  tau(  27) = (   0.0000001   0.5773502   0.8146665  )
        28           Ga  tau(  28) = (  -0.0999999   0.7505553   0.1627148  )
        29           Ga  tau(  29) = (  -0.0999999   0.7505553   0.4886906  )
        30           Ga  tau(  30) = (  -0.0999999   0.7505553   0.8146665  )
        31           Ga  tau(  31) = (   0.5000001   0.0577350   0.1627148  )
        32           Ga  tau(  32) = (   0.5000001   0.0577350   0.4886906  )
        33           Ga  tau(  33) = (   0.5000001   0.0577350   0.8146665  )
        34           Ga  tau(  34) = (   0.4000001   0.2309401   0.1627148  )
        35           Ga  tau(  35) = (   0.4000001   0.2309401   0.4886906  )
        36           Ga  tau(  36) = (   0.4000001   0.2309401   0.8146665  )
        37           Ga  tau(  37) = (   0.3000001   0.4041451   0.1627148  )
        38           Ga  tau(  38) = (   0.3000001   0.4041451   0.4886906  )
        39           Ga  tau(  39) = (   0.3000001   0.4041451   0.8146665  )
        40           Ga  tau(  40) = (   0.2000001   0.5773502   0.1627148  )
        41           Ga  tau(  41) = (   0.2000001   0.5773502   0.4886906  )
        42           Ga  tau(  42) = (   0.2000001   0.5773502   0.8146665  )
        43           Ga  tau(  43) = (   0.1000001   0.7505553   0.1627148  )
        44           Ga  tau(  44) = (   0.1000001   0.7505553   0.4886906  )
        45           Ga  tau(  45) = (   0.1000001   0.7505553   0.8146665  )
        46           Ga  tau(  46) = (   0.7000001   0.0577350   0.1627148  )
        47           Ga  tau(  47) = (   0.7000001   0.0577350   0.4886906  )
        48           Ga  tau(  48) = (   0.7000001   0.0577350   0.8146665  )
        49           Ga  tau(  49) = (   0.6000001   0.2309401   0.1627148  )
        50           Ga  tau(  50) = (   0.6000001   0.2309401   0.4886906  )
        51           Ga  tau(  51) = (   0.6000001   0.2309401   0.8146665  )
        52           Ga  tau(  52) = (   0.5000001   0.4041451   0.1627148  )
        53           Ga  tau(  53) = (   0.5000001   0.4041451   0.4886906  )
        54           Ga  tau(  54) = (   0.5000001   0.4041451   0.8146665  )
        55           Ga  tau(  55) = (   0.4000001   0.5773502   0.1627148  )
        56           Ga  tau(  56) = (   0.4000001   0.5773502   0.4886906  )
        57           Ga  tau(  57) = (   0.4000001   0.5773502   0.8146665  )
        58           Ga  tau(  58) = (   0.3000001   0.7505553   0.1627148  )
        59           Ga  tau(  59) = (   0.3000001   0.7505553   0.4886906  )
        60           Ga  tau(  60) = (   0.3000001   0.7505553   0.8146665  )
[...]
       286           N   tau( 286) = (   0.7999999   0.1154701   0.4484898  )
       287           N   tau( 287) = (   0.7999999   0.1154701   0.7744656  )
       288           N   tau( 288) = (   0.6999999   0.2886752   0.1225140  )
       289           N   tau( 289) = (   0.6999999   0.2886752   0.4484898  )
       290           N   tau( 290) = (   0.6999999   0.2886752   0.7744656  )
       291           N   tau( 291) = (   0.5999999   0.4618803   0.1225140  )
       292           N   tau( 292) = (   0.5999999   0.4618803   0.4484898  )
       293           N   tau( 293) = (   0.5999999   0.4618803   0.7744656  )
       294           N   tau( 294) = (   0.4999999   0.6350854   0.1225140  )
       295           N   tau( 295) = (   0.4999999   0.6350854   0.4484898  )
       296           N   tau( 296) = (   0.4999999   0.6350854   0.7744656  )
       297           N   tau( 297) = (   0.3999999   0.8082905   0.1225140  )
       298           N   tau( 298) = (   0.3999999   0.8082905   0.4484898  )
       299           N   tau( 299) = (   0.3999999   0.8082905   0.7744656  )
       300           Ga  tau( 300) = (   0.1000001   0.0577350   0.2855019  )

   Crystallographic axes

     site n.     atom                  positions (cryst. coord.)
[...]
     atom   44 type  1   force =     0.00000000    0.00000000    0.00000000
     atom   45 type  1   force =     0.00000000    0.00000000    0.00000000
     atom   46 type  1   force =     0.00000000    0.00000000    0.00000000
     atom   47 type  1   force =     0.00000000    0.00000000    0.00000000
     atom   48 type  1   force =     0.00000000    0.00000000    0.00000000
     atom   49 type  1   force =     0.00000000    0.00000000    0.00000000
     atom   50 type  1   force =     0.00000000    0.00000000    0.00000000
     atom   51 type  1   force =     0.00000000    0.00000000    0.00000000
     atom   52 type  1   force =     0.00000000    0.00000000    0.00000000
     atom   53 type  1   force =     0.00000000    0.00000000    0.00000000
     atom   54 type  1   force =     0.00000000    0.00000000    0.00000000
     atom   55 type  1   force =     0.00000000    0.00000000    0.00000000
     atom   56 type  1   force =     0.00000000    0.00000000    0.00000000
     atom   57 type  1   force =     0.00000000    0.00000000    0.00000000
     atom   58 type  1   force =     0.00000000    0.00000000    0.00000000
     atom   59 type  1   force =     0.00000000    0.00000000    0.00000000
     atom   60 type  1   force =     0.00000000    0.00000000    0.00000000
[...]
     atom  286 type  2   force =     0.00000000    0.00000000    0.00000000
     atom  287 type  2   force =     0.00000000    0.00000000    0.00000000
     atom  288 type  2   force =     0.00000000    0.00000000    0.00000000
     atom  289 type  2   force =     0.00000000    0.00000000    0.00000000
     atom  290 type  2   force =     0.00000000    0.00000000    0.00000000
     atom  291 type  2   force =     0.00000000    0.00000000    0.00000000
     atom  292 type  2   force =     0.00000000    0.00000000    0.00000000
     atom  293 type  2   force =     0.00000000    0.00000000    0.00000000
     atom  294 type  2   force =     0.00000000    0.00000000    0.00000000
     atom  295 type  2   force =     0.00000000    0.00000000    0.00000000
     atom  296 type  2   force =     0.00000000    0.00000000    0.00000000
     atom  297 type  2   force =     0.00000000    0.00000000    0.00000000
     atom  298 type  2   force =     0.00000000    0.00000000    0.00000000
     atom  299 type  2   force =     0.00000000    0.00000000    0.00000000
     atom  300 type  1   force =     0.00000000    0.00000000    0.00000000
     The SCF correction term to forces
     atom    1 type  1   force =    -0.00000002   -0.00000001    0.00000073
     atom    2 type  1   force =     0.00000159    0.00000092   -0.00000017
     atom    3 type  1   force =     0.00000011    0.00000007    0.00000109
     atom    4 type  1   force =     0.00000063   -0.00000084   -0.00000196
     atom    5 type  1   force =     0.00000021    0.00000116    0.00000021
     atom    6 type  1   force =     0.00000029    0.00000008    0.00000055
     atom    7 type  1   force =     0.00000015   -0.00000010   -0.00000054
     atom    8 type  1   force =    -0.00000000    0.00000031    0.00000012
     atom    9 type  1   force =     0.00000018   -0.00000035   -0.00000009
     atom   10 type  1   force =    -0.00000002    0.00000018   -0.00000054
     atom   11 type  1   force =     0.00000026   -0.00000015    0.00000012
     atom   12 type  1   force =    -0.00000021    0.00000033   -0.00000009
     atom   13 type  1   force =    -0.00000041    0.00000096   -0.00000196
     atom   14 type  1   force =     0.00000110   -0.00000040    0.00000021
     atom   15 type  1   force =     0.00000022    0.00000021    0.00000055
     atom   16 type  1   force =    -0.00000067    0.00000067   -0.00000025
     atom   17 type  1   force =     0.00000047    0.00000094   -0.00000069
     atom   18 type  1   force =     0.00000004   -0.00000010    0.00000038
     atom   19 type  1   force =     0.00000025   -0.00000091   -0.00000025
     atom   20 type  1   force =     0.00000105   -0.00000006   -0.00000069
     atom   21 type  1   force =    -0.00000006    0.00000008    0.00000038
     atom   22 type  1   force =     0.00000044   -0.00000042   -0.00000025
     atom   23 type  1   force =     0.00000043    0.00000026   -0.00000008
     atom   24 type  1   force =     0.00000010   -0.00000043    0.00000001
     atom   25 type  1   force =    -0.00000003   -0.00000002   -0.00000023
     atom   26 type  1   force =     0.00000009    0.00000005    0.00000029
     atom   27 type  1   force =     0.00000029    0.00000017   -0.00000032
     atom   28 type  1   force =    -0.00000015    0.00000059   -0.00000025
     atom   29 type  1   force =     0.00000044    0.00000025   -0.00000008
     atom   30 type  1   force =    -0.00000032    0.00000030    0.00000001
     atom   31 type  1   force =    -0.00000042    0.00000017    0.00000003
     atom   32 type  1   force =    -0.00000010    0.00000021   -0.00000029
     atom   33 type  1   force =    -0.00000048    0.00000010   -0.00000016
     atom   34 type  1   force =    -0.00000071   -0.00000041   -0.00000006
     atom   35 type  1   force =    -0.00000018   -0.00000010   -0.00000030
     atom   36 type  1   force =    -0.00000031   -0.00000018   -0.00000007
     atom   37 type  1   force =    -0.00000006   -0.00000045    0.00000003
     atom   38 type  1   force =     0.00000013   -0.00000019   -0.00000029
     atom   39 type  1   force =    -0.00000016   -0.00000047   -0.00000016
     atom   40 type  1   force =     0.00000031   -0.00000025   -0.00000015
     atom   41 type  1   force =     0.00000011   -0.00000022    0.00000018
     atom   42 type  1   force =    -0.00000027    0.00000007   -0.00000030
     atom   43 type  1   force =    -0.00000006    0.00000040   -0.00000015
     atom   44 type  1   force =    -0.00000014    0.00000021    0.00000018
     atom   45 type  1   force =    -0.00000007   -0.00000027   -0.00000030
     atom   46 type  1   force =    -0.00000011    0.00000001   -0.00000034
     atom   47 type  1   force =    -0.00000069    0.00000001   -0.00000012
     atom   48 type  1   force =     0.00000027    0.00000006   -0.00000006
     atom   49 type  1   force =    -0.00000033   -0.00000043    0.00000002
     atom   50 type  1   force =    -0.00000047   -0.00000020    0.00000010
     atom   51 type  1   force =    -0.00000013    0.00000013   -0.00000018
     atom   52 type  1   force =    -0.00000054   -0.00000007    0.00000002
     atom   53 type  1   force =    -0.00000041   -0.00000030    0.00000010
     atom   54 type  1   force =     0.00000005   -0.00000018   -0.00000018
     atom   55 type  1   force =    -0.00000005   -0.00000010   -0.00000034
     atom   56 type  1   force =    -0.00000034   -0.00000061   -0.00000012
     atom   57 type  1   force =     0.00000019    0.00000020   -0.00000006
     atom   58 type  1   force =     0.00000018    0.00000010   -0.00000040
     atom   59 type  1   force =    -0.00000065   -0.00000037   -0.00000011
     atom   60 type  1   force =     0.00000031    0.00000018    0.00000014
[...]
     atom  286 type  2   force =    -0.00000043    0.00000005    0.00000000
     atom  287 type  2   force =     0.00000006    0.00000001    0.00000018
     atom  288 type  2   force =    -0.00000000   -0.00000010   -0.00000009
     atom  289 type  2   force =    -0.00000020   -0.00000002    0.00000005
     atom  290 type  2   force =    -0.00000007    0.00000002    0.00000003
     atom  291 type  2   force =    -0.00000009    0.00000005   -0.00000009
     atom  292 type  2   force =    -0.00000011   -0.00000016    0.00000005
     atom  293 type  2   force =    -0.00000002   -0.00000007    0.00000003
     atom  294 type  2   force =     0.00000008    0.00000021   -0.00000025
     atom  295 type  2   force =    -0.00000017   -0.00000039    0.00000000
     atom  296 type  2   force =     0.00000004    0.00000005    0.00000018
     atom  297 type  2   force =     0.00000035    0.00000020   -0.00000034
     atom  298 type  2   force =    -0.00000043   -0.00000025   -0.00000002
     atom  299 type  2   force =     0.00000001    0.00000000    0.00000035
     atom  300 type  1   force =     0.00000307    0.00000177   -0.00000401

     Total force =     0.003104     Total SCF correction =     0.000012

     Computing stress (Cartesian axis) and pressure

     Non-local corr. energy    =      82.12457923 Ry

          total   stress  (Ry/bohr**3)                   (kbar)     P=       10.55
   0.00006017   0.00000011   0.00000004            8.85        0.02        0.01
   0.00000011   0.00006005   0.00000002            0.02        8.83        0.00
   0.00000004   0.00000002   0.00009498            0.01        0.00       13.97

     kinetic stress (kbar)  18469.26      0.05      0.03
                                0.05  18469.20      0.02
                                0.03      0.02  18472.88

     local   stress (kbar)   5603.92      0.91     -0.80
                                0.91   5602.70     -0.46
                               -0.80     -0.46   3760.79

     nonloc. stress (kbar)     79.02      0.01     -0.02
                                0.01     79.01     -0.01
                               -0.02     -0.01     87.04

     hartree stress (kbar)  19673.51     -0.35      0.29
                               -0.35  19673.92      0.17
                                0.29      0.17  20501.38

     exc-cor stress (kbar)   5265.59     -0.00      0.00
                               -0.00   5265.59      0.00
                                0.00      0.00   5266.39

     corecor stress (kbar) -14196.25      0.00     -0.00
                                0.00 -14196.25     -0.00
                               -0.00     -0.00 -14195.87

     ewald   stress (kbar) -35049.18     -0.59      0.51
                               -0.59 -35048.27      0.29
                                0.51      0.29 -34040.57

     hubbard stress (kbar)      0.00      0.00      0.00
                                0.00      0.00      0.00
                                0.00      0.00      0.00

     DFT-D   stress (kbar)      0.00      0.00      0.00
                                0.00      0.00      0.00
                                0.00      0.00      0.00

     XDM     stress (kbar)      0.00      0.00      0.00
                                0.00      0.00      0.00
                                0.00      0.00      0.00

     dft-nl  stress (kbar)    162.95      0.00     -0.00
                                0.00    162.95     -0.00
                               -0.00     -0.00    161.94

     TS-vdW  stress (kbar)      0.00      0.00      0.00
                                0.00      0.00      0.00
                                0.00      0.00      0.00

     MDB     stress (kbar)      0.00      0.00      0.00
                                0.00      0.00      0.00
                                0.00      0.00      0.00

     3D-RISM stress (kbar)      0.00      0.00      0.00
                                0.00      0.00      0.00
                                0.00      0.00      0.00

     Energy error            =      2.3E-05 Ry
     Gradient error          =      8.5E-04 Ry/Bohr

     bfgs converged in  20 scf cycles and  19 bfgs steps
     (criteria: energy <  1.0E-04 Ry, force <  1.0E-03 Ry/Bohr)

     End of BFGS Geometry Optimization

     Final energy             =  -47097.4907449498 Ry

     File ./GaN.bfgs deleted, as requested
Begin final coordinates

ATOMIC_POSITIONS (angstrom)
Ga            1.6211279147        0.9359571670        2.3190516410
Ga            1.6209232961        0.9358390304        7.8898966864
Ga            1.6217327833        0.9363063880       13.1871483232
Ga           -0.0052980887        3.7329920718        2.6221624934
Ga           -0.0094206725        3.7862070892        7.9790738269
Ga           -0.0020921672        3.7577377921       13.1912629200
Ga           -1.6239844773        6.5576565632        2.6327799249
Ga           -1.6258973608        6.5655460845        7.9369526631
Ga           -1.6222038724        6.5598554764       13.2213592363
Ga           -3.2442648346        9.3640644646        2.6327799249
Ga           -3.2383887505        9.3584630983        7.9369526631
Ga           -3.2414702174        9.3645070571       13.2213592363
Ga           -4.8811528469       12.1782202436        2.6221624934
Ga           -4.8371285819       12.1480424726        7.9790738269
Ga           -4.8581194637       12.1686237929       13.1912629200
Ga            4.8581010461        0.9491522433        2.6221942184
Ga            4.9056931720        0.9242919489        7.9788409398
Ga            4.8781014759        0.9328436113       13.1913119870
Ga            3.2510417516        3.7326605921        2.6221942184
Ga            3.2533081681        3.7863067294        7.9788409398
Ga            3.2469182770        3.7581357884       13.1913119870
Ga            1.6224144987        6.5481701291        2.6411594149
Ga            1.6226768384        6.5652298723        7.9276244154
Ga            1.6228725271        6.5624026823       13.2254372285
Ga            0.0005633369        9.3665282819        2.6391569678
Ga            0.0009484396        9.3667506211        7.9272608435
Ga            0.0012365670        9.3669169715       13.2197684700
Ga           -1.6292808395       12.1802716658        2.6411594149
Ga           -1.6143754987       12.1719689870        7.9276244154
Ga           -1.6167260727       12.1735520534       13.2254372285
Ga            8.1132882328        0.9373565171        2.6324988278
Ga            8.1204924995        0.9346913591        7.9370263442
Ga            8.1144796552        0.9347398258       13.2213925309
Ga            6.4906043646        3.7473507063        2.6338516079
Ga            6.4952967149        3.7500598360        7.9379974924
Ga            6.4938925886        3.7492491633       13.2205871007
Ga            4.8684199465        6.5576332532        2.6324988278
Ga            4.8697139854        6.5652049101        7.9370263442
Ga            4.8667495366        6.5599734008       13.2213925309
Ga            3.2446984920        9.3664925074        2.6391561589
Ga            3.2438649403        9.3664021427        7.9274695891
Ga            3.2441609368        9.3667716584       13.2200494265
Ga            1.6225999328       12.1760496270        2.6391561589
Ga            1.6221048988       12.1753729324        7.9274695891
Ga            1.6225729070       12.1754445151       13.2200494265
Ga           11.3532054892        0.9370077109        2.6322033668
Ga           11.3444580346        0.9343570566        7.9373585008
Ga           11.3522957602        0.9344507545       13.2214107433
Ga            9.7336260833        3.7464157919        2.6362567110
Ga            9.7332458061        3.7475932495        7.9327512162
Ga            9.7333810534        3.7473799096       13.2185029223
Ga            8.1113055643        6.5563573569        2.6362567110
Ga            8.1121351339        6.5554392984        7.9327512162
Ga            8.1120179998        6.5556630960       13.2185029223
Ga            6.4880764997        9.3636583064        2.6322033668
Ga            6.4814072384        9.3574081157        7.9373585008
Ga            6.4854072459        9.3641489362       13.2214107433
Ga            4.8742928078       12.1803773040        2.6411066041
Ga            4.8577591272       12.1708315791        7.9280612754
Ga            4.8613494486       12.1729044521       13.2258135839
[...]
N            12.9608649680        1.8756348464        7.2845648891
N            12.9667629633        1.8790440311       12.5662188738
N            11.3548473582        4.6841304951        1.9858128782
N            11.3532359773        4.6848795476        7.2770246429
N            11.3536921221        4.6846900284       12.5656166422
N             9.7339973624        7.4915250394        1.9858128782
N             9.7338403705        7.4897550164        7.2770246429
N             9.7339043144        7.4902448089       12.5656166422
N             8.1087166494       10.2956466170        1.9814898067
N             8.1047775893       10.2866249126        7.2845648891
N             8.1106790274       10.2900281341       12.5662188738
N             6.4964929674       13.1169591527        1.9842398250
N             6.4869146304       13.1114290973        7.2892639136
N             6.4772681669       13.1058597090       12.5632785067
Ga            1.6208322118        0.9357864428        4.5683746540
End final coordinates

     Writing all to output data dir ./GaN.save/

     General routines

     Parallel routines

     PAW routines

   This run was terminated on:   8:57:38  20Nov2023

   JOB DONE.