     Program PWSCF v.7.1 starts on 18Feb2024 at  9:25:22

     Reading input from espresso.pwi
Warning: card &CELL ignored
Warning: card    CELL_DYNAMICS    = 'BFGS' ignored
Warning: card / ignored

     Current dimensions of program PWSCF are:
     Max number of different atomic species (ntypx) = 10
     Max number of k-points (npk) =  40000
     Max angular momentum in pseudopotentials (lmaxx) =  4
     file Ga.pbe-dn-kjpaw_psl.1.0.0.UPF: wavefunction(s)  4S renormalized
     file N.pbe-n-kjpaw_psl.1.0.0.UPF: wavefunction(s)  2S renormalized

     IMPORTANT: XC functional enforced from input :
     Exchange-correlation= BEEF-VDW
                           (   1   4  43  14   2   0   0)
     Any further DFT definition will be discarded
     Please, verify this is what you really want

     K-points division:     npool     =       4
     R & G space division:  proc/nbgrp/npool/nimage =      64
     Subspace diagonalization in iterative solution of the eigenvalue problem:
     a serial algorithm will be used

     Using Slab Decomposition

     bravais-lattice index     =            4
     lattice parameter (alat)  =      30.6565  a.u.
     unit-cell volume          =   24400.9461 (a.u.)^3
     number of atoms/cell      =          300
     number of atomic types    =            2
     number of electrons       =      2708.00
     number of Kohn-Sham states=         1625
     kinetic-energy cutoff     =      70.0000  Ry
     charge density cutoff     =     350.0000  Ry
     scf convergence threshold =      1.0E-07
     mixing beta               =       0.7000
     number of iterations used =            8  plain     mixing
     Exchange-correlation= BEEF-VDW
                           (   1   4  43  14   2   0   0)

     celldm(1)=  30.656540  celldm(2)=   0.000000  celldm(3)=   0.977927
     celldm(4)=   0.000000  celldm(5)=   0.000000  celldm(6)=   0.000000

     crystal axes: (cart. coord. in units of alat)
               a(1) = (   1.000000   0.000000   0.000000 )
               a(2) = (  -0.500000   0.866025   0.000000 )
               a(3) = (   0.000000   0.000000   0.977927 )

     reciprocal axes: (cart. coord. in units 2 pi/alat)
               b(1) = (  1.000000  0.577350 -0.000000 )
               b(2) = (  0.000000  1.154701  0.000000 )
               b(3) = (  0.000000 -0.000000  1.022571 )

     PseudoPot. # 1 for Ga read from file:
     //group///packages/espresso/pseudo/psl_1.0.0/pslibrary.1.0.0/pbe/PSEUDOPOTENTIALS/Ga.pbe-dn-kjpaw_psl.1.0.0.UPF
     MD5 check sum: cd2a01e492f15b435d17032472d8505c
     Pseudo is Projector augmented-wave + core cor, Zval = 13.0
     Generated using 'atomic' code by A. Dal Corso  v.7.1
     Shape of augmentation charge: PSQ
     Using radial grid of 1205 points,  6 beta functions with:
                l(1) =   0
                l(2) =   0
                l(3) =   1
                l(4) =   1
                l(5) =   2
                l(6) =   2
     Q(r) pseudized with 0 coefficients

     PseudoPot. # 2 for N  read from file:
     //group///packages/espresso/pseudo/psl_1.0.0/pslibrary.1.0.0/pbe/PSEUDOPOTENTIALS/N.pbe-n-kjpaw_psl.1.0.0.UPF
     MD5 check sum: f77f775694dac7e2c3fe1c82443d1a16
     Pseudo is Projector augmented-wave + core cor, Zval =  5.0
     Generated using 'atomic' code by A. Dal Corso  v.7.1
     Shape of augmentation charge: PSQ
     Using radial grid of 1085 points,  4 beta functions with:
                l(1) =   0
                l(2) =   0
                l(3) =   1
                l(4) =   1
     Q(r) pseudized with 0 coefficients

     atomic species   valence    mass     pseudopotential
        Ga            13.00    69.72300     Ga( 1.00)
        N              5.00    14.00700     N ( 1.00)

      2 Sym. Ops. (no inversion) found

                                    s                        frac. trans.

      isym =  1     identity

 cryst.   s( 1) = (     1          0          0      )
                  (     0          1          0      )
                  (     0          0          1      )

 cart.    s( 1) = (  1.0000000  0.0000000  0.0000000 )
                  (  0.0000000  1.0000000  0.0000000 )
                  (  0.0000000  0.0000000  1.0000000 )

      isym =  2     inv. 180 deg rotation - cryst. axis [0,1,0]

 cryst.   s( 2) = (     1          1          0      )
                  (     0         -1          0      )
                  (     0          0          1      )

 cart.    s( 2) = (  0.5000000  0.8660254  0.0000000 )
                  (  0.8660254 -0.5000000  0.0000000 )
                  (  0.0000000  0.0000000  1.0000000 )

     point group C_s (m)
     there are  2 classes
     the character table:

       E     s
A'     1.00  1.00
A''    1.00 -1.00

     the symmetry operations in each class and the name of the first element:

     E        1
          identity
     s        2
          inv. 180 deg rotation - cryst. axis [0,1,0]

   Cartesian axes

     site n.     atom                  positions (alat units)
         1           Ga  tau(   1) = (   0.1000001   0.0577350   0.1627148  )
         2           Ga  tau(   2) = (   0.1000001   0.0577350   0.4886906  )
         3           Ga  tau(   3) = (   0.1000001   0.0577350   0.8146665  )
         4           Ga  tau(   4) = (   0.0000001   0.2309401   0.1627148  )
         5           Ga  tau(   5) = (   0.0000001   0.2309401   0.4886906  )
         6           Ga  tau(   6) = (   0.0000001   0.2309401   0.8146665  )
         7           Ga  tau(   7) = (  -0.0999999   0.4041451   0.1627148  )
         8           Ga  tau(   8) = (  -0.0999999   0.4041451   0.4886906  )
         9           Ga  tau(   9) = (  -0.0999999   0.4041451   0.8146665  )
        10           Ga  tau(  10) = (  -0.1999999   0.5773502   0.1627148  )
        11           Ga  tau(  11) = (  -0.1999999   0.5773502   0.4886906  )
        12           Ga  tau(  12) = (  -0.1999999   0.5773502   0.8146665  )
        13           Ga  tau(  13) = (  -0.2999999   0.7505553   0.1627148  )
        14           Ga  tau(  14) = (  -0.2999999   0.7505553   0.4886906  )
        15           Ga  tau(  15) = (  -0.2999999   0.7505553   0.8146665  )
        16           Ga  tau(  16) = (   0.3000001   0.0577350   0.1627148  )
        17           Ga  tau(  17) = (   0.3000001   0.0577350   0.4886906  )
        18           Ga  tau(  18) = (   0.3000001   0.0577350   0.8146665  )
        19           Ga  tau(  19) = (   0.2000001   0.2309401   0.1627148  )
        20           Ga  tau(  20) = (   0.2000001   0.2309401   0.4886906  )
        21           Ga  tau(  21) = (   0.2000001   0.2309401   0.8146665  )
        22           Ga  tau(  22) = (   0.1000001   0.4041451   0.1627148  )
        23           Ga  tau(  23) = (   0.1000001   0.4041451   0.4886906  )
        24           Ga  tau(  24) = (   0.1000001   0.4041451   0.8146665  )
        25           Ga  tau(  25) = (   0.0000001   0.5773502   0.1627148  )
        26           Ga  tau(  26) = (   0.0000001   0.5773502   0.4886906  )
        27           Ga  tau(  27) = (   0.0000001   0.5773502   0.8146665  )
        28           Ga  tau(  28) = (  -0.0999999   0.7505553   0.1627148  )
        29           Ga  tau(  29) = (  -0.0999999   0.7505553   0.4886906  )
        30           Ga  tau(  30) = (  -0.0999999   0.7505553   0.8146665  )
        31           Ga  tau(  31) = (   0.5000001   0.0577350   0.1627148  )
        32           Ga  tau(  32) = (   0.5000001   0.0577350   0.4886906  )
        33           Ga  tau(  33) = (   0.5000001   0.0577350   0.8146665  )
        34           Ga  tau(  34) = (   0.4000001   0.2309401   0.1627148  )
        35           Ga  tau(  35) = (   0.4000001   0.2309401   0.4886906  )
        36           Ga  tau(  36) = (   0.4000001   0.2309401   0.8146665  )
        37           Ga  tau(  37) = (   0.3000001   0.4041451   0.1627148  )
        38           Ga  tau(  38) = (   0.3000001   0.4041451   0.4886906  )
        39           Ga  tau(  39) = (   0.3000001   0.4041451   0.8146665  )
        40           Ga  tau(  40) = (   0.2000001   0.5773502   0.1627148  )
        41           Ga  tau(  41) = (   0.2000001   0.5773502   0.4886906  )
        42           Ga  tau(  42) = (   0.2000001   0.5773502   0.8146665  )
        43           Ga  tau(  43) = (   0.1000001   0.7505553   0.1627148  )
        44           Ga  tau(  44) = (   0.1000001   0.7505553   0.4886906  )
        45           Ga  tau(  45) = (   0.1000001   0.7505553   0.8146665  )
        46           Ga  tau(  46) = (   0.7000001   0.0577350   0.1627148  )
        47           Ga  tau(  47) = (   0.7000001   0.0577350   0.4886906  )
        48           Ga  tau(  48) = (   0.7000001   0.0577350   0.8146665  )
        49           Ga  tau(  49) = (   0.6000001   0.2309401   0.1627148  )
        50           Ga  tau(  50) = (   0.6000001   0.2309401   0.4886906  )
        51           Ga  tau(  51) = (   0.6000001   0.2309401   0.8146665  )
        52           Ga  tau(  52) = (   0.5000001   0.4041451   0.1627148  )
        53           Ga  tau(  53) = (   0.5000001   0.4041451   0.4886906  )
        54           Ga  tau(  54) = (   0.5000001   0.4041451   0.8146665  )
        55           Ga  tau(  55) = (   0.4000001   0.5773502   0.1627148  )
        56           Ga  tau(  56) = (   0.4000001   0.5773502   0.4886906  )
        57           Ga  tau(  57) = (   0.4000001   0.5773502   0.8146665  )
        58           Ga  tau(  58) = (   0.3000001   0.7505553   0.1627148  )
        59           Ga  tau(  59) = (   0.3000001   0.7505553   0.4886906  )
        60           Ga  tau(  60) = (   0.3000001   0.7505553   0.8146665  )
[...]
       286           N   tau( 286) = (   0.7999999   0.1154701   0.4484898  )
       287           N   tau( 287) = (   0.7999999   0.1154701   0.7744656  )
       288           N   tau( 288) = (   0.6999999   0.2886752   0.1225140  )
       289           N   tau( 289) = (   0.6999999   0.2886752   0.4484898  )
       290           N   tau( 290) = (   0.6999999   0.2886752   0.7744656  )
       291           N   tau( 291) = (   0.5999999   0.4618803   0.1225140  )
       292           N   tau( 292) = (   0.5999999   0.4618803   0.4484898  )
       293           N   tau( 293) = (   0.5999999   0.4618803   0.7744656  )
       294           N   tau( 294) = (   0.4999999   0.6350854   0.1225140  )
       295           N   tau( 295) = (   0.4999999   0.6350854   0.4484898  )
       296           N   tau( 296) = (   0.4999999   0.6350854   0.7744656  )
       297           N   tau( 297) = (   0.3999999   0.8082905   0.1225140  )
       298           N   tau( 298) = (   0.3999999   0.8082905   0.4484898  )
       299           N   tau( 299) = (   0.3999999   0.8082905   0.7744656  )
       300           Ga  tau( 300) = (   0.1000001   0.0577350   0.2855019  )

   Crystallographic axes

     site n.     atom                  positions (cryst. coord.)
         1           Ga  tau(   1) = (  0.1333334  0.0666666  0.1663874  )
         2           Ga  tau(   2) = (  0.1333334  0.0666666  0.4997208  )
         3           Ga  tau(   3) = (  0.1333334  0.0666666  0.8330541  )
[...]
     atom   25 type  1   force =     0.00000000    0.00000000    0.00000000
     atom   26 type  1   force =     0.00000000    0.00000000    0.00000000
     atom   27 type  1   force =     0.00000000    0.00000000    0.00000000
     atom   28 type  1   force =     0.00000000    0.00000000    0.00000000
     atom   29 type  1   force =     0.00000000    0.00000000    0.00000000
     atom   30 type  1   force =     0.00000000    0.00000000    0.00000000
     atom   31 type  1   force =     0.00000000    0.00000000    0.00000000
     atom   32 type  1   force =     0.00000000    0.00000000    0.00000000
     atom   33 type  1   force =     0.00000000    0.00000000    0.00000000
     atom   34 type  1   force =     0.00000000    0.00000000    0.00000000
     atom   35 type  1   force =     0.00000000    0.00000000    0.00000000
     atom   36 type  1   force =     0.00000000    0.00000000    0.00000000
     atom   37 type  1   force =     0.00000000    0.00000000    0.00000000
     atom   38 type  1   force =     0.00000000    0.00000000    0.00000000
     atom   39 type  1   force =     0.00000000    0.00000000    0.00000000
     atom   40 type  1   force =     0.00000000    0.00000000    0.00000000
     atom   41 type  1   force =     0.00000000    0.00000000    0.00000000
     atom   42 type  1   force =     0.00000000    0.00000000    0.00000000
     atom   43 type  1   force =     0.00000000    0.00000000    0.00000000
     atom   44 type  1   force =     0.00000000    0.00000000    0.00000000
     atom   45 type  1   force =     0.00000000    0.00000000    0.00000000
     atom   46 type  1   force =     0.00000000    0.00000000    0.00000000
     atom   47 type  1   force =     0.00000000    0.00000000    0.00000000
     atom   48 type  1   force =     0.00000000    0.00000000    0.00000000
     atom   49 type  1   force =     0.00000000    0.00000000    0.00000000
     atom   50 type  1   force =     0.00000000    0.00000000    0.00000000
     atom   51 type  1   force =     0.00000000    0.00000000    0.00000000
     atom   52 type  1   force =     0.00000000    0.00000000    0.00000000
     atom   53 type  1   force =     0.00000000    0.00000000    0.00000000
     atom   54 type  1   force =     0.00000000    0.00000000    0.00000000
     atom   55 type  1   force =     0.00000000    0.00000000    0.00000000
     atom   56 type  1   force =     0.00000000    0.00000000    0.00000000
     atom   57 type  1   force =     0.00000000    0.00000000    0.00000000
     atom   58 type  1   force =     0.00000000    0.00000000    0.00000000
     atom   59 type  1   force =     0.00000000    0.00000000    0.00000000
     atom   60 type  1   force =     0.00000000    0.00000000    0.00000000
[...]
     atom  286 type  2   force =     0.00000000    0.00000000    0.00000000
     atom  287 type  2   force =     0.00000000    0.00000000    0.00000000
     atom  288 type  2   force =     0.00000000    0.00000000    0.00000000
     atom  289 type  2   force =     0.00000000    0.00000000    0.00000000
     atom  290 type  2   force =     0.00000000    0.00000000    0.00000000
     atom  291 type  2   force =     0.00000000    0.00000000    0.00000000
     atom  292 type  2   force =     0.00000000    0.00000000    0.00000000
     atom  293 type  2   force =     0.00000000    0.00000000    0.00000000
     atom  294 type  2   force =     0.00000000    0.00000000    0.00000000
     atom  295 type  2   force =     0.00000000    0.00000000    0.00000000
     atom  296 type  2   force =     0.00000000    0.00000000    0.00000000
     atom  297 type  2   force =     0.00000000    0.00000000    0.00000000
     atom  298 type  2   force =     0.00000000    0.00000000    0.00000000
     atom  299 type  2   force =     0.00000000    0.00000000    0.00000000
     atom  300 type  1   force =     0.00000000    0.00000000    0.00000000
     The SCF correction term to forces
     atom    1 type  1   force =     0.00000737    0.00000425    0.00002575
     atom    2 type  1   force =     0.00001161    0.00000670    0.00000542
     atom    3 type  1   force =     0.00000404    0.00000233    0.00000182
     atom    4 type  1   force =     0.00001560   -0.00001626   -0.00002667
     atom    5 type  1   force =     0.00001072   -0.00000669    0.00001724
     atom    6 type  1   force =     0.00000560   -0.00000754    0.00000258
     atom    7 type  1   force =     0.00000319    0.00000455   -0.00001186
     atom    8 type  1   force =     0.00000158   -0.00000181    0.00001126
     atom    9 type  1   force =     0.00000355    0.00000013    0.00000317
     atom   10 type  1   force =     0.00000553    0.00000049   -0.00001186
     atom   11 type  1   force =    -0.00000078    0.00000227    0.00001126
     atom   12 type  1   force =     0.00000189    0.00000301    0.00000317
     atom   13 type  1   force =    -0.00000628    0.00002164   -0.00002667
     atom   14 type  1   force =    -0.00000044    0.00001263    0.00001724
     atom   15 type  1   force =    -0.00000373    0.00000862    0.00000258
     atom   16 type  1   force =    -0.00001661    0.00001127   -0.00000711
     atom   17 type  1   force =    -0.00001035    0.00000944    0.00000554
     atom   18 type  1   force =    -0.00000652    0.00000514    0.00000166
     atom   19 type  1   force =     0.00000145   -0.00002002   -0.00000711
     atom   20 type  1   force =     0.00000300   -0.00001368    0.00000554
     atom   21 type  1   force =     0.00000119   -0.00000822    0.00000166
     atom   22 type  1   force =     0.00000659    0.00000090   -0.00001081
     atom   23 type  1   force =     0.00000844   -0.00000496    0.00000766
     atom   24 type  1   force =     0.00000405   -0.00000129    0.00000306
     atom   25 type  1   force =     0.00000425    0.00000245   -0.00001089
     atom   26 type  1   force =     0.00000482    0.00000278    0.00000669
     atom   27 type  1   force =    -0.00000033   -0.00000019    0.00000400
     atom   28 type  1   force =     0.00000408    0.00000525   -0.00001081
     atom   29 type  1   force =    -0.00000008    0.00000979    0.00000766
     atom   30 type  1   force =     0.00000090    0.00000415    0.00000306
     atom   31 type  1   force =    -0.00000438    0.00000208   -0.00000612
     atom   32 type  1   force =    -0.00000547    0.00000131    0.00000549
     atom   33 type  1   force =    -0.00000205   -0.00000063    0.00000051
     atom   34 type  1   force =    -0.00000782   -0.00000451   -0.00000635
     atom   35 type  1   force =    -0.00000686   -0.00000396    0.00000515
     atom   36 type  1   force =    -0.00000542   -0.00000313    0.00000193
     atom   37 type  1   force =    -0.00000039   -0.00000484   -0.00000612
     atom   38 type  1   force =    -0.00000160   -0.00000539    0.00000549
     atom   39 type  1   force =    -0.00000157   -0.00000146    0.00000051
     atom   40 type  1   force =    -0.00000310   -0.00000302   -0.00000751
     atom   41 type  1   force =     0.00000016   -0.00000390    0.00000405
     atom   42 type  1   force =     0.00000336   -0.00000343    0.00000206
     atom   43 type  1   force =    -0.00000416   -0.00000117   -0.00000751
     atom   44 type  1   force =    -0.00000330    0.00000209    0.00000405
     atom   45 type  1   force =    -0.00000128    0.00000463    0.00000206
     atom   46 type  1   force =    -0.00000605    0.00000127   -0.00000769
     atom   47 type  1   force =    -0.00000282    0.00000141    0.00000800
     atom   48 type  1   force =    -0.00000270   -0.00000153    0.00000090
     atom   49 type  1   force =    -0.00000428   -0.00000213   -0.00000623
     atom   50 type  1   force =    -0.00000496   -0.00000200    0.00000522
     atom   51 type  1   force =    -0.00000377   -0.00000438    0.00000048
     atom   52 type  1   force =    -0.00000398   -0.00000264   -0.00000623
     atom   53 type  1   force =    -0.00000422   -0.00000330    0.00000522
     atom   54 type  1   force =    -0.00000567   -0.00000108    0.00000048
     atom   55 type  1   force =    -0.00000192   -0.00000588   -0.00000769
     atom   56 type  1   force =    -0.00000019   -0.00000315    0.00000800
     atom   57 type  1   force =    -0.00000268   -0.00000158    0.00000090
     atom   58 type  1   force =    -0.00000214   -0.00000123   -0.00000988
     atom   59 type  1   force =     0.00000227    0.00000131    0.00001044
     atom   60 type  1   force =    -0.00000070   -0.00000040   -0.00000039
[...]
     atom  286 type  2   force =    -0.00000089   -0.00000018    0.00000476
     atom  287 type  2   force =     0.00000070   -0.00000063    0.00000036
     atom  288 type  2   force =    -0.00000172   -0.00000104   -0.00000216
     atom  289 type  2   force =    -0.00000208   -0.00000131    0.00000267
     atom  290 type  2   force =    -0.00000061   -0.00000127    0.00000020
     atom  291 type  2   force =    -0.00000176   -0.00000097   -0.00000216
     atom  292 type  2   force =    -0.00000217   -0.00000114    0.00000267
     atom  293 type  2   force =    -0.00000141    0.00000011    0.00000020
     atom  294 type  2   force =     0.00000023    0.00000034   -0.00000436
     atom  295 type  2   force =    -0.00000060   -0.00000068    0.00000476
     atom  296 type  2   force =    -0.00000020    0.00000093    0.00000036
     atom  297 type  2   force =     0.00000446    0.00000258   -0.00000500
     atom  298 type  2   force =     0.00000139    0.00000080    0.00000603
     atom  299 type  2   force =     0.00000185    0.00000107   -0.00000040
     atom  300 type  1   force =     0.00003628    0.00002095   -0.00004219

     Total force =     0.003110     Total SCF correction =     0.000161

     Computing stress (Cartesian axis) and pressure

[...]

          total   stress  (Ry/bohr**3)                   (kbar)     P=       10.55
   0.00006017   0.00000011   0.00000004            8.85        0.02        0.01
   0.00000011   0.00006005   0.00000002            0.02        8.83        0.00
   0.00000004   0.00000002   0.00009498            0.01        0.00       13.97

     kinetic stress (kbar)  18469.27      0.05      0.03
                                0.05  18469.21      0.02
                                0.03      0.02  18472.88

     local   stress (kbar)   5603.92      0.91     -0.80
                                0.91   5602.70     -0.46
                               -0.80     -0.46   3760.79

     nonloc. stress (kbar)     79.01      0.01     -0.02
                                0.01     79.00     -0.01
                               -0.02     -0.01     87.03

     hartree stress (kbar)  19673.52     -0.36      0.29
                               -0.36  19673.93      0.17
                                0.29      0.17  20501.38

     exc-cor stress (kbar)   5265.59     -0.00      0.00
                               -0.00   5265.59      0.00
                                0.00      0.00   5266.39

     corecor stress (kbar) -14196.25      0.00     -0.00
                                0.00 -14196.25     -0.00
                               -0.00     -0.00 -14195.87

     ewald   stress (kbar) -35049.18     -0.59      0.51
                               -0.59 -35048.27      0.29
                                0.51      0.29 -34040.57

     hubbard stress (kbar)      0.00      0.00      0.00
                                0.00      0.00      0.00
                                0.00      0.00      0.00

     DFT-D   stress (kbar)      0.00      0.00      0.00
                                0.00      0.00      0.00
                                0.00      0.00      0.00

     XDM     stress (kbar)      0.00      0.00      0.00
                                0.00      0.00      0.00
                                0.00      0.00      0.00

     dft-nl  stress (kbar)    162.95      0.00     -0.00
                                0.00    162.95     -0.00
                               -0.00     -0.00    161.94

     TS-vdW  stress (kbar)      0.00      0.00      0.00
                                0.00      0.00      0.00
                                0.00      0.00      0.00

     MDB     stress (kbar)      0.00      0.00      0.00
                                0.00      0.00      0.00
                                0.00      0.00      0.00

     3D-RISM stress (kbar)      0.00      0.00      0.00
                                0.00      0.00      0.00
                                0.00      0.00      0.00

[...]

     Non-local corr. energy    =      82.12459352 Ry

 BEEFens 2000 ensemble energies
             -0.664333205041953E+02
             -0.598545751337645E+03
             -0.257484195427572E+03
              0.210619622810519E+03
             -0.430491943067130E+03
             -0.553552701746404E+03
              0.284306925535910E+03
             -0.298502554766969E+02
              0.474177810434969E+03
             -0.204851283890757E+02
              0.232661595271713E+03
              0.972055664282175E+01
              0.941818788038586E+01
             -0.202781398002612E+02
              0.310268241561710E+03
             -0.225928928261917E+03
             -0.465548960647088E+03
             -0.152058445605747E+03
              0.113768996368628E+03
             -0.102339338059846E+02
              0.679719505083043E+03
              0.578364525254588E+03
             -0.331284008018468E+03
              0.119831178705302E+03
             -0.726046314570615E+03
              0.582191930950151E+03
              0.190115908788551E+03
              0.565800889624659E+03
              0.371843271422404E+03
             -0.180884113526338E+03
              0.136964069640257E+03
             -0.267306083992390E+03
              0.749420649636036E+02
              0.363938500603489E+03
              0.385794522605465E+03
             -0.139416635415575E+03
              0.857114357532945E+03
             -0.325427370750290E+03
             -0.234172196834829E+03
              0.343518453127076E+03
              0.153703834486074E+03
              0.257089028847785E+03
             -0.490077866163464E+03
             -0.137784404275817E+02
              0.480978277411124E+03
              0.624859379182481E+03
             -0.622160849895295E+03
              0.442933908223107E+02
              0.234510955981971E+03
              0.114413468775380E+03
              0.260024761076905E+03
              0.550981155149869E+03
             -0.333072617688088E+03
             -0.365177115666096E+03
             -0.474789782821824E+03
             -0.733669520929552E+02
             -0.433053721497644E+03
              0.424663683385675E+02
             -0.800365085557219E+02
             -0.337471764897582E+03
[...]
              0.421084186761133E+03
              0.232764247708004E+03
              0.295575699352762E+03
             -0.477835171404161E+03
             -0.457675000407179E+03
             -0.115627901216434E+03
             -0.448437694794035E+03
              0.717765395495924E+03
              0.615128973875103E+03
              0.293952469386179E+03
              0.796146959172956E+03
             -0.414253466324824E+03
             -0.168785924323083E+03
             -0.234979811364227E+03
              0.658598598142490E+03

 BEEF-vdW xc energy contributions
            1 :    -6035.224705976171
            2 :     5436.647599094702
            3 :    -4433.613835452840
            4 :     3319.481066874106
            5 :    -2352.614387044746
            6 :     1658.160978215056
            7 :    -1213.866238382260
            8 :     913.5683201167549
            9 :    -657.2436238236633
           10 :     409.0880736653080
           11 :    -195.7322792924797
           12 :     60.53647558326975
           13 :    -16.02662604028592
           14 :     29.69092496818575
           15 :    -48.01924276062164
           16 :     34.62370842633663
           17 :     8.743201042144392
           18 :    -52.27314327347722
           19 :     67.76416352002252
           20 :    -52.66714113852777
           21 :     30.51430949654969
           22 :    -30.00046804370231
           23 :     61.39372469907357
           24 :    -109.2149314904354
           25 :     145.6065934117350
           26 :    -152.1919975481369
           27 :     132.6557032598839
           28 :    -107.1232658480385
           29 :     94.48594988287095
           30 :    -97.73612509343729
           31 :    -516.6975189020150
           32 :    -354.1567554708117

     Writing all to output data dir ./GaN.save/

     General routines

     Parallel routines

     PAW routines

   This run was terminated on:  13:55:32  18Feb2024

   JOB DONE.