     Program PWSCF v.7.1 starts on 16Nov2023 at  8:57:11

     Reading input from espresso.pwi
Warning: card &CELL ignored
Warning: card    CELL_DYNAMICS    = 'BFGS' ignored
Warning: card / ignored

     Current dimensions of program PWSCF are:
     Max number of different atomic species (ntypx) = 10
     Max number of k-points (npk) =  40000
     Max angular momentum in pseudopotentials (lmaxx) =  4
     file Ga.pbe-dn-kjpaw_psl.1.0.0.UPF: wavefunction(s)  4S renormalized
     file N.pbe-n-kjpaw_psl.1.0.0.UPF: wavefunction(s)  2S renormalized

     IMPORTANT: XC functional enforced from input :
     Exchange-correlation= BEEF-VDW
                           (   1   4  43  14   2   0   0)
     Any further DFT definition will be discarded
     Please, verify this is what you really want

     K-points division:     npool     =       4
     R & G space division:  proc/nbgrp/npool/nimage =      64
     Subspace diagonalization in iterative solution of the eigenvalue problem:
     a serial algorithm will be used

     Using Slab Decomposition

     bravais-lattice index     =            4
     lattice parameter (alat)  =      30.6565  a.u.
     unit-cell volume          =   24400.9461 (a.u.)^3
     number of atoms/cell      =          300
     number of atomic types    =            2
     number of electrons       =      2708.00
     number of Kohn-Sham states=         1625
     kinetic-energy cutoff     =      70.0000  Ry
     charge density cutoff     =     350.0000  Ry
     scf convergence threshold =      1.0E-09
     mixing beta               =       0.7000
     number of iterations used =            8  plain     mixing
     energy convergence thresh.=      1.0E-04
     force convergence thresh. =      1.0E-03
     Exchange-correlation= BEEF-VDW
                           (   1   4  43  14   2   0   0)
     nstep                     =           50

     celldm(1)=  30.656540  celldm(2)=   0.000000  celldm(3)=   0.977927
     celldm(4)=   0.000000  celldm(5)=   0.000000  celldm(6)=   0.000000

     crystal axes: (cart. coord. in units of alat)
               a(1) = (   1.000000   0.000000   0.000000 )
               a(2) = (  -0.500000   0.866025   0.000000 )
               a(3) = (   0.000000   0.000000   0.977927 )

     reciprocal axes: (cart. coord. in units 2 pi/alat)
               b(1) = (  1.000000  0.577350 -0.000000 )
               b(2) = (  0.000000  1.154701  0.000000 )
               b(3) = (  0.000000 -0.000000  1.022571 )

     PseudoPot. # 1 for Ga read from file:
     /trace/group/acmegroup/atimmins/packages/espresso/pseudo/psl_1.0.0/pslibrary.1.0.0/pbe/PSEUDOPOTENTIALS/Ga.pbe-dn-kjpaw_psl.1.0.0.UPF
     MD5 check sum: cd2a01e492f15b435d17032472d8505c
     Pseudo is Projector augmented-wave + core cor, Zval = 13.0
     Generated using 'atomic' code by A. Dal Corso  v.7.1
     Shape of augmentation charge: PSQ
     Using radial grid of 1205 points,  6 beta functions with:
                l(1) =   0
                l(2) =   0
                l(3) =   1
                l(4) =   1
                l(5) =   2
                l(6) =   2
     Q(r) pseudized with 0 coefficients

     PseudoPot. # 2 for N  read from file:
     /trace/group/acmegroup/atimmins/packages/espresso/pseudo/psl_1.0.0/pslibrary.1.0.0/pbe/PSEUDOPOTENTIALS/N.pbe-n-kjpaw_psl.1.0.0.UPF
     MD5 check sum: f77f775694dac7e2c3fe1c82443d1a16
     Pseudo is Projector augmented-wave + core cor, Zval =  5.0
     Generated using 'atomic' code by A. Dal Corso  v.7.1
     Shape of augmentation charge: PSQ
     Using radial grid of 1085 points,  4 beta functions with:
                l(1) =   0
                l(2) =   0
                l(3) =   1
                l(4) =   1
     Q(r) pseudized with 0 coefficients

     atomic species   valence    mass     pseudopotential
        Ga            13.00    69.72300     Ga( 1.00)
        N              5.00    14.00700     N ( 1.00)

      2 Sym. Ops. (no inversion) found

                                    s                        frac. trans.

      isym =  1     identity

 cryst.   s( 1) = (     1          0          0      )
                  (     0          1          0      )
                  (     0          0          1      )

 cart.    s( 1) = (  1.0000000  0.0000000  0.0000000 )
                  (  0.0000000  1.0000000  0.0000000 )
                  (  0.0000000  0.0000000  1.0000000 )

      isym =  2     inv. 180 deg rotation - cryst. axis [0,1,0]

 cryst.   s( 2) = (     1          1          0      )
                  (     0         -1          0      )
                  (     0          0          1      )

 cart.    s( 2) = (  0.5000000  0.8660254  0.0000000 )
                  (  0.8660254 -0.5000000  0.0000000 )
                  (  0.0000000  0.0000000  1.0000000 )

     point group C_s (m)
     there are  2 classes
     the character table:

       E     s
A'     1.00  1.00
A''    1.00 -1.00

     the symmetry operations in each class and the name of the first element:

     E        1
          identity
     s        2
          inv. 180 deg rotation - cryst. axis [0,1,0]

   Cartesian axes

     site n.     atom                  positions (alat units)
         1           Ga  tau(   1) = (   0.1000001   0.0577350   0.1627148  )
         2           Ga  tau(   2) = (   0.1000001   0.0577350   0.4886906  )
         3           Ga  tau(   3) = (   0.1000001   0.0577350   0.8146665  )
         4           Ga  tau(   4) = (   0.0000001   0.2309401   0.1627148  )
         5           Ga  tau(   5) = (   0.0000001   0.2309401   0.4886906  )
         6           Ga  tau(   6) = (   0.0000001   0.2309401   0.8146665  )
         7           Ga  tau(   7) = (  -0.0999999   0.4041451   0.1627148  )
         8           Ga  tau(   8) = (  -0.0999999   0.4041451   0.4886906  )
         9           Ga  tau(   9) = (  -0.0999999   0.4041451   0.8146665  )
        10           Ga  tau(  10) = (  -0.1999999   0.5773502   0.1627148  )
        11           Ga  tau(  11) = (  -0.1999999   0.5773502   0.4886906  )
        12           Ga  tau(  12) = (  -0.1999999   0.5773502   0.8146665  )
        13           Ga  tau(  13) = (  -0.2999999   0.7505553   0.1627148  )
        14           Ga  tau(  14) = (  -0.2999999   0.7505553   0.4886906  )
        15           Ga  tau(  15) = (  -0.2999999   0.7505553   0.8146665  )
        16           Ga  tau(  16) = (   0.3000001   0.0577350   0.1627148  )
        17           Ga  tau(  17) = (   0.3000001   0.0577350   0.4886906  )
        18           Ga  tau(  18) = (   0.3000001   0.0577350   0.8146665  )
        19           Ga  tau(  19) = (   0.2000001   0.2309401   0.1627148  )
        20           Ga  tau(  20) = (   0.2000001   0.2309401   0.4886906  )
        21           Ga  tau(  21) = (   0.2000001   0.2309401   0.8146665  )
        22           Ga  tau(  22) = (   0.1000001   0.4041451   0.1627148  )
        23           Ga  tau(  23) = (   0.1000001   0.4041451   0.4886906  )
        24           Ga  tau(  24) = (   0.1000001   0.4041451   0.8146665  )
        25           Ga  tau(  25) = (   0.0000001   0.5773502   0.1627148  )
        26           Ga  tau(  26) = (   0.0000001   0.5773502   0.4886906  )
        27           Ga  tau(  27) = (   0.0000001   0.5773502   0.8146665  )
        28           Ga  tau(  28) = (  -0.0999999   0.7505553   0.1627148  )
        29           Ga  tau(  29) = (  -0.0999999   0.7505553   0.4886906  )
        30           Ga  tau(  30) = (  -0.0999999   0.7505553   0.8146665  )
        31           Ga  tau(  31) = (   0.5000001   0.0577350   0.1627148  )
        32           Ga  tau(  32) = (   0.5000001   0.0577350   0.4886906  )
        33           Ga  tau(  33) = (   0.5000001   0.0577350   0.8146665  )
        34           Ga  tau(  34) = (   0.4000001   0.2309401   0.1627148  )
        35           Ga  tau(  35) = (   0.4000001   0.2309401   0.4886906  )
        36           Ga  tau(  36) = (   0.4000001   0.2309401   0.8146665  )
        37           Ga  tau(  37) = (   0.3000001   0.4041451   0.1627148  )
        38           Ga  tau(  38) = (   0.3000001   0.4041451   0.4886906  )
        39           Ga  tau(  39) = (   0.3000001   0.4041451   0.8146665  )
        40           Ga  tau(  40) = (   0.2000001   0.5773502   0.1627148  )
        41           Ga  tau(  41) = (   0.2000001   0.5773502   0.4886906  )
        42           Ga  tau(  42) = (   0.2000001   0.5773502   0.8146665  )
        43           Ga  tau(  43) = (   0.1000001   0.7505553   0.1627148  )
        44           Ga  tau(  44) = (   0.1000001   0.7505553   0.4886906  )
        45           Ga  tau(  45) = (   0.1000001   0.7505553   0.8146665  )
        46           Ga  tau(  46) = (   0.7000001   0.0577350   0.1627148  )
        47           Ga  tau(  47) = (   0.7000001   0.0577350   0.4886906  )
        48           Ga  tau(  48) = (   0.7000001   0.0577350   0.8146665  )
        49           Ga  tau(  49) = (   0.6000001   0.2309401   0.1627148  )
        50           Ga  tau(  50) = (   0.6000001   0.2309401   0.4886906  )
        51           Ga  tau(  51) = (   0.6000001   0.2309401   0.8146665  )
        52           Ga  tau(  52) = (   0.5000001   0.4041451   0.1627148  )
        53           Ga  tau(  53) = (   0.5000001   0.4041451   0.4886906  )
        54           Ga  tau(  54) = (   0.5000001   0.4041451   0.8146665  )
        55           Ga  tau(  55) = (   0.4000001   0.5773502   0.1627148  )
        56           Ga  tau(  56) = (   0.4000001   0.5773502   0.4886906  )
        57           Ga  tau(  57) = (   0.4000001   0.5773502   0.8146665  )
        58           Ga  tau(  58) = (   0.3000001   0.7505553   0.1627148  )
        59           Ga  tau(  59) = (   0.3000001   0.7505553   0.4886906  )
        60           Ga  tau(  60) = (   0.3000001   0.7505553   0.8146665  )
[...]
       286           N   tau( 286) = (   0.7999999   0.1154701   0.4484898  )
       287           N   tau( 287) = (   0.7999999   0.1154701   0.7744656  )
       288           N   tau( 288) = (   0.6999999   0.2886752   0.1225140  )
       289           N   tau( 289) = (   0.6999999   0.2886752   0.4484898  )
       290           N   tau( 290) = (   0.6999999   0.2886752   0.7744656  )
       291           N   tau( 291) = (   0.5999999   0.4618803   0.1225140  )
       292           N   tau( 292) = (   0.5999999   0.4618803   0.4484898  )
       293           N   tau( 293) = (   0.5999999   0.4618803   0.7744656  )
       294           N   tau( 294) = (   0.4999999   0.6350854   0.1225140  )
       295           N   tau( 295) = (   0.4999999   0.6350854   0.4484898  )
       296           N   tau( 296) = (   0.4999999   0.6350854   0.7744656  )
       297           N   tau( 297) = (   0.3999999   0.8082905   0.1225140  )
       298           N   tau( 298) = (   0.3999999   0.8082905   0.4484898  )
       299           N   tau( 299) = (   0.3999999   0.8082905   0.7744656  )
       300           Ga  tau( 300) = (   0.1000001   0.0577350   0.2855019  )

   Crystallographic axes

     site n.     atom                  positions (cryst. coord.)
[...]
     atom   56 type  1   force =     0.00000000    0.00000000    0.00000000
     atom   57 type  1   force =     0.00000000    0.00000000    0.00000000
     atom   58 type  1   force =     0.00000000    0.00000000    0.00000000
     atom   59 type  1   force =     0.00000000    0.00000000    0.00000000
     atom   60 type  1   force =     0.00000000    0.00000000    0.00000000
[...]
     atom  286 type  2   force =     0.00000000    0.00000000    0.00000000
     atom  287 type  2   force =     0.00000000    0.00000000    0.00000000
     atom  288 type  2   force =     0.00000000    0.00000000    0.00000000
     atom  289 type  2   force =     0.00000000    0.00000000    0.00000000
     atom  290 type  2   force =     0.00000000    0.00000000    0.00000000
     atom  291 type  2   force =     0.00000000    0.00000000    0.00000000
     atom  292 type  2   force =     0.00000000    0.00000000    0.00000000
     atom  293 type  2   force =     0.00000000    0.00000000    0.00000000
     atom  294 type  2   force =     0.00000000    0.00000000    0.00000000
     atom  295 type  2   force =     0.00000000    0.00000000    0.00000000
     atom  296 type  2   force =     0.00000000    0.00000000    0.00000000
     atom  297 type  2   force =     0.00000000    0.00000000    0.00000000
     atom  298 type  2   force =     0.00000000    0.00000000    0.00000000
     atom  299 type  2   force =     0.00000000    0.00000000    0.00000000
     atom  300 type  1   force =     0.00000000    0.00000000    0.00000000
     The SCF correction term to forces
     atom    1 type  1   force =     0.00000009    0.00000005   -0.00000088
     atom    2 type  1   force =     0.00000123    0.00000071    0.00000039
     atom    3 type  1   force =     0.00000011    0.00000006   -0.00000048
     atom    4 type  1   force =     0.00000062   -0.00000048   -0.00000071
     atom    5 type  1   force =     0.00000063    0.00000001    0.00000025
     atom    6 type  1   force =     0.00000047   -0.00000069   -0.00000035
     atom    7 type  1   force =     0.00000050   -0.00000038   -0.00000002
     atom    8 type  1   force =     0.00000032   -0.00000021    0.00000049
     atom    9 type  1   force =     0.00000023   -0.00000039   -0.00000028
     atom   10 type  1   force =    -0.00000008    0.00000062   -0.00000002
     atom   11 type  1   force =    -0.00000002    0.00000038    0.00000049
     atom   12 type  1   force =    -0.00000023    0.00000040   -0.00000028
     atom   13 type  1   force =    -0.00000011    0.00000078   -0.00000071
     atom   14 type  1   force =     0.00000032    0.00000054    0.00000025
     atom   15 type  1   force =    -0.00000037    0.00000075   -0.00000035
     atom   16 type  1   force =    -0.00000048    0.00000043    0.00000057
     atom   17 type  1   force =    -0.00000062    0.00000074   -0.00000052
     atom   18 type  1   force =    -0.00000075    0.00000012   -0.00000046
     atom   19 type  1   force =     0.00000013   -0.00000063    0.00000057
     atom   20 type  1   force =     0.00000033   -0.00000091   -0.00000052
     atom   21 type  1   force =    -0.00000028   -0.00000071   -0.00000046
     atom   22 type  1   force =     0.00000036   -0.00000084    0.00000013
     atom   23 type  1   force =     0.00000035   -0.00000052    0.00000012
     atom   24 type  1   force =     0.00000009   -0.00000083   -0.00000027
     atom   25 type  1   force =    -0.00000007   -0.00000004    0.00000030
     atom   26 type  1   force =     0.00000008    0.00000005    0.00000024
     atom   27 type  1   force =    -0.00000023   -0.00000013   -0.00000039
     atom   28 type  1   force =    -0.00000055    0.00000073    0.00000013
     atom   29 type  1   force =    -0.00000028    0.00000057    0.00000012
     atom   30 type  1   force =    -0.00000067    0.00000049   -0.00000027
     atom   31 type  1   force =    -0.00000087   -0.00000004    0.00000039
     atom   32 type  1   force =    -0.00000071    0.00000009    0.00000017
     atom   33 type  1   force =    -0.00000051    0.00000008   -0.00000030
     atom   34 type  1   force =    -0.00000113   -0.00000065    0.00000045
     atom   35 type  1   force =    -0.00000078   -0.00000045    0.00000007
     atom   36 type  1   force =    -0.00000061   -0.00000035   -0.00000042
     atom   37 type  1   force =    -0.00000047   -0.00000073    0.00000039
     atom   38 type  1   force =    -0.00000028   -0.00000066    0.00000017
     atom   39 type  1   force =    -0.00000018   -0.00000048   -0.00000030
     atom   40 type  1   force =     0.00000028   -0.00000022    0.00000035
     atom   41 type  1   force =     0.00000004   -0.00000018    0.00000017
     atom   42 type  1   force =     0.00000029   -0.00000019   -0.00000036
     atom   43 type  1   force =    -0.00000005    0.00000035    0.00000035
     atom   44 type  1   force =    -0.00000013    0.00000013    0.00000017
     atom   45 type  1   force =    -0.00000002    0.00000035   -0.00000036
     atom   46 type  1   force =     0.00000039   -0.00000020    0.00000012
     atom   47 type  1   force =     0.00000002   -0.00000006    0.00000034
     atom   48 type  1   force =     0.00000035    0.00000004   -0.00000022
     atom   49 type  1   force =    -0.00000026   -0.00000040    0.00000013
     atom   50 type  1   force =    -0.00000034   -0.00000010    0.00000052
     atom   51 type  1   force =    -0.00000011   -0.00000016   -0.00000036
     atom   52 type  1   force =    -0.00000048   -0.00000003    0.00000013
     atom   53 type  1   force =    -0.00000025   -0.00000024    0.00000052
     atom   54 type  1   force =    -0.00000019   -0.00000002   -0.00000036
     atom   55 type  1   force =     0.00000003    0.00000044    0.00000012
     atom   56 type  1   force =    -0.00000004    0.00000005    0.00000034
     atom   57 type  1   force =     0.00000021    0.00000029   -0.00000022
     atom   58 type  1   force =     0.00000055    0.00000032   -0.00000002
     atom   59 type  1   force =     0.00000014    0.00000008    0.00000017
     atom   60 type  1   force =     0.00000063    0.00000037   -0.00000015
[...]
     atom  286 type  2   force =     0.00000005   -0.00000005    0.00000012
     atom  287 type  2   force =     0.00000023   -0.00000002   -0.00000006
     atom  288 type  2   force =     0.00000008   -0.00000011   -0.00000003
     atom  289 type  2   force =    -0.00000007   -0.00000003    0.00000025
     atom  290 type  2   force =     0.00000001   -0.00000003   -0.00000017
     atom  291 type  2   force =    -0.00000005    0.00000013   -0.00000003
     atom  292 type  2   force =    -0.00000006   -0.00000005    0.00000025
     atom  293 type  2   force =    -0.00000002    0.00000003   -0.00000017
     atom  294 type  2   force =    -0.00000000    0.00000024   -0.00000007
     atom  295 type  2   force =    -0.00000002    0.00000007    0.00000012
     atom  296 type  2   force =     0.00000010    0.00000021   -0.00000006
     atom  297 type  2   force =     0.00000015    0.00000009   -0.00000012
     atom  298 type  2   force =    -0.00000000   -0.00000000    0.00000013
     atom  299 type  2   force =     0.00000032    0.00000019   -0.00000004
     atom  300 type  1   force =     0.00000247    0.00000143   -0.00000057

     Total force =     0.005433     Total SCF correction =     0.000011

     Computing stress (Cartesian axis) and pressure

[...]

          total   stress  (Ry/bohr**3)                   (kbar)     P=       10.56
   0.00006095   0.00000004   0.00000005            8.97        0.01        0.01
   0.00000004   0.00006091   0.00000003            0.01        8.96        0.00
   0.00000005   0.00000003   0.00009357            0.01        0.00       13.76

     kinetic stress (kbar)  18469.51      0.03      0.03
                                0.03  18469.47      0.01
                                0.03      0.01  18472.48

     local   stress (kbar)   5597.91      0.89     -0.69
                                0.89   5596.70     -0.40
                               -0.69     -0.40   3772.84

     nonloc. stress (kbar)     78.90      0.01     -0.02
                                0.01     78.89     -0.01
                               -0.02     -0.01     87.18

     hartree stress (kbar)  19675.81     -0.35      0.25
                               -0.35  19676.22      0.14
                                0.25      0.14  20496.77

     exc-cor stress (kbar)   5265.60     -0.00      0.00
                               -0.00   5265.60      0.00
                                0.00      0.00   5266.36

     corecor stress (kbar) -14196.25      0.00     -0.00
                                0.00 -14196.25     -0.00
                               -0.00     -0.00 -14195.86

     ewald   stress (kbar) -35045.48     -0.56      0.44
                               -0.56 -35044.60      0.26
                                0.44      0.26 -34047.94

     hubbard stress (kbar)      0.00      0.00      0.00
                                0.00      0.00      0.00
                                0.00      0.00      0.00

     DFT-D   stress (kbar)      0.00      0.00      0.00
                                0.00      0.00      0.00
                                0.00      0.00      0.00

     XDM     stress (kbar)      0.00      0.00      0.00
                                0.00      0.00      0.00
                                0.00      0.00      0.00

     dft-nl  stress (kbar)    162.95      0.00     -0.00
                                0.00    162.95     -0.00
                               -0.00     -0.00    161.95

     TS-vdW  stress (kbar)      0.00      0.00      0.00
                                0.00      0.00      0.00
                                0.00      0.00      0.00

     MDB     stress (kbar)      0.00      0.00      0.00
                                0.00      0.00      0.00
                                0.00      0.00      0.00

     3D-RISM stress (kbar)      0.00      0.00      0.00
                                0.00      0.00      0.00
                                0.00      0.00      0.00

     Energy error            =      5.8E-05 Ry
     Gradient error          =      2.0E-03 Ry/Bohr

     number of scf cycles    =  16
     number of bfgs steps    =  15

     energy             old  =  -47097.4905281732 Ry
     energy             new  =  -47097.4905861808 Ry

     CASE: energy            _new < energy            _old

     new trust radius        =       0.0053278057 bohr
     new conv_thr            =            1.0E-11 Ry

ATOMIC_POSITIONS (angstrom)
Ga            1.6211276092        0.9359569906        2.3284389471
Ga            1.6211398302        0.9359640464        7.8872871077
Ga            1.6217811922        0.9363343369       13.1907540398
Ga           -0.0062625106        3.7354193562        2.6236092907
Ga           -0.0097241767        3.7860622132        7.9787798831
Ga           -0.0024299617        3.7579420242       13.1929659081
Ga           -1.6241328704        6.5580994478        2.6319756798
Ga           -1.6259325333        6.5659353396        7.9374146545
Ga           -1.6226980200        6.5603180039       13.2198229652
Ga           -3.2439554819        9.3637145101        2.6319756798
Ga           -3.2380692319        9.3582380104        7.9374146545
Ga           -3.2413167307        9.3638478490       13.2198229652
Ga           -4.8795329680       12.1761713875        2.6236092907
Ga           -4.8374058003       12.1478520683        7.9787798831
Ga           -4.8581114908       12.1682291382       13.1929659081
Ga            4.8608215359        0.9489425701        2.6234405138
Ga            4.9059962222        0.9247688787        7.9786383735
Ga            4.8784558964        0.9330844354       13.1930316382
Ga            3.2522204142        3.7351214420        2.6234405138
Ga            3.2538727266        3.7863307136        7.9786383735
Ga            3.2473040469        3.7583223135       13.1930316382
Ga            1.6223700940        6.5487230419        2.6412853844
Ga            1.6227013876        6.5649649517        7.9273096665
Ga            1.6228574184        6.5634857425       13.2255406785
Ga            0.0013650175        9.3669911324        2.6379634254
Ga            0.0017554904        9.3672165721        7.9279442580
Ga            0.0015601282        9.3671037797       13.2178569517
Ga           -1.6288242054       12.1799567537        2.6412853844
Ga           -1.6145926521       12.1721227076        7.9273096665
Ga           -1.6157956694       12.1729974388       13.2255406785
Ga            8.1137153333        0.9369827187        2.6317391466
Ga            8.1208966515        0.9344253549        7.9374338936
Ga            8.1150849390        0.9347519533       13.2198274592
Ga            6.4921984687        3.7482710627        2.6341226048
Ga            6.4966634549        3.7508489237        7.9376911400
Ga            6.4950726774        3.7499304879       13.2205636971
Ga            4.8683097778        6.5581900322        2.6317391466
Ga            4.8696856950        6.5656879180        7.9374338936
Ga            4.8670626812        6.5604915282       13.2198274592
Ga            3.2439049122        9.3669380932        2.6379451333
Ga            3.2432559842        9.3669337301        7.9282245623
Ga            3.2436383287        9.3670357604       13.2181022584
Ga            1.6225890315       12.1751395739        2.6379451333
Ga            1.6222607890       12.1745797673        7.9282245623
Ga            1.6225403220       12.1748598721       13.2181022584
Ga           11.3527311716        0.9366953784        2.6314034079
Ga           11.3442486641        0.9342119894        7.9377422208
Ga           11.3516780461        0.9344915119       13.2198529447
Ga            9.7335329195        3.7463879761        2.6352270629
Ga            9.7333504546        3.7477246091        7.9329002396
Ga            9.7333802412        3.7479969874       13.2168339524
Ga            8.1112348932        6.5562905826        2.6352270629
Ga            8.1123012189        6.5554642469        7.9329002396
Ga            8.1125519987        6.5553538537       13.2168339524
Ga            6.4875688530        9.3634037015        2.6314034079
Ga            6.4811769213        9.3572993291        7.9377422208
Ga            6.4851336859        9.3635936014       13.2198529447
Ga            4.8738005065       12.1800930738        2.6413263069
Ga            4.8581675749       12.1710673965        7.9276897796
Ga            4.8603718954       12.1723400615       13.2258748861
[...]
N            12.9604352042        1.8760216717        7.2850661445
N            12.9664067019        1.8793281914       12.5664323260
N            11.3535838963        4.6847424999        1.9843041328
N            11.3521593332        4.6855578427        7.2769022878
N            11.3528420787        4.6851094193       12.5643404274
N             9.7338956432        7.4901248469        1.9843041328
N             9.7338894693        7.4884834677        7.2769022878
N             9.7338424959        7.4892989543       12.5643404274
N             8.1088118092       10.2942802571        1.9813918999
N             8.1048977078       10.2860593136        7.2850661445
N             8.1107469868       10.2895775225       12.5664323260
N             6.4962607820       13.1168251004        1.9849965412
N             6.4874916062       13.1117622144        7.2899640612
N             6.4767838195       13.1055800709       12.5642828126
Ga            1.6210311717        0.9359013124        4.5793475808

     Writing config-only to output data dir ./GaN.save/
     NEW-OLD atomic charge density approx. for the potential

     Check: negative core charge=   -0.000003

[...]

     Self-consistent Calculation

[...]

     Threshold (ethr) on eigenvalues was too large:
     Diagonalizing with lowered threshold

     Davidson diagonalization with overlap

[...]

     c_bands:  4 eigenvalues not converged
     c_bands:  3 eigenvalues not converged
     ethr =  2.34E-13,  avg # of iterations = 34.3

[...]

     iteration # 14     ecut=    70.00 Ry     beta= 0.70
     Davidson diagonalization with overlap

     ethr =  1.00E-13,  avg # of iterations = 16.0

     Non-local corr. energy    =      82.12464588 Ry

     total energy              =  -47097.49063622 Ry
     estimated scf accuracy    <          4.0E-10 Ry

     Program stopped by user request
     Calculation stopped in scf loop at iteration #    14

     Writing config to output data dir ./GaN.save/

     General routines

     Parallel routines

     PAW routines

   This run was terminated on:   8:12: 0  18Nov2023

   JOB DONE.