     Program PWSCF v.7.1 starts on  6Mar2024 at  8:46: 5

     Reading input from espresso.pwi
Warning: card &CELL ignored
Warning: card    CELL_DYNAMICS    = 'BFGS' ignored
Warning: card / ignored

     Current dimensions of program PWSCF are:
     Max number of different atomic species (ntypx) = 10
     Max number of k-points (npk) =  40000
     Max angular momentum in pseudopotentials (lmaxx) =  4
     file Pb.pbe-dn-kjpaw_psl.1.0.0.UPF: wavefunction(s)  6S 6P 5D renormalized
     file I.pbe-dn-kjpaw_psl.1.0.0.UPF: wavefunction(s)  5S 5P renormalized

     IMPORTANT: XC functional enforced from input :
     Exchange-correlation= BEEF-VDW
                           (   1   4  43  14   2   0   0)
     Any further DFT definition will be discarded
     Please, verify this is what you really want

     R & G space division:  proc/nbgrp/npool/nimage =     256
     wavefunctions fft division:  task group distribution
                                  #TG    x Z-proc =       8     32
     Subspace diagonalization in iterative solution of the eigenvalue problem:
     a serial algorithm will be used

     Using Pencil Decomposition

     bravais-lattice index     =            4
     lattice parameter (alat)  =      35.6120  a.u.
     unit-cell volume          =   45937.3577 (a.u.)^3
     number of atoms/cell      =          144
     number of atomic types    =            2
     number of electrons       =      2309.00
     number of Kohn-Sham states=         1386
     kinetic-energy cutoff     =      70.0000  Ry
     charge density cutoff     =     350.0000  Ry
     scf convergence threshold =      1.0E-07
     mixing beta               =       0.7000
     number of iterations used =            8  plain     mixing
     Exchange-correlation= BEEF-VDW
                           (   1   4  43  14   2   0   0)

     celldm(1)=  35.612033  celldm(2)=   0.000000  celldm(3)=   1.174479
     celldm(4)=   0.000000  celldm(5)=   0.000000  celldm(6)=   0.000000

     crystal axes: (cart. coord. in units of alat)
               a(1) = (   1.000000   0.000000   0.000000 )
               a(2) = (  -0.500000   0.866025   0.000000 )
               a(3) = (   0.000000   0.000000   1.174479 )

     reciprocal axes: (cart. coord. in units 2 pi/alat)
               b(1) = (  1.000000  0.577350 -0.000000 )
               b(2) = (  0.000000  1.154701  0.000000 )
               b(3) = (  0.000000 -0.000000  0.851442 )

     PseudoPot. # 1 for Pb read from file:
     //group///packages/espresso/pseudo/psl_1.0.0/pslibrary.1.0.0/pbe/PSEUDOPOTENTIALS/Pb.pbe-dn-kjpaw_psl.1.0.0.UPF
     MD5 check sum: 39ab5b8a6bbd56b7735ad9f188aac93a
     Pseudo is Projector augmented-wave + core cor, Zval = 14.0
     Generated using 'atomic' code by A. Dal Corso  v.7.1
     Shape of augmentation charge: PSQ
     Using radial grid of 1281 points,  6 beta functions with:
                l(1) =   0
                l(2) =   0
                l(3) =   1
                l(4) =   1
                l(5) =   2
                l(6) =   2
     Q(r) pseudized with 0 coefficients

     PseudoPot. # 2 for I  read from file:
     //group///packages/espresso/pseudo/psl_1.0.0/pslibrary.1.0.0/pbe/PSEUDOPOTENTIALS/I.pbe-dn-kjpaw_psl.1.0.0.UPF
     MD5 check sum: bfa8781bc1224d19af3f3980e3fab11e
     Pseudo is Projector augmented-wave + core cor, Zval = 17.0
     Generated using 'atomic' code by A. Dal Corso  v.7.1
     Shape of augmentation charge: PSQ
     Using radial grid of 1247 points,  6 beta functions with:
                l(1) =   0
                l(2) =   0
                l(3) =   1
                l(4) =   1
                l(5) =   2
                l(6) =   2
     Q(r) pseudized with 0 coefficients

     atomic species   valence    mass     pseudopotential
        Pb            14.00   207.20000     Pb( 1.00)
        I             17.00   126.90447     I ( 1.00)

     No symmetry found

                                    s                        frac. trans.

      isym =  1     identity

 cryst.   s( 1) = (     1          0          0      )
                  (     0          1          0      )
                  (     0          0          1      )

 cart.    s( 1) = (  1.0000000  0.0000000  0.0000000 )
                  (  0.0000000  1.0000000  0.0000000 )
                  (  0.0000000  0.0000000  1.0000000 )

     point group C_1 (1)
     there are  1 classes
     the character table:

       E
A      1.00

     the symmetry operations in each class and the name of the first element:

     E        1
          identity

   Cartesian axes

     site n.     atom                  positions (alat units)
         1           Pb  tau(   1) = (   0.1250034   0.2164918   0.3914896  )
         2           Pb  tau(   2) = (   0.1250085   0.2164873   0.7829825  )
         3           Pb  tau(   3) = (   0.0000128   0.4329881   1.1744712  )
         4           Pb  tau(   4) = (   0.0000026   0.4329971   0.3914855  )
         5           Pb  tau(   5) = (   0.0000077   0.4329926   0.7829784  )
         6           Pb  tau(   6) = (  -0.1249881   0.6494934   1.1744671  )
         7           Pb  tau(   7) = (  -0.1249983   0.6495025   0.3914814  )
         8           Pb  tau(   8) = (  -0.1249932   0.6494980   0.7829742  )
         9           Pb  tau(   9) = (  -0.2499889   0.8659988   1.1744630  )
        10           Pb  tau(  10) = (  -0.2499991   0.8660078   0.3914773  )
        11           Pb  tau(  11) = (  -0.2499940   0.8660033   0.7829701  )
        12           Pb  tau(  12) = (   0.3750136   0.2164818   1.1744786  )
        13           Pb  tau(  13) = (   0.3750034   0.2164908   0.3914929  )
        14           Pb  tau(  14) = (   0.3750085   0.2164863   0.7829857  )
        15           Pb  tau(  15) = (   0.2500128   0.4329871   1.1744745  )
        16           Pb  tau(  16) = (   0.2500026   0.4329962   0.3914888  )
        17           Pb  tau(  17) = (   0.2500077   0.4329916   0.7829816  )
        18           Pb  tau(  18) = (   0.1250119   0.6494925   1.1744703  )
        19           Pb  tau(  19) = (   0.1250017   0.6495015   0.3914847  )
        20           Pb  tau(  20) = (   0.1250068   0.6494970   0.7829775  )
        21           Pb  tau(  21) = (   0.0000111   0.8659978   1.1744662  )
        22           Pb  tau(  22) = (   0.0000009   0.8660069   0.3914805  )
        23           Pb  tau(  23) = (   0.0000060   0.8660024   0.7829734  )
        24           Pb  tau(  24) = (   0.6250136   0.2164808   1.1744818  )
        25           Pb  tau(  25) = (   0.6250034   0.2164898   0.3914962  )
        26           Pb  tau(  26) = (   0.6250085   0.2164853   0.7829890  )
        27           Pb  tau(  27) = (   0.5000128   0.4329862   1.1744777  )
        28           Pb  tau(  28) = (   0.5000026   0.4329952   0.3914920  )
        29           Pb  tau(  29) = (   0.5000077   0.4329907   0.7829849  )
        30           Pb  tau(  30) = (   0.3750119   0.6494915   1.1744736  )
        31           Pb  tau(  31) = (   0.3750017   0.6495006   0.3914879  )
        32           Pb  tau(  32) = (   0.3750068   0.6494960   0.7829808  )
        33           Pb  tau(  33) = (   0.2500111   0.8659969   1.1744695  )
        34           Pb  tau(  34) = (   0.2500009   0.8660059   0.3914838  )
        35           Pb  tau(  35) = (   0.2500060   0.8660014   0.7829766  )
        36           Pb  tau(  36) = (   0.8750136   0.2164798   1.1744851  )
        37           Pb  tau(  37) = (   0.8750034   0.2164889   0.3914994  )
        38           Pb  tau(  38) = (   0.8750085   0.2164844   0.7829923  )
        39           Pb  tau(  39) = (   0.7500128   0.4329852   1.1744810  )
        40           Pb  tau(  40) = (   0.7500026   0.4329942   0.3914953  )
        41           Pb  tau(  41) = (   0.7500077   0.4329897   0.7829881  )
        42           Pb  tau(  42) = (   0.6250119   0.6494906   1.1744769  )
        43           Pb  tau(  43) = (   0.6250017   0.6494996   0.3914912  )
        44           Pb  tau(  44) = (   0.6250068   0.6494951   0.7829840  )
        45           Pb  tau(  45) = (   0.5000111   0.8659959   1.1744727  )
        46           Pb  tau(  46) = (   0.5000009   0.8660050   0.3914870  )
        47           Pb  tau(  47) = (   0.5000060   0.8660004   0.7829799  )
        48           I   tau(  48) = (   0.1250054   0.0721550   0.2909325  )
        49           I   tau(  49) = (   0.1250105   0.0721505   0.6824253  )
        50           I   tau(  50) = (   0.1250156   0.0721459   1.0739182  )
        51           I   tau(  51) = (   0.0000045   0.2886603   0.2909283  )
        52           I   tau(  52) = (   0.0000096   0.2886558   0.6824212  )
        53           I   tau(  53) = (   0.0000147   0.2886513   1.0739140  )
        54           I   tau(  54) = (  -0.1249963   0.5051657   0.2909242  )
        55           I   tau(  55) = (  -0.1249912   0.5051612   0.6824171  )
        56           I   tau(  56) = (  -0.1249861   0.5051566   1.0739099  )
        57           I   tau(  57) = (  -0.2499971   0.7216710   0.2909201  )
        58           I   tau(  58) = (  -0.2499920   0.7216665   0.6824129  )
        59           I   tau(  59) = (  -0.2499869   0.7216620   1.0739058  )
        60           I   tau(  60) = (   0.3750054   0.0721540   0.2909357  )
[...]
       130           I   tau( 130) = (   0.1250009   0.7938394   0.4920425  )
       131           I   tau( 131) = (   0.1250060   0.7938348   0.8835353  )
       132           I   tau( 132) = (   0.7499983   0.1443268   0.1005653  )
       133           I   tau( 133) = (   0.7500034   0.1443223   0.4920581  )
       134           I   tau( 134) = (   0.7500085   0.1443178   0.8835509  )
       135           I   tau( 135) = (   0.6249975   0.3608322   0.1005611  )
       136           I   tau( 136) = (   0.6250026   0.3608277   0.4920540  )
       137           I   tau( 137) = (   0.6250077   0.3608232   0.8835468  )
       138           I   tau( 138) = (   0.4999966   0.5773376   0.1005570  )
       139           I   tau( 139) = (   0.5000017   0.5773330   0.4920499  )
       140           I   tau( 140) = (   0.5000068   0.5773285   0.8835427  )
       141           I   tau( 141) = (   0.3749958   0.7938429   0.1005529  )
       142           I   tau( 142) = (   0.3750009   0.7938384   0.4920457  )
       143           I   tau( 143) = (   0.3750060   0.7938339   0.8835386  )
       144           I   tau( 144) = (   0.1250136   0.2164827   1.1744753  )

   Crystallographic axes

     site n.     atom                  positions (cryst. coord.)
         1           Pb  tau(   1) = (  0.2499950  0.2499832  0.3333306  )
         2           Pb  tau(   2) = (  0.2499975  0.2499780  0.6666639  )
         3           Pb  tau(   3) = (  0.2499986  0.4999716  0.9999938  )
         4           Pb  tau(   4) = (  0.2499936  0.4999820  0.3333271  )
         5           Pb  tau(   5) = (  0.2499961  0.4999768  0.6666604  )
         6           Pb  tau(   6) = (  0.2499972  0.7499704  0.9999902  )
         7           Pb  tau(   7) = (  0.2499922  0.7499809  0.3333236  )
         8           Pb  tau(   8) = (  0.2499947  0.7499757  0.6666569  )
[...]
     atom   26 type  1   force =     0.00000000    0.00000000    0.00000000
     atom   27 type  1   force =     0.00000000    0.00000000    0.00000000
     atom   28 type  1   force =     0.00000000    0.00000000    0.00000000
     atom   29 type  1   force =     0.00000000    0.00000000    0.00000000
     atom   30 type  1   force =     0.00000000    0.00000000    0.00000000
     atom   31 type  1   force =     0.00000000    0.00000000    0.00000000
     atom   32 type  1   force =     0.00000000    0.00000000    0.00000000
     atom   33 type  1   force =     0.00000000    0.00000000    0.00000000
     atom   34 type  1   force =     0.00000000    0.00000000    0.00000000
     atom   35 type  1   force =     0.00000000    0.00000000    0.00000000
     atom   36 type  1   force =     0.00000000    0.00000000    0.00000000
     atom   37 type  1   force =     0.00000000    0.00000000    0.00000000
     atom   38 type  1   force =     0.00000000    0.00000000    0.00000000
     atom   39 type  1   force =     0.00000000    0.00000000    0.00000000
     atom   40 type  1   force =     0.00000000    0.00000000    0.00000000
     atom   41 type  1   force =     0.00000000    0.00000000    0.00000000
     atom   42 type  1   force =     0.00000000    0.00000000    0.00000000
     atom   43 type  1   force =     0.00000000    0.00000000    0.00000000
     atom   44 type  1   force =     0.00000000    0.00000000    0.00000000
     atom   45 type  1   force =     0.00000000    0.00000000    0.00000000
     atom   46 type  1   force =     0.00000000    0.00000000    0.00000000
     atom   47 type  1   force =     0.00000000    0.00000000    0.00000000
     atom   48 type  2   force =     0.00000000    0.00000000    0.00000000
     atom   49 type  2   force =     0.00000000    0.00000000    0.00000000
     atom   50 type  2   force =     0.00000000    0.00000000    0.00000000
     atom   51 type  2   force =     0.00000000    0.00000000    0.00000000
     atom   52 type  2   force =     0.00000000    0.00000000    0.00000000
     atom   53 type  2   force =     0.00000000    0.00000000    0.00000000
     atom   54 type  2   force =     0.00000000    0.00000000    0.00000000
     atom   55 type  2   force =     0.00000000    0.00000000    0.00000000
     atom   56 type  2   force =     0.00000000    0.00000000    0.00000000
     atom   57 type  2   force =     0.00000000    0.00000000    0.00000000
     atom   58 type  2   force =     0.00000000    0.00000000    0.00000000
     atom   59 type  2   force =     0.00000000    0.00000000    0.00000000
     atom   60 type  2   force =     0.00000000    0.00000000    0.00000000
[...]
     atom  130 type  2   force =     0.00000000    0.00000000    0.00000000
     atom  131 type  2   force =     0.00000000    0.00000000    0.00000000
     atom  132 type  2   force =     0.00000000    0.00000000    0.00000000
     atom  133 type  2   force =     0.00000000    0.00000000    0.00000000
     atom  134 type  2   force =     0.00000000    0.00000000    0.00000000
     atom  135 type  2   force =     0.00000000    0.00000000    0.00000000
     atom  136 type  2   force =     0.00000000    0.00000000    0.00000000
     atom  137 type  2   force =     0.00000000    0.00000000    0.00000000
     atom  138 type  2   force =     0.00000000    0.00000000    0.00000000
     atom  139 type  2   force =     0.00000000    0.00000000    0.00000000
     atom  140 type  2   force =     0.00000000    0.00000000    0.00000000
     atom  141 type  2   force =     0.00000000    0.00000000    0.00000000
     atom  142 type  2   force =     0.00000000    0.00000000    0.00000000
     atom  143 type  2   force =     0.00000000    0.00000000    0.00000000
     atom  144 type  2   force =     0.00000000    0.00000000    0.00000000
     The SCF correction term to forces
     atom    1 type  1   force =    -0.00000952   -0.00002140   -0.00005551
     atom    2 type  1   force =     0.00000916    0.00002079    0.00001712
     atom    3 type  1   force =    -0.00004547    0.00000586   -0.00001471
     atom    4 type  1   force =     0.00000059   -0.00000959   -0.00001457
     atom    5 type  1   force =    -0.00000361   -0.00001597    0.00000373
     atom    6 type  1   force =    -0.00000028    0.00000067    0.00003566
     atom    7 type  1   force =     0.00000492    0.00001349   -0.00000863
     atom    8 type  1   force =    -0.00000369   -0.00001293   -0.00002702
     atom    9 type  1   force =     0.00004738   -0.00000520    0.00009135
     atom   10 type  1   force =     0.00000375    0.00001791   -0.00004199
     atom   11 type  1   force =     0.00000074    0.00000901   -0.00002226
     atom   12 type  1   force =     0.00000893    0.00002411    0.00000206
     atom   13 type  1   force =     0.00000158   -0.00002095   -0.00003076
     atom   14 type  1   force =    -0.00000016    0.00003111    0.00001136
     atom   15 type  1   force =     0.00006430   -0.00001365   -0.00005123
     atom   16 type  1   force =    -0.00000063   -0.00000281   -0.00001035
     atom   17 type  1   force =     0.00001783   -0.00002101    0.00001797
     atom   18 type  1   force =     0.00000701    0.00001244    0.00002355
     atom   19 type  1   force =     0.00000474    0.00000362    0.00000164
     atom   20 type  1   force =     0.00000530   -0.00001564   -0.00002686
     atom   21 type  1   force =    -0.00000002    0.00001992    0.00004683
     atom   22 type  1   force =    -0.00000784    0.00001881   -0.00001249
     atom   23 type  1   force =    -0.00000271    0.00001702   -0.00003246
     atom   24 type  1   force =     0.00000008   -0.00000019    0.00003581
     atom   25 type  1   force =     0.00000637   -0.00001888   -0.00001561
     atom   26 type  1   force =    -0.00000654    0.00001748   -0.00002051
     atom   27 type  1   force =    -0.00001619   -0.00002160    0.00000846
     atom   28 type  1   force =    -0.00000367   -0.00001154    0.00000133
     atom   29 type  1   force =    -0.00002179   -0.00002126   -0.00001485
     atom   30 type  1   force =     0.00000039    0.00000054    0.00003558
     atom   31 type  1   force =    -0.00000448    0.00002056   -0.00001165
     atom   32 type  1   force =     0.00000322   -0.00001997   -0.00002404
     atom   33 type  1   force =     0.00001658    0.00002154    0.00006243
     atom   34 type  1   force =     0.00002235    0.00002177   -0.00002240
     atom   35 type  1   force =     0.00000260    0.00001083   -0.00003600
     atom   36 type  1   force =    -0.00000893   -0.00002672    0.00007421
     atom   37 type  1   force =     0.00000153   -0.00003254   -0.00004939
     atom   38 type  1   force =    -0.00000270    0.00001958   -0.00000697
     atom   39 type  1   force =    -0.00000087   -0.00002009    0.00002432
     atom   40 type  1   force =     0.00000371   -0.00001747   -0.00000217
     atom   41 type  1   force =     0.00000735   -0.00001827   -0.00002472
     atom   42 type  1   force =    -0.00000728   -0.00001257    0.00004730
     atom   43 type  1   force =    -0.00000514    0.00001646   -0.00000782
     atom   44 type  1   force =    -0.00000475   -0.00000392   -0.00003757
     atom   45 type  1   force =    -0.00006577    0.00001419    0.00012784
     atom   46 type  1   force =    -0.00001815    0.00002313   -0.00005634
     atom   47 type  1   force =    -0.00000064    0.00000225   -0.00002652
     atom   48 type  2   force =    -0.00002754    0.00002012   -0.00003635
     atom   49 type  2   force =    -0.00000027   -0.00000003    0.00000557
     atom   50 type  2   force =    -0.00000068    0.00002554    0.00001211
     atom   51 type  2   force =    -0.00001280   -0.00007022   -0.00001588
     atom   52 type  2   force =    -0.00001185    0.00000639    0.00002352
     atom   53 type  2   force =     0.00000003   -0.00000243   -0.00000174
     atom   54 type  2   force =     0.00000763   -0.00001118   -0.00001378
     atom   55 type  2   force =    -0.00000771   -0.00001210   -0.00001155
     atom   56 type  2   force =     0.00000161   -0.00001238    0.00003099
     atom   57 type  2   force =     0.00000014    0.00004031   -0.00002292
     atom   58 type  2   force =    -0.00000338   -0.00000771   -0.00002538
     atom   59 type  2   force =     0.00003327   -0.00003121    0.00005399
     atom   60 type  2   force =    -0.00001625    0.00001382   -0.00001603
[...]
     atom  130 type  2   force =     0.00000570    0.00001378    0.00000226
     atom  131 type  2   force =     0.00000193    0.00000450   -0.00000481
     atom  132 type  2   force =     0.00003182   -0.00000090    0.00002600
     atom  133 type  2   force =     0.00000143   -0.00000810   -0.00002749
     atom  134 type  2   force =     0.00000468    0.00003276   -0.00000452
     atom  135 type  2   force =    -0.00000038   -0.00003518   -0.00000929
     atom  136 type  2   force =    -0.00000045   -0.00001706    0.00001851
     atom  137 type  2   force =    -0.00001585   -0.00001965   -0.00000577
     atom  138 type  2   force =    -0.00001687    0.00000920   -0.00000312
     atom  139 type  2   force =    -0.00000626    0.00000213    0.00001772
     atom  140 type  2   force =    -0.00002539   -0.00002940   -0.00000963
     atom  141 type  2   force =     0.00001345    0.00004378    0.00003419
     atom  142 type  2   force =    -0.00000761    0.00001511   -0.00002799
     atom  143 type  2   force =     0.00000429   -0.00000276   -0.00001180
     atom  144 type  2   force =    -0.00000017   -0.00000043    0.00004258

     Total force =     0.003968     Total SCF correction =     0.000518
     SCF correction compared to forces is large: reduce conv_thr to get better values

     Computing stress (Cartesian axis) and pressure

[...]

          total   stress  (Ry/bohr**3)                   (kbar)     P=        6.74
   0.00004565  -0.00000000   0.00000000            6.72       -0.00        0.00
  -0.00000000   0.00004566   0.00000000           -0.00        6.72        0.00
   0.00000000   0.00000000   0.00004616            0.00        0.00        6.79

     kinetic stress (kbar)  14945.51     -0.00      0.00
                               -0.00  14945.52      0.00
                                0.00      0.00  14954.49

     local   stress (kbar)  -7309.89     -0.04      0.02
                               -0.04  -7309.62      0.05
                                0.02      0.05   1156.70

     nonloc. stress (kbar)   -998.26     -0.00      0.00
                               -0.00   -998.25      0.00
                                0.00      0.00  -1004.52

     hartree stress (kbar)  11988.66      0.02     -0.01
                                0.02  11988.55     -0.02
                               -0.01     -0.02   8163.19

     exc-cor stress (kbar)   6969.66     -0.00      0.00
                               -0.00   6969.66      0.00
                                0.00      0.00   6968.79

     corecor stress (kbar) -11344.55      0.00     -0.00
                                0.00 -11344.55     -0.00
                               -0.00     -0.00 -11344.48

     ewald   stress (kbar) -14328.14      0.03     -0.01
                                0.03 -14328.32     -0.04
                               -0.01     -0.04 -18972.28

     hubbard stress (kbar)      0.00      0.00      0.00
                                0.00      0.00      0.00
                                0.00      0.00      0.00

     DFT-D   stress (kbar)      0.00      0.00      0.00
                                0.00      0.00      0.00
                                0.00      0.00      0.00

     XDM     stress (kbar)      0.00      0.00      0.00
                                0.00      0.00      0.00
                                0.00      0.00      0.00

     dft-nl  stress (kbar)     83.72     -0.00     -0.00
                               -0.00     83.72     -0.00
                               -0.00     -0.00     84.91

     TS-vdW  stress (kbar)      0.00      0.00      0.00
                                0.00      0.00      0.00
                                0.00      0.00      0.00

     MDB     stress (kbar)      0.00      0.00      0.00
                                0.00      0.00      0.00
                                0.00      0.00      0.00

     3D-RISM stress (kbar)      0.00      0.00      0.00
                                0.00      0.00      0.00
                                0.00      0.00      0.00

[...]

     Non-local corr. energy    =      69.33626809 Ry

 BEEFens 2000 ensemble energies
             -0.581960831878928E+02
             -0.585778334473926E+03
             -0.266514566859714E+03
              0.204574563319554E+03
             -0.447684457923936E+03
             -0.548188110612510E+03
              0.281328484562737E+03
              0.120310967452451E+01
              0.474254681631854E+03
             -0.299931471330196E+02
              0.242704353658883E+03
              0.248486543553608E+02
             -0.186044290651382E+02
             -0.150139503408209E+02
              0.302724056073714E+03
             -0.227804137092242E+03
             -0.447442340363318E+03
             -0.144357731336808E+03
              0.129450760171926E+03
             -0.270764293797947E+01
              0.659650379043651E+03
              0.550631204788799E+03
             -0.339173825602949E+03
              0.117247403543288E+03
             -0.706598340613043E+03
              0.580035729160142E+03
              0.198334051826601E+03
              0.523812941707319E+03
              0.353073445649804E+03
             -0.163940563110792E+03
              0.129180002903820E+03
             -0.231022856981234E+03
              0.963888021899176E+02
              0.351148187250143E+03
              0.377817866524553E+03
             -0.164166019258594E+03
              0.833670361647479E+03
             -0.335386733093044E+03
             -0.223475005671484E+03
              0.333423640727973E+03
              0.147001847460648E+03
              0.253292817443805E+03
             -0.489327252226516E+03
             -0.317601307683644E+02
              0.469492672071061E+03
              0.613580462469682E+03
             -0.622916477359243E+03
              0.400517173466413E+02
              0.216148311970314E+03
              0.139496529070841E+03
              0.243672099907584E+03
              0.535001611987322E+03
             -0.347402491266584E+03
             -0.337213094329256E+03
             -0.469773673550442E+03
             -0.682477614674299E+02
             -0.400760633968476E+03
              0.518089813582092E+02
             -0.578137598464191E+02
             -0.317901167026902E+03
[...]
              0.396960952878851E+03
              0.254279608513072E+03
              0.259335919787127E+03
             -0.479771615330328E+03
             -0.495487971448273E+03
             -0.111715438453293E+03
             -0.442892770927271E+03
              0.703216781143323E+03
              0.592378621210309E+03
              0.279338121010801E+03
              0.770155236918722E+03
             -0.384914024224286E+03
             -0.165777070116367E+03
             -0.238874334842239E+03
              0.666220209943146E+03

 BEEF-vdW xc energy contributions
            1 :    -6022.625782810311
            2 :     5518.970069506458
            3 :    -4659.885850231573
            4 :     3674.070319829784
            5 :    -2777.230347472289
            6 :     2102.448168052865
            7 :    -1678.211070458591
            8 :     1448.260921718967
            9 :    -1314.426126850512
           10 :     1183.773898776502
           11 :    -1003.937476731483
           12 :     774.5950422181695
           13 :    -533.2367213619009
           14 :     326.3609819742496
           15 :    -183.3762741007458
           16 :     105.3491343815440
           17 :    -69.99900133259143
           18 :     46.39861030280099
           19 :    -10.74959609354391
           20 :    -43.71528566693542
           21 :     106.4176202783774
           22 :    -158.0971027153209
           23 :     183.3544913508767
           24 :    -179.9043054839849
           25 :     159.5939283691923
           26 :    -141.3842644166843
           27 :     140.9187874103300
           28 :    -162.4937293990643
           29 :     197.3214069758060
           30 :    -228.5831243521525
           31 :    -517.9518450077458
           32 :    -372.6201663667034

     Writing all to output data dir ./PbI2.save/

     General routines

     Parallel routines

     PAW routines

   This run was terminated on:   9: 1:49   6Mar2024

   JOB DONE.