     Program PWSCF v.7.1 starts on 29Jan2024 at 17:43: 4

     Reading input from espresso.pwi
Warning: card &CELL ignored
Warning: card    CELL_DYNAMICS    = 'BFGS' ignored
Warning: card / ignored

     Current dimensions of program PWSCF are:
     Max number of different atomic species (ntypx) = 10
     Max number of k-points (npk) =  40000
     Max angular momentum in pseudopotentials (lmaxx) =  4
     file Ga.pbe-dn-kjpaw_psl.1.0.0.UPF: wavefunction(s)  4S renormalized
     file N.pbe-n-kjpaw_psl.1.0.0.UPF: wavefunction(s)  2S renormalized

     IMPORTANT: XC functional enforced from input :
     Exchange-correlation= BEEF-VDW
                           (   1   4  43  14   2   0   0)
     Any further DFT definition will be discarded
     Please, verify this is what you really want

     K-points division:     npool     =       4
     R & G space division:  proc/nbgrp/npool/nimage =      64
     Subspace diagonalization in iterative solution of the eigenvalue problem:
     a serial algorithm will be used

     Using Slab Decomposition

     bravais-lattice index     =            4
     lattice parameter (alat)  =      24.5252  a.u.
     unit-cell volume          =   15616.6055 (a.u.)^3
     number of atoms/cell      =          191
     number of atomic types    =            2
     number of electrons       =      1716.00
     number of Kohn-Sham states=         1030
     kinetic-energy cutoff     =      70.0000  Ry
     charge density cutoff     =     350.0000  Ry
     scf convergence threshold =      1.0E-09
     mixing beta               =       0.7000
     number of iterations used =            8  plain     mixing
     energy convergence thresh.=      1.0E-04
     force convergence thresh. =      1.0E-03
     Exchange-correlation= BEEF-VDW
                           (   1   4  43  14   2   0   0)
     nstep                     =           50

     celldm(1)=  24.525232  celldm(2)=   0.000000  celldm(3)=   1.222409
     celldm(4)=   0.000000  celldm(5)=   0.000000  celldm(6)=   0.000000

     crystal axes: (cart. coord. in units of alat)
               a(1) = (   1.000000   0.000000   0.000000 )
               a(2) = (  -0.500000   0.866025   0.000000 )
               a(3) = (   0.000000   0.000000   1.222409 )

     reciprocal axes: (cart. coord. in units 2 pi/alat)
               b(1) = (  1.000000  0.577350 -0.000000 )
               b(2) = (  0.000000  1.154701  0.000000 )
               b(3) = (  0.000000 -0.000000  0.818057 )

     PseudoPot. # 1 for Ga read from file:
     /trace/group/acmegroup/atimmins/packages/espresso/pseudo/psl_1.0.0/pslibrary.1.0.0/pbe/PSEUDOPOTENTIALS/Ga.pbe-dn-kjpaw_psl.1.0.0.UPF
     MD5 check sum: cd2a01e492f15b435d17032472d8505c
     Pseudo is Projector augmented-wave + core cor, Zval = 13.0
     Generated using 'atomic' code by A. Dal Corso  v.7.1
     Shape of augmentation charge: PSQ
     Using radial grid of 1205 points,  6 beta functions with:
                l(1) =   0
                l(2) =   0
                l(3) =   1
                l(4) =   1
                l(5) =   2
                l(6) =   2
     Q(r) pseudized with 0 coefficients

     PseudoPot. # 2 for N  read from file:
     /trace/group/acmegroup/atimmins/packages/espresso/pseudo/psl_1.0.0/pslibrary.1.0.0/pbe/PSEUDOPOTENTIALS/N.pbe-n-kjpaw_psl.1.0.0.UPF
     MD5 check sum: f77f775694dac7e2c3fe1c82443d1a16
     Pseudo is Projector augmented-wave + core cor, Zval =  5.0
     Generated using 'atomic' code by A. Dal Corso  v.7.1
     Shape of augmentation charge: PSQ
     Using radial grid of 1085 points,  4 beta functions with:
                l(1) =   0
                l(2) =   0
                l(3) =   1
                l(4) =   1
     Q(r) pseudized with 0 coefficients

     atomic species   valence    mass     pseudopotential
        Ga            13.00    69.72300     Ga( 1.00)
        N              5.00    14.00700     N ( 1.00)

      6 Sym. Ops. (no inversion) found ( 4 have fractional translation)

                                    s                        frac. trans.

      isym =  1     identity

 cryst.   s( 1) = (     1          0          0      )
                  (     0          1          0      )
                  (     0          0          1      )

 cart.    s( 1) = (  1.0000000  0.0000000  0.0000000 )
                  (  0.0000000  1.0000000  0.0000000 )
                  (  0.0000000  0.0000000  1.0000000 )

      isym =  2     120 deg rotation - cryst. axis [0,0,1]

 cryst.   s( 2) = (     0          1          0      )    f =( -0.2500000 )
                  (    -1         -1          0      )       (  0.0000002 )
                  (     0          0          1      )       (  0.0000000 )

 cart.    s( 2) = ( -0.5000000 -0.8660254  0.0000000 )    f =( -0.2500001 )
                  (  0.8660254 -0.5000000  0.0000000 )       (  0.0000002 )
                  (  0.0000000  0.0000000  1.0000000 )       (  0.0000000 )

      isym =  3     120 deg rotation - cryst. axis [0,0,-1]

[...]

      isym =  4     inv. 180 deg rotation - cart. axis [1,0,0]

[...]

      isym =  5     inv. 180 deg rotation - cryst. axis [0,1,0]

 cryst.   s( 5) = (     1          1          0      )
                  (     0         -1          0      )
                  (     0          0          1      )

 cart.    s( 5) = (  0.5000000  0.8660254  0.0000000 )
                  (  0.8660254 -0.5000000  0.0000000 )
                  (  0.0000000  0.0000000  1.0000000 )

      isym =  6     inv. 180 deg rotation - cryst. axis [1,1,0]

 cryst.   s( 6) = (     0         -1          0      )    f =( -0.2500000 )
                  (    -1          0          0      )       ( -0.2500000 )
                  (     0          0          1      )       (  0.0000000 )

 cart.    s( 6) = (  0.5000000 -0.8660254  0.0000000 )    f =( -0.1250000 )
                  ( -0.8660254 -0.5000000  0.0000000 )       ( -0.2165064 )
                  (  0.0000000  0.0000000  1.0000000 )       (  0.0000000 )

     point group C_3v (3m)
     there are  3 classes
     the character table:

       E     2C3   3s_v
A_1    1.00  1.00  1.00
A_2    1.00  1.00 -1.00
E      2.00 -1.00  0.00

     the symmetry operations in each class and the name of the first element:

     E        1
          identity
     2C3      2    3
          120 deg rotation - cryst. axis [0,0,1]
     3s_v     4    5    6
          inv. 180 deg rotation - cart. axis [1,0,0]

   Cartesian axes

     site n.     atom                  positions (alat units)
         1           Ga  tau(   1) = (   0.1250001   0.0721687   0.6108633  )
         2           Ga  tau(   2) = (   0.1250001   0.0721687   1.0183331  )
         3           Ga  tau(   3) = (   0.0000001   0.2886751   0.2033935  )
         4           Ga  tau(   4) = (   0.0000001   0.2886751   0.6108633  )
         5           Ga  tau(   5) = (   0.0000001   0.2886751   1.0183331  )
         6           Ga  tau(   6) = (  -0.1249999   0.5051814   0.2033935  )
         7           Ga  tau(   7) = (  -0.1249999   0.5051814   0.6108633  )
         8           Ga  tau(   8) = (  -0.1249999   0.5051814   1.0183331  )
         9           Ga  tau(   9) = (  -0.2499999   0.7216878   0.2033935  )
        10           Ga  tau(  10) = (  -0.2499999   0.7216878   0.6108633  )
        11           Ga  tau(  11) = (  -0.2499999   0.7216878   1.0183331  )
        12           Ga  tau(  12) = (   0.3750001   0.0721687   0.2033935  )
        13           Ga  tau(  13) = (   0.3750001   0.0721687   0.6108633  )
        14           Ga  tau(  14) = (   0.3750001   0.0721687   1.0183331  )
        15           Ga  tau(  15) = (   0.2500001   0.2886751   0.2033935  )
        16           Ga  tau(  16) = (   0.2500001   0.2886751   0.6108633  )
        17           Ga  tau(  17) = (   0.2500001   0.2886751   1.0183331  )
        18           Ga  tau(  18) = (   0.1250001   0.5051814   0.2033935  )
        19           Ga  tau(  19) = (   0.1250001   0.5051814   0.6108633  )
        20           Ga  tau(  20) = (   0.1250001   0.5051814   1.0183331  )
        21           Ga  tau(  21) = (   0.0000001   0.7216878   0.2033935  )
        22           Ga  tau(  22) = (   0.0000001   0.7216878   0.6108633  )
        23           Ga  tau(  23) = (   0.0000001   0.7216878   1.0183331  )
        24           Ga  tau(  24) = (   0.6250001   0.0721687   0.2033935  )
        25           Ga  tau(  25) = (   0.6250001   0.0721687   0.6108633  )
        26           Ga  tau(  26) = (   0.6250001   0.0721687   1.0183331  )
        27           Ga  tau(  27) = (   0.5000001   0.2886751   0.2033935  )
        28           Ga  tau(  28) = (   0.5000001   0.2886751   0.6108633  )
        29           Ga  tau(  29) = (   0.5000001   0.2886751   1.0183331  )
        30           Ga  tau(  30) = (   0.3750001   0.5051814   0.2033935  )
        31           Ga  tau(  31) = (   0.3750001   0.5051814   0.6108633  )
        32           Ga  tau(  32) = (   0.3750001   0.5051814   1.0183331  )
        33           Ga  tau(  33) = (   0.2500001   0.7216878   0.2033935  )
        34           Ga  tau(  34) = (   0.2500001   0.7216878   0.6108633  )
        35           Ga  tau(  35) = (   0.2500001   0.7216878   1.0183331  )
        36           Ga  tau(  36) = (   0.8750001   0.0721687   0.2033935  )
        37           Ga  tau(  37) = (   0.8750001   0.0721687   0.6108633  )
        38           Ga  tau(  38) = (   0.8750001   0.0721687   1.0183331  )
        39           Ga  tau(  39) = (   0.7500001   0.2886751   0.2033935  )
        40           Ga  tau(  40) = (   0.7500001   0.2886751   0.6108633  )
        41           Ga  tau(  41) = (   0.7500001   0.2886751   1.0183331  )
        42           Ga  tau(  42) = (   0.6250001   0.5051814   0.2033935  )
        43           Ga  tau(  43) = (   0.6250001   0.5051814   0.6108633  )
        44           Ga  tau(  44) = (   0.6250001   0.5051814   1.0183331  )
        45           Ga  tau(  45) = (   0.5000001   0.7216878   0.2033935  )
        46           Ga  tau(  46) = (   0.5000001   0.7216878   0.6108633  )
        47           Ga  tau(  47) = (   0.5000001   0.7216878   1.0183331  )
        48           Ga  tau(  48) = (  -0.0000002   0.1443377   0.4071284  )
        49           Ga  tau(  49) = (  -0.0000002   0.1443377   0.8145982  )
        50           Ga  tau(  50) = (  -0.0000002   0.1443377   1.2220680  )
        51           Ga  tau(  51) = (  -0.1250002   0.3608440   0.4071284  )
        52           Ga  tau(  52) = (  -0.1250002   0.3608440   0.8145982  )
        53           Ga  tau(  53) = (  -0.1250002   0.3608440   1.2220680  )
        54           Ga  tau(  54) = (  -0.2500002   0.5773504   0.4071284  )
        55           Ga  tau(  55) = (  -0.2500002   0.5773504   0.8145982  )
        56           Ga  tau(  56) = (  -0.2500002   0.5773504   1.2220680  )
        57           Ga  tau(  57) = (  -0.3750001   0.7938567   0.4071284  )
        58           Ga  tau(  58) = (  -0.3750001   0.7938567   0.8145982  )
        59           Ga  tau(  59) = (  -0.3750001   0.7938567   1.2220680  )
[...]
     atom   44 type  1   force =     0.00000000    0.00000000    0.00000000
     atom   45 type  1   force =     0.00000000    0.00000000    0.00000000
     atom   46 type  1   force =     0.00000000    0.00000000    0.00000000
     atom   47 type  1   force =     0.00000000    0.00000000    0.00000000
     atom   48 type  1   force =     0.00000000    0.00000000    0.00000000
     atom   49 type  1   force =     0.00000000    0.00000000    0.00000000
     atom   50 type  1   force =     0.00000000    0.00000000    0.00000000
     atom   51 type  1   force =     0.00000000    0.00000000    0.00000000
     atom   52 type  1   force =     0.00000000    0.00000000    0.00000000
     atom   53 type  1   force =     0.00000000    0.00000000    0.00000000
     atom   54 type  1   force =     0.00000000    0.00000000    0.00000000
     atom   55 type  1   force =     0.00000000    0.00000000    0.00000000
     atom   56 type  1   force =     0.00000000    0.00000000    0.00000000
     atom   57 type  1   force =     0.00000000    0.00000000    0.00000000
     atom   58 type  1   force =     0.00000000    0.00000000    0.00000000
     atom   59 type  1   force =     0.00000000    0.00000000    0.00000000
     atom   60 type  1   force =     0.00000000    0.00000000    0.00000000
[...]
     atom  177 type  2   force =     0.00000000    0.00000000    0.00000000
     atom  178 type  2   force =     0.00000000    0.00000000    0.00000000
     atom  179 type  2   force =     0.00000000    0.00000000    0.00000000
     atom  180 type  2   force =     0.00000000    0.00000000    0.00000000
     atom  181 type  2   force =     0.00000000    0.00000000    0.00000000
     atom  182 type  2   force =     0.00000000    0.00000000    0.00000000
     atom  183 type  2   force =     0.00000000    0.00000000    0.00000000
     atom  184 type  2   force =     0.00000000    0.00000000    0.00000000
     atom  185 type  2   force =     0.00000000    0.00000000    0.00000000
     atom  186 type  2   force =     0.00000000    0.00000000    0.00000000
     atom  187 type  2   force =     0.00000000    0.00000000    0.00000000
     atom  188 type  2   force =     0.00000000    0.00000000    0.00000000
     atom  189 type  2   force =     0.00000000    0.00000000    0.00000000
     atom  190 type  2   force =     0.00000000    0.00000000    0.00000000
     atom  191 type  2   force =     0.00000000    0.00000000    0.00000000
     The SCF correction term to forces
     atom    1 type  1   force =    -0.00000000   -0.00000000   -0.00000051
     atom    2 type  1   force =    -0.00000000    0.00000000    0.00000020
     atom    3 type  1   force =     0.00000040   -0.00000040    0.00000007
     atom    4 type  1   force =     0.00000003    0.00000002   -0.00000031
     atom    5 type  1   force =    -0.00000005    0.00000007    0.00000002
     atom    6 type  1   force =     0.00000020    0.00000011    0.00000020
     atom    7 type  1   force =     0.00000007    0.00000004   -0.00000003
     atom    8 type  1   force =    -0.00000009   -0.00000005   -0.00000026
     atom    9 type  1   force =    -0.00000015    0.00000055    0.00000007
     atom   10 type  1   force =     0.00000004    0.00000002   -0.00000031
     atom   11 type  1   force =     0.00000004   -0.00000008    0.00000002
     atom   12 type  1   force =    -0.00000055   -0.00000014    0.00000007
     atom   13 type  1   force =     0.00000000   -0.00000004   -0.00000031
     atom   14 type  1   force =     0.00000009    0.00000000    0.00000002
     atom   15 type  1   force =    -0.00000040   -0.00000040    0.00000007
     atom   16 type  1   force =    -0.00000003    0.00000002   -0.00000031
     atom   17 type  1   force =     0.00000005    0.00000007    0.00000002
     atom   18 type  1   force =     0.00000000   -0.00000038    0.00000023
     atom   19 type  1   force =     0.00000000    0.00000003   -0.00000009
     atom   20 type  1   force =     0.00000000   -0.00000002   -0.00000022
     atom   21 type  1   force =    -0.00000033    0.00000019    0.00000023
     atom   22 type  1   force =     0.00000003   -0.00000002   -0.00000009
     atom   23 type  1   force =    -0.00000001    0.00000001   -0.00000022
     atom   24 type  1   force =     0.00000000   -0.00000023    0.00000020
     atom   25 type  1   force =    -0.00000000   -0.00000009   -0.00000003
     atom   26 type  1   force =    -0.00000000    0.00000010   -0.00000026
     atom   27 type  1   force =    -0.00000031   -0.00000018    0.00000035
     atom   28 type  1   force =    -0.00000008   -0.00000004   -0.00000013
     atom   29 type  1   force =     0.00000010    0.00000006   -0.00000019
     atom   30 type  1   force =    -0.00000020    0.00000011    0.00000020
     atom   31 type  1   force =    -0.00000007    0.00000004   -0.00000003
     atom   32 type  1   force =     0.00000009   -0.00000005   -0.00000026
     atom   33 type  1   force =     0.00000033    0.00000019    0.00000023
     atom   34 type  1   force =    -0.00000003   -0.00000002   -0.00000009
     atom   35 type  1   force =     0.00000001    0.00000001   -0.00000022
     atom   36 type  1   force =     0.00000055   -0.00000014    0.00000007
     atom   37 type  1   force =    -0.00000000   -0.00000004   -0.00000031
     atom   38 type  1   force =    -0.00000009    0.00000000    0.00000002
     atom   39 type  1   force =     0.00000031   -0.00000018    0.00000035
     atom   40 type  1   force =     0.00000008   -0.00000004   -0.00000013
     atom   41 type  1   force =    -0.00000010    0.00000006   -0.00000019
     atom   42 type  1   force =    -0.00000000    0.00000036    0.00000035
     atom   43 type  1   force =    -0.00000000    0.00000009   -0.00000013
     atom   44 type  1   force =     0.00000000   -0.00000011   -0.00000019
     atom   45 type  1   force =     0.00000015    0.00000055    0.00000007
     atom   46 type  1   force =    -0.00000004    0.00000002   -0.00000031
     atom   47 type  1   force =    -0.00000004   -0.00000008    0.00000002
     atom   48 type  1   force =    -0.00000003    0.00000002    0.00000011
     atom   49 type  1   force =    -0.00000017    0.00000010   -0.00000033
     atom   50 type  1   force =     0.00000029   -0.00000017    0.00000072
     atom   51 type  1   force =     0.00000015   -0.00000012    0.00000032
     atom   52 type  1   force =    -0.00000009    0.00000005   -0.00000023
     atom   53 type  1   force =     0.00000032   -0.00000020    0.00000004
     atom   54 type  1   force =    -0.00000003    0.00000020    0.00000032
     atom   55 type  1   force =    -0.00000000   -0.00000010   -0.00000023
     atom   56 type  1   force =    -0.00000001    0.00000037    0.00000004
     atom   57 type  1   force =    -0.00000000   -0.00000004    0.00000011
     atom   58 type  1   force =    -0.00000000   -0.00000020   -0.00000033
     atom   59 type  1   force =     0.00000000    0.00000033    0.00000072
     atom   60 type  1   force =     0.00000003    0.00000002    0.00000011
[...]
     atom  177 type  2   force =    -0.00000000    0.00000006    0.00000009
     atom  178 type  2   force =     0.00000000   -0.00000005    0.00000007
     atom  179 type  2   force =     0.00000000   -0.00000002   -0.00000010
     atom  180 type  2   force =     0.00000017   -0.00000016    0.00000010
     atom  181 type  2   force =     0.00000004   -0.00000001   -0.00000003
     atom  182 type  2   force =    -0.00000002    0.00000008   -0.00000003
     atom  183 type  2   force =    -0.00000000    0.00000000    0.00000013
     atom  184 type  2   force =     0.00000000   -0.00000000   -0.00000010
     atom  185 type  2   force =     0.00000000   -0.00000000    0.00000002
     atom  186 type  2   force =    -0.00000005    0.00000023    0.00000010
     atom  187 type  2   force =     0.00000001    0.00000004   -0.00000003
     atom  188 type  2   force =     0.00000006   -0.00000005   -0.00000003
     atom  189 type  2   force =     0.00000017    0.00000010    0.00000010
     atom  190 type  2   force =     0.00000002    0.00000001   -0.00000009
     atom  191 type  2   force =    -0.00000002   -0.00000001   -0.00000005

     Total force =     0.003547     Total SCF correction =     0.000004

     Computing stress (Cartesian axis) and pressure

     Non-local corr. energy    =      51.87752667 Ry

          total   stress  (Ry/bohr**3)                   (kbar)     P=       12.14
   0.00007820   0.00000000   0.00000000           11.50        0.00        0.00
   0.00000000   0.00007820   0.00000000            0.00       11.50        0.00
   0.00000000   0.00000000   0.00009125            0.00        0.00       13.42

     kinetic stress (kbar)  18349.90     -0.00      0.00
                                0.00  18349.90      0.00
                                0.00      0.00  18349.45

     local   stress (kbar)   4908.40     -0.07     -0.00
                               -0.07   4908.31     -0.00
                               -0.00     -0.00   3318.32

     nonloc. stress (kbar)     49.42      0.00      0.00
                                0.00     49.42     -0.00
                                0.00     -0.00     59.11

     hartree stress (kbar)  19619.13     -0.00     -0.00
                               -0.00  19619.13      0.00
                               -0.00      0.00  20341.65

     exc-cor stress (kbar)   5151.47      0.00     -0.00
                                0.00   5151.47      0.00
                               -0.00      0.00   5151.87

     corecor stress (kbar) -13969.88     -0.00     -0.00
                               -0.00 -13969.88      0.00
                               -0.00      0.00 -13969.46

     ewald   stress (kbar) -34257.61      0.09      0.00
                                0.09 -34257.49     -0.00
                                0.00     -0.00 -33397.31

     hubbard stress (kbar)      0.00      0.00      0.00
                                0.00      0.00      0.00
                                0.00      0.00      0.00

     DFT-D   stress (kbar)      0.00      0.00      0.00
                                0.00      0.00      0.00
                                0.00      0.00      0.00

     XDM     stress (kbar)      0.00      0.00      0.00
                                0.00      0.00      0.00
                                0.00      0.00      0.00

     dft-nl  stress (kbar)    160.67     -0.00     -0.00
                               -0.00    160.67     -0.00
                               -0.00     -0.00    159.80

     TS-vdW  stress (kbar)      0.00      0.00      0.00
                                0.00      0.00      0.00
                                0.00      0.00      0.00

     MDB     stress (kbar)      0.00      0.00      0.00
                                0.00      0.00      0.00
                                0.00      0.00      0.00

     3D-RISM stress (kbar)      0.00      0.00      0.00
                                0.00      0.00      0.00
                                0.00      0.00      0.00

     Energy error            =      3.7E-05 Ry
     Gradient error          =      7.1E-04 Ry/Bohr

     bfgs converged in  12 scf cycles and  11 bfgs steps
     (criteria: energy <  1.0E-04 Ry, force <  1.0E-03 Ry/Bohr)

     End of BFGS Geometry Optimization

     Final energy             =  -29695.3628818700 Ry

     File ./GaN.bfgs deleted, as requested
Begin final coordinates

ATOMIC_POSITIONS (angstrom)
Ga            1.6222756606        0.9366198184        7.8921360816
Ga            1.6222756606        0.9366198184       13.2200870862
Ga            0.0176901787        3.7262014533        2.6451534096
Ga           -0.0019140449        3.7452353445        7.9238698412
Ga            0.0018069686        3.7445853253       13.2176190370
Ga           -1.6172233399        6.5592578066        2.6446193912
Ga           -1.6233542813        6.5557181060        7.9244876600
Ga           -1.6233152767        6.5557406253       13.2221223587
Ga           -3.2532653529        9.3916626233        2.6451534096
Ga           -3.2465836313        9.3651679220        7.9238698412
Ga           -3.2452860577        9.3687154239       13.2176190370
Ga            4.8404169632        0.9314407909        2.6451534096
Ga            4.8667029084        0.9389016010        7.9238698412
Ga            4.8642794685        0.9360041183       13.2176190370
Ga            3.2268611425        3.7262014533        2.6451534096
Ga            3.2464653661        3.7452353445        7.9238698412
Ga            3.2427443526        3.7445853253       13.2176190370
Ga            1.6222756606        6.5548051647        2.6404016886
Ga            1.6222756606        6.5550618383        7.9260912152
Ga            1.6222756606        6.5548445921       13.2189609898
Ga           -0.0013299406        9.3669725575        2.6404016886
Ga           -0.0011076547        9.3668442207        7.9260912152
Ga           -0.0012957955        9.3669528438       13.2189609898
Ga            8.1113724947        0.9307892543        2.6446193912
Ga            8.1113724947        0.9378686556        7.9244876600
Ga            8.1113724947        0.9378236171       13.2221223587
Ga            6.4825531409        3.7427023301        2.6341460579
Ga            6.4885806417        3.7461823093        7.9235685731
Ga            6.4874318116        3.7455190319       13.2220704999
Ga            4.8617746611        6.5592578066        2.6446193912
Ga            4.8679056025        6.5557181060        7.9244876600
Ga            4.8678665979        6.5557406253       13.2221223587
Ga            3.2458812618        9.3669725575        2.6404016886
Ga            3.2456589759        9.3668442207        7.9260912152
Ga            3.2458471167        9.3669528438       13.2189609898
Ga           11.3823280263        0.9314407909        2.6451534096
Ga           11.3560420811        0.9389016010        7.9238698412
Ga           11.3584655210        0.9360041183       13.2176190370
Ga            9.7401918486        3.7427023301        2.6341460579
Ga            9.7341643478        3.7461823093        7.9235685731
Ga            9.7353131779        3.7455190319       13.2220704999
Ga            8.1113724947        6.5639002074        2.6341460579
Ga            8.1113724947        6.5569402489        7.9235685731
Ga            8.1113724947        6.5582668038       13.2220704999
Ga            6.4978166741        9.3916626233        2.6451534096
Ga            6.4911349525        9.3651679220        7.9238698412
Ga            6.4898373789        9.3687154239       13.2176190370
Ga            0.0127247422        1.8658946788        5.2550626038
Ga            0.0037032802        1.8711032223       10.5640003517
Ga            0.0090284137        1.8680287551       15.8922471868
Ga           -1.6197291827        4.6817308306        5.2787616199
Ga           -1.6215124492        4.6827035951       10.5724176060
Ga           -1.6143283509        4.6783002940       15.8697502835
Ga           -3.2444659126        7.4958573957        5.2787616199
Ga           -3.2445151072        7.4938266594       10.5724176060
Ga           -3.2447364286        7.5022499216       15.8697502835
Ga           -4.8668245904       10.3175220411        5.2550626038
Ga           -4.8668245904       10.3071049541       10.5640003517
Ga           -4.8668245904       10.3132538886       15.8922471868
Ga            3.2318197453        1.8658946788        5.2550626038
[...]
N             1.6222722437       10.2993247735        1.9894048799
N             1.6222722437       10.3023916714        7.2761999696
N             1.6222722437       10.3033043037       12.5636064139
N             9.7199353057        1.8686599064        1.9920591350
N             9.7310823747        1.8736028675        7.2739403323
N             9.7333646662        1.8734663403       12.5628569393
N             8.1113690779        4.6831037996        1.9900419660
N             8.1113690779        4.6831037996        7.2725800915
N             8.1113690779        4.6831037996       12.5655829285
N             6.4782722828        7.4833849632        1.9920591350
N             6.4881265472        7.4905671276        7.2739403323
N             6.4891494569        7.4926119137       12.5628569393
N             4.8591591769       10.2984031459        1.9872120812
N             4.8659456600       10.3023213237        7.2777275701
N             4.8659243334       10.3023090108       12.5587261743
End final coordinates

     Writing all to output data dir ./GaN.save/

     General routines

     Parallel routines

     PAW routines

   This run was terminated on:   9:32:24  30Jan2024

   JOB DONE.