     Program PWSCF v.7.1 starts on 27Mar2024 at 23: 1:51

     Reading input from espresso.pwi
Warning: card &CELL ignored
Warning: card    CELL_DYNAMICS    = 'BFGS' ignored
Warning: card / ignored

     Current dimensions of program PWSCF are:
     Max number of different atomic species (ntypx) = 10
     Max number of k-points (npk) =  40000
     Max angular momentum in pseudopotentials (lmaxx) =  4
     file Pb.pbe-dn-kjpaw_psl.1.0.0.UPF: wavefunction(s)  6S 6P 5D renormalized
     file I.pbe-dn-kjpaw_psl.1.0.0.UPF: wavefunction(s)  5S 5P renormalized

     IMPORTANT: XC functional enforced from input :
     Exchange-correlation= BEEF-VDW
                           (   1   4  43  14   2   0   0)
     Any further DFT definition will be discarded
     Please, verify this is what you really want

     R & G space division:  proc/nbgrp/npool/nimage =      20
     Subspace diagonalization in iterative solution of the eigenvalue problem:
     a serial algorithm will be used

     Using Slab Decomposition

     bravais-lattice index     =            4
     lattice parameter (alat)  =      17.8060  a.u.
     unit-cell volume          =    7656.2263 (a.u.)^3
     number of atoms/cell      =           24
     number of atomic types    =            2
     number of electrons       =       386.00
     number of Kohn-Sham states=          232
     kinetic-energy cutoff     =      70.0000  Ry
     charge density cutoff     =     350.0000  Ry
     scf convergence threshold =      1.0E-07
     mixing beta               =       0.7000
     number of iterations used =            8  plain     mixing
     energy convergence thresh.=      1.0E-04
     force convergence thresh. =      1.0E-03
     Exchange-correlation= BEEF-VDW
                           (   1   4  43  14   2   0   0)
     nstep                     =           50

     celldm(1)=  17.806016  celldm(2)=   0.000000  celldm(3)=   1.565971
     celldm(4)=   0.000000  celldm(5)=   0.000000  celldm(6)=   0.000000

     crystal axes: (cart. coord. in units of alat)
               a(1) = (   1.000000   0.000000   0.000000 )
               a(2) = (  -0.500000   0.866025   0.000000 )
               a(3) = (   0.000000   0.000000   1.565971 )

     reciprocal axes: (cart. coord. in units 2 pi/alat)
               b(1) = (  1.000000  0.577350 -0.000000 )
               b(2) = (  0.000000  1.154701  0.000000 )
               b(3) = (  0.000000 -0.000000  0.638581 )

     PseudoPot. # 1 for Pb read from file:
     /trace/group/acmegroup/atimmins/packages/espresso/pseudo/psl_1.0.0/pslibrary.1.0.0/pbe/PSEUDOPOTENTIALS/Pb.pbe-dn-kjpaw_psl.1.0.0.UPF
     MD5 check sum: 39ab5b8a6bbd56b7735ad9f188aac93a
     Pseudo is Projector augmented-wave + core cor, Zval = 14.0
     Generated using 'atomic' code by A. Dal Corso  v.7.1
     Shape of augmentation charge: PSQ
     Using radial grid of 1281 points,  6 beta functions with:
                l(1) =   0
                l(2) =   0
                l(3) =   1
                l(4) =   1
                l(5) =   2
                l(6) =   2
     Q(r) pseudized with 0 coefficients

     PseudoPot. # 2 for I  read from file:
     /trace/group/acmegroup/atimmins/packages/espresso/pseudo/psl_1.0.0/pslibrary.1.0.0/pbe/PSEUDOPOTENTIALS/I.pbe-dn-kjpaw_psl.1.0.0.UPF
     MD5 check sum: bfa8781bc1224d19af3f3980e3fab11e
     Pseudo is Projector augmented-wave + core cor, Zval = 17.0
     Generated using 'atomic' code by A. Dal Corso  v.7.1
     Shape of augmentation charge: PSQ
     Using radial grid of 1247 points,  6 beta functions with:
                l(1) =   0
                l(2) =   0
                l(3) =   1
                l(4) =   1
                l(5) =   2
                l(6) =   2
     Q(r) pseudized with 0 coefficients

     atomic species   valence    mass     pseudopotential
        Pb            14.00   207.20000     Pb( 1.00)
        I             17.00   126.90447     I ( 1.00)

     No symmetry found

                                    s                        frac. trans.

      isym =  1     identity

 cryst.   s( 1) = (     1          0          0      )
                  (     0          1          0      )
                  (     0          0          1      )

 cart.    s( 1) = (  1.0000000  0.0000000  0.0000000 )
                  (  0.0000000  1.0000000  0.0000000 )
                  (  0.0000000  0.0000000  1.0000000 )

     point group C_1 (1)
     there are  1 classes
     the character table:

       E
A      1.00

     the symmetry operations in each class and the name of the first element:

     E        1
          identity

   Cartesian axes

     site n.     atom                  positions (alat units)
         1           Pb  tau(   1) = (   0.2500068   0.4329836   0.7829793  )
         2           Pb  tau(   2) = (   0.0000153   0.8659852   1.5659567  )
         3           Pb  tau(   3) = (   0.0000051   0.8659943   0.7829710  )
         4           Pb  tau(   4) = (   0.7500170   0.4329726   1.5659715  )
         5           Pb  tau(   5) = (   0.7500068   0.4329816   0.7829858  )
         6           Pb  tau(   6) = (   0.5000153   0.8659833   1.5659633  )
         7           Pb  tau(   7) = (   0.5000051   0.8659923   0.7829776  )
         8           I   tau(   8) = (   0.2500107   0.1443099   0.5818649  )
         9           I   tau(   9) = (   0.2500209   0.1443009   1.3648506  )
        10           I   tau(  10) = (   0.0000091   0.5773207   0.5818567  )
        11           I   tau(  11) = (   0.0000193   0.5773116   1.3648424  )
        12           I   tau(  12) = (   0.7500107   0.1443080   0.5818714  )
        13           I   tau(  13) = (   0.7500209   0.1442990   1.3648571  )
        14           I   tau(  14) = (   0.5000091   0.5773187   0.5818632  )
        15           I   tau(  15) = (   0.5000193   0.5773097   1.3648489  )
        16           I   tau(  16) = (  -0.0000034   0.2886595   0.2011110  )
        17           I   tau(  17) = (   0.0000068   0.2886504   0.9840967  )
        18           I   tau(  18) = (  -0.2500051   0.7216702   0.2011027  )
        19           I   tau(  19) = (  -0.2499949   0.7216611   0.9840884  )
        20           I   tau(  20) = (   0.4999966   0.2886575   0.2011175  )
        21           I   tau(  21) = (   0.5000068   0.2886485   0.9841032  )
        22           I   tau(  22) = (   0.2499949   0.7216682   0.2011092  )
        23           I   tau(  23) = (   0.2500051   0.7216592   0.9840949  )
        24           I   tau(  24) = (   0.2500170   0.4329745   1.5659650  )

   Crystallographic axes

     site n.     atom                  positions (cryst. coord.)
         1           Pb  tau(   1) = (  0.4999900  0.4999663  0.4999959  )
         2           Pb  tau(   2) = (  0.4999921  0.9999536  0.9999906  )
         3           Pb  tau(   3) = (  0.4999871  0.9999640  0.4999906  )
         4           Pb  tau(   4) = (  0.9999938  0.4999537  1.0000001  )
         5           Pb  tau(   5) = (  0.9999888  0.4999641  0.5000001  )
         6           Pb  tau(   6) = (  0.9999910  0.9999514  0.9999948  )
         7           Pb  tau(   7) = (  0.9999860  0.9999618  0.4999948  )
         8           I   tau(   8) = (  0.3333281  0.1666348  0.3715680  )
         9           I   tau(   9) = (  0.3333331  0.1666243  0.8715680  )
        10           I   tau(  10) = (  0.3333253  0.6666325  0.3715628  )
        11           I   tau(  11) = (  0.3333303  0.6666220  0.8715628  )
        12           I   tau(  12) = (  0.8333270  0.1666326  0.3715722  )
        13           I   tau(  13) = (  0.8333320  0.1666221  0.8715722  )
        14           I   tau(  14) = (  0.8333242  0.6666303  0.3715669  )
        15           I   tau(  15) = (  0.8333292  0.6666198  0.8715669  )
        16           I   tau(  16) = (  0.1666542  0.3333152  0.1284257  )
        17           I   tau(  17) = (  0.1666592  0.3333048  0.6284257  )
        18           I   tau(  18) = (  0.1666514  0.8333129  0.1284204  )
        19           I   tau(  19) = (  0.1666564  0.8333025  0.6284204  )
        20           I   tau(  20) = (  0.6666531  0.3333130  0.1284299  )
        21           I   tau(  21) = (  0.6666581  0.3333026  0.6284299  )
        22           I   tau(  22) = (  0.6666503  0.8333107  0.1284246  )
        23           I   tau(  23) = (  0.6666553  0.8333003  0.6284246  )
        24           I   tau(  24) = (  0.4999949  0.4999559  0.9999959  )

     number of k points=     4  Gaussian smearing, width (Ry)=  0.0100
                       cart. coord. in units 2pi/alat
        k(    1) = (   0.0000000   0.0000000   0.0000000), wk =   0.5000000
        k(    2) = (   0.0000000  -0.5773503   0.0000000), wk =   0.5000000
        k(    3) = (   0.5000000  -0.2886751   0.0000000), wk =   0.5000000
        k(    4) = (  -0.5000000  -0.2886751   0.0000000), wk =   0.5000000

                       cryst. coord.
        k(    1) = (   0.0000000   0.0000000   0.0000000), wk =   0.5000000
        k(    2) = (   0.0000000  -0.5000000   0.0000000), wk =   0.5000000
        k(    3) = (   0.5000000  -0.5000000   0.0000000), wk =   0.5000000
        k(    4) = (  -0.5000000  -0.0000000   0.0000000), wk =   0.5000000

     Check: negative core charge=   -0.000002

     Initial potential from superposition of free atoms

     starting charge     386.9823, renormalised to     386.0000

     %%%%%%%%%%%%%%%%%%%%%%%%%%%%%%%%%%%%%%%%%%%%%%%%%%%%%%%%%%%%%%%%%%%%%%%%
     %                                                                      %
     % You are using vdW-DF, which was implemented by the Thonhauser group. %
     % Please cite the following two papers that made this development      %
     % possible and the two reviews that describe the various versions:     %
     %                                                                      %
     %   T. Thonhauser et al., PRL 115, 136402 (2015).                      %
     %   T. Thonhauser et al., PRB 76, 125112 (2007).                       %
     %   K. Berland et al., Rep. Prog. Phys. 78, 066501 (2015).             %
     %   D.C. Langreth et al., J. Phys.: Condens. Matter 21, 084203 (2009). %
     %                                                                      %
     % If you are calculating stress with vdW-DF, please also cite:         %
     %                                                                      %
     %   R. Sabatini et al., J. Phys.: Condens. Matter 24, 424209 (2012).   %
     %                                                                      %
     %%%%%%%%%%%%%%%%%%%%%%%%%%%%%%%%%%%%%%%%%%%%%%%%%%%%%%%%%%%%%%%%%%%%%%%%

     %%%%%%%%%%%%%%%%%%%%%%%%%%%%%%%%%%%%%%%%%%%%%%%%%%%%%%%%%%%%%%%%%%%%%%%%
     %                                                                      %
     %  vdW-DF NEWS:                                                        %
     %                                                                      %
     %  * vdW-DF3 is now available. DOI: 10.1021/acs.jctc.0c00471           %
     %    use with input_dft = 'vdW-DF3-opt1' or 'vdW-DF3-opt2'             %
     %                                                                      %
[...]
     atom   19 type  2   force =     0.00000204    0.00000903   -0.00071408
     atom   20 type  2   force =     0.00026414   -0.00016199   -0.00020809
     atom   21 type  2   force =    -0.00003901    0.00001650    0.00009565
     atom   22 type  2   force =    -0.00000168    0.00034620   -0.00018782
     atom   23 type  2   force =    -0.00000206   -0.00003573    0.00009003
     atom   24 type  2   force =    -0.00000044   -0.00004050   -0.00000212
     The non-local contrib.  to forces
     atom    1 type  1   force =    -0.00000392   -0.00001197    0.00001148
     atom    2 type  1   force =     0.00001334    0.00002715    0.00002100
     atom    3 type  1   force =     0.00002019   -0.00002889   -0.00001506
     atom    4 type  1   force =     0.00000915   -0.00005664    0.00007982
     atom    5 type  1   force =     0.00001458   -0.00002702    0.00004010
     atom    6 type  1   force =     0.00001140    0.00002457    0.00001892
     atom    7 type  1   force =    -0.00000626   -0.00001848   -0.00003940
     atom    8 type  2   force =     0.00000314    0.00112916    0.23768905
     atom    9 type  2   force =    -0.00000411   -0.05425761    0.20334048
     atom   10 type  2   force =     0.00097316   -0.00054425    0.23770282
     atom   11 type  2   force =    -0.04685714    0.02703968    0.20340813
     atom   12 type  2   force =    -0.00000777    0.00000951    0.23441969
     atom   13 type  2   force =    -0.00000812    0.00001425    0.26125023
     atom   14 type  2   force =    -0.00097906   -0.00054999    0.23770563
     atom   15 type  2   force =     0.04680248    0.02701239    0.20342662
     atom   16 type  2   force =    -0.04691854   -0.02705960   -0.20347062
     atom   17 type  2   force =     0.00095823    0.00057952   -0.23769833
     atom   18 type  2   force =    -0.00000409    0.00000611   -0.26123509
     atom   19 type  2   force =    -0.00000185   -0.00001196   -0.23440060
     atom   20 type  2   force =     0.04695505   -0.02707683   -0.20343566
     atom   21 type  2   force =    -0.00096462    0.00057636   -0.23769470
     atom   22 type  2   force =     0.00000365    0.05431001   -0.20334650
     atom   23 type  2   force =    -0.00000476   -0.00111277   -0.23769856
     atom   24 type  2   force =     0.00000647    0.00007351   -0.00010111
     The ionic contribution  to forces
     atom    1 type  1   force =     0.00055348   -0.00050594   -0.00005915
     atom    2 type  1   force =    -0.00145196    0.00057375   -0.00049162
     atom    3 type  1   force =    -0.00085031    0.00135224    0.00083092
     atom    4 type  1   force =    -0.00042098    0.00114116   -0.00142205
     atom    5 type  1   force =    -0.00073935    0.00037226   -0.00056891
     atom    6 type  1   force =     0.00081725    0.00041735    0.00021458
     atom    7 type  1   force =     0.00053736    0.00059683    0.00218199
     atom    8 type  2   force =     0.00166315    0.01191060  -13.87762287
     atom    9 type  2   force =     0.00126774    0.40541394  -14.65910655
     atom   10 type  2   force =     0.00942671   -0.00625995  -13.87809146
     atom   11 type  2   force =     0.34530682   -0.20087365  -14.66140498
     atom   12 type  2   force =    -0.00128760    0.00153441  -12.81012228
     atom   13 type  2   force =    -0.00078232    0.00085848  -15.03852533
     atom   14 type  2   force =    -0.00930192   -0.00808410  -13.87768627
     atom   15 type  2   force =    -0.34446059   -0.20183552  -14.66235359
     atom   16 type  2   force =     0.35040139    0.20206157   14.66100673
     atom   17 type  2   force =     0.01039558    0.00481137   13.87977551
     atom   18 type  2   force =     0.00086759    0.00052487   15.03534340
     atom   19 type  2   force =     0.00034106    0.00047735   12.81031795
     atom   20 type  2   force =    -0.35137205    0.20152522   14.66028853
     atom   21 type  2   force =    -0.01029509    0.00449453   13.87971932
     atom   22 type  2   force =    -0.00090805   -0.40556718   14.65968035
     atom   23 type  2   force =    -0.00018939   -0.01086484   13.87919091
     atom   24 type  2   force =     0.00048149   -0.00407476   -0.00109511
     The local contribution  to forces
     atom    1 type  1   force =    -0.00055045    0.00052439    0.00004514
     atom    2 type  1   force =     0.00145570   -0.00062019    0.00047598
     atom    3 type  1   force =     0.00083182   -0.00132471   -0.00081638
     atom    4 type  1   force =     0.00040917   -0.00107007    0.00133254
     atom    5 type  1   force =     0.00072406   -0.00033963    0.00052962
     atom    6 type  1   force =    -0.00084684   -0.00046362   -0.00022902
     atom    7 type  1   force =    -0.00053399   -0.00057982   -0.00214249
     atom    8 type  2   force =    -0.00165891   -0.01303180   13.64490496
     atom    9 type  2   force =    -0.00125696   -0.35249030   14.46038786
     atom   10 type  2   force =    -0.01039014    0.00680595   13.64535525
     atom   11 type  2   force =    -0.29958142    0.17449145   14.46262894
     atom   12 type  2   force =     0.00128909   -0.00154764   12.58161499
     atom   13 type  2   force =     0.00078905   -0.00087688   14.78190281
     atom   14 type  2   force =     0.01027093    0.00862737   13.64494900
     atom   15 type  2   force =     0.29877958    0.17546669   14.46356105
     atom   16 type  2   force =    -0.30460275   -0.17563958  -14.46217142
     atom   17 type  2   force =    -0.01135144   -0.00538084  -13.64704713
     atom   18 type  2   force =    -0.00086190   -0.00053509  -14.77872933
     atom   19 type  2   force =    -0.00033595   -0.00047274  -12.58183552
     atom   20 type  2   force =     0.30554534   -0.17509652  -14.46148570
     atom   21 type  2   force =     0.01125698   -0.00506530  -13.64699623
     atom   22 type  2   force =     0.00089973    0.35259505  -14.46095331
     atom   23 type  2   force =     0.00019070    0.01197011  -13.64646380
     atom   24 type  2   force =    -0.00048703    0.00401485    0.00120248
     The core correction contribution to forces
     atom    1 type  1   force =     0.00000020    0.00000019   -0.00000006
     atom    2 type  1   force =     0.00000061   -0.00000105   -0.00000006
     atom    3 type  1   force =    -0.00000011    0.00000027    0.00000013
     atom    4 type  1   force =     0.00000003    0.00000064   -0.00000108
     atom    5 type  1   force =    -0.00000025    0.00000015   -0.00000046
     atom    6 type  1   force =    -0.00000094   -0.00000084    0.00000016
     atom    7 type  1   force =    -0.00000003    0.00000000    0.00000057
     atom    8 type  2   force =    -0.00000009    0.00001481   -0.00507644
     atom    9 type  2   force =    -0.00000018    0.00096747   -0.00442011
     atom   10 type  2   force =     0.00001013   -0.00000427   -0.00507660
     atom   11 type  2   force =     0.00082992   -0.00048167   -0.00442325
     atom   12 type  2   force =    -0.00000096    0.00000290   -0.00520693
     atom   13 type  2   force =    -0.00000066    0.00000268   -0.00541509
     atom   14 type  2   force =    -0.00001102   -0.00000461   -0.00507728
     atom   15 type  2   force =    -0.00082860   -0.00048069   -0.00442483
     atom   16 type  2   force =     0.00083358    0.00047699    0.00442661
     atom   17 type  2   force =     0.00001059    0.00000779    0.00507386
     atom   18 type  2   force =    -0.00000091    0.00000328    0.00541481
     atom   19 type  2   force =    -0.00000054    0.00000394    0.00520736
     atom   20 type  2   force =    -0.00083512    0.00047962    0.00442506
     atom   21 type  2   force =    -0.00001146    0.00000791    0.00507403
     atom   22 type  2   force =     0.00000143   -0.00096646    0.00442071
     atom   23 type  2   force =    -0.00000024   -0.00001007    0.00507509
     atom   24 type  2   force =    -0.00000124   -0.00000058   -0.00000296
     The Hubbard contrib.    to forces
     atom    1 type  1   force =     0.00000000    0.00000000    0.00000000
     atom    2 type  1   force =     0.00000000    0.00000000    0.00000000
     atom    3 type  1   force =     0.00000000    0.00000000    0.00000000
     atom    4 type  1   force =     0.00000000    0.00000000    0.00000000
     atom    5 type  1   force =     0.00000000    0.00000000    0.00000000
     atom    6 type  1   force =     0.00000000    0.00000000    0.00000000
     atom    7 type  1   force =     0.00000000    0.00000000    0.00000000
     atom    8 type  2   force =     0.00000000    0.00000000    0.00000000
     atom    9 type  2   force =     0.00000000    0.00000000    0.00000000
     atom   10 type  2   force =     0.00000000    0.00000000    0.00000000
     atom   11 type  2   force =     0.00000000    0.00000000    0.00000000
     atom   12 type  2   force =     0.00000000    0.00000000    0.00000000
     atom   13 type  2   force =     0.00000000    0.00000000    0.00000000
     atom   14 type  2   force =     0.00000000    0.00000000    0.00000000
     atom   15 type  2   force =     0.00000000    0.00000000    0.00000000
     atom   16 type  2   force =     0.00000000    0.00000000    0.00000000
     atom   17 type  2   force =     0.00000000    0.00000000    0.00000000
     atom   18 type  2   force =     0.00000000    0.00000000    0.00000000
     atom   19 type  2   force =     0.00000000    0.00000000    0.00000000
     atom   20 type  2   force =     0.00000000    0.00000000    0.00000000
     atom   21 type  2   force =     0.00000000    0.00000000    0.00000000
     atom   22 type  2   force =     0.00000000    0.00000000    0.00000000
     atom   23 type  2   force =     0.00000000    0.00000000    0.00000000
     atom   24 type  2   force =     0.00000000    0.00000000    0.00000000
     The SCF correction term to forces
     atom    1 type  1   force =    -0.00000047   -0.00000636    0.00000024
     atom    2 type  1   force =    -0.00002449    0.00002519   -0.00000776
     atom    3 type  1   force =    -0.00000449    0.00000357    0.00000137
     atom    4 type  1   force =     0.00000061   -0.00001170    0.00000909
     atom    5 type  1   force =     0.00000049   -0.00000163   -0.00000360
     atom    6 type  1   force =     0.00002445    0.00002588   -0.00000777
     atom    7 type  1   force =     0.00000457    0.00000422    0.00000111
     atom    8 type  2   force =    -0.00000190    0.00002181    0.00001597
     atom    9 type  2   force =    -0.00000106    0.00002817   -0.00000111
     atom   10 type  2   force =     0.00001244   -0.00001619    0.00001993
     atom   11 type  2   force =     0.00001831   -0.00001794   -0.00001173
     atom   12 type  2   force =     0.00000170    0.00000817    0.00001280
     atom   13 type  2   force =     0.00000122    0.00000888   -0.00001243
     atom   14 type  2   force =    -0.00001212   -0.00001368    0.00002050
     atom   15 type  2   force =    -0.00001835   -0.00001693   -0.00001279
     atom   16 type  2   force =     0.00002981    0.00000682   -0.00000188
     atom   17 type  2   force =     0.00002531    0.00000231   -0.00000943
     atom   18 type  2   force =    -0.00000073    0.00001134    0.00000297
     atom   19 type  2   force =    -0.00000107    0.00001316   -0.00000390
     atom   20 type  2   force =    -0.00002947    0.00000722   -0.00000093
     atom   21 type  2   force =    -0.00002520    0.00000371   -0.00000739
     atom   22 type  2   force =     0.00000117   -0.00002450    0.00001031
     atom   23 type  2   force =     0.00000124   -0.00001746   -0.00001423
     atom   24 type  2   force =    -0.00000052   -0.00005281   -0.00000603

     Total force =     0.001796     Total SCF correction =     0.000126

     Computing stress (Cartesian axis) and pressure

     Non-local corr. energy    =      11.80956621 Ry

          total   stress  (Ry/bohr**3)                   (kbar)     P=      -13.63
  -0.00009271  -0.00000001   0.00000000          -13.64       -0.00        0.00
  -0.00000001  -0.00009264   0.00000004           -0.00      -13.63        0.01
   0.00000000   0.00000004  -0.00009257            0.00        0.01      -13.62

     kinetic stress (kbar)  14690.39     -0.00      0.00
                               -0.00  14690.42      0.02
                                0.00      0.02  14703.13

     local   stress (kbar)  -7440.11     -0.19      0.16
                               -0.19  -7439.41      0.31
                                0.16      0.31   1228.63

     nonloc. stress (kbar)   -653.80     -0.00      0.00
                               -0.00   -653.77      0.02
                                0.00      0.02   -654.91

     hartree stress (kbar)  12228.15      0.07     -0.06
                                0.07  12227.89     -0.12
                               -0.06     -0.12   8299.54

     exc-cor stress (kbar)   7098.21      0.00     -0.00
                                0.00   7098.21      0.00
                               -0.00      0.00   7097.57

     corecor stress (kbar) -11516.52      0.00     -0.00
                                0.00 -11516.52     -0.00
                               -0.00     -0.00 -11516.57

     ewald   stress (kbar) -14505.55      0.13     -0.11
                                0.13 -14506.03     -0.22
                               -0.11     -0.22 -19257.71

     hubbard stress (kbar)      0.00      0.00      0.00
                                0.00      0.00      0.00
                                0.00      0.00      0.00

     DFT-D   stress (kbar)      0.00      0.00      0.00
                                0.00      0.00      0.00
                                0.00      0.00      0.00

     XDM     stress (kbar)      0.00      0.00      0.00
                                0.00      0.00      0.00
                                0.00      0.00      0.00

     dft-nl  stress (kbar)     85.58     -0.00      0.00
                               -0.00     85.59     -0.00
                                0.00     -0.00     86.70

     TS-vdW  stress (kbar)      0.00      0.00      0.00
                                0.00      0.00      0.00
                                0.00      0.00      0.00

     MDB     stress (kbar)      0.00      0.00      0.00
                                0.00      0.00      0.00
                                0.00      0.00      0.00

     3D-RISM stress (kbar)      0.00      0.00      0.00
                                0.00      0.00      0.00
                                0.00      0.00      0.00

     Energy error            =      1.9E-05 Ry
     Gradient error          =      8.0E-04 Ry/Bohr

     bfgs converged in  13 scf cycles and  12 bfgs steps
     (criteria: energy <  1.0E-04 Ry, force <  1.0E-03 Ry/Bohr)

     End of BFGS Geometry Optimization

     Final energy             =  -15856.3505994975 Ry

     File ./PbI2.bfgs deleted, as requested
Begin final coordinates

ATOMIC_POSITIONS (angstrom)
Pb            2.3557148394        4.0797854062        7.3776140850
Pb            0.0001267924        8.1598724020       14.7554571630
Pb            0.0000795483        8.1598167224        7.3776221203
Pb            7.0670502222        4.0796304746       14.7555485330
Pb            7.0669678876        4.0797605192        7.3776541079
Pb            4.7113572236        8.1599157333       14.7555274357
Pb            4.7113169665        8.1598040362        7.3776445189
I             2.3556104248        1.3539351501        5.4974464477
I             2.3556341310        1.2885244219       12.8192688647
I            -0.0049422188        5.4427356339        5.4974418512
I            -0.0611655961        5.4751427392       12.8193962920
I             7.0670292131        1.3597337700        5.4533848150
I             7.0669981084        1.3597255252       12.8909009043
I             4.7163271879        5.4428173030        5.4974021883
I             4.7725388167        5.4752029317       12.8195212680
I            -0.0609363942        2.6845038902        1.9358264218
I            -0.0049652199        2.7169250279        9.2577648650
I            -2.3555421049        6.7997500706        1.8644817135
I            -2.3555954241        6.7997815535        9.3019718829
I             4.7726138747        2.6844313389        1.9358932835
I             4.7163481171        2.7169344780        9.2577845227
I             2.3557696720        6.8709074552        1.9360849536
I             2.3556851465        6.8056052903        9.2578625626
I             2.3557745628        4.0800355696       14.7550315515
End final coordinates

     Writing all to output data dir ./PbI2.save/

     General routines

     Parallel routines

     PAW routines

   This run was terminated on:   0:38: 1  28Mar2024

   JOB DONE.