     Program PWSCF v.7.1 starts on 28Mar2024 at  6:38:12

     Reading input from espresso.pwi
Warning: card &CELL ignored
Warning: card    CELL_DYNAMICS    = 'BFGS' ignored
Warning: card / ignored

     Current dimensions of program PWSCF are:
     Max number of different atomic species (ntypx) = 10
     Max number of k-points (npk) =  40000
     Max angular momentum in pseudopotentials (lmaxx) =  4
     file Pb.pbe-dn-kjpaw_psl.1.0.0.UPF: wavefunction(s)  6S 6P 5D renormalized
     file I.pbe-dn-kjpaw_psl.1.0.0.UPF: wavefunction(s)  5S 5P renormalized

     IMPORTANT: XC functional enforced from input :
     Exchange-correlation= BEEF-VDW
                           (   1   4  43  14   2   0   0)
     Any further DFT definition will be discarded
     Please, verify this is what you really want

     R & G space division:  proc/nbgrp/npool/nimage =      20
     Subspace diagonalization in iterative solution of the eigenvalue problem:
     a serial algorithm will be used

     Using Slab Decomposition

     bravais-lattice index     =            4
     lattice parameter (alat)  =      17.8060  a.u.
     unit-cell volume          =    7656.2263 (a.u.)^3
     number of atoms/cell      =           24
     number of atomic types    =            2
     number of electrons       =       386.00
     number of Kohn-Sham states=          232
     kinetic-energy cutoff     =      70.0000  Ry
     charge density cutoff     =     350.0000  Ry
     scf convergence threshold =      1.0E-07
     mixing beta               =       0.7000
     number of iterations used =            8  plain     mixing
     Exchange-correlation= BEEF-VDW
                           (   1   4  43  14   2   0   0)

     celldm(1)=  17.806016  celldm(2)=   0.000000  celldm(3)=   1.565971
     celldm(4)=   0.000000  celldm(5)=   0.000000  celldm(6)=   0.000000

     crystal axes: (cart. coord. in units of alat)
               a(1) = (   1.000000   0.000000   0.000000 )
               a(2) = (  -0.500000   0.866025   0.000000 )
               a(3) = (   0.000000   0.000000   1.565971 )

     reciprocal axes: (cart. coord. in units 2 pi/alat)
               b(1) = (  1.000000  0.577350 -0.000000 )
               b(2) = (  0.000000  1.154701  0.000000 )
               b(3) = (  0.000000 -0.000000  0.638581 )

     PseudoPot. # 1 for Pb read from file:
     /trace/group/acmegroup/atimmins/packages/espresso/pseudo/psl_1.0.0/pslibrary.1.0.0/pbe/PSEUDOPOTENTIALS/Pb.pbe-dn-kjpaw_psl.1.0.0.UPF
     MD5 check sum: 39ab5b8a6bbd56b7735ad9f188aac93a
     Pseudo is Projector augmented-wave + core cor, Zval = 14.0
     Generated using 'atomic' code by A. Dal Corso  v.7.1
     Shape of augmentation charge: PSQ
     Using radial grid of 1281 points,  6 beta functions with:
                l(1) =   0
                l(2) =   0
                l(3) =   1
                l(4) =   1
                l(5) =   2
                l(6) =   2
     Q(r) pseudized with 0 coefficients

     PseudoPot. # 2 for I  read from file:
     /trace/group/acmegroup/atimmins/packages/espresso/pseudo/psl_1.0.0/pslibrary.1.0.0/pbe/PSEUDOPOTENTIALS/I.pbe-dn-kjpaw_psl.1.0.0.UPF
     MD5 check sum: bfa8781bc1224d19af3f3980e3fab11e
     Pseudo is Projector augmented-wave + core cor, Zval = 17.0
     Generated using 'atomic' code by A. Dal Corso  v.7.1
     Shape of augmentation charge: PSQ
     Using radial grid of 1247 points,  6 beta functions with:
                l(1) =   0
                l(2) =   0
                l(3) =   1
                l(4) =   1
                l(5) =   2
                l(6) =   2
     Q(r) pseudized with 0 coefficients

     atomic species   valence    mass     pseudopotential
        Pb            14.00   207.20000     Pb( 1.00)
        I             17.00   126.90447     I ( 1.00)

     No symmetry found

                                    s                        frac. trans.

      isym =  1     identity

 cryst.   s( 1) = (     1          0          0      )
                  (     0          1          0      )
                  (     0          0          1      )

 cart.    s( 1) = (  1.0000000  0.0000000  0.0000000 )
                  (  0.0000000  1.0000000  0.0000000 )
                  (  0.0000000  0.0000000  1.0000000 )

     point group C_1 (1)
     there are  1 classes
     the character table:

       E
A      1.00

     the symmetry operations in each class and the name of the first element:

     E        1
          identity

   Cartesian axes

     site n.     atom                  positions (alat units)
         1           Pb  tau(   1) = (   0.2500068   0.4329836   0.7829793  )
         2           Pb  tau(   2) = (   0.0000153   0.8659852   1.5659567  )
         3           Pb  tau(   3) = (   0.0000051   0.8659943   0.7829710  )
         4           Pb  tau(   4) = (   0.7500170   0.4329726   1.5659715  )
         5           Pb  tau(   5) = (   0.7500068   0.4329816   0.7829858  )
         6           Pb  tau(   6) = (   0.5000153   0.8659833   1.5659633  )
         7           Pb  tau(   7) = (   0.5000051   0.8659923   0.7829776  )
         8           I   tau(   8) = (   0.2500107   0.1443099   0.5818649  )
         9           I   tau(   9) = (   0.2500209   0.1443009   1.3648506  )
        10           I   tau(  10) = (   0.0000091   0.5773207   0.5818567  )
        11           I   tau(  11) = (   0.0000193   0.5773116   1.3648424  )
        12           I   tau(  12) = (   0.7500107   0.1443080   0.5818714  )
        13           I   tau(  13) = (   0.7500209   0.1442990   1.3648571  )
        14           I   tau(  14) = (   0.5000091   0.5773187   0.5818632  )
        15           I   tau(  15) = (   0.5000193   0.5773097   1.3648489  )
        16           I   tau(  16) = (  -0.0000034   0.2886595   0.2011110  )
        17           I   tau(  17) = (   0.0000068   0.2886504   0.9840967  )
        18           I   tau(  18) = (  -0.2500051   0.7216702   0.2011027  )
        19           I   tau(  19) = (  -0.2499949   0.7216611   0.9840884  )
        20           I   tau(  20) = (   0.4999966   0.2886575   0.2011175  )
        21           I   tau(  21) = (   0.5000068   0.2886485   0.9841032  )
        22           I   tau(  22) = (   0.2499949   0.7216682   0.2011092  )
        23           I   tau(  23) = (   0.2500051   0.7216592   0.9840949  )
        24           I   tau(  24) = (   0.2500170   0.4329745   1.5659650  )

   Crystallographic axes

     site n.     atom                  positions (cryst. coord.)
         1           Pb  tau(   1) = (  0.4999900  0.4999663  0.4999959  )
         2           Pb  tau(   2) = (  0.4999921  0.9999536  0.9999906  )
         3           Pb  tau(   3) = (  0.4999871  0.9999640  0.4999906  )
         4           Pb  tau(   4) = (  0.9999938  0.4999537  1.0000001  )
         5           Pb  tau(   5) = (  0.9999888  0.4999641  0.5000001  )
         6           Pb  tau(   6) = (  0.9999910  0.9999514  0.9999948  )
         7           Pb  tau(   7) = (  0.9999860  0.9999618  0.4999948  )
         8           I   tau(   8) = (  0.3333281  0.1666348  0.3715680  )
         9           I   tau(   9) = (  0.3333331  0.1666243  0.8715680  )
        10           I   tau(  10) = (  0.3333253  0.6666325  0.3715628  )
        11           I   tau(  11) = (  0.3333303  0.6666220  0.8715628  )
        12           I   tau(  12) = (  0.8333270  0.1666326  0.3715722  )
        13           I   tau(  13) = (  0.8333320  0.1666221  0.8715722  )
        14           I   tau(  14) = (  0.8333242  0.6666303  0.3715669  )
        15           I   tau(  15) = (  0.8333292  0.6666198  0.8715669  )
        16           I   tau(  16) = (  0.1666542  0.3333152  0.1284257  )
        17           I   tau(  17) = (  0.1666592  0.3333048  0.6284257  )
        18           I   tau(  18) = (  0.1666514  0.8333129  0.1284204  )
        19           I   tau(  19) = (  0.1666564  0.8333025  0.6284204  )
        20           I   tau(  20) = (  0.6666531  0.3333130  0.1284299  )
        21           I   tau(  21) = (  0.6666581  0.3333026  0.6284299  )
        22           I   tau(  22) = (  0.6666503  0.8333107  0.1284246  )
        23           I   tau(  23) = (  0.6666553  0.8333003  0.6284246  )
        24           I   tau(  24) = (  0.4999949  0.4999559  0.9999959  )

     number of k points=     4  Gaussian smearing, width (Ry)=  0.0100
                       cart. coord. in units 2pi/alat
        k(    1) = (   0.0000000   0.0000000   0.0000000), wk =   0.5000000
        k(    2) = (   0.0000000  -0.5773503   0.0000000), wk =   0.5000000
        k(    3) = (   0.5000000  -0.2886751   0.0000000), wk =   0.5000000
        k(    4) = (  -0.5000000  -0.2886751   0.0000000), wk =   0.5000000

                       cryst. coord.
        k(    1) = (   0.0000000   0.0000000   0.0000000), wk =   0.5000000
        k(    2) = (   0.0000000  -0.5000000   0.0000000), wk =   0.5000000
        k(    3) = (   0.5000000  -0.5000000   0.0000000), wk =   0.5000000
        k(    4) = (  -0.5000000  -0.0000000   0.0000000), wk =   0.5000000

     Atomic positions and unit cell read from directory:
     ./PbI2.save/
     Atomic positions from file used, from input discarded

     Check: negative core charge=   -0.000002

     The initial density is read from file :
     ./PbI2.save/charge-density

     %%%%%%%%%%%%%%%%%%%%%%%%%%%%%%%%%%%%%%%%%%%%%%%%%%%%%%%%%%%%%%%%%%%%%%%%
     %                                                                      %
     % You are using vdW-DF, which was implemented by the Thonhauser group. %
     % Please cite the following two papers that made this development      %
     % possible and the two reviews that describe the various versions:     %
     %                                                                      %
     %   T. Thonhauser et al., PRL 115, 136402 (2015).                      %
     %   T. Thonhauser et al., PRB 76, 125112 (2007).                       %
     %   K. Berland et al., Rep. Prog. Phys. 78, 066501 (2015).             %
     %   D.C. Langreth et al., J. Phys.: Condens. Matter 21, 084203 (2009). %
     %                                                                      %
     % If you are calculating stress with vdW-DF, please also cite:         %
     %                                                                      %
     %   R. Sabatini et al., J. Phys.: Condens. Matter 24, 424209 (2012).   %
     %                                                                      %
     %%%%%%%%%%%%%%%%%%%%%%%%%%%%%%%%%%%%%%%%%%%%%%%%%%%%%%%%%%%%%%%%%%%%%%%%

     %%%%%%%%%%%%%%%%%%%%%%%%%%%%%%%%%%%%%%%%%%%%%%%%%%%%%%%%%%%%%%%%%%%%%%%%
     %                                                                      %
     %  vdW-DF NEWS:                                                        %
     %                                                                      %
     %  * vdW-DF3 is now available. DOI: 10.1021/acs.jctc.0c00471           %
     %    use with input_dft = 'vdW-DF3-opt1' or 'vdW-DF3-opt2'             %
     %                                                                      %
[...]
     atom   22 type  2   force =     0.00000051    0.05433026   -0.20338291
     atom   23 type  2   force =    -0.00000741   -0.00110185   -0.23767636
     atom   24 type  2   force =     0.00000751    0.00018715   -0.00008828
     The ionic contribution  to forces
     atom    1 type  1   force =     0.00055348   -0.00050594   -0.00005915
     atom    2 type  1   force =    -0.00145196    0.00057375   -0.00049162
     atom    3 type  1   force =    -0.00085031    0.00135224    0.00083092
     atom    4 type  1   force =    -0.00042098    0.00114116   -0.00142205
     atom    5 type  1   force =    -0.00073935    0.00037226   -0.00056891
     atom    6 type  1   force =     0.00081725    0.00041735    0.00021458
     atom    7 type  1   force =     0.00053736    0.00059683    0.00218199
     atom    8 type  2   force =     0.00166315    0.01191060  -13.87762287
     atom    9 type  2   force =     0.00126774    0.40541394  -14.65910655
     atom   10 type  2   force =     0.00942671   -0.00625995  -13.87809146
     atom   11 type  2   force =     0.34530682   -0.20087365  -14.66140498
     atom   12 type  2   force =    -0.00128760    0.00153441  -12.81012228
     atom   13 type  2   force =    -0.00078232    0.00085848  -15.03852533
     atom   14 type  2   force =    -0.00930192   -0.00808410  -13.87768627
     atom   15 type  2   force =    -0.34446059   -0.20183552  -14.66235359
     atom   16 type  2   force =     0.35040139    0.20206157   14.66100673
     atom   17 type  2   force =     0.01039558    0.00481137   13.87977551
     atom   18 type  2   force =     0.00086759    0.00052487   15.03534340
     atom   19 type  2   force =     0.00034106    0.00047735   12.81031795
     atom   20 type  2   force =    -0.35137205    0.20152522   14.66028853
     atom   21 type  2   force =    -0.01029509    0.00449453   13.87971932
     atom   22 type  2   force =    -0.00090805   -0.40556718   14.65968035
     atom   23 type  2   force =    -0.00018939   -0.01086484   13.87919091
     atom   24 type  2   force =     0.00048149   -0.00407476   -0.00109511
     The local contribution  to forces
     atom    1 type  1   force =    -0.00055199    0.00048782    0.00005574
     atom    2 type  1   force =     0.00131492   -0.00047501    0.00042015
     atom    3 type  1   force =     0.00080672   -0.00130347   -0.00079849
     atom    4 type  1   force =     0.00041192   -0.00113741    0.00137813
     atom    5 type  1   force =     0.00072567   -0.00034951    0.00052158
     atom    6 type  1   force =    -0.00070612   -0.00031522   -0.00028425
     atom    7 type  1   force =    -0.00050865   -0.00055636   -0.00212540
     atom    8 type  2   force =    -0.00166969   -0.01297035   13.64498229
     atom    9 type  2   force =    -0.00126667   -0.35241259   14.46036856
     atom   10 type  2   force =    -0.01037290    0.00674924   13.64544910
     atom   11 type  2   force =    -0.29954942    0.17442883   14.46254499
     atom   12 type  2   force =     0.00130115   -0.00150188   12.58170940
     atom   13 type  2   force =     0.00079765   -0.00083330   14.78182010
     atom   14 type  2   force =     0.01025372    0.00858290   13.64504954
     atom   15 type  2   force =     0.29874344    0.17541357   14.46347856
     atom   16 type  2   force =    -0.30450728   -0.17564173  -14.46216075
     atom   17 type  2   force =    -0.01127126   -0.00539726  -13.64709930
     atom   18 type  2   force =    -0.00086888   -0.00047957  -14.77868213
     atom   19 type  2   force =    -0.00034607   -0.00040718  -12.58189408
     atom   20 type  2   force =     0.30545724   -0.17509288  -14.46147088
     atom   21 type  2   force =     0.01117737   -0.00507170  -13.64703964
     atom   22 type  2   force =     0.00090888    0.35253625  -14.46087663
     atom   23 type  2   force =     0.00019941    0.01193461  -13.64654229
     atom   24 type  2   force =    -0.00049003    0.00373129    0.00116874
     The core correction contribution to forces
     atom    1 type  1   force =     0.00000018   -0.00000024   -0.00000005
     atom    2 type  1   force =    -0.00000127    0.00000090   -0.00000072
     atom    3 type  1   force =    -0.00000043    0.00000049    0.00000020
     atom    4 type  1   force =     0.00000008   -0.00000024   -0.00000027
     atom    5 type  1   force =    -0.00000022   -0.00000003   -0.00000066
     atom    6 type  1   force =     0.00000094    0.00000117   -0.00000050
     atom    7 type  1   force =     0.00000030    0.00000027    0.00000062
     atom    8 type  2   force =    -0.00000012    0.00001536   -0.00507602
     atom    9 type  2   force =    -0.00000021    0.00096821   -0.00441933
     atom   10 type  2   force =     0.00001047   -0.00000460   -0.00507626
     atom   11 type  2   force =     0.00083013   -0.00048200   -0.00442405
     atom   12 type  2   force =    -0.00000092    0.00000309   -0.00520668
     atom   13 type  2   force =    -0.00000064    0.00000285   -0.00541532
     atom   14 type  2   force =    -0.00001135   -0.00000490   -0.00507692
     atom   15 type  2   force =    -0.00082909   -0.00048116   -0.00442530
     atom   16 type  2   force =     0.00083438    0.00047716    0.00442609
     atom   17 type  2   force =     0.00001119    0.00000791    0.00507370
     atom   18 type  2   force =    -0.00000091    0.00000350    0.00541477
     atom   19 type  2   force =    -0.00000056    0.00000425    0.00520738
     atom   20 type  2   force =    -0.00083557    0.00047962    0.00442494
     atom   21 type  2   force =    -0.00001204    0.00000805    0.00507392
     atom   22 type  2   force =     0.00000147   -0.00096715    0.00442144
     atom   23 type  2   force =    -0.00000022   -0.00001055    0.00507495
     atom   24 type  2   force =    -0.00000126   -0.00000333   -0.00000327
     The Hubbard contrib.    to forces
     atom    1 type  1   force =     0.00000000    0.00000000    0.00000000
     atom    2 type  1   force =     0.00000000    0.00000000    0.00000000
     atom    3 type  1   force =     0.00000000    0.00000000    0.00000000
     atom    4 type  1   force =     0.00000000    0.00000000    0.00000000
     atom    5 type  1   force =     0.00000000    0.00000000    0.00000000
     atom    6 type  1   force =     0.00000000    0.00000000    0.00000000
     atom    7 type  1   force =     0.00000000    0.00000000    0.00000000
     atom    8 type  2   force =     0.00000000    0.00000000    0.00000000
     atom    9 type  2   force =     0.00000000    0.00000000    0.00000000
     atom   10 type  2   force =     0.00000000    0.00000000    0.00000000
     atom   11 type  2   force =     0.00000000    0.00000000    0.00000000
     atom   12 type  2   force =     0.00000000    0.00000000    0.00000000
     atom   13 type  2   force =     0.00000000    0.00000000    0.00000000
     atom   14 type  2   force =     0.00000000    0.00000000    0.00000000
     atom   15 type  2   force =     0.00000000    0.00000000    0.00000000
     atom   16 type  2   force =     0.00000000    0.00000000    0.00000000
     atom   17 type  2   force =     0.00000000    0.00000000    0.00000000
     atom   18 type  2   force =     0.00000000    0.00000000    0.00000000
     atom   19 type  2   force =     0.00000000    0.00000000    0.00000000
     atom   20 type  2   force =     0.00000000    0.00000000    0.00000000
     atom   21 type  2   force =     0.00000000    0.00000000    0.00000000
     atom   22 type  2   force =     0.00000000    0.00000000    0.00000000
     atom   23 type  2   force =     0.00000000    0.00000000    0.00000000
     atom   24 type  2   force =     0.00000000    0.00000000    0.00000000
     The SCF correction term to forces
     atom    1 type  1   force =     0.00000123    0.00003104   -0.00001041
     atom    2 type  1   force =     0.00011713   -0.00012051    0.00004785
     atom    3 type  1   force =     0.00002104   -0.00001833   -0.00001675
     atom    4 type  1   force =    -0.00000219    0.00005607   -0.00003566
     atom    5 type  1   force =    -0.00000124    0.00000782    0.00000508
     atom    6 type  1   force =    -0.00011708   -0.00012305    0.00004728
     atom    7 type  1   force =    -0.00002118   -0.00001998   -0.00001619
     atom    8 type  2   force =     0.00000990   -0.00005111   -0.00006994
     atom    9 type  2   force =     0.00000899   -0.00006599    0.00002473
     atom   10 type  2   force =    -0.00001191    0.00004941   -0.00008576
     atom   11 type  2   force =    -0.00002492    0.00005310    0.00007413
     atom   12 type  2   force =    -0.00001109   -0.00004127   -0.00008747
     atom   13 type  2   force =    -0.00000800   -0.00003904    0.00007616
     atom   14 type  2   force =     0.00001194    0.00003814   -0.00009201
     atom   15 type  2   force =     0.00002799    0.00004405    0.00007522
     atom   16 type  2   force =    -0.00008098    0.00000382   -0.00001473
     atom   17 type  2   force =    -0.00006837    0.00001725    0.00004801
     atom   18 type  2   force =     0.00000663   -0.00004988   -0.00004458
     atom   19 type  2   force =     0.00000941   -0.00005866    0.00005538
     atom   20 type  2   force =     0.00007581   -0.00000249   -0.00001569
     atom   21 type  2   force =     0.00006793    0.00000790    0.00004023
     atom   22 type  2   force =    -0.00000835    0.00004641   -0.00006747
     atom   23 type  2   force =    -0.00000812    0.00002746    0.00007252
     atom   24 type  2   force =     0.00000264    0.00024666    0.00003020

     Total force =     0.001822     Total SCF correction =     0.000498
     SCF correction compared to forces is large: reduce conv_thr to get better values

     Computing stress (Cartesian axis) and pressure

[...]

          total   stress  (Ry/bohr**3)                   (kbar)     P=      -13.63
  -0.00009270  -0.00000001   0.00000001          -13.64       -0.00        0.00
  -0.00000001  -0.00009263   0.00000004           -0.00      -13.63        0.01
   0.00000001   0.00000004  -0.00009255            0.00        0.01      -13.61

     kinetic stress (kbar)  14690.39     -0.00      0.00
                               -0.00  14690.42      0.02
                                0.00      0.02  14703.13

     local   stress (kbar)  -7440.11     -0.19      0.17
                               -0.19  -7439.42      0.31
                                0.17      0.31   1228.64

     nonloc. stress (kbar)   -653.79     -0.00      0.00
                               -0.00   -653.77      0.02
                                0.00      0.02   -654.91

     hartree stress (kbar)  12228.14      0.07     -0.06
                                0.07  12227.89     -0.12
                               -0.06     -0.12   8299.53

     exc-cor stress (kbar)   7098.21      0.00     -0.00
                                0.00   7098.21      0.00
                               -0.00      0.00   7097.57

     corecor stress (kbar) -11516.52      0.00     -0.00
                                0.00 -11516.52     -0.00
                               -0.00     -0.00 -11516.57

     ewald   stress (kbar) -14505.55      0.13     -0.11
                                0.13 -14506.03     -0.22
                               -0.11     -0.22 -19257.71

     hubbard stress (kbar)      0.00      0.00      0.00
                                0.00      0.00      0.00
                                0.00      0.00      0.00

     DFT-D   stress (kbar)      0.00      0.00      0.00
                                0.00      0.00      0.00
                                0.00      0.00      0.00

     XDM     stress (kbar)      0.00      0.00      0.00
                                0.00      0.00      0.00
                                0.00      0.00      0.00

     dft-nl  stress (kbar)     85.58     -0.00      0.00
                               -0.00     85.59     -0.00
                                0.00     -0.00     86.70

     TS-vdW  stress (kbar)      0.00      0.00      0.00
                                0.00      0.00      0.00
                                0.00      0.00      0.00

     MDB     stress (kbar)      0.00      0.00      0.00
                                0.00      0.00      0.00
                                0.00      0.00      0.00

     3D-RISM stress (kbar)      0.00      0.00      0.00
                                0.00      0.00      0.00
                                0.00      0.00      0.00

[...]

     Non-local corr. energy    =      11.80956527 Ry

 BEEFens 2000 ensemble energies
             -0.981687417524051E+01
             -0.990205010604997E+02
             -0.450819881105010E+02
              0.345618983655673E+02
             -0.757046283436669E+02
             -0.927215510724317E+02
              0.475918436802376E+02
              0.228786182385079E+00
              0.801780707040805E+02
             -0.510032350078660E+01
              0.410536362370609E+02
              0.425467100562614E+01
             -0.318378554867061E+01
             -0.256706318787059E+01
              0.512517318425219E+02
             -0.384658358787365E+02
             -0.756201637331585E+02
             -0.244094253584782E+02
              0.219306034473991E+02
             -0.418438841320722E+00
              0.111550042071889E+03
              0.930902570712955E+02
             -0.574075947247239E+02
              0.198056244006884E+02
             -0.119501195518150E+03
              0.981021642152758E+02
              0.335089952597465E+02
              0.886018930738873E+02
              0.597116760483309E+02
             -0.277284165531569E+02
              0.218619968307727E+02
             -0.390821233387621E+02
              0.163212511225452E+02
              0.593877406746558E+02
              0.638448859206620E+02
             -0.277764871261140E+02
              0.140988725322946E+03
             -0.567111232246954E+02
             -0.378049874476721E+02
              0.563765531667836E+02
              0.248257643888830E+02
              0.428299361549588E+02
             -0.827117845720361E+02
             -0.532801186385507E+01
              0.794083070503260E+02
              0.103767592462525E+03
             -0.105307124402924E+03
              0.677022948993417E+01
              0.365018775711552E+02
              0.236063291509552E+02
              0.412004550691964E+02
              0.904221208844453E+02
             -0.587188468248977E+02
             -0.570063268015444E+02
             -0.794758219331467E+02
             -0.115659367899615E+02
             -0.678080039894011E+02
              0.876921420323231E+01
             -0.974558157251090E+01
             -0.537199194474284E+02
[...]
              0.670649528115553E+02
              0.430117407262011E+02
              0.438501713269510E+02
             -0.811165822736089E+02
             -0.838352428231543E+02
             -0.188845384035493E+02
             -0.748874903939886E+02
              0.118925617549134E+03
              0.100183579174939E+03
              0.472071276998068E+02
              0.130245451846781E+03
             -0.651685832783048E+02
             -0.280039304605248E+02
             -0.403532348676130E+02
              0.112657724524005E+03

 BEEF-vdW xc energy contributions
            1 :    -1018.141741126997
            2 :     933.0420525923355
            3 :    -787.8669600402900
            4 :     621.2177267013644
            5 :    -469.5143409715304
            6 :     355.2812579043961
            7 :    -283.4370602610938
            8 :     244.5705133603883
            9 :    -222.0846963773067
           10 :     200.1471599222664
           11 :    -169.7373042821584
           12 :     130.7002541114018
           13 :    -89.42014551925968
           14 :     53.95297312583034
           15 :    -29.52942147654585
           16 :     16.51343973042412
           17 :    -11.13521060243215
           18 :     7.974268141985704
           19 :    -2.737477826565282
           20 :    -5.927263888394009
           21 :     16.30172492296333
           22 :    -25.07294492375195
           23 :     29.51441114433919
           24 :    -29.11727667659943
           25 :     25.81068817039431
           26 :    -22.78790145716425
           27 :     22.71473263164694
           28 :    -26.32442742607077
           29 :     32.09926680045737
           30 :    -37.14962159361357
           31 :    -87.00161878639619
           32 :    -62.50193923960501

     Writing all to output data dir ./PbI2.save/

     General routines

     Parallel routines

     PAW routines

   This run was terminated on:   6:40: 0  28Mar2024

   JOB DONE.