     Program PWSCF v.7.1 starts on 21Feb2024 at  8:54:36

     Reading input from espresso.pwi
Warning: card &CELL ignored
Warning: card    CELL_DYNAMICS    = 'BFGS' ignored
Warning: card / ignored

     Current dimensions of program PWSCF are:
     Max number of different atomic species (ntypx) = 10
     Max number of k-points (npk) =  40000
     Max angular momentum in pseudopotentials (lmaxx) =  4
     file Ga.pbe-dn-kjpaw_psl.1.0.0.UPF: wavefunction(s)  4S renormalized
     file N.pbe-n-kjpaw_psl.1.0.0.UPF: wavefunction(s)  2S renormalized

     IMPORTANT: XC functional enforced from input :
     Exchange-correlation= BEEF-VDW
                           (   1   4  43  14   2   0   0)
     Any further DFT definition will be discarded
     Please, verify this is what you really want

     Found identity + (  0.5000  0.0000  0.0000) symmetry
     This is a supercell, fractional translations are disabled

     K-points division:     npool     =       8
     R & G space division:  proc/nbgrp/npool/nimage =      16
     Subspace diagonalization in iterative solution of the eigenvalue problem:
     a serial algorithm will be used

     Using Slab Decomposition

     bravais-lattice index     =            8
     lattice parameter (alat)  =      11.0040  a.u.
     unit-cell volume          =     580.1008 (a.u.)^3
     number of atoms/cell      =            8
     number of atomic types    =            2
     number of electrons       =        72.00
     number of Kohn-Sham states=           43
     kinetic-energy cutoff     =      70.0000  Ry
     charge density cutoff     =     350.0000  Ry
     scf convergence threshold =      1.0E-07
     mixing beta               =       0.7000
     number of iterations used =            8  plain     mixing
     Exchange-correlation= BEEF-VDW
                           (   1   4  43  14   2   0   0)

     celldm(1)=  11.004046  celldm(2)=   0.500001  celldm(3)=   0.870714
     celldm(4)=   0.000000  celldm(5)=   0.000000  celldm(6)=   0.000000

     crystal axes: (cart. coord. in units of alat)
               a(1) = (   1.000000   0.000000   0.000000 )
               a(2) = (   0.000000   0.500001   0.000000 )
               a(3) = (   0.000000   0.000000   0.870714 )

     reciprocal axes: (cart. coord. in units 2 pi/alat)
               b(1) = (  1.000000  0.000000  0.000000 )
               b(2) = (  0.000000  1.999996  0.000000 )
               b(3) = (  0.000000  0.000000  1.148483 )

     PseudoPot. # 1 for Ga read from file:
     /trace/group/acmegroup/atimmins/packages/espresso/pseudo/psl_1.0.0/pslibrary.1.0.0/pbe/PSEUDOPOTENTIALS/Ga.pbe-dn-kjpaw_psl.1.0.0.UPF
     MD5 check sum: cd2a01e492f15b435d17032472d8505c
     Pseudo is Projector augmented-wave + core cor, Zval = 13.0
     Generated using 'atomic' code by A. Dal Corso  v.7.1
     Shape of augmentation charge: PSQ
     Using radial grid of 1205 points,  6 beta functions with:
                l(1) =   0
                l(2) =   0
                l(3) =   1
                l(4) =   1
                l(5) =   2
                l(6) =   2
     Q(r) pseudized with 0 coefficients

     PseudoPot. # 2 for N  read from file:
     /trace/group/acmegroup/atimmins/packages/espresso/pseudo/psl_1.0.0/pslibrary.1.0.0/pbe/PSEUDOPOTENTIALS/N.pbe-n-kjpaw_psl.1.0.0.UPF
     MD5 check sum: f77f775694dac7e2c3fe1c82443d1a16
     Pseudo is Projector augmented-wave + core cor, Zval =  5.0
     Generated using 'atomic' code by A. Dal Corso  v.7.1
     Shape of augmentation charge: PSQ
     Using radial grid of 1085 points,  4 beta functions with:
                l(1) =   0
                l(2) =   0
                l(3) =   1
                l(4) =   1
     Q(r) pseudized with 0 coefficients

     atomic species   valence    mass     pseudopotential
        Ga            13.00    69.72300     Ga( 1.00)
        N              5.00    14.00700     N ( 1.00)

      2 Sym. Ops. (no inversion) found

                                    s                        frac. trans.

      isym =  1     identity

 cryst.   s( 1) = (     1          0          0      )
                  (     0          1          0      )
                  (     0          0          1      )

 cart.    s( 1) = (  1.0000000  0.0000000  0.0000000 )
                  (  0.0000000  1.0000000  0.0000000 )
                  (  0.0000000  0.0000000  1.0000000 )

      isym =  2     inv. 180 deg rotation - cart. axis [1,0,0]

 cryst.   s( 2) = (    -1          0          0      )
                  (     0          1          0      )
                  (     0          0          1      )

 cart.    s( 2) = ( -1.0000000  0.0000000  0.0000000 )
                  (  0.0000000  1.0000000  0.0000000 )
                  (  0.0000000  0.0000000  1.0000000 )

     point group C_s (m)
     there are  2 classes
     the character table:

       E     s
A'     1.00  1.00
A''    1.00 -1.00

     the symmetry operations in each class and the name of the first element:

     E        1
          identity
     s        2
          inv. 180 deg rotation - cart. axis [1,0,0]

   Cartesian axes

     site n.     atom                  positions (alat units)
         1           Ga  tau(   1) = (   0.0000000   0.3751085   0.8675040  )
         2           Ga  tau(   2) = (   0.5000000   0.3751087   0.8675044  )
         3           Ga  tau(   3) = (   0.2500006   0.1248925   0.4321468  )
         4           Ga  tau(   4) = (   0.7499993   0.1248925   0.4321468  )
         5           N   tau(   5) = (   0.0000000   0.3749391   0.3384346  )
         6           N   tau(   6) = (   0.5000000   0.3749393   0.3384347  )
         7           N   tau(   7) = (   0.2499999   0.1250618   0.7737911  )
         8           N   tau(   8) = (   0.7500001   0.1250618   0.7737911  )

   Crystallographic axes

     site n.     atom                  positions (cryst. coord.)
         1           Ga  tau(   1) = (  0.0000000  0.7502155  0.9963138  )
         2           Ga  tau(   2) = (  0.5000000  0.7502158  0.9963143  )
         3           Ga  tau(   3) = (  0.2500006  0.2497845  0.4963133  )
         4           Ga  tau(   4) = (  0.7499993  0.2497845  0.4963133  )
         5           N   tau(   5) = (  0.0000000  0.7498768  0.3886865  )
         6           N   tau(   6) = (  0.5000000  0.7498770  0.3886866  )
         7           N   tau(   7) = (  0.2499999  0.2501231  0.8886861  )
         8           N   tau(   8) = (  0.7500001  0.2501231  0.8886861  )

     number of k points=    20  Gaussian smearing, width (Ry)=  0.0100
                       cart. coord. in units 2pi/alat
        k(    1) = (   0.0000000   0.0000000   0.0000000), wk =   0.0370370
        k(    2) = (   0.0000000   0.0000000   0.3828277), wk =   0.0740741
        k(    3) = (   0.0000000   0.3333327   0.0000000), wk =   0.0740741
        k(    4) = (   0.0000000   0.3333327   0.3828277), wk =   0.0740741
        k(    5) = (   0.0000000   0.6666653   0.0000000), wk =   0.0740741
        k(    6) = (   0.0000000   0.6666653   0.3828277), wk =   0.0740741
        k(    7) = (   0.0000000  -0.9999980   0.0000000), wk =   0.0370370
        k(    8) = (   0.0000000  -0.9999980   0.3828277), wk =   0.0740741
        k(    9) = (   0.3333333   0.0000000   0.0000000), wk =   0.0740741
        k(   10) = (   0.3333333   0.0000000   0.3828277), wk =   0.1481481
        k(   11) = (   0.3333333   0.3333327   0.0000000), wk =   0.1481481
        k(   12) = (   0.3333333   0.3333327   0.3828277), wk =   0.1481481
        k(   13) = (   0.3333333   0.6666653   0.0000000), wk =   0.1481481
        k(   14) = (   0.3333333   0.6666653   0.3828277), wk =   0.1481481
        k(   15) = (   0.3333333  -0.9999980   0.0000000), wk =   0.0740741
        k(   16) = (   0.3333333  -0.9999980   0.3828277), wk =   0.1481481
        k(   17) = (   0.0000000   0.3333327  -0.3828277), wk =   0.0740741
        k(   18) = (   0.0000000   0.6666653  -0.3828277), wk =   0.0740741
        k(   19) = (  -0.3333333   0.3333327  -0.3828277), wk =   0.1481481
        k(   20) = (  -0.3333333   0.6666653  -0.3828277), wk =   0.1481481

                       cryst. coord.
        k(    1) = (   0.0000000   0.0000000   0.0000000), wk =   0.0370370
        k(    2) = (   0.0000000   0.0000000   0.3333333), wk =   0.0740741
        k(    3) = (   0.0000000   0.1666667   0.0000000), wk =   0.0740741
        k(    4) = (   0.0000000   0.1666667   0.3333333), wk =   0.0740741
        k(    5) = (   0.0000000   0.3333333   0.0000000), wk =   0.0740741
        k(    6) = (   0.0000000   0.3333333   0.3333333), wk =   0.0740741
        k(    7) = (   0.0000000  -0.5000000   0.0000000), wk =   0.0370370
        k(    8) = (   0.0000000  -0.5000000   0.3333333), wk =   0.0740741
        k(    9) = (   0.3333333   0.0000000   0.0000000), wk =   0.0740741
        k(   10) = (   0.3333333   0.0000000   0.3333333), wk =   0.1481481
        k(   11) = (   0.3333333   0.1666667   0.0000000), wk =   0.1481481
        k(   12) = (   0.3333333   0.1666667   0.3333333), wk =   0.1481481
        k(   13) = (   0.3333333   0.3333333   0.0000000), wk =   0.1481481
        k(   14) = (   0.3333333   0.3333333   0.3333333), wk =   0.1481481
        k(   15) = (   0.3333333  -0.5000000   0.0000000), wk =   0.0740741
        k(   16) = (   0.3333333  -0.5000000   0.3333333), wk =   0.1481481
        k(   17) = (   0.0000000   0.1666667  -0.3333333), wk =   0.0740741
        k(   18) = (   0.0000000   0.3333333  -0.3333333), wk =   0.0740741
        k(   19) = (  -0.3333333   0.1666667  -0.3333333), wk =   0.1481481
        k(   20) = (  -0.3333333   0.3333333  -0.3333333), wk =   0.1481481

     Atomic positions and unit cell read from directory:
     ./PbI2.save/

     Check: negative core charge=   -0.000003

     The initial density is read from file :
     ./PbI2.save/charge-density

     %%%%%%%%%%%%%%%%%%%%%%%%%%%%%%%%%%%%%%%%%%%%%%%%%%%%%%%%%%%%%%%%%%%%%%%%
     %                                                                      %
     % You are using vdW-DF, which was implemented by the Thonhauser group. %
     % Please cite the following two papers that made this development      %
     % possible and the two reviews that describe the various versions:     %
     %                                                                      %
     %   T. Thonhauser et al., PRL 115, 136402 (2015).                      %
     %   T. Thonhauser et al., PRB 76, 125112 (2007).                       %
     %   K. Berland et al., Rep. Prog. Phys. 78, 066501 (2015).             %
     %   D.C. Langreth et al., J. Phys.: Condens. Matter 21, 084203 (2009). %
     %                                                                      %
     % If you are calculating stress with vdW-DF, please also cite:         %
     %                                                                      %
     %   R. Sabatini et al., J. Phys.: Condens. Matter 24, 424209 (2012).   %
     %                                                                      %
     %%%%%%%%%%%%%%%%%%%%%%%%%%%%%%%%%%%%%%%%%%%%%%%%%%%%%%%%%%%%%%%%%%%%%%%%

     %%%%%%%%%%%%%%%%%%%%%%%%%%%%%%%%%%%%%%%%%%%%%%%%%%%%%%%%%%%%%%%%%%%%%%%%
     %                                                                      %
     %  vdW-DF NEWS:                                                        %
     %                                                                      %
     %  * vdW-DF3 is now available. DOI: 10.1021/acs.jctc.0c00471           %
     %    use with input_dft = 'vdW-DF3-opt1' or 'vdW-DF3-opt2'             %
     %                                                                      %
     %  * Unscreened and range-separated vdW-DF hybrid functionals          %
     %    DOI: 10.1063/1.4986522 and 10.1088/1361-648X/ac2ad2               %
     %    use with input_dft = 'vdW-DF-cx0' (etc) and 'vdW-DF-ahcx'         %
     %                                                                      %
     %%%%%%%%%%%%%%%%%%%%%%%%%%%%%%%%%%%%%%%%%%%%%%%%%%%%%%%%%%%%%%%%%%%%%%%%

     Carrying out vdW-DF run using the following parameters:
     Nqs    =  20  Npoints =  1024  r_max =  100.000
     q_mesh =  0.00001000  0.04494208  0.09755937  0.15916263
               0.23128650  0.31572767  0.41458969  0.53033537
               0.66584808  0.82450364  1.01025438  1.22772762
               1.48234092  1.78043706  2.12944203  2.53805004
               3.01644009  3.57652955  4.23227104  5.00000000

     Non-local corr. energy    =       2.13943922 Ry

     Starting wfcs from file
     Checking if some PAW data can be deallocated...

     Self-consistent Calculation

     iteration #  1     ecut=    70.00 Ry     beta= 0.70
     Davidson diagonalization with overlap

     ethr =  1.00E-05,  avg # of iterations =  1.9

     Threshold (ethr) on eigenvalues was too large:
     Diagonalizing with lowered threshold

     Davidson diagonalization with overlap

     ethr =  4.63E-11,  avg # of iterations = 10.3

[...]

     End of self-consistent calculation

          k = 0.0000 0.0000 0.0000 (  5787 PWs)   bands (ev):

    -5.5152  -4.9887  -4.3756  -4.3756  -3.8750  -3.8506  -3.8164  -3.7918
    -3.7913  -3.7377  -3.7367  -3.6980  -3.6980  -3.6552  -3.6549  -3.6007
    -3.5996  -3.5669  -3.5523  -3.5523  -3.5397  -2.3666  -2.3665  -1.7962
     3.5979   4.1629   4.1632   7.2675   7.2677   9.0543   9.0544  10.4721
    10.4721  10.5445  11.0680  11.0684  11.8754  12.9693  17.4519  17.4520
    18.0433  18.0434  19.5816

     occupation numbers
     1.0000   1.0000   1.0000   1.0000   1.0000   1.0000   1.0000   1.0000
     1.0000   1.0000   1.0000   1.0000   1.0000   1.0000   1.0000   1.0000
     1.0000   1.0000   1.0000   1.0000   1.0000   1.0000   1.0000   1.0000
     1.0000   1.0000   1.0000   1.0000   1.0000   1.0000   1.0000   1.0000
     1.0000   1.0000   0.9648   0.9645   0.0000   0.0000   0.0000   0.0000
     0.0000   0.0000   0.0000

[...]

          k = 0.0000 0.6667-0.3828 (  5726 PWs)   bands (ev):

[...]

          k =-0.3333 0.3333-0.3828 (  5744 PWs)   bands (ev):

[...]

          k =-0.3333 0.6667-0.3828 (  5729 PWs)   bands (ev):

    -4.6261  -4.6184  -4.5465  -4.5164  -3.8063  -3.7920  -3.7786  -3.7691
    -3.7590  -3.7580  -3.7499  -3.6871  -3.6675  -3.6550  -3.6447  -3.6434
    -3.6047  -3.5965  -3.5571  -3.5510  -2.7457  -1.9330  -1.8200  -1.2271
     4.4566   5.1826   5.2888   5.5148   6.3331   7.4673   7.6020   8.9210
     9.0561   9.1886   9.3409   9.8185  14.3172  14.6554  15.8631  16.4983
    17.5061  17.5806  17.8129

     occupation numbers
     1.0000   1.0000   1.0000   1.0000   1.0000   1.0000   1.0000   1.0000
     1.0000   1.0000   1.0000   1.0000   1.0000   1.0000   1.0000   1.0000
     1.0000   1.0000   1.0000   1.0000   1.0000   1.0000   1.0000   1.0000
     1.0000   1.0000   1.0000   1.0000   1.0000   1.0000   1.0000   1.0000
     1.0000   1.0000   1.0000   1.0000   0.0000   0.0000   0.0000   0.0000
     0.0000   0.0000   0.0000

     the Fermi energy is    11.2421 ev

!    total energy              =   -1248.89757277 Ry
     total all-electron energy =    -16014.751410 Ry
     estimated scf accuracy    <       0.00000007 Ry
     smearing contrib. (-TS)   =      -0.00071302 Ry
     internal energy E=F+TS    =   -1248.89685975 Ry

     The total energy is F=E-TS. E is the sum of the following terms:
     one-electron contribution =    -322.54806067 Ry
     hartree contribution      =     241.19855775 Ry
     xc contribution           =    -182.03080686 Ry
     ewald contribution        =    -488.52278681 Ry
     one-center paw contrib.   =    -496.99376316 Ry
      -> PAW hartree energy AE =     142.35068910 Ry
      -> PAW hartree energy PS =    -140.93035525 Ry
      -> PAW xc energy AE      =    -156.79425244 Ry
      -> PAW xc energy PS      =      39.58368534 Ry
      -> total E_H with PAW    =     242.61889160 Ry
      -> total E_XC with PAW   =    -299.24137397 Ry

     convergence has been achieved in   1 iterations

[...]

     Forces acting on atoms (cartesian axes, Ry/au):

     atom    1 type  1   force =     0.00000000   -0.00008632    0.00003873
     atom    2 type  1   force =     0.00000000   -0.00008889    0.00001713
     atom    3 type  1   force =     0.00004841    0.00008729   -0.00008716
     atom    4 type  1   force =    -0.00004841    0.00008729   -0.00008716
     atom    5 type  2   force =     0.00000000    0.00005171    0.00002876
     atom    6 type  2   force =     0.00000000    0.00005198    0.00002662
     atom    7 type  2   force =    -0.00000266   -0.00005154    0.00003155
     atom    8 type  2   force =     0.00000266   -0.00005154    0.00003155
     The non-local contrib.  to forces
     atom    1 type  1   force =     0.00000000   -0.00030489   -0.33787326
     atom    2 type  1   force =     0.00000000   -0.00030635   -0.33787862
     atom    3 type  1   force =     0.00003973    0.00030483   -0.33797897
     atom    4 type  1   force =    -0.00003973    0.00030483   -0.33797897
     atom    5 type  2   force =     0.00000000    0.00072099   -0.15285055
     atom    6 type  2   force =     0.00000000    0.00072225   -0.15285523
     atom    7 type  2   force =    -0.00000138   -0.00072209   -0.15281298
     atom    8 type  2   force =     0.00000138   -0.00072209   -0.15281298
     The ionic contribution  to forces
     atom    1 type  1   force =    -0.00000050   -0.00316033   -0.85351600
     atom    2 type  1   force =     0.00000034   -0.00317005   -0.85355879
     atom    3 type  1   force =    -0.00019021    0.00316063   -0.85338003
     atom    4 type  1   force =     0.00019037    0.00316063   -0.85338013
     atom    5 type  2   force =    -0.00000023   -0.00458376    0.85350895
     atom    6 type  2   force =     0.00000009   -0.00459111    0.85347580
     atom    7 type  2   force =    -0.00001999    0.00459200    0.85342505
     atom    8 type  2   force =     0.00002013    0.00459200    0.85342515
     The local contribution  to forces
     atom    1 type  1   force =     0.00000000    0.00337622    1.18440521
     atom    2 type  1   force =     0.00000464    0.00338731    1.18445625
     atom    3 type  1   force =     0.00010271   -0.00337641    1.18449065
     atom    4 type  1   force =    -0.00009342   -0.00337641    1.18449065
     atom    5 type  2   force =    -0.00000000    0.00392643   -0.70344279
     atom    6 type  2   force =     0.00000036    0.00393277   -0.70342600
     atom    7 type  2   force =    -0.00002408   -0.00393369   -0.70332117
     atom    8 type  2   force =     0.00002480   -0.00393369   -0.70332117
     The core correction contribution to forces
     atom    1 type  1   force =     0.00000000    0.00000189    0.00666588
     atom    2 type  1   force =     0.00000035    0.00000190    0.00666699
     atom    3 type  1   force =     0.00000010   -0.00000188    0.00666439
     atom    4 type  1   force =     0.00000060   -0.00000188    0.00666439
     atom    5 type  2   force =     0.00000000   -0.00001180    0.00256702
     atom    6 type  2   force =    -0.00000001   -0.00001182    0.00256711
     atom    7 type  2   force =    -0.00000007    0.00001182    0.00256638
     atom    8 type  2   force =     0.00000005    0.00001182    0.00256638
     The Hubbard contrib.    to forces
     atom    1 type  1   force =     0.00000000    0.00000000    0.00000000
     atom    2 type  1   force =     0.00000000    0.00000000    0.00000000
     atom    3 type  1   force =     0.00000000    0.00000000    0.00000000
     atom    4 type  1   force =     0.00000000    0.00000000    0.00000000
     atom    5 type  2   force =     0.00000000    0.00000000    0.00000000
     atom    6 type  2   force =     0.00000000    0.00000000    0.00000000
     atom    7 type  2   force =     0.00000000    0.00000000    0.00000000
     atom    8 type  2   force =     0.00000000    0.00000000    0.00000000
     The SCF correction term to forces
     atom    1 type  1   force =     0.00000000    0.00000068    0.00014363
     atom    2 type  1   force =    -0.00000000   -0.00000179    0.00011803
     atom    3 type  1   force =     0.00010116    0.00000002   -0.00009640
     atom    4 type  1   force =    -0.00010116    0.00000002   -0.00009640
     atom    5 type  2   force =     0.00000000   -0.00000027    0.00003287
     atom    6 type  2   force =     0.00000000   -0.00000022    0.00005167
     atom    7 type  2   force =     0.00004329    0.00000032   -0.00003904
     atom    8 type  2   force =    -0.00004329    0.00000032   -0.00003904

     Total force =     0.000258     Total SCF correction =     0.000290
     SCF correction compared to forces is large: reduce conv_thr to get better values

     Computing stress (Cartesian axis) and pressure

[...]

          total   stress  (Ry/bohr**3)                   (kbar)     P=        0.58
   0.00000328   0.00000000   0.00000000            0.48        0.00        0.00
   0.00000000   0.00000323   0.00000000            0.00        0.47        0.00
   0.00000000   0.00000000   0.00000540            0.00        0.00        0.79

     kinetic stress (kbar)  20749.29      0.00      0.00
                                0.00  20749.28      0.00
                                0.00      0.00  20434.73

     local   stress (kbar)   6062.37     -0.00     -0.00
                               -0.00   6062.44      0.01
                               -0.00      0.01  17711.03

     nonloc. stress (kbar)      9.22      0.00      0.00
                                0.00      9.22     -0.00
                                0.00     -0.00    283.82

     hartree stress (kbar)  21947.50      0.00     -0.00
                                0.00  21947.48     -0.00
                               -0.00     -0.00  17269.45

     exc-cor stress (kbar)   5868.30      0.00     -0.00
                                0.00   5868.30     -0.00
                               -0.00     -0.00   5847.05

     corecor stress (kbar) -15823.81     -0.00     -0.00
                               -0.00 -15823.81      0.00
                               -0.00      0.00 -15822.29

     ewald   stress (kbar) -38987.58      0.00      0.00
                                0.00 -38987.62     -0.01
                                0.00     -0.01 -45907.04

     hubbard stress (kbar)      0.00      0.00      0.00
                                0.00      0.00      0.00
                                0.00      0.00      0.00

     DFT-D   stress (kbar)      0.00      0.00      0.00
                                0.00      0.00      0.00
                                0.00      0.00      0.00

     XDM     stress (kbar)      0.00      0.00      0.00
                                0.00      0.00      0.00
                                0.00      0.00      0.00

     dft-nl  stress (kbar)    175.18     -0.00     -0.00
                               -0.00    175.18      0.00
                               -0.00      0.00    184.06

     TS-vdW  stress (kbar)      0.00      0.00      0.00
                                0.00      0.00      0.00
                                0.00      0.00      0.00

     MDB     stress (kbar)      0.00      0.00      0.00
                                0.00      0.00      0.00
                                0.00      0.00      0.00

     3D-RISM stress (kbar)      0.00      0.00      0.00
                                0.00      0.00      0.00
                                0.00      0.00      0.00

[...]

     Non-local corr. energy    =       2.13948244 Ry

 BEEFens 2000 ensemble energies
             -0.174904205021824E+01
             -0.158870288148845E+02
             -0.683168699742289E+01
              0.554899644338366E+01
             -0.113835466343878E+02
             -0.146659506515371E+02
              0.748888778041442E+01
             -0.730571941664415E+00
              0.126156434360181E+02
             -0.556777534181890E+00
              0.616533613634230E+01
              0.275156166279523E+00
              0.285330303251122E+00
             -0.461587216462320E+00
              0.828277516032243E+01
             -0.593002048409274E+01
             -0.123401764428156E+02
             -0.405364743962345E+01
              0.304511504408080E+01
             -0.227888198838116E+00
              0.180390779529060E+02
              0.153654784113233E+02
             -0.879705601588053E+01
              0.318872888452250E+01
             -0.192439479608106E+02
              0.154491574981121E+02
              0.502156134133067E+01
              0.149896497091531E+02
              0.987577979161924E+01
             -0.477976613044908E+01
              0.359740745615987E+01
             -0.714179800339429E+01
              0.203428975902683E+01
              0.965978077319184E+01
              0.101745527525909E+02
             -0.376257667880991E+01
              0.227456711922753E+02
             -0.856690889154289E+01
             -0.627403793785440E+01
              0.915317685405597E+01
              0.410002127600663E+01
              0.674494662037622E+01
             -0.129786913127191E+02
             -0.374797361061866E+00
              0.127044989505841E+02
              0.165148436268573E+02
             -0.164316360196334E+02
              0.121738888072184E+01
              0.625931523608963E+01
              0.303987555695836E+01
              0.694150413522100E+01
              0.146003958849268E+02
             -0.878281222759487E+01
             -0.959524011043123E+01
             -0.125619660423515E+02
             -0.197139003637807E+01
             -0.114932313562262E+02
              0.115877717968803E+01
             -0.212739814297423E+01
             -0.889297212529254E+01
[...]
              0.111206262809613E+02
              0.621770299294946E+01
              0.781110424140272E+01
             -0.126446501228425E+02
             -0.121591505323348E+02
             -0.305589721464107E+01
             -0.119108482627515E+02
              0.190019975173569E+02
              0.163146337248929E+02
              0.779516108291041E+01
              0.211386507083489E+02
             -0.110135874716671E+02
             -0.445113881920770E+01
             -0.621019434071509E+01
              0.174622799129228E+02

 BEEF-vdW xc energy contributions
            1 :    -160.1252062878894
            2 :     144.3868127467909
            3 :    -117.9913240709307
            4 :     88.59954502222408
            5 :    -62.93469870920356
            6 :     44.24899467055464
            7 :    -32.01344109739446
            8 :     23.60649311060300
            9 :    -16.61517796269780
           10 :     10.23167271327071
           11 :    -5.096826312646186
           12 :     2.099958995250830
           13 :    -1.261030547194963
           14 :     1.543447160157285
           15 :    -1.599042732096876
           16 :    0.7274557253836917
           17 :    0.7424459344882450
           18 :    -1.896201380044346
           19 :     2.074563051710840
           20 :    -1.414220004002573
           21 :    0.6946933154232227
           22 :   -0.6805721128022242
           23 :     1.527505785715846
           24 :    -2.716908758341930
           25 :     3.523239723762970
           26 :    -3.594827986522148
           27 :     3.176256658710628
           28 :    -2.828017702658855
           29 :     2.914894037267487
           30 :    -3.299033618061770
           31 :    -13.72520327016426
           32 :    -9.464746033997699

     Writing all to output data dir ./PbI2.save/

     General routines

     Parallel routines

     PAW routines

   This run was terminated on:   8:54:43  21Feb2024

   JOB DONE.