     Program PWSCF v.7.1 starts on 21Feb2024 at  8:39:45

     Reading input from espresso.pwi
Warning: card &CELL ignored
Warning: card    CELL_DYNAMICS    = 'BFGS' ignored
Warning: card / ignored

     Current dimensions of program PWSCF are:
     Max number of different atomic species (ntypx) = 10
     Max number of k-points (npk) =  40000
     Max angular momentum in pseudopotentials (lmaxx) =  4
     file Ga.pbe-dn-kjpaw_psl.1.0.0.UPF: wavefunction(s)  4S renormalized
     file N.pbe-n-kjpaw_psl.1.0.0.UPF: wavefunction(s)  2S renormalized

     IMPORTANT: XC functional enforced from input :
     Exchange-correlation= BEEF-VDW
                           (   1   4  43  14   2   0   0)
     Any further DFT definition will be discarded
     Please, verify this is what you really want

     Found identity + (  0.5000  0.0000  0.0000) symmetry
     This is a supercell, fractional translations are disabled

     K-points division:     npool     =       8
     R & G space division:  proc/nbgrp/npool/nimage =      16
     Subspace diagonalization in iterative solution of the eigenvalue problem:
     a serial algorithm will be used

     Using Slab Decomposition

     bravais-lattice index     =            8
     lattice parameter (alat)  =      11.0040  a.u.
     unit-cell volume          =     580.1008 (a.u.)^3
     number of atoms/cell      =            8
     number of atomic types    =            2
     number of electrons       =        72.00
     number of Kohn-Sham states=           43
     kinetic-energy cutoff     =      70.0000  Ry
     charge density cutoff     =     350.0000  Ry
     scf convergence threshold =      1.0E-07
     mixing beta               =       0.7000
     number of iterations used =            8  plain     mixing
     energy convergence thresh.=      1.0E-04
     force convergence thresh. =      1.0E-03
     Exchange-correlation= BEEF-VDW
                           (   1   4  43  14   2   0   0)
     nstep                     =           50

     celldm(1)=  11.004046  celldm(2)=   0.500001  celldm(3)=   0.870714
     celldm(4)=   0.000000  celldm(5)=   0.000000  celldm(6)=   0.000000

     crystal axes: (cart. coord. in units of alat)
               a(1) = (   1.000000   0.000000   0.000000 )
               a(2) = (   0.000000   0.500001   0.000000 )
               a(3) = (   0.000000   0.000000   0.870714 )

     reciprocal axes: (cart. coord. in units 2 pi/alat)
               b(1) = (  1.000000  0.000000  0.000000 )
               b(2) = (  0.000000  1.999996  0.000000 )
               b(3) = (  0.000000  0.000000  1.148483 )

     PseudoPot. # 1 for Ga read from file:
     //group///packages/espresso/pseudo/psl_1.0.0/pslibrary.1.0.0/pbe/PSEUDOPOTENTIALS/Ga.pbe-dn-kjpaw_psl.1.0.0.UPF
     MD5 check sum: cd2a01e492f15b435d17032472d8505c
     Pseudo is Projector augmented-wave + core cor, Zval = 13.0
     Generated using 'atomic' code by A. Dal Corso  v.7.1
     Shape of augmentation charge: PSQ
     Using radial grid of 1205 points,  6 beta functions with:
                l(1) =   0
                l(2) =   0
                l(3) =   1
                l(4) =   1
                l(5) =   2
                l(6) =   2
     Q(r) pseudized with 0 coefficients

     PseudoPot. # 2 for N  read from file:
     //group///packages/espresso/pseudo/psl_1.0.0/pslibrary.1.0.0/pbe/PSEUDOPOTENTIALS/N.pbe-n-kjpaw_psl.1.0.0.UPF
     MD5 check sum: f77f775694dac7e2c3fe1c82443d1a16
     Pseudo is Projector augmented-wave + core cor, Zval =  5.0
     Generated using 'atomic' code by A. Dal Corso  v.7.1
     Shape of augmentation charge: PSQ
     Using radial grid of 1085 points,  4 beta functions with:
                l(1) =   0
                l(2) =   0
                l(3) =   1
                l(4) =   1
     Q(r) pseudized with 0 coefficients

     atomic species   valence    mass     pseudopotential
        Ga            13.00    69.72300     Ga( 1.00)
        N              5.00    14.00700     N ( 1.00)

      2 Sym. Ops. (no inversion) found

                                    s                        frac. trans.

      isym =  1     identity

 cryst.   s( 1) = (     1          0          0      )
                  (     0          1          0      )
                  (     0          0          1      )

 cart.    s( 1) = (  1.0000000  0.0000000  0.0000000 )
                  (  0.0000000  1.0000000  0.0000000 )
                  (  0.0000000  0.0000000  1.0000000 )

      isym =  2     inv. 180 deg rotation - cart. axis [1,0,0]

 cryst.   s( 2) = (    -1          0          0      )
                  (     0          1          0      )
                  (     0          0          1      )

 cart.    s( 2) = ( -1.0000000  0.0000000  0.0000000 )
                  (  0.0000000  1.0000000  0.0000000 )
                  (  0.0000000  0.0000000  1.0000000 )

     point group C_s (m)
     there are  2 classes
     the character table:

       E     s
A'     1.00  1.00
A''    1.00 -1.00

     the symmetry operations in each class and the name of the first element:

     E        1
          identity
     s        2
          inv. 180 deg rotation - cart. axis [1,0,0]

   Cartesian axes

     site n.     atom                  positions (alat units)
         1           Ga  tau(   1) = (   0.0000000   0.3751085   0.8675040  )
         2           Ga  tau(   2) = (   0.5000000   0.3751087   0.8675044  )
         3           Ga  tau(   3) = (   0.2500006   0.1248925   0.4321468  )
         4           Ga  tau(   4) = (   0.7499993   0.1248925   0.4321468  )
         5           N   tau(   5) = (   0.0000000   0.3749391   0.3384346  )
         6           N   tau(   6) = (   0.5000000   0.3749393   0.3384347  )
         7           N   tau(   7) = (   0.2499999   0.1250618   0.7737911  )
         8           N   tau(   8) = (   0.7500001   0.1250618   0.7737911  )

   Crystallographic axes

     site n.     atom                  positions (cryst. coord.)
         1           Ga  tau(   1) = (  0.0000000  0.7502155  0.9963138  )
         2           Ga  tau(   2) = (  0.5000000  0.7502158  0.9963143  )
         3           Ga  tau(   3) = (  0.2500006  0.2497845  0.4963133  )
         4           Ga  tau(   4) = (  0.7499993  0.2497845  0.4963133  )
         5           N   tau(   5) = (  0.0000000  0.7498768  0.3886865  )
         6           N   tau(   6) = (  0.5000000  0.7498770  0.3886866  )
         7           N   tau(   7) = (  0.2499999  0.2501231  0.8886861  )
         8           N   tau(   8) = (  0.7500001  0.2501231  0.8886861  )

     number of k points=    20  Gaussian smearing, width (Ry)=  0.0100
                       cart. coord. in units 2pi/alat
        k(    1) = (   0.0000000   0.0000000   0.0000000), wk =   0.0370370
        k(    2) = (   0.0000000   0.0000000   0.3828277), wk =   0.0740741
        k(    3) = (   0.0000000   0.3333327   0.0000000), wk =   0.0740741
        k(    4) = (   0.0000000   0.3333327   0.3828277), wk =   0.0740741
        k(    5) = (   0.0000000   0.6666653   0.0000000), wk =   0.0740741
        k(    6) = (   0.0000000   0.6666653   0.3828277), wk =   0.0740741
        k(    7) = (   0.0000000  -0.9999980   0.0000000), wk =   0.0370370
        k(    8) = (   0.0000000  -0.9999980   0.3828277), wk =   0.0740741
        k(    9) = (   0.3333333   0.0000000   0.0000000), wk =   0.0740741
        k(   10) = (   0.3333333   0.0000000   0.3828277), wk =   0.1481481
        k(   11) = (   0.3333333   0.3333327   0.0000000), wk =   0.1481481
        k(   12) = (   0.3333333   0.3333327   0.3828277), wk =   0.1481481
        k(   13) = (   0.3333333   0.6666653   0.0000000), wk =   0.1481481
        k(   14) = (   0.3333333   0.6666653   0.3828277), wk =   0.1481481
        k(   15) = (   0.3333333  -0.9999980   0.0000000), wk =   0.0740741
        k(   16) = (   0.3333333  -0.9999980   0.3828277), wk =   0.1481481
        k(   17) = (   0.0000000   0.3333327  -0.3828277), wk =   0.0740741
        k(   18) = (   0.0000000   0.6666653  -0.3828277), wk =   0.0740741
        k(   19) = (  -0.3333333   0.3333327  -0.3828277), wk =   0.1481481
        k(   20) = (  -0.3333333   0.6666653  -0.3828277), wk =   0.1481481

                       cryst. coord.
        k(    1) = (   0.0000000   0.0000000   0.0000000), wk =   0.0370370
        k(    2) = (   0.0000000   0.0000000   0.3333333), wk =   0.0740741
        k(    3) = (   0.0000000   0.1666667   0.0000000), wk =   0.0740741
        k(    4) = (   0.0000000   0.1666667   0.3333333), wk =   0.0740741
        k(    5) = (   0.0000000   0.3333333   0.0000000), wk =   0.0740741
        k(    6) = (   0.0000000   0.3333333   0.3333333), wk =   0.0740741
        k(    7) = (   0.0000000  -0.5000000   0.0000000), wk =   0.0370370
        k(    8) = (   0.0000000  -0.5000000   0.3333333), wk =   0.0740741
        k(    9) = (   0.3333333   0.0000000   0.0000000), wk =   0.0740741
        k(   10) = (   0.3333333   0.0000000   0.3333333), wk =   0.1481481
        k(   11) = (   0.3333333   0.1666667   0.0000000), wk =   0.1481481
        k(   12) = (   0.3333333   0.1666667   0.3333333), wk =   0.1481481
        k(   13) = (   0.3333333   0.3333333   0.0000000), wk =   0.1481481
        k(   14) = (   0.3333333   0.3333333   0.3333333), wk =   0.1481481
        k(   15) = (   0.3333333  -0.5000000   0.0000000), wk =   0.0740741
        k(   16) = (   0.3333333  -0.5000000   0.3333333), wk =   0.1481481
        k(   17) = (   0.0000000   0.1666667  -0.3333333), wk =   0.0740741
        k(   18) = (   0.0000000   0.3333333  -0.3333333), wk =   0.0740741
        k(   19) = (  -0.3333333   0.1666667  -0.3333333), wk =   0.1481481
        k(   20) = (  -0.3333333   0.3333333  -0.3333333), wk =   0.1481481

     Check: negative core charge=   -0.000003

     Initial potential from superposition of free atoms

     starting charge      71.9882, renormalised to      72.0000

     %%%%%%%%%%%%%%%%%%%%%%%%%%%%%%%%%%%%%%%%%%%%%%%%%%%%%%%%%%%%%%%%%%%%%%%%
     %                                                                      %
     % You are using vdW-DF, which was implemented by the Thonhauser group. %
     % Please cite the following two papers that made this development      %
     % possible and the two reviews that describe the various versions:     %
     %                                                                      %
     %   T. Thonhauser et al., PRL 115, 136402 (2015).                      %
     %   T. Thonhauser et al., PRB 76, 125112 (2007).                       %
     %   K. Berland et al., Rep. Prog. Phys. 78, 066501 (2015).             %
     %   D.C. Langreth et al., J. Phys.: Condens. Matter 21, 084203 (2009). %
     %                                                                      %
     % If you are calculating stress with vdW-DF, please also cite:         %
     %                                                                      %
     %   R. Sabatini et al., J. Phys.: Condens. Matter 24, 424209 (2012).   %
     %                                                                      %
     %%%%%%%%%%%%%%%%%%%%%%%%%%%%%%%%%%%%%%%%%%%%%%%%%%%%%%%%%%%%%%%%%%%%%%%%

     %%%%%%%%%%%%%%%%%%%%%%%%%%%%%%%%%%%%%%%%%%%%%%%%%%%%%%%%%%%%%%%%%%%%%%%%
     %                                                                      %
     %  vdW-DF NEWS:                                                        %
     %                                                                      %
     %  * vdW-DF3 is now available. DOI: 10.1021/acs.jctc.0c00471           %
     %    use with input_dft = 'vdW-DF3-opt1' or 'vdW-DF3-opt2'             %
     %                                                                      %
     %  * Unscreened and range-separated vdW-DF hybrid functionals          %
     %    DOI: 10.1063/1.4986522 and 10.1088/1361-648X/ac2ad2               %
     %    use with input_dft = 'vdW-DF-cx0' (etc) and 'vdW-DF-ahcx'         %
     %                                                                      %
     %%%%%%%%%%%%%%%%%%%%%%%%%%%%%%%%%%%%%%%%%%%%%%%%%%%%%%%%%%%%%%%%%%%%%%%%

     Carrying out vdW-DF run using the following parameters:
     Nqs    =  20  Npoints =  1024  r_max =  100.000
     q_mesh =  0.00001000  0.04494208  0.09755937  0.15916263
               0.23128650  0.31572767  0.41458969  0.53033537
               0.66584808  0.82450364  1.01025438  1.22772762
               1.48234092  1.78043706  2.12944203  2.53805004
               3.01644009  3.57652955  4.23227104  5.00000000

     Non-local corr. energy    =       2.03788819 Ry

     Starting wfcs are   52 randomized atomic wfcs
     Checking if some PAW data can be deallocated...

     Self-consistent Calculation

     iteration #  1     ecut=    70.00 Ry     beta= 0.70
     Davidson diagonalization with overlap

     ethr =  1.00E-02,  avg # of iterations =  3.1

[...]

     total energy              =   -1247.39308270 Ry
     estimated scf accuracy    <       2.47707603 Ry

[...]

     total energy              =   -1248.89757067 Ry
     estimated scf accuracy    <       0.00000823 Ry

     iteration # 25     ecut=    70.00 Ry     beta= 0.70
     Davidson diagonalization with overlap

     ethr =  1.14E-08,  avg # of iterations =  3.7

[...]

     End of self-consistent calculation

          k = 0.0000 0.0000 0.0000 (  5787 PWs)   bands (ev):

    -5.5152  -4.9880  -4.3748  -4.3747  -3.8737  -3.8493  -3.8152  -3.7905
    -3.7902  -3.7363  -3.7356  -3.6967  -3.6967  -3.6539  -3.6537  -3.5992
    -3.5985  -3.5656  -3.5510  -3.5510  -3.5384  -2.3660  -2.3660  -1.7955
     3.5980   4.1632   4.1632   7.2676   7.2677   9.0544   9.0544  10.4722
    10.4722  10.5447  11.0683  11.0684  11.8755  12.9694  17.4520  17.4521
    18.0434  18.0434  19.5818

     occupation numbers
     1.0000   1.0000   1.0000   1.0000   1.0000   1.0000   1.0000   1.0000
     1.0000   1.0000   1.0000   1.0000   1.0000   1.0000   1.0000   1.0000
     1.0000   1.0000   1.0000   1.0000   1.0000   1.0000   1.0000   1.0000
     1.0000   1.0000   1.0000   1.0000   1.0000   1.0000   1.0000   1.0000
     1.0000   1.0000   0.9647   0.9646   0.0000   0.0000   0.0000   0.0000
     0.0000   0.0000   0.0000

[...]

          k = 0.0000 0.6667-0.3828 (  5726 PWs)   bands (ev):

[...]

          k =-0.3333 0.3333-0.3828 (  5744 PWs)   bands (ev):

[...]

          k =-0.3333 0.6667-0.3828 (  5729 PWs)   bands (ev):

    -4.6253  -4.6175  -4.5456  -4.5157  -3.8050  -3.7908  -3.7773  -3.7679
    -3.7577  -3.7568  -3.7486  -3.6858  -3.6662  -3.6537  -3.6435  -3.6422
    -3.6034  -3.5952  -3.5558  -3.5497  -2.7450  -1.9325  -1.8194  -1.2266
     4.4567   5.1827   5.2889   5.5149   6.3331   7.4674   7.6021   8.9211
     9.0563   9.1887   9.3410   9.8186  14.3173  14.6555  15.8632  16.4985
    17.5062  17.5807  17.8129

     occupation numbers
     1.0000   1.0000   1.0000   1.0000   1.0000   1.0000   1.0000   1.0000
     1.0000   1.0000   1.0000   1.0000   1.0000   1.0000   1.0000   1.0000
     1.0000   1.0000   1.0000   1.0000   1.0000   1.0000   1.0000   1.0000
     1.0000   1.0000   1.0000   1.0000   1.0000   1.0000   1.0000   1.0000
     1.0000   1.0000   1.0000   1.0000   0.0000   0.0000   0.0000   0.0000
     0.0000   0.0000   0.0000

     the Fermi energy is    11.2422 ev

!    total energy              =   -1248.89757275 Ry
     total all-electron energy =    -16014.751410 Ry
     estimated scf accuracy    <       0.00000007 Ry
     smearing contrib. (-TS)   =      -0.00071314 Ry
     internal energy E=F+TS    =   -1248.89685960 Ry

     The total energy is F=E-TS. E is the sum of the following terms:
     one-electron contribution =    -322.54480995 Ry
     hartree contribution      =     241.19345402 Ry
     xc contribution           =    -182.02977848 Ry
     ewald contribution        =    -488.52278681 Ry
     one-center paw contrib.   =    -496.99293839 Ry
      -> PAW hartree energy AE =     142.35009771 Ry
      -> PAW hartree energy PS =    -140.92950910 Ry
      -> PAW xc energy AE      =    -156.79401730 Ry
      -> PAW xc energy PS      =      39.58344864 Ry
      -> total E_H with PAW    =     242.61404263 Ry
      -> total E_XC with PAW   =    -299.24034714 Ry

     convergence has been achieved in  25 iterations

[...]

     Forces acting on atoms (cartesian axes, Ry/au):

     atom    1 type  1   force =     0.00000000   -0.00009343   -0.00005029
     atom    2 type  1   force =     0.00000000   -0.00009293   -0.00001077
     atom    3 type  1   force =    -0.00003465    0.00009003   -0.00004092
     atom    4 type  1   force =     0.00003465    0.00009003   -0.00004092
     atom    5 type  2   force =     0.00000000    0.00005286    0.00003189
     atom    6 type  2   force =     0.00000000    0.00005335    0.00003070
     atom    7 type  2   force =     0.00000453   -0.00004995    0.00004015
     atom    8 type  2   force =    -0.00000453   -0.00004995    0.00004015
     The non-local contrib.  to forces
     atom    1 type  1   force =     0.00000000   -0.00030584   -0.33796535
     atom    2 type  1   force =     0.00000000   -0.00030413   -0.33793505
     atom    3 type  1   force =    -0.00000659    0.00030486   -0.33795393
     atom    4 type  1   force =     0.00000659    0.00030486   -0.33795393
     atom    5 type  2   force =     0.00000000    0.00072071   -0.15284106
     atom    6 type  2   force =     0.00000000    0.00072212   -0.15283821
     atom    7 type  2   force =     0.00001116   -0.00072202   -0.15282669
     atom    8 type  2   force =    -0.00001116   -0.00072202   -0.15282669
     The ionic contribution  to forces
     atom    1 type  1   force =    -0.00000050   -0.00316033   -0.85351600
     atom    2 type  1   force =     0.00000034   -0.00317005   -0.85355879
     atom    3 type  1   force =    -0.00019021    0.00316063   -0.85338003
     atom    4 type  1   force =     0.00019037    0.00316063   -0.85338013
     atom    5 type  2   force =    -0.00000023   -0.00458376    0.85350895
     atom    6 type  2   force =     0.00000009   -0.00459111    0.85347580
     atom    7 type  2   force =    -0.00001999    0.00459200    0.85342505
     atom    8 type  2   force =     0.00002013    0.00459200    0.85342515
     The local contribution  to forces
     atom    1 type  1   force =    -0.00000000    0.00337670    1.18454987
     atom    2 type  1   force =     0.00000464    0.00338506    1.18455789
     atom    3 type  1   force =     0.00021664   -0.00337614    1.18439760
     atom    4 type  1   force =    -0.00020735   -0.00337614    1.18439760
     atom    5 type  2   force =    -0.00000000    0.00392589   -0.70341550
     atom    6 type  2   force =     0.00000036    0.00393233   -0.70338579
     atom    7 type  2   force =     0.00004862   -0.00393301   -0.70335357
     atom    8 type  2   force =    -0.00004791   -0.00393301   -0.70335357
     The core correction contribution to forces
     atom    1 type  1   force =     0.00000000    0.00000190    0.00666494
     atom    2 type  1   force =     0.00000035    0.00000187    0.00666452
     atom    3 type  1   force =     0.00000070   -0.00000186    0.00666589
     atom    4 type  1   force =     0.00000000   -0.00000186    0.00666589
     atom    5 type  2   force =     0.00000000   -0.00001180    0.00256699
     atom    6 type  2   force =    -0.00000001   -0.00001182    0.00256698
     atom    7 type  2   force =    -0.00000022    0.00001183    0.00256663
     atom    8 type  2   force =     0.00000019    0.00001183    0.00256663
     The Hubbard contrib.    to forces
     atom    1 type  1   force =     0.00000000    0.00000000    0.00000000
     atom    2 type  1   force =     0.00000000    0.00000000    0.00000000
     atom    3 type  1   force =     0.00000000    0.00000000    0.00000000
     atom    4 type  1   force =     0.00000000    0.00000000    0.00000000
     atom    5 type  2   force =     0.00000000    0.00000000    0.00000000
     atom    6 type  2   force =     0.00000000    0.00000000    0.00000000
     atom    7 type  2   force =     0.00000000    0.00000000    0.00000000
     atom    8 type  2   force =     0.00000000    0.00000000    0.00000000
     The SCF correction term to forces
     atom    1 type  1   force =    -0.00000000   -0.00000748   -0.00000311
     atom    2 type  1   force =     0.00000000   -0.00000731    0.00004131
     atom    3 type  1   force =    -0.00005011    0.00000090    0.00001026
     atom    4 type  1   force =     0.00005011    0.00000090    0.00001026
     atom    5 type  2   force =    -0.00000000    0.00000018   -0.00000684
     atom    6 type  2   force =     0.00000000    0.00000020   -0.00000743
     atom    7 type  2   force =    -0.00003463   -0.00000038    0.00000932
     atom    8 type  2   force =     0.00003463   -0.00000038    0.00000932

     Total force =     0.000240     Total SCF correction =     0.000099
     SCF correction compared to forces is large: reduce conv_thr to get better values

     Computing stress (Cartesian axis) and pressure

     Non-local corr. energy    =       2.13943922 Ry

          total   stress  (Ry/bohr**3)                   (kbar)     P=        0.70
   0.00000417   0.00000000   0.00000000            0.61        0.00        0.00
   0.00000000   0.00000413   0.00000000            0.00        0.61        0.00
   0.00000000   0.00000000   0.00000607            0.00        0.00        0.89

     kinetic stress (kbar)  20748.41      0.00      0.00
                                0.00  20748.41     -0.00
                                0.00     -0.00  20433.81

     local   stress (kbar)   6062.20     -0.00     -0.00
                               -0.00   6062.26      0.01
                               -0.00      0.01  17710.79

     nonloc. stress (kbar)     10.81      0.00      0.00
                                0.00     10.81      0.00
                                0.00      0.00    285.43

     hartree stress (kbar)  21947.06      0.00     -0.00
                                0.00  21947.03     -0.00
                               -0.00     -0.00  17269.05

     exc-cor stress (kbar)   5868.34      0.00     -0.00
                                0.00   5868.34     -0.00
                               -0.00     -0.00   5847.09

     corecor stress (kbar) -15823.81     -0.00     -0.00
                               -0.00 -15823.81      0.00
                               -0.00      0.00 -15822.29

     ewald   stress (kbar) -38987.58      0.00      0.00
                                0.00 -38987.62     -0.01
                                0.00     -0.01 -45907.04

     hubbard stress (kbar)      0.00      0.00      0.00
                                0.00      0.00      0.00
                                0.00      0.00      0.00

     DFT-D   stress (kbar)      0.00      0.00      0.00
                                0.00      0.00      0.00
                                0.00      0.00      0.00

     XDM     stress (kbar)      0.00      0.00      0.00
                                0.00      0.00      0.00
                                0.00      0.00      0.00

     dft-nl  stress (kbar)    175.18     -0.00     -0.00
                               -0.00    175.18      0.00
                               -0.00      0.00    184.06

     TS-vdW  stress (kbar)      0.00      0.00      0.00
                                0.00      0.00      0.00
                                0.00      0.00      0.00

     MDB     stress (kbar)      0.00      0.00      0.00
                                0.00      0.00      0.00
                                0.00      0.00      0.00

     3D-RISM stress (kbar)      0.00      0.00      0.00
                                0.00      0.00      0.00
                                0.00      0.00      0.00

     BFGS Geometry Optimization
     Energy error            =      0.0E+00 Ry
     Gradient error          =      9.3E-05 Ry/Bohr

     bfgs converged in   1 scf cycles and   0 bfgs steps
     (criteria: energy <  1.0E-04 Ry, force <  1.0E-03 Ry/Bohr)

     End of BFGS Geometry Optimization

     Final energy             =   -1248.8975727471 Ry
Begin final coordinates

ATOMIC_POSITIONS (angstrom)
Ga            0.0000000000        2.1842907000        5.0515546012
Ga            2.9115452773        2.1842918202        5.0515567547
Ga            1.4557764283        0.7272603825        2.5164296927
Ga            4.3673141263        0.7272603825        2.5164296927
N             0.0000000000        2.1833046114        1.9707353713
N             2.9115452773        2.1833052875        1.9707358031
N             1.4557719586        0.7282460866        4.5058558842
N             4.3673185960        0.7282460866        4.5058558842
End final coordinates

     Writing all to output data dir ./PbI2.save/

     General routines

     Parallel routines

     PAW routines

   This run was terminated on:   8:39:56  21Feb2024

   JOB DONE.