     Program PWSCF v.7.1 starts on 27Mar2024 at 23:46: 4

     Reading input from espresso.pwi
Warning: card &CELL ignored
Warning: card    CELL_DYNAMICS    = 'BFGS' ignored
Warning: card / ignored

     Current dimensions of program PWSCF are:
     Max number of different atomic species (ntypx) = 10
     Max number of k-points (npk) =  40000
     Max angular momentum in pseudopotentials (lmaxx) =  4
     file Pb.pbe-dn-kjpaw_psl.1.0.0.UPF: wavefunction(s)  6S 6P 5D renormalized
     file I.pbe-dn-kjpaw_psl.1.0.0.UPF: wavefunction(s)  5S 5P renormalized

     IMPORTANT: XC functional enforced from input :
     Exchange-correlation= BEEF-VDW
                           (   1   4  43  14   2   0   0)
     Any further DFT definition will be discarded
     Please, verify this is what you really want

     R & G space division:  proc/nbgrp/npool/nimage =      20
     Subspace diagonalization in iterative solution of the eigenvalue problem:
     a serial algorithm will be used

     Using Slab Decomposition

     bravais-lattice index     =            4
     lattice parameter (alat)  =      17.8060  a.u.
     unit-cell volume          =    7656.2263 (a.u.)^3
     number of atoms/cell      =           23
     number of atomic types    =            2
     number of electrons       =       366.00
     number of Kohn-Sham states=          220
     kinetic-energy cutoff     =      70.0000  Ry
     charge density cutoff     =     350.0000  Ry
     scf convergence threshold =      1.0E-07
     mixing beta               =       0.7000
     number of iterations used =            8  plain     mixing
     energy convergence thresh.=      1.0E-04
     force convergence thresh. =      1.0E-03
     Exchange-correlation= BEEF-VDW
                           (   1   4  43  14   2   0   0)
     nstep                     =           50

     celldm(1)=  17.806016  celldm(2)=   0.000000  celldm(3)=   1.565971
     celldm(4)=   0.000000  celldm(5)=   0.000000  celldm(6)=   0.000000

     crystal axes: (cart. coord. in units of alat)
               a(1) = (   1.000000   0.000000   0.000000 )
               a(2) = (  -0.500000   0.866025   0.000000 )
               a(3) = (   0.000000   0.000000   1.565971 )

     reciprocal axes: (cart. coord. in units 2 pi/alat)
               b(1) = (  1.000000  0.577350 -0.000000 )
               b(2) = (  0.000000  1.154701  0.000000 )
               b(3) = (  0.000000 -0.000000  0.638581 )

     PseudoPot. # 1 for Pb read from file:
     /trace/group/acmegroup/atimmins/packages/espresso/pseudo/psl_1.0.0/pslibrary.1.0.0/pbe/PSEUDOPOTENTIALS/Pb.pbe-dn-kjpaw_psl.1.0.0.UPF
     MD5 check sum: 39ab5b8a6bbd56b7735ad9f188aac93a
     Pseudo is Projector augmented-wave + core cor, Zval = 14.0
     Generated using 'atomic' code by A. Dal Corso  v.7.1
     Shape of augmentation charge: PSQ
     Using radial grid of 1281 points,  6 beta functions with:
                l(1) =   0
                l(2) =   0
                l(3) =   1
                l(4) =   1
                l(5) =   2
                l(6) =   2
     Q(r) pseudized with 0 coefficients

     PseudoPot. # 2 for I  read from file:
     /trace/group/acmegroup/atimmins/packages/espresso/pseudo/psl_1.0.0/pslibrary.1.0.0/pbe/PSEUDOPOTENTIALS/I.pbe-dn-kjpaw_psl.1.0.0.UPF
     MD5 check sum: bfa8781bc1224d19af3f3980e3fab11e
     Pseudo is Projector augmented-wave + core cor, Zval = 17.0
     Generated using 'atomic' code by A. Dal Corso  v.7.1
     Shape of augmentation charge: PSQ
     Using radial grid of 1247 points,  6 beta functions with:
                l(1) =   0
                l(2) =   0
                l(3) =   1
                l(4) =   1
                l(5) =   2
                l(6) =   2
     Q(r) pseudized with 0 coefficients

     atomic species   valence    mass     pseudopotential
        Pb            14.00   207.20000     Pb( 1.00)
        I             17.00   126.90447     I ( 1.00)

     No symmetry found

                                    s                        frac. trans.

      isym =  1     identity

 cryst.   s( 1) = (     1          0          0      )
                  (     0          1          0      )
                  (     0          0          1      )

 cart.    s( 1) = (  1.0000000  0.0000000  0.0000000 )
                  (  0.0000000  1.0000000  0.0000000 )
                  (  0.0000000  0.0000000  1.0000000 )

     point group C_1 (1)
     there are  1 classes
     the character table:

       E
A      1.00

     the symmetry operations in each class and the name of the first element:

     E        1
          identity

   Cartesian axes

     site n.     atom                  positions (alat units)
         1           Pb  tau(   1) = (   0.2500170   0.4329745   1.5659650  )
         2           Pb  tau(   2) = (   0.2500068   0.4329836   0.7829793  )
         3           Pb  tau(   3) = (   0.0000153   0.8659852   1.5659567  )
         4           Pb  tau(   4) = (   0.0000051   0.8659943   0.7829710  )
         5           Pb  tau(   5) = (   0.7500170   0.4329726   1.5659715  )
         6           Pb  tau(   6) = (   0.7500068   0.4329816   0.7829858  )
         7           Pb  tau(   7) = (   0.5000153   0.8659833   1.5659633  )
         8           Pb  tau(   8) = (   0.5000051   0.8659923   0.7829776  )
         9           I   tau(   9) = (   0.2500209   0.1443009   1.3648506  )
        10           I   tau(  10) = (   0.0000091   0.5773207   0.5818567  )
        11           I   tau(  11) = (   0.0000193   0.5773116   1.3648424  )
        12           I   tau(  12) = (   0.7500107   0.1443080   0.5818714  )
        13           I   tau(  13) = (   0.7500209   0.1442990   1.3648571  )
        14           I   tau(  14) = (   0.5000091   0.5773187   0.5818632  )
        15           I   tau(  15) = (   0.5000193   0.5773097   1.3648489  )
        16           I   tau(  16) = (  -0.0000034   0.2886595   0.2011110  )
        17           I   tau(  17) = (   0.0000068   0.2886504   0.9840967  )
        18           I   tau(  18) = (  -0.2500051   0.7216702   0.2011027  )
        19           I   tau(  19) = (  -0.2499949   0.7216611   0.9840884  )
        20           I   tau(  20) = (   0.4999966   0.2886575   0.2011175  )
        21           I   tau(  21) = (   0.5000068   0.2886485   0.9841032  )
        22           I   tau(  22) = (   0.2499949   0.7216682   0.2011092  )
        23           I   tau(  23) = (   0.2500051   0.7216592   0.9840949  )

   Crystallographic axes

     site n.     atom                  positions (cryst. coord.)
         1           Pb  tau(   1) = (  0.4999949  0.4999559  0.9999959  )
         2           Pb  tau(   2) = (  0.4999900  0.4999663  0.4999959  )
         3           Pb  tau(   3) = (  0.4999921  0.9999536  0.9999906  )
         4           Pb  tau(   4) = (  0.4999871  0.9999640  0.4999906  )
         5           Pb  tau(   5) = (  0.9999938  0.4999537  1.0000001  )
         6           Pb  tau(   6) = (  0.9999888  0.4999641  0.5000001  )
         7           Pb  tau(   7) = (  0.9999910  0.9999514  0.9999948  )
         8           Pb  tau(   8) = (  0.9999860  0.9999618  0.4999948  )
         9           I   tau(   9) = (  0.3333331  0.1666243  0.8715680  )
        10           I   tau(  10) = (  0.3333253  0.6666325  0.3715628  )
        11           I   tau(  11) = (  0.3333303  0.6666220  0.8715628  )
        12           I   tau(  12) = (  0.8333270  0.1666326  0.3715722  )
        13           I   tau(  13) = (  0.8333320  0.1666221  0.8715722  )
        14           I   tau(  14) = (  0.8333242  0.6666303  0.3715669  )
        15           I   tau(  15) = (  0.8333292  0.6666198  0.8715669  )
        16           I   tau(  16) = (  0.1666542  0.3333152  0.1284257  )
        17           I   tau(  17) = (  0.1666592  0.3333048  0.6284257  )
        18           I   tau(  18) = (  0.1666514  0.8333129  0.1284204  )
        19           I   tau(  19) = (  0.1666564  0.8333025  0.6284204  )
        20           I   tau(  20) = (  0.6666531  0.3333130  0.1284299  )
        21           I   tau(  21) = (  0.6666581  0.3333026  0.6284299  )
        22           I   tau(  22) = (  0.6666503  0.8333107  0.1284246  )
        23           I   tau(  23) = (  0.6666553  0.8333003  0.6284246  )

     number of k points=     4  Gaussian smearing, width (Ry)=  0.0100
                       cart. coord. in units 2pi/alat
        k(    1) = (   0.0000000   0.0000000   0.0000000), wk =   0.5000000
        k(    2) = (   0.0000000  -0.5773503   0.0000000), wk =   0.5000000
        k(    3) = (   0.5000000  -0.2886751   0.0000000), wk =   0.5000000
        k(    4) = (  -0.5000000  -0.2886751   0.0000000), wk =   0.5000000

                       cryst. coord.
        k(    1) = (   0.0000000   0.0000000   0.0000000), wk =   0.5000000
        k(    2) = (   0.0000000  -0.5000000   0.0000000), wk =   0.5000000
        k(    3) = (   0.5000000  -0.5000000   0.0000000), wk =   0.5000000
        k(    4) = (  -0.5000000  -0.0000000   0.0000000), wk =   0.5000000

     Check: negative core charge=   -0.000001

     Initial potential from superposition of free atoms

     starting charge     366.9801, renormalised to     366.0000

     %%%%%%%%%%%%%%%%%%%%%%%%%%%%%%%%%%%%%%%%%%%%%%%%%%%%%%%%%%%%%%%%%%%%%%%%
     %                                                                      %
     % You are using vdW-DF, which was implemented by the Thonhauser group. %
     % Please cite the following two papers that made this development      %
     % possible and the two reviews that describe the various versions:     %
     %                                                                      %
     %   T. Thonhauser et al., PRL 115, 136402 (2015).                      %
     %   T. Thonhauser et al., PRB 76, 125112 (2007).                       %
     %   K. Berland et al., Rep. Prog. Phys. 78, 066501 (2015).             %
     %   D.C. Langreth et al., J. Phys.: Condens. Matter 21, 084203 (2009). %
     %                                                                      %
     % If you are calculating stress with vdW-DF, please also cite:         %
     %                                                                      %
     %   R. Sabatini et al., J. Phys.: Condens. Matter 24, 424209 (2012).   %
     %                                                                      %
     %%%%%%%%%%%%%%%%%%%%%%%%%%%%%%%%%%%%%%%%%%%%%%%%%%%%%%%%%%%%%%%%%%%%%%%%

     %%%%%%%%%%%%%%%%%%%%%%%%%%%%%%%%%%%%%%%%%%%%%%%%%%%%%%%%%%%%%%%%%%%%%%%%
     %                                                                      %
     %  vdW-DF NEWS:                                                        %
     %                                                                      %
     %  * vdW-DF3 is now available. DOI: 10.1021/acs.jctc.0c00471           %
     %    use with input_dft = 'vdW-DF3-opt1' or 'vdW-DF3-opt2'             %
     %                                                                      %
     %  * Unscreened and range-separated vdW-DF hybrid functionals          %
     %    DOI: 10.1063/1.4986522 and 10.1088/1361-648X/ac2ad2               %
[...]
     atom   11 type  2   force =    -0.00020917   -0.00012316    0.00058668
     atom   12 type  2   force =     0.00000106    0.00048855   -0.00072759
     atom   13 type  2   force =     0.00000276    0.00024224    0.00059020
     atom   14 type  2   force =     0.00042720   -0.00024920   -0.00072923
     atom   15 type  2   force =     0.00021340   -0.00012377    0.00058790
     atom   16 type  2   force =    -0.00002215    0.00001521   -0.00039185
     atom   17 type  2   force =    -0.00025035    0.00014355    0.00060317
     atom   18 type  2   force =    -0.00000371   -0.00001971   -0.00039496
     atom   19 type  2   force =     0.00000079   -0.00029098    0.00060227
     atom   20 type  2   force =     0.00001644    0.00001508   -0.00039053
     atom   21 type  2   force =     0.00025115    0.00014252    0.00060434
     atom   22 type  2   force =    -0.00000398    0.00000395   -0.00004428
     atom   23 type  2   force =     0.00000060    0.00000107   -0.00091973
     The non-local contrib.  to forces
     atom    1 type  1   force =     0.00000515   -0.00085653    0.00263472
     atom    2 type  1   force =     0.00000529    0.10018739    0.06363607
     atom    3 type  1   force =    -0.00071747    0.00039495    0.00263450
     atom    4 type  1   force =     0.08679325   -0.05011088    0.06361651
     atom    5 type  1   force =     0.00000336   -0.00002142   -0.00511947
     atom    6 type  1   force =    -0.00000088    0.00001217    0.01255619
     atom    7 type  1   force =     0.00072850    0.00039435    0.00263308
     atom    8 type  1   force =    -0.08677841   -0.05011045    0.06362719
     atom    9 type  2   force =    -0.00000374    0.00000876    0.22940666
     atom   10 type  2   force =     0.01319046    0.00762255    0.28034771
     atom   11 type  2   force =     0.00388590    0.00225247    0.21933572
     atom   12 type  2   force =    -0.00000218   -0.01523975    0.28034943
     atom   13 type  2   force =    -0.00000032   -0.00447891    0.21933724
     atom   14 type  2   force =    -0.01319200    0.00762133    0.28034832
     atom   15 type  2   force =    -0.00388983    0.00225404    0.21933635
     atom   16 type  2   force =     0.00268344   -0.00153891   -0.21932319
     atom   17 type  2   force =    -0.01387902    0.00802137   -0.26307502
     atom   18 type  2   force =    -0.00000159    0.00311037   -0.21932508
     atom   19 type  2   force =    -0.00000318   -0.01603386   -0.26307686
     atom   20 type  2   force =    -0.00268730   -0.00154043   -0.21932461
     atom   21 type  2   force =     0.01387559    0.00802208   -0.26307570
     atom   22 type  2   force =    -0.00000504    0.00000853   -0.22982436
     atom   23 type  2   force =    -0.00000108   -0.00000462   -0.36626219
     The ionic contribution  to forces
     atom    1 type  1   force =    -0.00017247   -0.54240322    2.63724348
     atom    2 type  1   force =    -0.00023072   -9.08594346   -7.24721296
     atom    3 type  1   force =    -0.47024456    0.27183049    2.63725940
     atom    4 type  1   force =    -7.86938838    4.54338303   -7.24688473
     atom    5 type  1   force =     0.00001229    0.00042403    2.43036088
     atom    6 type  1   force =     0.00020786   -0.00045600   -3.25991479
     atom    7 type  1   force =     0.47001216    0.27191912    2.63714836
     atom    8 type  1   force =     7.86902079    4.54348053   -7.24729625
     atom    9 type  2   force =     0.00020464   -0.00033504  -14.18240088
     atom   10 type  2   force =    -1.34609606   -0.77785093  -15.20001993
     atom   11 type  2   force =    -0.34529958   -0.19993360  -13.92598327
     atom   12 type  2   force =     0.00016198    1.55505959  -15.19953890
     atom   13 type  2   force =     0.00025264    0.39863311  -13.92559774
     atom   14 type  2   force =     1.34613501   -0.77770307  -15.19994292
     atom   15 type  2   force =     0.34565002   -0.19991828  -13.92584531
     atom   16 type  2   force =     2.22096144   -1.28231279   20.91187421
     atom   17 type  2   force =     2.21798344   -1.28037073    7.69828694
     atom   18 type  2   force =    -0.00014967    2.56457124   20.91153156
     atom   19 type  2   force =     0.00025210    2.56138512    7.69865081
     atom   20 type  2   force =    -2.22115183   -1.28230627   20.91169289
     atom   21 type  2   force =    -2.21798884   -1.28068976    7.69847976
     atom   22 type  2   force =    -0.00007813   -0.00025697   18.24206364
     atom   23 type  2   force =    -0.00005414   -0.00020614   12.14604576
     The local contribution  to forces
     atom    1 type  1   force =     0.00016702    0.54319641   -2.63995631
     atom    2 type  1   force =     0.00022486    8.98831012    7.18573643
     atom    3 type  1   force =     0.47090492   -0.27219068   -2.63997212
     atom    4 type  1   force =     7.78480390   -4.49454820    7.18542768
     atom    5 type  1   force =    -0.00001593   -0.00040051   -2.42494413
     atom    6 type  1   force =    -0.00020733    0.00044438    3.24656780
     atom    7 type  1   force =    -0.47068449   -0.27227898   -2.63985935
     atom    8 type  1   force =    -7.78445252   -4.49464623    7.18582927
     atom    9 type  2   force =    -0.00019851    0.00032422   13.95771553
     atom   10 type  2   force =     1.33284820    0.77019288   14.92493450
     atom   11 type  2   force =     0.34120121    0.19755474   13.71219078
     atom   12 type  2   force =    -0.00015880   -1.53975293   14.92445498
     atom   13 type  2   force =    -0.00024933   -0.39390866   13.71180791
     atom   14 type  2   force =    -1.33288527    0.77004662   14.92485797
     atom   15 type  2   force =    -0.34154300    0.19753768   13.71205322
     atom   16 type  2   force =    -2.22346403    1.28374898  -20.69775380
     atom   17 type  2   force =    -2.20471217    1.27270109   -7.44027774
     atom   18 type  2   force =     0.00014808   -2.56746661  -20.69741196
     atom   19 type  2   force =    -0.00024875   -2.54605181   -7.44064087
     atom   20 type  2   force =     2.22365244    1.28374341  -20.69756967
     atom   21 type  2   force =     2.20472074    1.27301851   -7.44046884
     atom   22 type  2   force =     0.00007986    0.00025028  -18.01715098
     atom   23 type  2   force =     0.00005663    0.00020957  -11.78875928
     The core correction contribution to forces
     atom    1 type  1   force =    -0.00000006    0.00001062   -0.00002470
     atom    2 type  1   force =    -0.00000007   -0.00212101   -0.00152285
     atom    3 type  1   force =     0.00000900   -0.00000502   -0.00002467
     atom    4 type  1   force =    -0.00183718    0.00106083   -0.00152250
     atom    5 type  1   force =    -0.00000002    0.00000018    0.00009074
     atom    6 type  1   force =     0.00000005   -0.00000021   -0.00012432
     atom    7 type  1   force =    -0.00000911   -0.00000501   -0.00002473
     atom    8 type  1   force =     0.00183704    0.00106083   -0.00152272
     atom    9 type  2   force =    -0.00000055    0.00000191   -0.00508274
     atom   10 type  2   force =    -0.00035841   -0.00020617   -0.00595161
     atom   11 type  2   force =     0.00000993    0.00000808   -0.00498756
     atom   12 type  2   force =    -0.00000012    0.00041237   -0.00595245
     atom   13 type  2   force =    -0.00000057   -0.00001047   -0.00498816
     atom   14 type  2   force =     0.00035863   -0.00020643   -0.00595185
     atom   15 type  2   force =    -0.00001103    0.00000799   -0.00498755
     atom   16 type  2   force =    -0.00019617    0.00011497    0.00484926
     atom   17 type  2   force =     0.00036831   -0.00021419    0.00564929
     atom   18 type  2   force =    -0.00000090   -0.00022495    0.00484943
     atom   19 type  2   force =     0.00000035    0.00042319    0.00564947
     atom   20 type  2   force =     0.00019494    0.00011526    0.00484953
     atom   21 type  2   force =    -0.00036741   -0.00021398    0.00564925
     atom   22 type  2   force =    -0.00000088    0.00000233    0.00489359
     atom   23 type  2   force =    -0.00000066    0.00000279    0.00804235
     The Hubbard contrib.    to forces
     atom    1 type  1   force =     0.00000000    0.00000000    0.00000000
     atom    2 type  1   force =     0.00000000    0.00000000    0.00000000
     atom    3 type  1   force =     0.00000000    0.00000000    0.00000000
     atom    4 type  1   force =     0.00000000    0.00000000    0.00000000
     atom    5 type  1   force =     0.00000000    0.00000000    0.00000000
     atom    6 type  1   force =     0.00000000    0.00000000    0.00000000
     atom    7 type  1   force =     0.00000000    0.00000000    0.00000000
     atom    8 type  1   force =     0.00000000    0.00000000    0.00000000
     atom    9 type  2   force =     0.00000000    0.00000000    0.00000000
     atom   10 type  2   force =     0.00000000    0.00000000    0.00000000
     atom   11 type  2   force =     0.00000000    0.00000000    0.00000000
     atom   12 type  2   force =     0.00000000    0.00000000    0.00000000
     atom   13 type  2   force =     0.00000000    0.00000000    0.00000000
     atom   14 type  2   force =     0.00000000    0.00000000    0.00000000
     atom   15 type  2   force =     0.00000000    0.00000000    0.00000000
     atom   16 type  2   force =     0.00000000    0.00000000    0.00000000
     atom   17 type  2   force =     0.00000000    0.00000000    0.00000000
     atom   18 type  2   force =     0.00000000    0.00000000    0.00000000
     atom   19 type  2   force =     0.00000000    0.00000000    0.00000000
     atom   20 type  2   force =     0.00000000    0.00000000    0.00000000
     atom   21 type  2   force =     0.00000000    0.00000000    0.00000000
     atom   22 type  2   force =     0.00000000    0.00000000    0.00000000
     atom   23 type  2   force =     0.00000000    0.00000000    0.00000000
     The SCF correction term to forces
     atom    1 type  1   force =     0.00000003   -0.00001427    0.00000703
     atom    2 type  1   force =     0.00000005    0.00001239    0.00000343
     atom    3 type  1   force =    -0.00001236    0.00000711    0.00000715
     atom    4 type  1   force =     0.00001081   -0.00000613    0.00000343
     atom    5 type  1   force =    -0.00000002   -0.00000009    0.00001552
     atom    6 type  1   force =    -0.00000001   -0.00000015   -0.00000309
     atom    7 type  1   force =     0.00001233    0.00000717    0.00000743
     atom    8 type  1   force =    -0.00001085   -0.00000619    0.00000332
     atom    9 type  2   force =     0.00000012   -0.00000003    0.00004264
     atom   10 type  2   force =    -0.00000939   -0.00000557   -0.00003509
     atom   11 type  2   force =    -0.00000696   -0.00000391    0.00003633
     atom   12 type  2   force =    -0.00000015    0.00001021   -0.00003534
     atom   13 type  2   force =    -0.00000001    0.00000811    0.00003626
     atom   14 type  2   force =     0.00001050   -0.00000670   -0.00003544
     atom   15 type  2   force =     0.00000689   -0.00000427    0.00003650
     atom   16 type  2   force =    -0.00000717    0.00000391   -0.00003302
     atom   17 type  2   force =    -0.00001124    0.00000695    0.00002501
     atom   18 type  2   force =     0.00000002   -0.00000883   -0.00003360
     atom   19 type  2   force =    -0.00000006   -0.00001268    0.00002505
     atom   20 type  2   force =     0.00000784    0.00000405   -0.00003336
     atom   21 type  2   force =     0.00001073    0.00000661    0.00002519
     atom   22 type  2   force =    -0.00000013    0.00000072   -0.00002086
     atom   23 type  2   force =    -0.00000049    0.00000041    0.00001894

     Total force =     0.003025     Total SCF correction =     0.000135

     Computing stress (Cartesian axis) and pressure

     Non-local corr. energy    =      10.95455616 Ry

          total   stress  (Ry/bohr**3)                   (kbar)     P=      -13.22
  -0.00008419   0.00000000  -0.00000001          -12.38        0.00       -0.00
   0.00000000  -0.00008418   0.00000001            0.00      -12.38        0.00
  -0.00000001   0.00000001  -0.00010117           -0.00        0.00      -14.88

     kinetic stress (kbar)  14457.94     -0.00     -0.00
                               -0.00  14457.94      0.00
                               -0.00      0.00  14466.29

     local   stress (kbar)  -8658.90     -0.11      0.11
                               -0.11  -8659.20     -0.10
                                0.11     -0.10   1402.89

     nonloc. stress (kbar)  -1177.68      0.00     -0.00
                                0.00  -1177.68      0.00
                               -0.00      0.00  -1185.33

     hartree stress (kbar)  12144.76      0.04     -0.04
                                0.04  12144.88      0.04
                               -0.04      0.04   7570.98

     exc-cor stress (kbar)   6612.13      0.00     -0.00
                                0.00   6612.13      0.00
                               -0.00      0.00   6610.92

     corecor stress (kbar) -10769.76     -0.00      0.00
                               -0.00 -10769.76     -0.00
                                0.00     -0.00 -10769.63

     ewald   stress (kbar) -12700.02      0.07     -0.07
                                0.07 -12699.83      0.06
                               -0.07      0.06 -18191.56

     hubbard stress (kbar)      0.00      0.00      0.00
                                0.00      0.00      0.00
                                0.00      0.00      0.00

     DFT-D   stress (kbar)      0.00      0.00      0.00
                                0.00      0.00      0.00
                                0.00      0.00      0.00

     XDM     stress (kbar)      0.00      0.00      0.00
                                0.00      0.00      0.00
                                0.00      0.00      0.00

     dft-nl  stress (kbar)     79.14     -0.00      0.00
                               -0.00     79.14     -0.00
                                0.00     -0.00     80.55

     TS-vdW  stress (kbar)      0.00      0.00      0.00
                                0.00      0.00      0.00
                                0.00      0.00      0.00

     MDB     stress (kbar)      0.00      0.00      0.00
                                0.00      0.00      0.00
                                0.00      0.00      0.00

     3D-RISM stress (kbar)      0.00      0.00      0.00
                                0.00      0.00      0.00
                                0.00      0.00      0.00

     Energy error            =      7.3E-05 Ry
     Gradient error          =      9.2E-04 Ry/Bohr

     bfgs converged in  17 scf cycles and  16 bfgs steps
     (criteria: energy <  1.0E-04 Ry, force <  1.0E-03 Ry/Bohr)

     End of BFGS Geometry Optimization

     Final energy             =  -15625.6682764790 Ry

     File ./PbI2.bfgs deleted, as requested
Begin final coordinates

ATOMIC_POSITIONS (angstrom)
Pb            2.3557315978        4.0747232060       14.7591633428
Pb            2.3557225193        4.2203579792        7.4081801311
Pb           -0.0042712300        8.1623693711       14.7591653258
Pb            0.1218206135        8.0895637337        7.4081290047
Pb            7.0670036071        4.0797641419       14.7698027421
Pb            7.0669916801        4.0797576963        7.3945249978
Pb            4.7157423950        8.1623718424       14.7591499725
Pb            4.5896029712        8.0895463475        7.4081220034
I             2.3556953018        1.3597962192       12.8647622526
I             0.0245786707        5.4539764708        5.4921983773
I            -0.0071314618        5.4357318944       12.8521590913
I             7.0669573707        1.3313957212        5.4921437963
I             7.0669519065        1.3681019115       12.8521134050
I             4.6868426769        5.4539572020        5.4921813717
I             4.7185134721        5.4357340870       12.8521487333
I             0.0124805535        2.7126244024        1.9196669430
I             0.0436618003        2.6945660595        9.1942875695
I            -2.3555176037        6.8141154611        1.9196911643
I            -2.3555749395        6.8500781855        9.1942981084
I             4.6990267424        2.7126379356        1.9196504484
I             4.6677800788        2.6946054531        9.1942895592
I             2.3557572007        6.7998572529        1.8768251506
I             2.3556942578        6.7998788703        9.3092344995
End final coordinates

     Writing all to output data dir ./PbI2.save/

     General routines

     Parallel routines

     PAW routines

   This run was terminated on:   1:23:45  28Mar2024

   JOB DONE.