     Program PWSCF v.7.1 starts on 30Sep2023 at  8:10:13

     Reading input from espresso.pwi
Warning: card &CELL ignored
Warning: card    CELL_DYNAMICS    = 'BFGS' ignored
Warning: card / ignored

     Current dimensions of program PWSCF are:
     Max number of different atomic species (ntypx) = 10
     Max number of k-points (npk) =  40000
     Max angular momentum in pseudopotentials (lmaxx) =  4
     file Ga.pbe-dn-kjpaw_psl.1.0.0.UPF: wavefunction(s)  4S renormalized
     file N.pbe-n-kjpaw_psl.1.0.0.UPF: wavefunction(s)  2S renormalized

     IMPORTANT: XC functional enforced from input :
     Exchange-correlation= BEEF-VDW
                           (   1   4  43  14   2   0   0)
     Any further DFT definition will be discarded
     Please, verify this is what you really want

     Found identity + (  0.0000  0.0000  0.5000) symmetry
     This is a supercell, fractional translations are disabled

     K-points division:     npool     =       4
     R & G space division:  proc/nbgrp/npool/nimage =      32
     Subspace diagonalization in iterative solution of the eigenvalue problem:
     a serial algorithm will be used

     Using Slab Decomposition

     bravais-lattice index     =            4
     lattice parameter (alat)  =      18.3939  a.u.
     unit-cell volume          =    5856.2271 (a.u.)^3
     number of atoms/cell      =           72
     number of atomic types    =            2
     number of electrons       =       648.00
     number of Kohn-Sham states=          389
     kinetic-energy cutoff     =      70.0000  Ry
     charge density cutoff     =     350.0000  Ry
     scf convergence threshold =      1.0E-09
     mixing beta               =       0.7000
     number of iterations used =            8  plain     mixing
     Exchange-correlation= BEEF-VDW
                           (   1   4  43  14   2   0   0)

     celldm(1)=  18.393924  celldm(2)=   0.000000  celldm(3)=   1.086586
     celldm(4)=   0.000000  celldm(5)=   0.000000  celldm(6)=   0.000000

     crystal axes: (cart. coord. in units of alat)
               a(1) = (   1.000000   0.000000   0.000000 )
               a(2) = (  -0.500000   0.866025   0.000000 )
               a(3) = (   0.000000   0.000000   1.086586 )

     reciprocal axes: (cart. coord. in units 2 pi/alat)
               b(1) = (  1.000000  0.577350 -0.000000 )
               b(2) = (  0.000000  1.154701  0.000000 )
               b(3) = (  0.000000 -0.000000  0.920314 )

     PseudoPot. # 1 for Ga read from file:
     /trace/group/acmegroup/atimmins/packages/espresso/pseudo/psl_1.0.0/pslibrary.1.0.0/pbe/PSEUDOPOTENTIALS/Ga.pbe-dn-kjpaw_psl.1.0.0.UPF
     MD5 check sum: cd2a01e492f15b435d17032472d8505c
     Pseudo is Projector augmented-wave + core cor, Zval = 13.0
     Generated using 'atomic' code by A. Dal Corso  v.7.1
     Shape of augmentation charge: PSQ
     Using radial grid of 1205 points,  6 beta functions with:
                l(1) =   0
                l(2) =   0
                l(3) =   1
                l(4) =   1
                l(5) =   2
                l(6) =   2
     Q(r) pseudized with 0 coefficients

     PseudoPot. # 2 for N  read from file:
     /trace/group/acmegroup/atimmins/packages/espresso/pseudo/psl_1.0.0/pslibrary.1.0.0/pbe/PSEUDOPOTENTIALS/N.pbe-n-kjpaw_psl.1.0.0.UPF
     MD5 check sum: f77f775694dac7e2c3fe1c82443d1a16
     Pseudo is Projector augmented-wave + core cor, Zval =  5.0
     Generated using 'atomic' code by A. Dal Corso  v.7.1
     Shape of augmentation charge: PSQ
     Using radial grid of 1085 points,  4 beta functions with:
                l(1) =   0
                l(2) =   0
                l(3) =   1
                l(4) =   1
     Q(r) pseudized with 0 coefficients

     atomic species   valence    mass     pseudopotential
        Ga            13.00    69.72300     Ga( 1.00)
        N              5.00    14.00700     N ( 1.00)

      6 Sym. Ops. (no inversion) found

                                    s                        frac. trans.

      isym =  1     identity

 cryst.   s( 1) = (     1          0          0      )
                  (     0          1          0      )
                  (     0          0          1      )

 cart.    s( 1) = (  1.0000000  0.0000000  0.0000000 )
                  (  0.0000000  1.0000000  0.0000000 )
                  (  0.0000000  0.0000000  1.0000000 )

      isym =  2     120 deg rotation - cryst. axis [0,0,1]

[...]

      isym =  3     120 deg rotation - cryst. axis [0,0,-1]

[...]

      isym =  4     inv. 180 deg rotation - cart. axis [1,0,0]

[...]

      isym =  5     inv. 180 deg rotation - cryst. axis [0,1,0]

[...]

      isym =  6     inv. 180 deg rotation - cryst. axis [1,1,0]

 cryst.   s( 6) = (     0         -1          0      )
                  (    -1          0          0      )
                  (     0          0          1      )

 cart.    s( 6) = (  0.5000000 -0.8660254  0.0000000 )
                  ( -0.8660254 -0.5000000  0.0000000 )
                  (  0.0000000  0.0000000  1.0000000 )

     point group C_3v (3m)
     there are  3 classes
     the character table:

       E     2C3   3s_v
A_1    1.00  1.00  1.00
A_2    1.00  1.00 -1.00
E      2.00 -1.00  0.00

     the symmetry operations in each class and the name of the first element:

     E        1
          identity
     2C3      2    3
          120 deg rotation - cryst. axis [0,0,1]
     3s_v     4    5    6
          inv. 180 deg rotation - cart. axis [1,0,0]

   Cartesian axes

     site n.     atom                  positions (alat units)
         1           Ga  tau(   1) = (   0.1666668   0.0962250   0.2711914  )
         2           Ga  tau(   2) = (   0.1666668   0.0962250   0.8144844  )
         3           Ga  tau(   3) = (   0.0000001   0.3849001   0.2711914  )
         4           Ga  tau(   4) = (   0.0000001   0.3849001   0.8144844  )
         5           Ga  tau(   5) = (  -0.1666665   0.6735752   0.2711914  )
         6           Ga  tau(   6) = (  -0.1666665   0.6735752   0.8144844  )
         7           Ga  tau(   7) = (   0.5000001   0.0962250   0.2711914  )
         8           Ga  tau(   8) = (   0.5000001   0.0962250   0.8144844  )
         9           Ga  tau(   9) = (   0.3333335   0.3849001   0.2711914  )
        10           Ga  tau(  10) = (   0.3333335   0.3849001   0.8144844  )
        11           Ga  tau(  11) = (   0.1666668   0.6735752   0.2711914  )
        12           Ga  tau(  12) = (   0.1666668   0.6735752   0.8144844  )
        13           Ga  tau(  13) = (   0.8333335   0.0962250   0.2711914  )
        14           Ga  tau(  14) = (   0.8333335   0.0962250   0.8144844  )
        15           Ga  tau(  15) = (   0.6666668   0.3849001   0.2711914  )
        16           Ga  tau(  16) = (   0.6666668   0.3849001   0.8144844  )
        17           Ga  tau(  17) = (   0.5000001   0.6735752   0.2711914  )
        18           Ga  tau(  18) = (   0.5000001   0.6735752   0.8144844  )
        19           Ga  tau(  19) = (  -0.0000002   0.1924502   0.5428379  )
        20           Ga  tau(  20) = (  -0.0000002   0.1924502   1.0861309  )
        21           Ga  tau(  21) = (  -0.1666669   0.4811254   0.5428379  )
        22           Ga  tau(  22) = (  -0.1666669   0.4811254   1.0861309  )
        23           Ga  tau(  23) = (  -0.3333335   0.7698005   0.5428379  )
        24           Ga  tau(  24) = (  -0.3333335   0.7698005   1.0861309  )
        25           Ga  tau(  25) = (   0.3333331   0.1924502   0.5428379  )
        26           Ga  tau(  26) = (   0.3333331   0.1924502   1.0861309  )
        27           Ga  tau(  27) = (   0.1666665   0.4811254   0.5428379  )
        28           Ga  tau(  28) = (   0.1666665   0.4811254   1.0861309  )
        29           Ga  tau(  29) = (  -0.0000002   0.7698005   0.5428379  )
        30           Ga  tau(  30) = (  -0.0000002   0.7698005   1.0861309  )
        31           Ga  tau(  31) = (   0.6666665   0.1924502   0.5428379  )
        32           Ga  tau(  32) = (   0.6666665   0.1924502   1.0861309  )
        33           Ga  tau(  33) = (   0.4999998   0.4811254   0.5428379  )
        34           Ga  tau(  34) = (   0.4999998   0.4811254   1.0861309  )
        35           Ga  tau(  35) = (   0.3333331   0.7698005   0.5428379  )
        36           Ga  tau(  36) = (   0.3333331   0.7698005   1.0861309  )
        37           N   tau(  37) = (   0.1666668   0.0962250   0.4758365  )
        38           N   tau(  38) = (   0.1666668   0.0962250   1.0191295  )
        39           N   tau(  39) = (   0.0000001   0.3849001   0.4758365  )
        40           N   tau(  40) = (   0.0000001   0.3849001   1.0191295  )
        41           N   tau(  41) = (  -0.1666665   0.6735752   0.4758365  )
        42           N   tau(  42) = (  -0.1666665   0.6735752   1.0191295  )
        43           N   tau(  43) = (   0.5000001   0.0962250   0.4758365  )
        44           N   tau(  44) = (   0.5000001   0.0962250   1.0191295  )
        45           N   tau(  45) = (   0.3333335   0.3849001   0.4758365  )
        46           N   tau(  46) = (   0.3333335   0.3849001   1.0191295  )
        47           N   tau(  47) = (   0.1666668   0.6735752   0.4758365  )
        48           N   tau(  48) = (   0.1666668   0.6735752   1.0191295  )
        49           N   tau(  49) = (   0.8333335   0.0962250   0.4758365  )
        50           N   tau(  50) = (   0.8333335   0.0962250   1.0191295  )
        51           N   tau(  51) = (   0.6666668   0.3849001   0.4758365  )
        52           N   tau(  52) = (   0.6666668   0.3849001   1.0191295  )
        53           N   tau(  53) = (   0.5000001   0.6735752   0.4758365  )
        54           N   tau(  54) = (   0.5000001   0.6735752   1.0191295  )
        55           N   tau(  55) = (  -0.0000002   0.1924502   0.2041900  )
        56           N   tau(  56) = (  -0.0000002   0.1924502   0.7474830  )
        57           N   tau(  57) = (  -0.1666669   0.4811254   0.2041900  )
        58           N   tau(  58) = (  -0.1666669   0.4811254   0.7474830  )
        59           N   tau(  59) = (  -0.3333335   0.7698005   0.2041900  )
        60           N   tau(  60) = (  -0.3333335   0.7698005   0.7474830  )
        61           N   tau(  61) = (   0.3333331   0.1924502   0.2041900  )
        62           N   tau(  62) = (   0.3333331   0.1924502   0.7474830  )
        63           N   tau(  63) = (   0.1666665   0.4811254   0.2041900  )
        64           N   tau(  64) = (   0.1666665   0.4811254   0.7474830  )
        65           N   tau(  65) = (  -0.0000002   0.7698005   0.2041900  )
        66           N   tau(  66) = (  -0.0000002   0.7698005   0.7474830  )
        67           N   tau(  67) = (   0.6666665   0.1924502   0.2041900  )
        68           N   tau(  68) = (   0.6666665   0.1924502   0.7474830  )
        69           N   tau(  69) = (   0.4999998   0.4811254   0.2041900  )
        70           N   tau(  70) = (   0.4999998   0.4811254   0.7474830  )
        71           N   tau(  71) = (   0.3333331   0.7698005   0.2041900  )
        72           N   tau(  72) = (   0.3333331   0.7698005   0.7474830  )

[...]
     atom   18 type  1   force =     0.00000000    0.00000000    0.00000000
     atom   19 type  1   force =     0.00000000    0.00000000    0.00000000
     atom   20 type  1   force =     0.00000000    0.00000000    0.00000000
     atom   21 type  1   force =     0.00000000    0.00000000    0.00000000
     atom   22 type  1   force =     0.00000000    0.00000000    0.00000000
     atom   23 type  1   force =     0.00000000    0.00000000    0.00000000
     atom   24 type  1   force =     0.00000000    0.00000000    0.00000000
     atom   25 type  1   force =     0.00000000    0.00000000    0.00000000
     atom   26 type  1   force =     0.00000000    0.00000000    0.00000000
     atom   27 type  1   force =     0.00000000    0.00000000    0.00000000
     atom   28 type  1   force =     0.00000000    0.00000000    0.00000000
     atom   29 type  1   force =     0.00000000    0.00000000    0.00000000
     atom   30 type  1   force =     0.00000000    0.00000000    0.00000000
     atom   31 type  1   force =     0.00000000    0.00000000    0.00000000
     atom   32 type  1   force =     0.00000000    0.00000000    0.00000000
     atom   33 type  1   force =     0.00000000    0.00000000    0.00000000
     atom   34 type  1   force =     0.00000000    0.00000000    0.00000000
     atom   35 type  1   force =     0.00000000    0.00000000    0.00000000
     atom   36 type  1   force =     0.00000000    0.00000000    0.00000000
     atom   37 type  2   force =     0.00000000    0.00000000    0.00000000
     atom   38 type  2   force =     0.00000000    0.00000000    0.00000000
     atom   39 type  2   force =     0.00000000    0.00000000    0.00000000
     atom   40 type  2   force =     0.00000000    0.00000000    0.00000000
     atom   41 type  2   force =     0.00000000    0.00000000    0.00000000
     atom   42 type  2   force =     0.00000000    0.00000000    0.00000000
     atom   43 type  2   force =     0.00000000    0.00000000    0.00000000
     atom   44 type  2   force =     0.00000000    0.00000000    0.00000000
     atom   45 type  2   force =     0.00000000    0.00000000    0.00000000
     atom   46 type  2   force =     0.00000000    0.00000000    0.00000000
     atom   47 type  2   force =     0.00000000    0.00000000    0.00000000
     atom   48 type  2   force =     0.00000000    0.00000000    0.00000000
     atom   49 type  2   force =     0.00000000    0.00000000    0.00000000
     atom   50 type  2   force =     0.00000000    0.00000000    0.00000000
     atom   51 type  2   force =     0.00000000    0.00000000    0.00000000
     atom   52 type  2   force =     0.00000000    0.00000000    0.00000000
     atom   53 type  2   force =     0.00000000    0.00000000    0.00000000
     atom   54 type  2   force =     0.00000000    0.00000000    0.00000000
     atom   55 type  2   force =     0.00000000    0.00000000    0.00000000
     atom   56 type  2   force =     0.00000000    0.00000000    0.00000000
     atom   57 type  2   force =     0.00000000    0.00000000    0.00000000
     atom   58 type  2   force =     0.00000000    0.00000000    0.00000000
     atom   59 type  2   force =     0.00000000    0.00000000    0.00000000
     atom   60 type  2   force =     0.00000000    0.00000000    0.00000000
     atom   61 type  2   force =     0.00000000    0.00000000    0.00000000
     atom   62 type  2   force =     0.00000000    0.00000000    0.00000000
     atom   63 type  2   force =     0.00000000    0.00000000    0.00000000
     atom   64 type  2   force =     0.00000000    0.00000000    0.00000000
     atom   65 type  2   force =     0.00000000    0.00000000    0.00000000
     atom   66 type  2   force =     0.00000000    0.00000000    0.00000000
     atom   67 type  2   force =     0.00000000    0.00000000    0.00000000
     atom   68 type  2   force =     0.00000000    0.00000000    0.00000000
     atom   69 type  2   force =     0.00000000    0.00000000    0.00000000
     atom   70 type  2   force =     0.00000000    0.00000000    0.00000000
     atom   71 type  2   force =     0.00000000    0.00000000    0.00000000
     atom   72 type  2   force =     0.00000000    0.00000000    0.00000000
     The SCF correction term to forces
     atom    1 type  1   force =    -0.00000743   -0.00000429   -0.00000981
     atom    2 type  1   force =     0.00000318    0.00000184    0.00000960
     atom    3 type  1   force =     0.00000000    0.00001144   -0.00000870
     atom    4 type  1   force =    -0.00000000    0.00001528   -0.00000458
     atom    5 type  1   force =     0.00000990   -0.00000572   -0.00000870
     atom    6 type  1   force =     0.00001323   -0.00000764   -0.00000458
     atom    7 type  1   force =     0.00000000   -0.00001991   -0.00000658
     atom    8 type  1   force =     0.00000000   -0.00001261    0.00000308
     atom    9 type  1   force =    -0.00001725    0.00000996   -0.00000658
     atom   10 type  1   force =    -0.00001092    0.00000631    0.00000308
     atom   11 type  1   force =    -0.00000990   -0.00000572   -0.00000870
     atom   12 type  1   force =    -0.00001323   -0.00000764   -0.00000458
     atom   13 type  1   force =     0.00000743   -0.00000429   -0.00000981
     atom   14 type  1   force =    -0.00000318    0.00000184    0.00000960
     atom   15 type  1   force =     0.00001725    0.00000996   -0.00000658
     atom   16 type  1   force =     0.00001092    0.00000631    0.00000308
     atom   17 type  1   force =     0.00000000    0.00000858   -0.00000981
     atom   18 type  1   force =    -0.00000000   -0.00000367    0.00000960
     atom   19 type  1   force =    -0.00000000    0.00000220   -0.00000441
     atom   20 type  1   force =    -0.00000000   -0.00000806    0.00000553
     atom   21 type  1   force =     0.00001209    0.00000698    0.00000480
     atom   22 type  1   force =     0.00000595    0.00000343    0.00000501
     atom   23 type  1   force =     0.00000191   -0.00000110   -0.00000441
     atom   24 type  1   force =    -0.00000698    0.00000403    0.00000552
     atom   25 type  1   force =    -0.00001062   -0.00000613    0.00000568
     atom   26 type  1   force =    -0.00001333   -0.00000769    0.00000024
     atom   27 type  1   force =    -0.00001209    0.00000698    0.00000480
     atom   28 type  1   force =    -0.00000595    0.00000343    0.00000501
     atom   29 type  1   force =     0.00000000   -0.00001396    0.00000480
     atom   30 type  1   force =    -0.00000000   -0.00000687    0.00000501
     atom   31 type  1   force =     0.00001062   -0.00000613    0.00000568
     atom   32 type  1   force =     0.00001332   -0.00000769    0.00000024
     atom   33 type  1   force =    -0.00000000    0.00001226    0.00000568
     atom   34 type  1   force =    -0.00000000    0.00001539    0.00000024
     atom   35 type  1   force =    -0.00000191   -0.00000110   -0.00000441
     atom   36 type  1   force =     0.00000698    0.00000403    0.00000553
     atom   37 type  2   force =    -0.00000227   -0.00000131   -0.00000258
     atom   38 type  2   force =    -0.00000280   -0.00000162    0.00000189
     atom   39 type  2   force =     0.00000000    0.00000553   -0.00000016
     atom   40 type  2   force =     0.00000000    0.00000256   -0.00000011
     atom   41 type  2   force =     0.00000479   -0.00000276   -0.00000016
     atom   42 type  2   force =     0.00000221   -0.00000128   -0.00000011
     atom   43 type  2   force =     0.00000000   -0.00000847    0.00000045
     atom   44 type  2   force =     0.00000000   -0.00000612   -0.00000124
     atom   45 type  2   force =    -0.00000733    0.00000423    0.00000045
     atom   46 type  2   force =    -0.00000530    0.00000306   -0.00000124
     atom   47 type  2   force =    -0.00000479   -0.00000276   -0.00000016
     atom   48 type  2   force =    -0.00000221   -0.00000128   -0.00000011
     atom   49 type  2   force =     0.00000227   -0.00000131   -0.00000258
     atom   50 type  2   force =     0.00000280   -0.00000162    0.00000189
     atom   51 type  2   force =     0.00000733    0.00000423    0.00000045
     atom   52 type  2   force =     0.00000530    0.00000306   -0.00000124
     atom   53 type  2   force =     0.00000000    0.00000262   -0.00000258
     atom   54 type  2   force =    -0.00000000    0.00000324    0.00000189
     atom   55 type  2   force =     0.00000000   -0.00000106   -0.00000211
     atom   56 type  2   force =    -0.00000000    0.00000362    0.00000257
     atom   57 type  2   force =     0.00000571    0.00000329   -0.00000027
     atom   58 type  2   force =     0.00000590    0.00000341    0.00000080
     atom   59 type  2   force =    -0.00000092    0.00000053   -0.00000211
     atom   60 type  2   force =     0.00000313   -0.00000181    0.00000257
     atom   61 type  2   force =    -0.00000657   -0.00000380   -0.00000228
     atom   62 type  2   force =    -0.00000319   -0.00000184    0.00000278
     atom   63 type  2   force =    -0.00000571    0.00000329   -0.00000027
     atom   64 type  2   force =    -0.00000590    0.00000341    0.00000080
     atom   65 type  2   force =     0.00000000   -0.00000659   -0.00000027
     atom   66 type  2   force =     0.00000000   -0.00000682    0.00000080
     atom   67 type  2   force =     0.00000657   -0.00000380   -0.00000228
     atom   68 type  2   force =     0.00000319   -0.00000184    0.00000278
     atom   69 type  2   force =     0.00000000    0.00000759   -0.00000228
     atom   70 type  2   force =     0.00000000    0.00000368    0.00000278
     atom   71 type  2   force =     0.00000092    0.00000053   -0.00000211
     atom   72 type  2   force =    -0.00000313   -0.00000181    0.00000257

     Total force =     0.001361     Total SCF correction =     0.000087

     Computing stress (Cartesian axis) and pressure

[...]

          total   stress  (Ry/bohr**3)                   (kbar)     P=        0.81
   0.00000334   0.00000000   0.00000000            0.49        0.00        0.00
   0.00000000   0.00000334   0.00000000            0.00        0.49        0.00
   0.00000000  -0.00000000   0.00000981            0.00       -0.00        1.44

     kinetic stress (kbar)  18452.65      0.00      0.00
                                0.00  18452.65      0.00
                                0.00      0.00  18444.36

     local   stress (kbar)   5446.40     -0.07     -0.00
                               -0.07   5446.31      0.00
                               -0.00      0.00   3812.99

     nonloc. stress (kbar)     58.01      0.00      0.00
                                0.00     58.01      0.00
                                0.00      0.00     70.55

     hartree stress (kbar)  19596.65     -0.00      0.00
                               -0.00  19596.65      0.00
                                0.00      0.00  20346.60

     exc-cor stress (kbar)   5217.92      0.00      0.00
                                0.00   5217.92     -0.00
                                0.00     -0.00   5218.14

     corecor stress (kbar) -14110.20     -0.00     -0.00
                               -0.00 -14110.20      0.00
                               -0.00      0.00 -14109.62

     ewald   stress (kbar) -34823.05      0.10      0.00
                                0.10 -34822.93     -0.00
                                0.00     -0.00 -33942.83

     hubbard stress (kbar)      0.00      0.00      0.00
                                0.00      0.00      0.00
                                0.00      0.00      0.00

     DFT-D   stress (kbar)      0.00      0.00      0.00
                                0.00      0.00      0.00
                                0.00      0.00      0.00

     XDM     stress (kbar)      0.00      0.00      0.00
                                0.00      0.00      0.00
                                0.00      0.00      0.00

     dft-nl  stress (kbar)    162.09     -0.00     -0.00
                               -0.00    162.09      0.00
                               -0.00      0.00    161.25

     TS-vdW  stress (kbar)      0.00      0.00      0.00
                                0.00      0.00      0.00
                                0.00      0.00      0.00

     MDB     stress (kbar)      0.00      0.00      0.00
                                0.00      0.00      0.00
                                0.00      0.00      0.00

     3D-RISM stress (kbar)      0.00      0.00      0.00
                                0.00      0.00      0.00
                                0.00      0.00      0.00

[...]

     Non-local corr. energy    =      19.62274096 Ry

 BEEFens 2000 ensemble energies
             -0.158767556117557E+02
             -0.142956907047749E+03
             -0.614876120243227E+02
              0.503043089083789E+02
             -0.102780476781434E+03
             -0.132184081364694E+03
              0.679251056736498E+02
             -0.715200881548924E+01
              0.113232803205008E+03
             -0.489229625790438E+01
              0.555420270179163E+02
              0.230447072864894E+01
              0.228561387267172E+01
             -0.484630630504546E+01
              0.741131348726334E+02
             -0.539600017506006E+02
             -0.111211210122714E+03
             -0.363455816788485E+02
              0.271554449734764E+02
             -0.243725783927175E+01
              0.162327322398387E+03
              0.138162186731100E+03
             -0.790863376529276E+02
              0.286341884438436E+02
             -0.173399000618591E+03
              0.139034523345014E+03
              0.454049143127208E+02
              0.135175946567762E+03
              0.888196099164134E+02
             -0.432330870820978E+02
              0.327232183208606E+02
             -0.638701380441489E+02
              0.178766982125966E+02
              0.869003916471683E+02
              0.921487988812944E+02
             -0.332867885206444E+02
              0.204705622564056E+03
             -0.776937539166395E+02
             -0.559311832391547E+02
              0.820384388666571E+02
              0.366957332383214E+02
              0.614082783916587E+02
             -0.117035833400275E+03
             -0.328180395884328E+01
              0.114886398172107E+03
              0.149226712176725E+03
             -0.148564977426135E+03
              0.105794390268383E+02
              0.560146471257569E+02
              0.272711381660139E+02
              0.621187705535759E+02
              0.131587003882037E+03
             -0.795420785121276E+02
             -0.871962608449774E+02
             -0.113378126955381E+03
             -0.175423281426348E+02
             -0.103418068481847E+03
              0.101275862620989E+02
             -0.191429590938184E+02
             -0.806000512670201E+02
[...]
              0.100579486801126E+03
              0.555710522547057E+02
              0.706089498383710E+02
             -0.114109966928689E+03
             -0.109245724700367E+03
             -0.276365872505893E+02
             -0.107074830805838E+03
              0.171424061224183E+03
              0.146915573011251E+03
              0.702076658140649E+02
              0.190118328837630E+03
             -0.989464753896321E+02
             -0.403186967689637E+02
             -0.561015464314742E+02
              0.157257784894627E+03

 BEEF-vdW xc energy contributions
            1 :    -1441.205800780463
            2 :     1298.115851540319
            3 :    -1058.387925877810
            4 :     792.1917884627358
            5 :    -561.2718475135030
            6 :     395.4623011165518
            7 :    -289.3544381564193
            8 :     217.5495871920373
            9 :    -156.2112707446504
           10 :     96.90039581959218
           11 :    -46.05816251511715
           12 :     14.01987608345917
           13 :    -3.664384322391015
           14 :     7.104836098713804
           15 :    -11.52053772877798
           16 :     8.286685309892164
           17 :     2.065340222143277
           18 :    -12.35204450868832
           19 :     15.87706579427913
           20 :    -12.14617600566930
           21 :     6.883193821459372
           22 :    -6.958044698357753
           23 :     14.74328552315387
           24 :    -26.42138122397660
           25 :     35.24713676715464
           26 :    -36.79817679532880
           27 :     31.96077709406495
           28 :    -25.55937355987544
           29 :     22.14219032142614
           30 :    -22.52134774596288
           31 :    -123.4830229617758
           32 :    -84.61728953689521

     Writing all to output data dir ./GaN.save/

     General routines

     Parallel routines

     PAW routines

   This run was terminated on:   8:11:51  30Sep2023

   JOB DONE.