     Program PWSCF v.7.1 starts on 29Mar2024 at  7:52:53

     Reading input from espresso.pwi
Warning: card &CELL ignored
Warning: card    CELL_DYNAMICS    = 'BFGS' ignored
Warning: card / ignored

     Current dimensions of program PWSCF are:
     Max number of different atomic species (ntypx) = 10
     Max number of k-points (npk) =  40000
     Max angular momentum in pseudopotentials (lmaxx) =  4
     file Ga.pbe-dn-kjpaw_psl.1.0.0.UPF: wavefunction(s)  4S renormalized
     file N.pbe-n-kjpaw_psl.1.0.0.UPF: wavefunction(s)  2S renormalized

     IMPORTANT: XC functional enforced from input :
     Exchange-correlation= BEEF-VDW
                           (   1   4  43  14   2   0   0)
     Any further DFT definition will be discarded
     Please, verify this is what you really want

     K-points division:     npool     =       3
     R & G space division:  proc/nbgrp/npool/nimage =      60
     Subspace diagonalization in iterative solution of the eigenvalue problem:
     a serial algorithm will be used

     Using Slab Decomposition

     bravais-lattice index     =            4
     lattice parameter (alat)  =      30.6565  a.u.
     unit-cell volume          =   24400.9461 (a.u.)^3
     number of atoms/cell      =          300
     number of atomic types    =            2
     number of electrons       =      2693.00
     number of Kohn-Sham states=         1616
     kinetic-energy cutoff     =      70.0000  Ry
     charge density cutoff     =     350.0000  Ry
     scf convergence threshold =      1.0E-07
     mixing beta               =       0.7000
     number of iterations used =            8  plain     mixing
     energy convergence thresh.=      1.0E-04
     force convergence thresh. =      1.0E-03
     Exchange-correlation= BEEF-VDW
                           (   1   4  43  14   2   0   0)
     nstep                     =           50

     celldm(1)=  30.656540  celldm(2)=   0.000000  celldm(3)=   0.977927
     celldm(4)=   0.000000  celldm(5)=   0.000000  celldm(6)=   0.000000

     crystal axes: (cart. coord. in units of alat)
               a(1) = (   1.000000   0.000000   0.000000 )
               a(2) = (  -0.500000   0.866025   0.000000 )
               a(3) = (   0.000000   0.000000   0.977927 )

     reciprocal axes: (cart. coord. in units 2 pi/alat)
               b(1) = (  1.000000  0.577350 -0.000000 )
               b(2) = (  0.000000  1.154701  0.000000 )
               b(3) = (  0.000000 -0.000000  1.022571 )

     PseudoPot. # 1 for Ga read from file:
     //group///packages/espresso/pseudo/psl_1.0.0/pslibrary.1.0.0/pbe/PSEUDOPOTENTIALS/Ga.pbe-dn-kjpaw_psl.1.0.0.UPF
     MD5 check sum: cd2a01e492f15b435d17032472d8505c
     Pseudo is Projector augmented-wave + core cor, Zval = 13.0
     Generated using 'atomic' code by A. Dal Corso  v.7.1
     Shape of augmentation charge: PSQ
     Using radial grid of 1205 points,  6 beta functions with:
                l(1) =   0
                l(2) =   0
                l(3) =   1
                l(4) =   1
                l(5) =   2
                l(6) =   2
     Q(r) pseudized with 0 coefficients

     PseudoPot. # 2 for N  read from file:
     //group///packages/espresso/pseudo/psl_1.0.0/pslibrary.1.0.0/pbe/PSEUDOPOTENTIALS/N.pbe-n-kjpaw_psl.1.0.0.UPF
     MD5 check sum: f77f775694dac7e2c3fe1c82443d1a16
     Pseudo is Projector augmented-wave + core cor, Zval =  5.0
     Generated using 'atomic' code by A. Dal Corso  v.7.1
     Shape of augmentation charge: PSQ
     Using radial grid of 1085 points,  4 beta functions with:
                l(1) =   0
                l(2) =   0
                l(3) =   1
                l(4) =   1
     Q(r) pseudized with 0 coefficients

     atomic species   valence    mass     pseudopotential
        Ga            13.00    69.72300     Ga( 1.00)
        N              5.00    14.00700     N ( 1.00)

      2 Sym. Ops. (no inversion) found

                                    s                        frac. trans.

      isym =  1     identity

 cryst.   s( 1) = (     1          0          0      )
                  (     0          1          0      )
                  (     0          0          1      )

 cart.    s( 1) = (  1.0000000  0.0000000  0.0000000 )
                  (  0.0000000  1.0000000  0.0000000 )
                  (  0.0000000  0.0000000  1.0000000 )

      isym =  2     inv. 180 deg rotation - cryst. axis [0,1,0]

 cryst.   s( 2) = (     1          1          0      )
                  (     0         -1          0      )
                  (     0          0          1      )

 cart.    s( 2) = (  0.5000000  0.8660254  0.0000000 )
                  (  0.8660254 -0.5000000  0.0000000 )
                  (  0.0000000  0.0000000  1.0000000 )

     point group C_s (m)
     there are  2 classes
     the character table:

       E     s
A'     1.00  1.00
A''    1.00 -1.00

     the symmetry operations in each class and the name of the first element:

     E        1
          identity
     s        2
          inv. 180 deg rotation - cryst. axis [0,1,0]

   Cartesian axes

     site n.     atom                  positions (alat units)
         1           Ga  tau(   1) = (   0.1000001   0.0577350   0.4886906  )
         2           Ga  tau(   2) = (   0.1000001   0.0577350   0.8146665  )
         3           Ga  tau(   3) = (   0.0000001   0.2309401   0.1627148  )
         4           Ga  tau(   4) = (   0.0000001   0.2309401   0.4886906  )
         5           Ga  tau(   5) = (   0.0000001   0.2309401   0.8146665  )
         6           Ga  tau(   6) = (  -0.0999999   0.4041451   0.1627148  )
         7           Ga  tau(   7) = (  -0.0999999   0.4041451   0.4886906  )
         8           Ga  tau(   8) = (  -0.0999999   0.4041451   0.8146665  )
         9           Ga  tau(   9) = (  -0.1999999   0.5773502   0.1627148  )
        10           Ga  tau(  10) = (  -0.1999999   0.5773502   0.4886906  )
        11           Ga  tau(  11) = (  -0.1999999   0.5773502   0.8146665  )
        12           Ga  tau(  12) = (  -0.2999999   0.7505553   0.1627148  )
        13           Ga  tau(  13) = (  -0.2999999   0.7505553   0.4886906  )
        14           Ga  tau(  14) = (  -0.2999999   0.7505553   0.8146665  )
        15           Ga  tau(  15) = (   0.3000001   0.0577350   0.1627148  )
        16           Ga  tau(  16) = (   0.3000001   0.0577350   0.4886906  )
        17           Ga  tau(  17) = (   0.3000001   0.0577350   0.8146665  )
        18           Ga  tau(  18) = (   0.2000001   0.2309401   0.1627148  )
        19           Ga  tau(  19) = (   0.2000001   0.2309401   0.4886906  )
        20           Ga  tau(  20) = (   0.2000001   0.2309401   0.8146665  )
        21           Ga  tau(  21) = (   0.1000001   0.4041451   0.1627148  )
        22           Ga  tau(  22) = (   0.1000001   0.4041451   0.4886906  )
        23           Ga  tau(  23) = (   0.1000001   0.4041451   0.8146665  )
        24           Ga  tau(  24) = (   0.0000001   0.5773502   0.1627148  )
        25           Ga  tau(  25) = (   0.0000001   0.5773502   0.4886906  )
        26           Ga  tau(  26) = (   0.0000001   0.5773502   0.8146665  )
        27           Ga  tau(  27) = (  -0.0999999   0.7505553   0.1627148  )
        28           Ga  tau(  28) = (  -0.0999999   0.7505553   0.4886906  )
        29           Ga  tau(  29) = (  -0.0999999   0.7505553   0.8146665  )
        30           Ga  tau(  30) = (   0.5000001   0.0577350   0.1627148  )
        31           Ga  tau(  31) = (   0.5000001   0.0577350   0.4886906  )
        32           Ga  tau(  32) = (   0.5000001   0.0577350   0.8146665  )
        33           Ga  tau(  33) = (   0.4000001   0.2309401   0.1627148  )
        34           Ga  tau(  34) = (   0.4000001   0.2309401   0.4886906  )
        35           Ga  tau(  35) = (   0.4000001   0.2309401   0.8146665  )
        36           Ga  tau(  36) = (   0.3000001   0.4041451   0.1627148  )
        37           Ga  tau(  37) = (   0.3000001   0.4041451   0.4886906  )
        38           Ga  tau(  38) = (   0.3000001   0.4041451   0.8146665  )
        39           Ga  tau(  39) = (   0.2000001   0.5773502   0.1627148  )
        40           Ga  tau(  40) = (   0.2000001   0.5773502   0.4886906  )
        41           Ga  tau(  41) = (   0.2000001   0.5773502   0.8146665  )
        42           Ga  tau(  42) = (   0.1000001   0.7505553   0.1627148  )
        43           Ga  tau(  43) = (   0.1000001   0.7505553   0.4886906  )
        44           Ga  tau(  44) = (   0.1000001   0.7505553   0.8146665  )
        45           Ga  tau(  45) = (   0.7000001   0.0577350   0.1627148  )
        46           Ga  tau(  46) = (   0.7000001   0.0577350   0.4886906  )
        47           Ga  tau(  47) = (   0.7000001   0.0577350   0.8146665  )
        48           Ga  tau(  48) = (   0.6000001   0.2309401   0.1627148  )
        49           Ga  tau(  49) = (   0.6000001   0.2309401   0.4886906  )
        50           Ga  tau(  50) = (   0.6000001   0.2309401   0.8146665  )
        51           Ga  tau(  51) = (   0.5000001   0.4041451   0.1627148  )
        52           Ga  tau(  52) = (   0.5000001   0.4041451   0.4886906  )
        53           Ga  tau(  53) = (   0.5000001   0.4041451   0.8146665  )
        54           Ga  tau(  54) = (   0.4000001   0.5773502   0.1627148  )
        55           Ga  tau(  55) = (   0.4000001   0.5773502   0.4886906  )
        56           Ga  tau(  56) = (   0.4000001   0.5773502   0.8146665  )
        57           Ga  tau(  57) = (   0.3000001   0.7505553   0.1627148  )
        58           Ga  tau(  58) = (   0.3000001   0.7505553   0.4886906  )
        59           Ga  tau(  59) = (   0.3000001   0.7505553   0.8146665  )
        60           Ga  tau(  60) = (   0.9000001   0.0577350   0.1627148  )
[...]
       286           N   tau( 286) = (   0.7999999   0.1154701   0.4484898  )
       287           N   tau( 287) = (   0.7999999   0.1154701   0.7744656  )
       288           N   tau( 288) = (   0.6999999   0.2886752   0.1225140  )
       289           N   tau( 289) = (   0.6999999   0.2886752   0.4484898  )
       290           N   tau( 290) = (   0.6999999   0.2886752   0.7744656  )
       291           N   tau( 291) = (   0.5999999   0.4618803   0.1225140  )
       292           N   tau( 292) = (   0.5999999   0.4618803   0.4484898  )
       293           N   tau( 293) = (   0.5999999   0.4618803   0.7744656  )
       294           N   tau( 294) = (   0.4999999   0.6350854   0.1225140  )
       295           N   tau( 295) = (   0.4999999   0.6350854   0.4484898  )
       296           N   tau( 296) = (   0.4999999   0.6350854   0.7744656  )
       297           N   tau( 297) = (   0.3999999   0.8082905   0.1225140  )
       298           N   tau( 298) = (   0.3999999   0.8082905   0.4484898  )
       299           N   tau( 299) = (   0.3999999   0.8082905   0.7744656  )
       300           N   tau( 300) = (   0.1000001   0.0577350   0.1627148  )

   Crystallographic axes

     site n.     atom                  positions (cryst. coord.)
         1           Ga  tau(   1) = (  0.1333334  0.0666666  0.4997208  )
[...]
     atom   44 type  1   force =     0.00000000    0.00000000    0.00000000
     atom   45 type  1   force =     0.00000000    0.00000000    0.00000000
     atom   46 type  1   force =     0.00000000    0.00000000    0.00000000
     atom   47 type  1   force =     0.00000000    0.00000000    0.00000000
     atom   48 type  1   force =     0.00000000    0.00000000    0.00000000
     atom   49 type  1   force =     0.00000000    0.00000000    0.00000000
     atom   50 type  1   force =     0.00000000    0.00000000    0.00000000
     atom   51 type  1   force =     0.00000000    0.00000000    0.00000000
     atom   52 type  1   force =     0.00000000    0.00000000    0.00000000
     atom   53 type  1   force =     0.00000000    0.00000000    0.00000000
     atom   54 type  1   force =     0.00000000    0.00000000    0.00000000
     atom   55 type  1   force =     0.00000000    0.00000000    0.00000000
     atom   56 type  1   force =     0.00000000    0.00000000    0.00000000
     atom   57 type  1   force =     0.00000000    0.00000000    0.00000000
     atom   58 type  1   force =     0.00000000    0.00000000    0.00000000
     atom   59 type  1   force =     0.00000000    0.00000000    0.00000000
     atom   60 type  1   force =     0.00000000    0.00000000    0.00000000
[...]
     atom  286 type  2   force =     0.00000000    0.00000000    0.00000000
     atom  287 type  2   force =     0.00000000    0.00000000    0.00000000
     atom  288 type  2   force =     0.00000000    0.00000000    0.00000000
     atom  289 type  2   force =     0.00000000    0.00000000    0.00000000
     atom  290 type  2   force =     0.00000000    0.00000000    0.00000000
     atom  291 type  2   force =     0.00000000    0.00000000    0.00000000
     atom  292 type  2   force =     0.00000000    0.00000000    0.00000000
     atom  293 type  2   force =     0.00000000    0.00000000    0.00000000
     atom  294 type  2   force =     0.00000000    0.00000000    0.00000000
     atom  295 type  2   force =     0.00000000    0.00000000    0.00000000
     atom  296 type  2   force =     0.00000000    0.00000000    0.00000000
     atom  297 type  2   force =     0.00000000    0.00000000    0.00000000
     atom  298 type  2   force =     0.00000000    0.00000000    0.00000000
     atom  299 type  2   force =     0.00000000    0.00000000    0.00000000
     atom  300 type  2   force =     0.00000000    0.00000000    0.00000000
     The SCF correction term to forces
     atom    1 type  1   force =     0.00000040    0.00000023   -0.00000168
     atom    2 type  1   force =    -0.00000043   -0.00000025    0.00000842
     atom    3 type  1   force =    -0.00000005    0.00000241   -0.00000225
     atom    4 type  1   force =    -0.00000726    0.00000654   -0.00000496
     atom    5 type  1   force =    -0.00000364    0.00000525    0.00000952
     atom    6 type  1   force =    -0.00000035    0.00000249   -0.00000110
     atom    7 type  1   force =    -0.00000215    0.00000427   -0.00000080
     atom    8 type  1   force =    -0.00000138    0.00000380    0.00000086
     atom    9 type  1   force =     0.00000198   -0.00000155   -0.00000110
     atom   10 type  1   force =     0.00000262   -0.00000400   -0.00000080
     atom   11 type  1   force =     0.00000260   -0.00000310    0.00000086
     atom   12 type  1   force =     0.00000206   -0.00000125   -0.00000225
     atom   13 type  1   force =     0.00000204   -0.00000956   -0.00000496
     atom   14 type  1   force =     0.00000273   -0.00000578    0.00000952
     atom   15 type  1   force =     0.00000109   -0.00000017   -0.00000090
     atom   16 type  1   force =     0.00000835    0.00000287   -0.00000562
     atom   17 type  1   force =     0.00000489   -0.00000013    0.00000942
     atom   18 type  1   force =     0.00000040    0.00000103   -0.00000090
     atom   19 type  1   force =     0.00000667    0.00000580   -0.00000562
     atom   20 type  1   force =     0.00000233    0.00000430    0.00000942
     atom   21 type  1   force =    -0.00000060    0.00000742   -0.00000219
     atom   22 type  1   force =    -0.00000116    0.00000656   -0.00000221
     atom   23 type  1   force =    -0.00000169    0.00000610    0.00000324
     atom   24 type  1   force =     0.00000048    0.00000028   -0.00000329
     atom   25 type  1   force =    -0.00000246   -0.00000142    0.00000059
     atom   26 type  1   force =    -0.00000135   -0.00000078    0.00000116
     atom   27 type  1   force =     0.00000612   -0.00000422   -0.00000219
     atom   28 type  1   force =     0.00000510   -0.00000429   -0.00000221
     atom   29 type  1   force =     0.00000444   -0.00000452    0.00000324
     atom   30 type  1   force =    -0.00000163    0.00000015   -0.00000017
     atom   31 type  1   force =     0.00000313   -0.00000016   -0.00000131
     atom   32 type  1   force =     0.00000201   -0.00000027    0.00000103
     atom   33 type  1   force =    -0.00000079   -0.00000045   -0.00000013
     atom   34 type  1   force =     0.00000379    0.00000219   -0.00000421
     atom   35 type  1   force =     0.00000389    0.00000225    0.00000365
     atom   36 type  1   force =    -0.00000069   -0.00000148   -0.00000017
     atom   37 type  1   force =     0.00000142    0.00000279   -0.00000131
     atom   38 type  1   force =     0.00000077    0.00000187    0.00000103
     atom   39 type  1   force =    -0.00000467   -0.00000089   -0.00000228
     atom   40 type  1   force =     0.00000004   -0.00000162    0.00000106
     atom   41 type  1   force =    -0.00000248   -0.00000131    0.00000023
     atom   42 type  1   force =    -0.00000311   -0.00000360   -0.00000228
     atom   43 type  1   force =    -0.00000138    0.00000084    0.00000106
     atom   44 type  1   force =    -0.00000238   -0.00000149    0.00000023
     atom   45 type  1   force =    -0.00000226    0.00000188    0.00000007
     atom   46 type  1   force =    -0.00000416    0.00000067   -0.00000033
     atom   47 type  1   force =    -0.00000334    0.00000131   -0.00000019
     atom   48 type  1   force =    -0.00000123    0.00000137    0.00000035
     atom   49 type  1   force =     0.00000059    0.00000020    0.00000101
     atom   50 type  1   force =     0.00000055    0.00000214   -0.00000002
     atom   51 type  1   force =     0.00000057   -0.00000175    0.00000035
     atom   52 type  1   force =     0.00000047    0.00000041    0.00000101
     atom   53 type  1   force =     0.00000213   -0.00000059   -0.00000002
     atom   54 type  1   force =     0.00000050   -0.00000289    0.00000007
     atom   55 type  1   force =    -0.00000150   -0.00000394   -0.00000033
     atom   56 type  1   force =    -0.00000053   -0.00000355   -0.00000019
     atom   57 type  1   force =    -0.00000571   -0.00000330   -0.00000085
     atom   58 type  1   force =    -0.00000581   -0.00000336   -0.00000053
     atom   59 type  1   force =    -0.00000513   -0.00000296    0.00000126
     atom   60 type  1   force =     0.00000334    0.00000294   -0.00000212
[...]
     atom  286 type  2   force =    -0.00000222    0.00000151   -0.00000095
     atom  287 type  2   force =    -0.00000224    0.00000138    0.00000134
     atom  288 type  2   force =     0.00000020    0.00000077   -0.00000010
     atom  289 type  2   force =     0.00000030    0.00000051   -0.00000026
     atom  290 type  2   force =    -0.00000044    0.00000109    0.00000021
     atom  291 type  2   force =     0.00000077   -0.00000022   -0.00000010
     atom  292 type  2   force =     0.00000059   -0.00000000   -0.00000026
     atom  293 type  2   force =     0.00000072   -0.00000093    0.00000021
     atom  294 type  2   force =     0.00000162   -0.00000079   -0.00000030
     atom  295 type  2   force =     0.00000020   -0.00000268   -0.00000095
     atom  296 type  2   force =     0.00000007   -0.00000263    0.00000134
     atom  297 type  2   force =     0.00000071    0.00000041   -0.00000073
     atom  298 type  2   force =    -0.00000258   -0.00000149   -0.00000077
     atom  299 type  2   force =    -0.00000163   -0.00000094    0.00000215
     atom  300 type  2   force =    -0.00000179   -0.00000103   -0.00000224

     Total force =     0.002814     Total SCF correction =     0.000077

     Computing stress (Cartesian axis) and pressure

     Non-local corr. energy    =      81.32650831 Ry

          total   stress  (Ry/bohr**3)                   (kbar)     P=        7.54
   0.00002477  -0.00000007  -0.00000004            3.64       -0.01       -0.01
  -0.00000007   0.00002485  -0.00000002           -0.01        3.65       -0.00
  -0.00000004  -0.00000002   0.00010416           -0.01       -0.00       15.32

     kinetic stress (kbar)  18400.23     -0.02     -0.01
                               -0.02  18400.26     -0.01
                               -0.01     -0.01  18431.91

     local   stress (kbar)   5203.21     -1.12      0.69
                               -1.12   5204.33      0.40
                                0.69      0.40   3840.52

     nonloc. stress (kbar)     81.45     -0.01      0.02
                               -0.01     81.46      0.01
                                0.02      0.01     87.95

     hartree stress (kbar)  19557.89      0.39     -0.22
                                0.39  19557.45     -0.13
                               -0.22     -0.13  20195.54

     exc-cor stress (kbar)   5169.84      0.00     -0.00
                                0.00   5169.84     -0.00
                               -0.00     -0.00   5169.51

     corecor stress (kbar) -14024.68     -0.00      0.00
                               -0.00 -14024.67      0.00
                                0.00      0.00 -14024.66

     ewald   stress (kbar) -34545.45      0.77     -0.48
                                0.77 -34546.11     -0.28
                               -0.48     -0.28 -33845.95

     hubbard stress (kbar)      0.00      0.00      0.00
                                0.00      0.00      0.00
                                0.00      0.00      0.00

     DFT-D   stress (kbar)      0.00      0.00      0.00
                                0.00      0.00      0.00
                                0.00      0.00      0.00

     XDM     stress (kbar)      0.00      0.00      0.00
                                0.00      0.00      0.00
                                0.00      0.00      0.00

     dft-nl  stress (kbar)    161.12     -0.00      0.00
                               -0.00    161.12      0.00
                                0.00      0.00    160.50

     TS-vdW  stress (kbar)      0.00      0.00      0.00
                                0.00      0.00      0.00
                                0.00      0.00      0.00

     MDB     stress (kbar)      0.00      0.00      0.00
                                0.00      0.00      0.00
                                0.00      0.00      0.00

     3D-RISM stress (kbar)      0.00      0.00      0.00
                                0.00      0.00      0.00
                                0.00      0.00      0.00

     Energy error            =      5.7E-06 Ry
     Gradient error          =      9.4E-04 Ry/Bohr

     bfgs converged in   8 scf cycles and   7 bfgs steps
     (criteria: energy <  1.0E-04 Ry, force <  1.0E-03 Ry/Bohr)

     End of BFGS Geometry Optimization

     Final energy             =  -46587.7764143166 Ry

     File ./GaN.bfgs deleted, as requested
Begin final coordinates

ATOMIC_POSITIONS (angstrom)
Ga            1.6214064369        0.9361179719        7.8313799567
Ga            1.6214420973        0.9361385604       13.1223625097
Ga            0.0750031077        3.6753342727        2.6595271811
Ga           -0.0093516975        3.7576399740        7.9529812760
Ga           -0.0011386294        3.7433456723       13.1987910849
Ga           -1.6084837884        6.5338927306        2.6374312992
Ga           -1.6254578878        6.5579419348        7.9243620624
Ga           -1.6232677311        6.5551192533       13.2229286194
Ga           -3.2570945729        9.3893703712        2.6374312992
Ga           -3.2447544007        9.3626457678        7.9243620624
Ga           -3.2461038362        9.3659538399       13.2229286194
Ga           -4.8909353674       12.2765920191        2.6595271811
Ga           -4.8618339419       12.1623857642        7.9529812760
Ga           -4.8701066361       12.1766456407       13.1987910849
Ga            4.7665800848        0.9074778293        2.6595736040
Ga            4.8815543129        0.9391479445        7.9528421389
Ga            4.8641629249        0.9384437143       13.1989801621
Ga            3.1691901698        3.6742383216        2.6595736040
Ga            3.2541044082        3.7579738664        7.9528421389
Ga            3.2447988328        3.7432645976       13.1989801621
Ga            1.6226398052        6.5501595288        2.6458537699
Ga            1.6223813884        6.5563617157        7.9285436020
Ga            1.6224547744        6.5578314480       13.2167698911
Ga           -0.0025026297        9.3647581453        2.6407716295
Ga           -0.0002262750        9.3660723993        7.9262710430
Ga           -0.0005863689        9.3658644989       13.2159869378
Ga           -1.6274453156       12.1794720870        2.6458537699
Ga           -1.6222032726       12.1761471981        7.9285436020
Ga           -1.6208937541       12.1754758860       13.2167698911
Ga            8.0858032418        0.9356856009        2.6374597280
Ga            8.1139914228        0.9378351122        7.9244088865
Ga            8.1105648670        0.9375247752       13.2231085221
Ga            6.4671556949        3.7338126105        2.6436956857
Ga            6.4879351108        3.7458096119        7.9231082699
Ga            6.4907037736        3.7474081001       13.2197095716
Ga            4.8532303952        6.5346660107        2.6374597280
Ga            4.8691860170        6.5580029360        7.9244088865
Ga            4.8672039794        6.5551906201       13.2231085221
Ga            3.2480699794        9.3650759049        2.6409073486
Ga            3.2449564823        9.3660653171        7.9263552987
Ga            3.2453822837        9.3659056330       13.2162600244
Ga            1.6230588628       12.1796777220        2.6409073486
Ga            1.6223589703       12.1764866483        7.9263552987
Ga            1.6224335805       12.1769352451       13.2162600244
Ga           11.3841480867        0.9362974232        2.6372275202
Ga           11.3521548616        0.9376229635        7.9242544863
Ga           11.3558155966        0.9372119959       13.2226641969
Ga            9.7329785777        3.7453180173        2.6405570398
Ga            9.7330705418        3.7457911458        7.9237717704
Ga            9.7328836969        3.7473707445       13.2175699188
Ga            8.1100311108        6.5563454879        2.6405570398
Ga            8.1104868342        6.5561885669        7.9237717704
Ga            8.1117613843        6.5552369552       13.2175699188
Ga            6.5029326712        9.3908105257        2.6372275202
Ga            6.4880840103        9.3624408099        7.9242544863
Ga            6.4895584693        9.3658165832       13.2226641969
Ga            4.8734725524       12.1799037293        2.6452960080
Ga            4.8663866834       12.1758127009        7.9285473586
Ga            4.8653482743       12.1752131752       13.2169035403
Ga           14.7024152930        0.9091743944        2.6588046286
[...]
N            12.9692634631        1.8715373746        7.2717538718
N            12.9736328596        1.8755749638       12.5683489120
N            11.3683173567        4.6757028370        1.9901749628
N            11.3553403974        4.6831808626        7.2728807097
N            11.3549663616        4.6833215209       12.5635548283
N             9.7334337956        7.5074042293        1.9901749628
N             9.7334214761        7.4924268401        7.2728807097
N             9.7333562720        7.4920325865       12.5635548283
N             8.1394134245       10.3783504964        1.9906411599
N             8.1054283221       10.2959469587        7.2717538718
N             8.1111096752       10.2977121724       12.5683489120
N             6.4965793071       13.1170090010        1.9775779989
N             6.4890894873       13.1126847515        7.2858786880
N             6.4856982342       13.1107268106       12.5677995623
N             1.6239578247        0.9375910163        2.4005022256
End final coordinates

     Writing all to output data dir ./GaN.save/

     General routines

     Parallel routines

     PAW routines

   This run was terminated on:  17:10:35  29Mar2024

   JOB DONE.