     Program PWSCF v.7.1 starts on 10Feb2024 at 12:28:54

     Reading input from espresso.pwi
Warning: card &CELL ignored
Warning: card    CELL_DYNAMICS    = 'BFGS' ignored
Warning: card / ignored

     Current dimensions of program PWSCF are:
     Max number of different atomic species (ntypx) = 10
     Max number of k-points (npk) =  40000
     Max angular momentum in pseudopotentials (lmaxx) =  4
     file Pb.pbe-dn-kjpaw_psl.1.0.0.UPF: wavefunction(s)  6S 6P 5D renormalized
     file I.pbe-dn-kjpaw_psl.1.0.0.UPF: wavefunction(s)  5S 5P renormalized

     IMPORTANT: XC functional enforced from input :
     Exchange-correlation= BEEF-VDW
                           (   1   4  43  14   2   0   0)
     Any further DFT definition will be discarded
     Please, verify this is what you really want

     K-points division:     npool     =       2
     R & G space division:  proc/nbgrp/npool/nimage =      64
     Subspace diagonalization in iterative solution of the eigenvalue problem:
     a serial algorithm will be used

     Using Slab Decomposition

     bravais-lattice index     =            4
     lattice parameter (alat)  =      26.7090  a.u.
     unit-cell volume          =   17226.5091 (a.u.)^3
     number of atoms/cell      =           54
     number of atomic types    =            2
     number of electrons       =       866.00
     number of Kohn-Sham states=          520
     kinetic-energy cutoff     =      70.0000  Ry
     charge density cutoff     =     350.0000  Ry
     scf convergence threshold =      1.0E-07
     mixing beta               =       0.7000
     number of iterations used =            8  plain     mixing
     energy convergence thresh.=      1.0E-04
     force convergence thresh. =      1.0E-03
     Exchange-correlation= BEEF-VDW
                           (   1   4  43  14   2   0   0)
     nstep                     =           50

     celldm(1)=  26.709025  celldm(2)=   0.000000  celldm(3)=   1.043981
     celldm(4)=   0.000000  celldm(5)=   0.000000  celldm(6)=   0.000000

     crystal axes: (cart. coord. in units of alat)
               a(1) = (   1.000000   0.000000   0.000000 )
               a(2) = (  -0.500000   0.866025   0.000000 )
               a(3) = (   0.000000   0.000000   1.043981 )

     reciprocal axes: (cart. coord. in units 2 pi/alat)
               b(1) = (  1.000000  0.577350 -0.000000 )
               b(2) = (  0.000000  1.154701  0.000000 )
               b(3) = (  0.000000 -0.000000  0.957872 )

     PseudoPot. # 1 for Pb read from file:
     /trace/group/acmegroup/atimmins/packages/espresso/pseudo/psl_1.0.0/pslibrary.1.0.0/pbe/PSEUDOPOTENTIALS/Pb.pbe-dn-kjpaw_psl.1.0.0.UPF
     MD5 check sum: 39ab5b8a6bbd56b7735ad9f188aac93a
     Pseudo is Projector augmented-wave + core cor, Zval = 14.0
     Generated using 'atomic' code by A. Dal Corso  v.7.1
     Shape of augmentation charge: PSQ
     Using radial grid of 1281 points,  6 beta functions with:
                l(1) =   0
                l(2) =   0
                l(3) =   1
                l(4) =   1
                l(5) =   2
                l(6) =   2
     Q(r) pseudized with 0 coefficients

     PseudoPot. # 2 for I  read from file:
     /trace/group/acmegroup/atimmins/packages/espresso/pseudo/psl_1.0.0/pslibrary.1.0.0/pbe/PSEUDOPOTENTIALS/I.pbe-dn-kjpaw_psl.1.0.0.UPF
     MD5 check sum: bfa8781bc1224d19af3f3980e3fab11e
     Pseudo is Projector augmented-wave + core cor, Zval = 17.0
     Generated using 'atomic' code by A. Dal Corso  v.7.1
     Shape of augmentation charge: PSQ
     Using radial grid of 1247 points,  6 beta functions with:
                l(1) =   0
                l(2) =   0
                l(3) =   1
                l(4) =   1
                l(5) =   2
                l(6) =   2
     Q(r) pseudized with 0 coefficients

     atomic species   valence    mass     pseudopotential
        Pb            14.00   207.20000     Pb( 1.00)
        I             17.00   126.90447     I ( 1.00)

     No symmetry found

                                    s                        frac. trans.

      isym =  1     identity

 cryst.   s( 1) = (     1          0          0      )
                  (     0          1          0      )
                  (     0          0          1      )

 cart.    s( 1) = (  1.0000000  0.0000000  0.0000000 )
                  (  0.0000000  1.0000000  0.0000000 )
                  (  0.0000000  0.0000000  1.0000000 )

     point group C_1 (1)
     there are  1 classes
     the character table:

       E
A      1.00

     the symmetry operations in each class and the name of the first element:

     E        1
          identity

   Cartesian axes

     site n.     atom                  positions (alat units)
         1           Pb  tau(   1) = (   0.1666712   0.2886557   0.5219862  )
         2           Pb  tau(   2) = (   0.0000102   0.5773235   1.0439712  )
         3           Pb  tau(   3) = (   0.0000034   0.5773295   0.5219807  )
         4           Pb  tau(   4) = (  -0.1666576   0.8659973   1.0439657  )
         5           Pb  tau(   5) = (  -0.1666644   0.8660033   0.5219752  )
         6           Pb  tau(   6) = (   0.5000113   0.2886484   1.0439810  )
         7           Pb  tau(   7) = (   0.5000045   0.2886544   0.5219905  )
         8           Pb  tau(   8) = (   0.3333436   0.5773222   1.0439755  )
         9           Pb  tau(   9) = (   0.3333367   0.5773282   0.5219850  )
        10           Pb  tau(  10) = (   0.1666758   0.8659960   1.0439700  )
        11           Pb  tau(  11) = (   0.1666690   0.8660020   0.5219795  )
        12           Pb  tau(  12) = (   0.8333447   0.2886471   1.0439853  )
        13           Pb  tau(  13) = (   0.8333379   0.2886531   0.5219949  )
        14           Pb  tau(  14) = (   0.6666769   0.5773209   1.0439798  )
        15           Pb  tau(  15) = (   0.6666701   0.5773269   0.5219894  )
        16           Pb  tau(  16) = (   0.5000091   0.8659947   1.0439743  )
        17           Pb  tau(  17) = (   0.5000023   0.8660007   0.5219839  )
        18           I   tau(  18) = (   0.1666738   0.0962066   0.3879099  )
        19           I   tau(  19) = (   0.1666806   0.0962006   0.9099004  )
        20           I   tau(  20) = (   0.0000060   0.3848804   0.3879044  )
        21           I   tau(  21) = (   0.0000129   0.3848744   0.9098949  )
        22           I   tau(  22) = (  -0.1666617   0.6735542   0.3878990  )
        23           I   tau(  23) = (  -0.1666549   0.6735482   0.9098894  )
        24           I   tau(  24) = (   0.5000071   0.0962053   0.3879143  )
        25           I   tau(  25) = (   0.5000140   0.0961993   0.9099047  )
        26           I   tau(  26) = (   0.3333394   0.3848792   0.3879088  )
        27           I   tau(  27) = (   0.3333462   0.3848731   0.9098993  )
        28           I   tau(  28) = (   0.1666716   0.6735530   0.3879033  )
        29           I   tau(  29) = (   0.1666784   0.6735469   0.9098938  )
        30           I   tau(  30) = (   0.8333405   0.0962041   0.3879186  )
        31           I   tau(  31) = (   0.8333473   0.0961980   0.9099091  )
        32           I   tau(  32) = (   0.6666727   0.3848779   0.3879131  )
        33           I   tau(  33) = (   0.6666795   0.3848718   0.9099036  )
        34           I   tau(  34) = (   0.5000049   0.6735517   0.3879076  )
        35           I   tau(  35) = (   0.5000117   0.6735457   0.9098981  )
        36           I   tau(  36) = (  -0.0000023   0.1924396   0.1340740  )
        37           I   tau(  37) = (   0.0000045   0.1924336   0.6560644  )
        38           I   tau(  38) = (  -0.1666701   0.4811134   0.1340685  )
        39           I   tau(  39) = (  -0.1666632   0.4811074   0.6560589  )
        40           I   tau(  40) = (  -0.3333378   0.7697873   0.1340630  )
        41           I   tau(  41) = (  -0.3333310   0.7697812   0.6560534  )
        42           I   tau(  42) = (   0.3333311   0.1924384   0.1340783  )
        43           I   tau(  43) = (   0.3333379   0.1924323   0.6560688  )
        44           I   tau(  44) = (   0.1666633   0.4811122   0.1340728  )
        45           I   tau(  45) = (   0.1666701   0.4811061   0.6560633  )
        46           I   tau(  46) = (  -0.0000045   0.7697860   0.1340673  )
        47           I   tau(  47) = (   0.0000023   0.7697799   0.6560578  )
        48           I   tau(  48) = (   0.6666644   0.1924371   0.1340827  )
        49           I   tau(  49) = (   0.6666712   0.1924310   0.6560731  )
        50           I   tau(  50) = (   0.4999966   0.4811109   0.1340772  )
        51           I   tau(  51) = (   0.5000034   0.4811049   0.6560676  )
        52           I   tau(  52) = (   0.3333288   0.7697847   0.1340717  )
        53           I   tau(  53) = (   0.3333356   0.7697787   0.6560621  )
        54           I   tau(  54) = (   0.1666780   0.2886497   1.0439767  )

   Crystallographic axes

     site n.     atom                  positions (cryst. coord.)
         1           Pb  tau(   1) = (  0.3333266  0.3333109  0.4999959  )
         2           Pb  tau(   2) = (  0.3333281  0.6666357  0.9999906  )
         3           Pb  tau(   3) = (  0.3333248  0.6666427  0.4999906  )
         4           Pb  tau(   4) = (  0.3333262  0.9999675  0.9999854  )
         5           Pb  tau(   5) = (  0.3333229  0.9999745  0.4999854  )
         6           Pb  tau(   6) = (  0.6666626  0.3333025  1.0000001  )
         7           Pb  tau(   7) = (  0.6666592  0.3333094  0.5000001  )
         8           Pb  tau(   8) = (  0.6666607  0.6666343  0.9999948  )
         9           Pb  tau(   9) = (  0.6666573  0.6666412  0.4999948  )
        10           Pb  tau(  10) = (  0.6666588  0.9999661  0.9999895  )
        11           Pb  tau(  11) = (  0.6666555  0.9999730  0.4999895  )
        12           Pb  tau(  12) = (  0.9999951  0.3333010  1.0000042  )
        13           Pb  tau(  13) = (  0.9999918  0.3333079  0.5000042  )
        14           Pb  tau(  14) = (  0.9999933  0.6666328  0.9999990  )
        15           Pb  tau(  15) = (  0.9999899  0.6666397  0.4999990  )
        16           Pb  tau(  16) = (  0.9999914  0.9999646  0.9999937  )
        17           Pb  tau(  17) = (  0.9999881  0.9999715  0.4999937  )
        18           I   tau(  18) = (  0.2222187  0.1110899  0.3715680  )
        19           I   tau(  19) = (  0.2222221  0.1110829  0.8715680  )
        20           I   tau(  20) = (  0.2222169  0.4444217  0.3715628  )
        21           I   tau(  21) = (  0.2222202  0.4444147  0.8715628  )
        22           I   tau(  22) = (  0.2222150  0.7777534  0.3715575  )
        23           I   tau(  23) = (  0.2222183  0.7777465  0.8715575  )
        24           I   tau(  24) = (  0.5555513  0.1110884  0.3715722  )
        25           I   tau(  25) = (  0.5555547  0.1110814  0.8715722  )
        26           I   tau(  26) = (  0.5555495  0.4444202  0.3715669  )
        27           I   tau(  27) = (  0.5555528  0.4444132  0.8715669  )
        28           I   tau(  28) = (  0.5555476  0.7777520  0.3715617  )
[...]
     atom   38 type  2   force =     0.00031918   -0.00006027    0.00531690
     atom   39 type  2   force =    -0.00013601    0.00023275    0.00515328
     atom   40 type  2   force =     0.00018194    0.00009619    0.00532314
     atom   41 type  2   force =     0.00009468   -0.00025343    0.00513088
     atom   42 type  2   force =    -0.00084560    0.00028013    0.00452604
     atom   43 type  2   force =     0.00000945   -0.00006631    0.00512440
     atom   44 type  2   force =    -0.00003948   -0.00088213    0.00456255
     atom   45 type  2   force =    -0.00012807    0.00003760    0.00510171
     atom   46 type  2   force =     0.00037906    0.00007918    0.00561637
     atom   47 type  2   force =    -0.00018424   -0.00021249    0.00510699
     atom   48 type  2   force =     0.00016362   -0.00020944    0.00561432
     atom   49 type  2   force =    -0.00010050   -0.00005154    0.00512206
     atom   50 type  2   force =    -0.00008506   -0.00007791    0.00534695
     atom   51 type  2   force =     0.00001910    0.00017186    0.00511452
     atom   52 type  2   force =    -0.00028676    0.00012841    0.00559037
     atom   53 type  2   force =    -0.00001944   -0.00021146    0.00509710
     atom   54 type  2   force =    -0.00009353   -0.00015876    0.00000028
     The Hubbard contrib.    to forces
     atom    1 type  1   force =     0.00000000    0.00000000    0.00000000
     atom    2 type  1   force =     0.00000000    0.00000000    0.00000000
     atom    3 type  1   force =     0.00000000    0.00000000    0.00000000
     atom    4 type  1   force =     0.00000000    0.00000000    0.00000000
     atom    5 type  1   force =     0.00000000    0.00000000    0.00000000
     atom    6 type  1   force =     0.00000000    0.00000000    0.00000000
     atom    7 type  1   force =     0.00000000    0.00000000    0.00000000
     atom    8 type  1   force =     0.00000000    0.00000000    0.00000000
     atom    9 type  1   force =     0.00000000    0.00000000    0.00000000
     atom   10 type  1   force =     0.00000000    0.00000000    0.00000000
     atom   11 type  1   force =     0.00000000    0.00000000    0.00000000
     atom   12 type  1   force =     0.00000000    0.00000000    0.00000000
     atom   13 type  1   force =     0.00000000    0.00000000    0.00000000
     atom   14 type  1   force =     0.00000000    0.00000000    0.00000000
     atom   15 type  1   force =     0.00000000    0.00000000    0.00000000
     atom   16 type  1   force =     0.00000000    0.00000000    0.00000000
     atom   17 type  1   force =     0.00000000    0.00000000    0.00000000
     atom   18 type  2   force =     0.00000000    0.00000000    0.00000000
     atom   19 type  2   force =     0.00000000    0.00000000    0.00000000
     atom   20 type  2   force =     0.00000000    0.00000000    0.00000000
     atom   21 type  2   force =     0.00000000    0.00000000    0.00000000
     atom   22 type  2   force =     0.00000000    0.00000000    0.00000000
     atom   23 type  2   force =     0.00000000    0.00000000    0.00000000
     atom   24 type  2   force =     0.00000000    0.00000000    0.00000000
     atom   25 type  2   force =     0.00000000    0.00000000    0.00000000
     atom   26 type  2   force =     0.00000000    0.00000000    0.00000000
     atom   27 type  2   force =     0.00000000    0.00000000    0.00000000
     atom   28 type  2   force =     0.00000000    0.00000000    0.00000000
     atom   29 type  2   force =     0.00000000    0.00000000    0.00000000
     atom   30 type  2   force =     0.00000000    0.00000000    0.00000000
     atom   31 type  2   force =     0.00000000    0.00000000    0.00000000
     atom   32 type  2   force =     0.00000000    0.00000000    0.00000000
     atom   33 type  2   force =     0.00000000    0.00000000    0.00000000
     atom   34 type  2   force =     0.00000000    0.00000000    0.00000000
     atom   35 type  2   force =     0.00000000    0.00000000    0.00000000
     atom   36 type  2   force =     0.00000000    0.00000000    0.00000000
     atom   37 type  2   force =     0.00000000    0.00000000    0.00000000
     atom   38 type  2   force =     0.00000000    0.00000000    0.00000000
     atom   39 type  2   force =     0.00000000    0.00000000    0.00000000
     atom   40 type  2   force =     0.00000000    0.00000000    0.00000000
     atom   41 type  2   force =     0.00000000    0.00000000    0.00000000
     atom   42 type  2   force =     0.00000000    0.00000000    0.00000000
     atom   43 type  2   force =     0.00000000    0.00000000    0.00000000
     atom   44 type  2   force =     0.00000000    0.00000000    0.00000000
     atom   45 type  2   force =     0.00000000    0.00000000    0.00000000
     atom   46 type  2   force =     0.00000000    0.00000000    0.00000000
     atom   47 type  2   force =     0.00000000    0.00000000    0.00000000
     atom   48 type  2   force =     0.00000000    0.00000000    0.00000000
     atom   49 type  2   force =     0.00000000    0.00000000    0.00000000
     atom   50 type  2   force =     0.00000000    0.00000000    0.00000000
     atom   51 type  2   force =     0.00000000    0.00000000    0.00000000
     atom   52 type  2   force =     0.00000000    0.00000000    0.00000000
     atom   53 type  2   force =     0.00000000    0.00000000    0.00000000
     atom   54 type  2   force =     0.00000000    0.00000000    0.00000000
     The SCF correction term to forces
     atom    1 type  1   force =     0.00000142    0.00000254    0.00000145
     atom    2 type  1   force =     0.00001027   -0.00000395   -0.00000183
     atom    3 type  1   force =     0.00000775   -0.00000369    0.00000384
     atom    4 type  1   force =     0.00000049    0.00000351    0.00000447
     atom    5 type  1   force =    -0.00000371    0.00000476    0.00000066
     atom    6 type  1   force =    -0.00000654    0.00000501   -0.00000033
     atom    7 type  1   force =    -0.00000661    0.00000422   -0.00000029
     atom    8 type  1   force =    -0.00000082    0.00000103   -0.00000010
     atom    9 type  1   force =    -0.00000058   -0.00000049    0.00000128
     atom   10 type  1   force =     0.00000587   -0.00000702   -0.00000409
     atom   11 type  1   force =     0.00000523   -0.00000501   -0.00000329
     atom   12 type  1   force =     0.00000195    0.00000102   -0.00000857
     atom   13 type  1   force =     0.00000545   -0.00000212    0.00000330
     atom   14 type  1   force =    -0.00000923    0.00000085   -0.00000011
     atom   15 type  1   force =    -0.00000741    0.00000125    0.00000751
     atom   16 type  1   force =    -0.00000596   -0.00000967   -0.00000279
     atom   17 type  1   force =    -0.00000129   -0.00000108    0.00000231
     atom   18 type  2   force =    -0.00000228   -0.00000154   -0.00000090
     atom   19 type  2   force =    -0.00000579    0.00000733   -0.00000310
     atom   20 type  2   force =     0.00000655    0.00000026    0.00000253
     atom   21 type  2   force =     0.00001042   -0.00000087   -0.00000368
     atom   22 type  2   force =    -0.00000255    0.00000256    0.00000128
     atom   23 type  2   force =     0.00000177   -0.00000497   -0.00000536
     atom   24 type  2   force =     0.00000097   -0.00000006    0.00000095
     atom   25 type  2   force =     0.00000023    0.00000397   -0.00000377
     atom   26 type  2   force =     0.00000033    0.00000676   -0.00000262
     atom   27 type  2   force =    -0.00000558    0.00000853    0.00000018
     atom   28 type  2   force =     0.00001085    0.00000161    0.00000658
     atom   29 type  2   force =     0.00001106   -0.00001269   -0.00000098
     atom   30 type  2   force =    -0.00000009   -0.00001126    0.00000914
     atom   31 type  2   force =     0.00000664   -0.00000529   -0.00000489
     atom   32 type  2   force =    -0.00000653    0.00000242    0.00000288
     atom   33 type  2   force =    -0.00000253   -0.00000013   -0.00000628
     atom   34 type  2   force =    -0.00000887    0.00000097    0.00000461
     atom   35 type  2   force =    -0.00001332   -0.00000085   -0.00000007
     atom   36 type  2   force =     0.00000845   -0.00000162   -0.00000184
     atom   37 type  2   force =    -0.00000190   -0.00000277    0.00000324
     atom   38 type  2   force =     0.00000362   -0.00000139    0.00000059
     atom   39 type  2   force =    -0.00000111   -0.00000121    0.00000309
     atom   40 type  2   force =    -0.00001013    0.00000480    0.00000182
     atom   41 type  2   force =    -0.00001067   -0.00000599   -0.00000544
     atom   42 type  2   force =    -0.00000560    0.00000962    0.00000111
     atom   43 type  2   force =    -0.00000157    0.00000642   -0.00000041
     atom   44 type  2   force =     0.00001040   -0.00000039   -0.00000136
     atom   45 type  2   force =     0.00000604    0.00000359    0.00000520
     atom   46 type  2   force =     0.00000315   -0.00000130    0.00000320
     atom   47 type  2   force =     0.00000668   -0.00000334    0.00000026
     atom   48 type  2   force =    -0.00000474   -0.00000075    0.00000123
     atom   49 type  2   force =     0.00000391   -0.00000120    0.00000245
     atom   50 type  2   force =    -0.00001775    0.00000196   -0.00000293
     atom   51 type  2   force =    -0.00000372    0.00000893   -0.00000381
     atom   52 type  2   force =     0.00000515   -0.00001054   -0.00000270
     atom   53 type  2   force =     0.00000423   -0.00000624   -0.00000151
     atom   54 type  2   force =     0.00000651    0.00001235   -0.00000168

     Total force =     0.003077     Total SCF correction =     0.000067

     Computing stress (Cartesian axis) and pressure

     Non-local corr. energy    =      26.19285251 Ry

          total   stress  (Ry/bohr**3)                   (kbar)     P=       -5.20
  -0.00003549   0.00000001  -0.00000012           -5.22        0.00       -0.02
   0.00000001  -0.00003543   0.00000010            0.00       -5.21        0.01
  -0.00000012   0.00000010  -0.00003514           -0.02        0.01       -5.17

     kinetic stress (kbar)  14857.95     -0.04      0.03
                               -0.04  14857.93     -0.00
                                0.03     -0.00  14868.58

     local   stress (kbar)  -7455.43     -3.20      3.11
                               -3.20  -7458.40     -1.46
                                3.11     -1.46   1371.69

     nonloc. stress (kbar)   -885.89     -0.02      0.03
                               -0.02   -885.89     -0.00
                                0.03     -0.00   -890.78

     hartree stress (kbar)  12111.00      1.16     -1.18
                                1.16  12112.07      0.55
                               -1.18      0.55   8124.09

     exc-cor stress (kbar)   7013.94      0.01     -0.00
                                0.01   7013.95      0.00
                               -0.00      0.00   7012.99

     corecor stress (kbar) -11401.85     -0.00     -0.00
                               -0.00 -11401.86     -0.00
                               -0.00     -0.00 -11401.80

     ewald   stress (kbar) -14329.25      2.10     -2.01
                                2.10 -14327.32      0.92
                               -2.01      0.92 -19175.49

     hubbard stress (kbar)      0.00      0.00      0.00
                                0.00      0.00      0.00
                                0.00      0.00      0.00

     DFT-D   stress (kbar)      0.00      0.00      0.00
                                0.00      0.00      0.00
                                0.00      0.00      0.00

     XDM     stress (kbar)      0.00      0.00      0.00
                                0.00      0.00      0.00
                                0.00      0.00      0.00

     dft-nl  stress (kbar)     84.31     -0.00      0.00
                               -0.00     84.31     -0.00
                                0.00     -0.00     85.55

     TS-vdW  stress (kbar)      0.00      0.00      0.00
                                0.00      0.00      0.00
                                0.00      0.00      0.00

     MDB     stress (kbar)      0.00      0.00      0.00
                                0.00      0.00      0.00
                                0.00      0.00      0.00

     3D-RISM stress (kbar)      0.00      0.00      0.00
                                0.00      0.00      0.00
                                0.00      0.00      0.00

     Energy error            =      5.0E-05 Ry
     Gradient error          =      8.5E-04 Ry/Bohr

     bfgs converged in  16 scf cycles and  15 bfgs steps
     (criteria: energy <  1.0E-04 Ry, force <  1.0E-03 Ry/Bohr)

     End of BFGS Geometry Optimization

     Final energy             =  -36092.6803483786 Ry

     File ./PbI2.bfgs deleted, as requested
Begin final coordinates

ATOMIC_POSITIONS (angstrom)
Pb            2.3571964630        4.0823530069        7.3776391427
Pb           -0.0176308517        8.1919432018       14.7523517370
Pb            0.0029174131        8.1566083216        7.3748585742
Pb           -2.3347722844       12.2087810433       14.7555332888
Pb           -2.3556531981       12.2448657724        7.3769259870
Pb            7.1037067023        4.0803932575       14.7586116502
Pb            7.0627142186        4.0806784028        7.3803596849
Pb            4.7289165521        8.1903830980       14.7555981968
Pb            4.7085594667        8.1549889730        7.3776451391
Pb            2.3555666947       12.2414082363       14.7160343335
Pb            2.3545212188       12.2404112524        7.3783532057
Pb           11.7408187839        4.0823598935       14.7550489876
Pb           11.7825089779        4.0822156930        7.3782537272
Pb            9.4240776507        8.1605057335       14.7947188281
Pb            9.4235862243        8.1590621437        7.3768133621
Pb            7.0486308441       12.2077764376       14.7552112160
Pb            7.0699091597       12.2449804880        7.3776017729
I             2.3592061736        1.3586835208        5.4980876726
I             2.3537764912        1.3077050231       12.8151836118
I            -0.0046755010        5.4397669502        5.4957977862
I            -0.0446837833        5.4583537845       12.8137433605
I            -2.3738911991        9.5094900739        5.5001151437
I            -2.3415652672        9.5335369050       12.8647845825
I             7.0591103714        1.3715822276        5.4674567481
I             7.0722338925        1.3640908461       12.8799547171
I             4.7196196790        5.4392496581        5.4965531240
I             4.7487521214        5.4566939546       12.8161827692
I             2.3601161066        9.5072521979        5.4670145438
I             2.3585053783        9.5275719812       12.8786066319
I            11.7861743000        1.3683439369        5.4702558050
I            11.7706044542        1.3607283873       12.8805182317
I             9.4190470808        5.4527132089        5.5016959894
I             9.4176422226        5.4263581103       12.8657849853
I             7.0806204609        9.5080033185        5.5028363996
I             7.0528959502        9.5262806015       12.8672132513
I            -0.0434839609        2.6924474543        1.9398402232
I            -0.0026897520        2.7222680302        9.2570906995
I            -2.3544426184        6.8065538898        1.8754212435
I            -2.3415085610        6.7989930231        9.2877722940
I            -4.7064016833       10.8737365681        1.8748680456
I            -4.7076160982       10.8908896664        9.2849369562
I             4.7497386547        2.6902172137        1.9416537165
I             4.7137296553        2.7155367404        9.2594446385
I             2.3515861630        6.8415006608        1.9395872858
I             2.3509724166        6.8067834870        9.2586787386
I            -0.0091285318       10.8689626589        1.8895297536
I             0.0129719496       10.8833671626        9.2534363313
I             9.4275805828        2.7387012798        1.8905182100
I             9.4227111535        2.6987190751        9.2550793450
I             7.0726194874        6.8060477961        1.8768035451
I             7.0539729167        6.7972919016        9.2883272342
I             4.7242565456       10.8710360743        1.8881115333
I             4.6941322390       10.8858883107        9.2523577455
I             2.3531844650        4.0754408987       14.7554550559
End final coordinates

     Writing all to output data dir ./PbI2.save/

     General routines

     Parallel routines

     PAW routines

   This run was terminated on:  18: 7:46  10Feb2024

   JOB DONE.