     Program PWSCF v.7.1 starts on 16Feb2024 at  8:46:32

     Reading input from espresso.pwi
Warning: card &CELL ignored
Warning: card    CELL_DYNAMICS    = 'BFGS' ignored
Warning: card / ignored

     Current dimensions of program PWSCF are:
     Max number of different atomic species (ntypx) = 10
     Max number of k-points (npk) =  40000
     Max angular momentum in pseudopotentials (lmaxx) =  4
     file Pb.pbe-dn-kjpaw_psl.1.0.0.UPF: wavefunction(s)  6S 6P 5D renormalized
     file I.pbe-dn-kjpaw_psl.1.0.0.UPF: wavefunction(s)  5S 5P renormalized

     IMPORTANT: XC functional enforced from input :
     Exchange-correlation= BEEF-VDW
                           (   1   4  43  14   2   0   0)
     Any further DFT definition will be discarded
     Please, verify this is what you really want

     R & G space division:  proc/nbgrp/npool/nimage =     256
     wavefunctions fft division:  task group distribution
                                  #TG    x Z-proc =       8     32
     Subspace diagonalization in iterative solution of the eigenvalue problem:
     a serial algorithm will be used

     Using Pencil Decomposition

     bravais-lattice index     =            4
     lattice parameter (alat)  =      35.6120  a.u.
     unit-cell volume          =   45937.3577 (a.u.)^3
     number of atoms/cell      =          143
     number of atomic types    =            2
     number of electrons       =      2290.00
     number of Kohn-Sham states=         1374
     kinetic-energy cutoff     =      70.0000  Ry
     charge density cutoff     =     350.0000  Ry
     scf convergence threshold =      1.0E-07
     mixing beta               =       0.7000
     number of iterations used =            8  plain     mixing
     energy convergence thresh.=      1.0E-04
     force convergence thresh. =      1.0E-03
     Exchange-correlation= BEEF-VDW
                           (   1   4  43  14   2   0   0)
     nstep                     =           50

     celldm(1)=  35.612033  celldm(2)=   0.000000  celldm(3)=   1.174479
     celldm(4)=   0.000000  celldm(5)=   0.000000  celldm(6)=   0.000000

     crystal axes: (cart. coord. in units of alat)
               a(1) = (   1.000000   0.000000   0.000000 )
               a(2) = (  -0.500000   0.866025   0.000000 )
               a(3) = (   0.000000   0.000000   1.174479 )

     reciprocal axes: (cart. coord. in units 2 pi/alat)
               b(1) = (  1.000000  0.577350 -0.000000 )
               b(2) = (  0.000000  1.154701  0.000000 )
               b(3) = (  0.000000 -0.000000  0.851442 )

     PseudoPot. # 1 for Pb read from file:
     //group///packages/espresso/pseudo/psl_1.0.0/pslibrary.1.0.0/pbe/PSEUDOPOTENTIALS/Pb.pbe-dn-kjpaw_psl.1.0.0.UPF
     MD5 check sum: 39ab5b8a6bbd56b7735ad9f188aac93a
     Pseudo is Projector augmented-wave + core cor, Zval = 14.0
     Generated using 'atomic' code by A. Dal Corso  v.7.1
     Shape of augmentation charge: PSQ
     Using radial grid of 1281 points,  6 beta functions with:
                l(1) =   0
                l(2) =   0
                l(3) =   1
                l(4) =   1
                l(5) =   2
                l(6) =   2
     Q(r) pseudized with 0 coefficients

     PseudoPot. # 2 for I  read from file:
     //group///packages/espresso/pseudo/psl_1.0.0/pslibrary.1.0.0/pbe/PSEUDOPOTENTIALS/I.pbe-dn-kjpaw_psl.1.0.0.UPF
     MD5 check sum: bfa8781bc1224d19af3f3980e3fab11e
     Pseudo is Projector augmented-wave + core cor, Zval = 17.0
     Generated using 'atomic' code by A. Dal Corso  v.7.1
     Shape of augmentation charge: PSQ
     Using radial grid of 1247 points,  6 beta functions with:
                l(1) =   0
                l(2) =   0
                l(3) =   1
                l(4) =   1
                l(5) =   2
                l(6) =   2
     Q(r) pseudized with 0 coefficients

     atomic species   valence    mass     pseudopotential
        Pb            14.00   207.20000     Pb( 1.00)
        I             17.00   126.90447     I ( 1.00)

     No symmetry found

                                    s                        frac. trans.

      isym =  1     identity

 cryst.   s( 1) = (     1          0          0      )
                  (     0          1          0      )
                  (     0          0          1      )

 cart.    s( 1) = (  1.0000000  0.0000000  0.0000000 )
                  (  0.0000000  1.0000000  0.0000000 )
                  (  0.0000000  0.0000000  1.0000000 )

     point group C_1 (1)
     there are  1 classes
     the character table:

       E
A      1.00

     the symmetry operations in each class and the name of the first element:

     E        1
          identity

   Cartesian axes

     site n.     atom                  positions (alat units)
         1           Pb  tau(   1) = (   0.1250034   0.2164918   0.3914896  )
         2           Pb  tau(   2) = (   0.1250085   0.2164873   0.7829825  )
         3           Pb  tau(   3) = (   0.0000128   0.4329881   1.1744712  )
         4           Pb  tau(   4) = (   0.0000026   0.4329971   0.3914855  )
         5           Pb  tau(   5) = (   0.0000077   0.4329926   0.7829784  )
         6           Pb  tau(   6) = (  -0.1249881   0.6494934   1.1744671  )
         7           Pb  tau(   7) = (  -0.1249983   0.6495025   0.3914814  )
         8           Pb  tau(   8) = (  -0.1249932   0.6494980   0.7829742  )
         9           Pb  tau(   9) = (  -0.2499889   0.8659988   1.1744630  )
        10           Pb  tau(  10) = (  -0.2499991   0.8660078   0.3914773  )
        11           Pb  tau(  11) = (  -0.2499940   0.8660033   0.7829701  )
        12           Pb  tau(  12) = (   0.3750136   0.2164818   1.1744786  )
        13           Pb  tau(  13) = (   0.3750034   0.2164908   0.3914929  )
        14           Pb  tau(  14) = (   0.3750085   0.2164863   0.7829857  )
        15           Pb  tau(  15) = (   0.2500128   0.4329871   1.1744745  )
        16           Pb  tau(  16) = (   0.2500026   0.4329962   0.3914888  )
        17           Pb  tau(  17) = (   0.2500077   0.4329916   0.7829816  )
        18           Pb  tau(  18) = (   0.1250119   0.6494925   1.1744703  )
        19           Pb  tau(  19) = (   0.1250017   0.6495015   0.3914847  )
        20           Pb  tau(  20) = (   0.1250068   0.6494970   0.7829775  )
        21           Pb  tau(  21) = (   0.0000111   0.8659978   1.1744662  )
        22           Pb  tau(  22) = (   0.0000009   0.8660069   0.3914805  )
        23           Pb  tau(  23) = (   0.0000060   0.8660024   0.7829734  )
        24           Pb  tau(  24) = (   0.6250136   0.2164808   1.1744818  )
        25           Pb  tau(  25) = (   0.6250034   0.2164898   0.3914962  )
        26           Pb  tau(  26) = (   0.6250085   0.2164853   0.7829890  )
        27           Pb  tau(  27) = (   0.5000128   0.4329862   1.1744777  )
        28           Pb  tau(  28) = (   0.5000026   0.4329952   0.3914920  )
        29           Pb  tau(  29) = (   0.5000077   0.4329907   0.7829849  )
        30           Pb  tau(  30) = (   0.3750119   0.6494915   1.1744736  )
        31           Pb  tau(  31) = (   0.3750017   0.6495006   0.3914879  )
        32           Pb  tau(  32) = (   0.3750068   0.6494960   0.7829808  )
        33           Pb  tau(  33) = (   0.2500111   0.8659969   1.1744695  )
        34           Pb  tau(  34) = (   0.2500009   0.8660059   0.3914838  )
        35           Pb  tau(  35) = (   0.2500060   0.8660014   0.7829766  )
        36           Pb  tau(  36) = (   0.8750136   0.2164798   1.1744851  )
        37           Pb  tau(  37) = (   0.8750034   0.2164889   0.3914994  )
        38           Pb  tau(  38) = (   0.8750085   0.2164844   0.7829923  )
        39           Pb  tau(  39) = (   0.7500128   0.4329852   1.1744810  )
        40           Pb  tau(  40) = (   0.7500026   0.4329942   0.3914953  )
        41           Pb  tau(  41) = (   0.7500077   0.4329897   0.7829881  )
        42           Pb  tau(  42) = (   0.6250119   0.6494906   1.1744769  )
        43           Pb  tau(  43) = (   0.6250017   0.6494996   0.3914912  )
        44           Pb  tau(  44) = (   0.6250068   0.6494951   0.7829840  )
        45           Pb  tau(  45) = (   0.5000111   0.8659959   1.1744727  )
        46           Pb  tau(  46) = (   0.5000009   0.8660050   0.3914870  )
        47           Pb  tau(  47) = (   0.5000060   0.8660004   0.7829799  )
        48           I   tau(  48) = (   0.1250054   0.0721550   0.2909325  )
        49           I   tau(  49) = (   0.1250105   0.0721505   0.6824253  )
        50           I   tau(  50) = (   0.1250156   0.0721459   1.0739182  )
        51           I   tau(  51) = (   0.0000045   0.2886603   0.2909283  )
        52           I   tau(  52) = (   0.0000096   0.2886558   0.6824212  )
        53           I   tau(  53) = (   0.0000147   0.2886513   1.0739140  )
        54           I   tau(  54) = (  -0.1249963   0.5051657   0.2909242  )
        55           I   tau(  55) = (  -0.1249912   0.5051612   0.6824171  )
        56           I   tau(  56) = (  -0.1249861   0.5051566   1.0739099  )
        57           I   tau(  57) = (  -0.2499971   0.7216710   0.2909201  )
        58           I   tau(  58) = (  -0.2499920   0.7216665   0.6824129  )
        59           I   tau(  59) = (  -0.2499869   0.7216620   1.0739058  )
        60           I   tau(  60) = (   0.3750054   0.0721540   0.2909357  )
[...]
       129           I   tau( 129) = (   0.1249958   0.7938439   0.1005496  )
       130           I   tau( 130) = (   0.1250009   0.7938394   0.4920425  )
       131           I   tau( 131) = (   0.1250060   0.7938348   0.8835353  )
       132           I   tau( 132) = (   0.7499983   0.1443268   0.1005653  )
       133           I   tau( 133) = (   0.7500034   0.1443223   0.4920581  )
       134           I   tau( 134) = (   0.7500085   0.1443178   0.8835509  )
       135           I   tau( 135) = (   0.6249975   0.3608322   0.1005611  )
       136           I   tau( 136) = (   0.6250026   0.3608277   0.4920540  )
       137           I   tau( 137) = (   0.6250077   0.3608232   0.8835468  )
       138           I   tau( 138) = (   0.4999966   0.5773376   0.1005570  )
       139           I   tau( 139) = (   0.5000017   0.5773330   0.4920499  )
       140           I   tau( 140) = (   0.5000068   0.5773285   0.8835427  )
       141           I   tau( 141) = (   0.3749958   0.7938429   0.1005529  )
       142           I   tau( 142) = (   0.3750009   0.7938384   0.4920457  )
       143           I   tau( 143) = (   0.3750060   0.7938339   0.8835386  )

   Crystallographic axes

     site n.     atom                  positions (cryst. coord.)
         1           Pb  tau(   1) = (  0.2499950  0.2499832  0.3333306  )
         2           Pb  tau(   2) = (  0.2499975  0.2499780  0.6666639  )
         3           Pb  tau(   3) = (  0.2499986  0.4999716  0.9999938  )
         4           Pb  tau(   4) = (  0.2499936  0.4999820  0.3333271  )
         5           Pb  tau(   5) = (  0.2499961  0.4999768  0.6666604  )
         6           Pb  tau(   6) = (  0.2499972  0.7499704  0.9999902  )
[...]
     atom   44 type  1   force =     0.00000000    0.00000000    0.00000000
     atom   45 type  1   force =     0.00000000    0.00000000    0.00000000
     atom   46 type  1   force =     0.00000000    0.00000000    0.00000000
     atom   47 type  1   force =     0.00000000    0.00000000    0.00000000
     atom   48 type  2   force =     0.00000000    0.00000000    0.00000000
     atom   49 type  2   force =     0.00000000    0.00000000    0.00000000
     atom   50 type  2   force =     0.00000000    0.00000000    0.00000000
     atom   51 type  2   force =     0.00000000    0.00000000    0.00000000
     atom   52 type  2   force =     0.00000000    0.00000000    0.00000000
     atom   53 type  2   force =     0.00000000    0.00000000    0.00000000
     atom   54 type  2   force =     0.00000000    0.00000000    0.00000000
     atom   55 type  2   force =     0.00000000    0.00000000    0.00000000
     atom   56 type  2   force =     0.00000000    0.00000000    0.00000000
     atom   57 type  2   force =     0.00000000    0.00000000    0.00000000
     atom   58 type  2   force =     0.00000000    0.00000000    0.00000000
     atom   59 type  2   force =     0.00000000    0.00000000    0.00000000
     atom   60 type  2   force =     0.00000000    0.00000000    0.00000000
[...]
     atom  129 type  2   force =     0.00000000    0.00000000    0.00000000
     atom  130 type  2   force =     0.00000000    0.00000000    0.00000000
     atom  131 type  2   force =     0.00000000    0.00000000    0.00000000
     atom  132 type  2   force =     0.00000000    0.00000000    0.00000000
     atom  133 type  2   force =     0.00000000    0.00000000    0.00000000
     atom  134 type  2   force =     0.00000000    0.00000000    0.00000000
     atom  135 type  2   force =     0.00000000    0.00000000    0.00000000
     atom  136 type  2   force =     0.00000000    0.00000000    0.00000000
     atom  137 type  2   force =     0.00000000    0.00000000    0.00000000
     atom  138 type  2   force =     0.00000000    0.00000000    0.00000000
     atom  139 type  2   force =     0.00000000    0.00000000    0.00000000
     atom  140 type  2   force =     0.00000000    0.00000000    0.00000000
     atom  141 type  2   force =     0.00000000    0.00000000    0.00000000
     atom  142 type  2   force =     0.00000000    0.00000000    0.00000000
     atom  143 type  2   force =     0.00000000    0.00000000    0.00000000
     The SCF correction term to forces
     atom    1 type  1   force =    -0.00000228    0.00000258   -0.00000705
     atom    2 type  1   force =    -0.00000212    0.00000369    0.00000591
     atom    3 type  1   force =     0.00000126   -0.00000983   -0.00000201
     atom    4 type  1   force =     0.00000064   -0.00000696   -0.00000693
     atom    5 type  1   force =     0.00000241   -0.00000359    0.00000876
     atom    6 type  1   force =     0.00000189   -0.00001330   -0.00000302
     atom    7 type  1   force =    -0.00000331   -0.00000531   -0.00000347
     atom    8 type  1   force =     0.00000271   -0.00000244    0.00000625
     atom    9 type  1   force =    -0.00000129   -0.00000071    0.00000102
     atom   10 type  1   force =    -0.00000596    0.00000333   -0.00000142
     atom   11 type  1   force =    -0.00000087    0.00000354    0.00000199
     atom   12 type  1   force =    -0.00000286    0.00000986   -0.00000213
     atom   13 type  1   force =    -0.00000611    0.00000457   -0.00000214
     atom   14 type  1   force =    -0.00000409    0.00000117    0.00000372
     atom   15 type  1   force =    -0.00001032   -0.00000273    0.00000024
     atom   16 type  1   force =    -0.00000270   -0.00000586   -0.00000518
     atom   17 type  1   force =    -0.00000458   -0.00000223    0.00000654
     atom   18 type  1   force =    -0.00000124   -0.00001173   -0.00001062
     atom   19 type  1   force =    -0.00000022   -0.00000784   -0.00000383
     atom   20 type  1   force =    -0.00000020   -0.00000445    0.00000688
     atom   21 type  1   force =     0.00000248   -0.00000142   -0.00001053
     atom   22 type  1   force =    -0.00000347    0.00000188   -0.00000126
     atom   23 type  1   force =    -0.00000052    0.00000008    0.00000439
     atom   24 type  1   force =     0.00000720    0.00000693   -0.00000309
     atom   25 type  1   force =     0.00000193    0.00000603   -0.00000307
     atom   26 type  1   force =     0.00000183   -0.00000027    0.00000598
     atom   27 type  1   force =     0.00000005    0.00000106    0.00000415
     atom   28 type  1   force =    -0.00000097   -0.00000054   -0.00000380
     atom   29 type  1   force =    -0.00000233   -0.00000114    0.00000656
     atom   30 type  1   force =    -0.00000077   -0.00000563   -0.00000330
     atom   31 type  1   force =     0.00000339   -0.00000311   -0.00000311
     atom   32 type  1   force =    -0.00000261   -0.00000037    0.00000601
     atom   33 type  1   force =     0.00000409    0.00000393   -0.00001006
     atom   34 type  1   force =     0.00000551    0.00000330   -0.00000282
     atom   35 type  1   force =     0.00000210    0.00000121    0.00000560
     atom   36 type  1   force =     0.00000781    0.00001081   -0.00000208
     atom   37 type  1   force =     0.00000644    0.00000428   -0.00000603
     atom   38 type  1   force =     0.00000438    0.00000174    0.00000731
     atom   39 type  1   force =     0.00000798   -0.00000352    0.00000371
     atom   40 type  1   force =     0.00000295   -0.00000151   -0.00000538
     atom   41 type  1   force =     0.00000449   -0.00000230    0.00000829
     atom   42 type  1   force =     0.00000011   -0.00000714    0.00000519
     atom   43 type  1   force =     0.00000013   -0.00000003   -0.00000326
     atom   44 type  1   force =     0.00000006    0.00000060    0.00000532
     atom   45 type  1   force =    -0.00000608    0.00000746    0.00000344
     atom   46 type  1   force =     0.00000391    0.00000499   -0.00000359
     atom   47 type  1   force =    -0.00000078    0.00000472    0.00000330
     atom   48 type  2   force =    -0.00000460    0.00000788    0.00000010
     atom   49 type  2   force =    -0.00000105    0.00000435    0.00000212
     atom   50 type  2   force =    -0.00000822    0.00000859    0.00000199
     atom   51 type  2   force =     0.00000292    0.00000104   -0.00000851
     atom   52 type  2   force =     0.00000170    0.00000043    0.00000529
     atom   53 type  2   force =    -0.00000488    0.00001059    0.00000946
     atom   54 type  2   force =     0.00000052   -0.00000820   -0.00000663
     atom   55 type  2   force =     0.00000410   -0.00000368    0.00000568
     atom   56 type  2   force =     0.00001081   -0.00001088    0.00000597
     atom   57 type  2   force =    -0.00000435   -0.00000370   -0.00000045
     atom   58 type  2   force =     0.00000044    0.00000183    0.00000313
     atom   59 type  2   force =     0.00000409   -0.00000648    0.00000044
     atom   60 type  2   force =    -0.00000760    0.00000561    0.00000242
[...]
     atom  129 type  2   force =     0.00000250   -0.00000434   -0.00000858
     atom  130 type  2   force =     0.00000054   -0.00000091    0.00000157
     atom  131 type  2   force =     0.00000124   -0.00000256    0.00000493
     atom  132 type  2   force =     0.00001246    0.00001412   -0.00000658
     atom  133 type  2   force =     0.00000556    0.00000555   -0.00000155
     atom  134 type  2   force =     0.00000413    0.00000249    0.00000487
     atom  135 type  2   force =     0.00000604    0.00000497   -0.00000141
     atom  136 type  2   force =     0.00000121    0.00000127   -0.00000603
     atom  137 type  2   force =     0.00000342   -0.00000182    0.00000459
     atom  138 type  2   force =     0.00000185   -0.00000521   -0.00000055
     atom  139 type  2   force =     0.00000063   -0.00000112   -0.00000562
     atom  140 type  2   force =    -0.00000337   -0.00000142    0.00000307
     atom  141 type  2   force =     0.00000791    0.00000243   -0.00000449
     atom  142 type  2   force =     0.00000560    0.00000185   -0.00000107
     atom  143 type  2   force =    -0.00000233    0.00000157    0.00000255

     Total force =     0.005595     Total SCF correction =     0.000107

     Computing stress (Cartesian axis) and pressure

     Non-local corr. energy    =      68.79607135 Ry

          total   stress  (Ry/bohr**3)                   (kbar)     P=        1.08
   0.00000595   0.00000000  -0.00000000            0.88        0.00       -0.00
   0.00000000   0.00000595   0.00000000            0.00        0.88        0.00
  -0.00000000   0.00000000   0.00001009           -0.00        0.00        1.48

     kinetic stress (kbar)  14853.83      0.00     -0.00
                                0.00  14853.83      0.00
                               -0.00      0.00  14865.34

     local   stress (kbar)  -7517.85     -0.03      0.01
                               -0.03  -7517.91     -0.01
                                0.01     -0.01   1272.85

     nonloc. stress (kbar)  -1017.53      0.00     -0.00
                                0.00  -1017.53      0.00
                               -0.00      0.00  -1022.79

     hartree stress (kbar)  12004.60      0.01     -0.00
                                0.01  12004.62      0.00
                               -0.00      0.00   8042.51

     exc-cor stress (kbar)   6914.70      0.00     -0.00
                                0.00   6914.70      0.00
                               -0.00      0.00   6913.60

     corecor stress (kbar) -11254.43     -0.00      0.00
                               -0.00 -11254.43     -0.00
                                0.00     -0.00 -11254.36

     ewald   stress (kbar) -14065.43      0.02     -0.01
                                0.02 -14065.40      0.01
                               -0.01      0.01 -18899.95

     hubbard stress (kbar)      0.00      0.00      0.00
                                0.00      0.00      0.00
                                0.00      0.00      0.00

     DFT-D   stress (kbar)      0.00      0.00      0.00
                                0.00      0.00      0.00
                                0.00      0.00      0.00

     XDM     stress (kbar)      0.00      0.00      0.00
                                0.00      0.00      0.00
                                0.00      0.00      0.00

     dft-nl  stress (kbar)     83.00     -0.00      0.00
                               -0.00     83.00     -0.00
                                0.00     -0.00     84.29

     TS-vdW  stress (kbar)      0.00      0.00      0.00
                                0.00      0.00      0.00
                                0.00      0.00      0.00

     MDB     stress (kbar)      0.00      0.00      0.00
                                0.00      0.00      0.00
                                0.00      0.00      0.00

     3D-RISM stress (kbar)      0.00      0.00      0.00
                                0.00      0.00      0.00
                                0.00      0.00      0.00

     Energy error            =      3.9E-05 Ry
     Gradient error          =      9.0E-04 Ry/Bohr

     bfgs converged in  13 scf cycles and  12 bfgs steps
     (criteria: energy <  1.0E-04 Ry, force <  1.0E-03 Ry/Bohr)

     End of BFGS Geometry Optimization

     Final energy             =  -96237.8187216896 Ry

     File ./PbI2.bfgs deleted, as requested
Begin final coordinates

ATOMIC_POSITIONS (angstrom)
Pb            2.3557124929        4.0797369198        7.3738539293
Pb            2.3558019089        4.0796455864       14.7591944548
Pb            0.0640806650        8.0489926496       22.1329697072
Pb            0.0013317499        8.1602168274        7.3743908966
Pb           -0.0008300067        8.1588367958       14.7585073972
Pb           -2.3554835739       12.2398012346       22.1328998046
Pb           -2.3542506295       12.2406385806        7.3767475504
Pb           -2.3568330343       12.2390406819       14.7560377279
Pb           -4.7750224972       16.4306002834       22.1329333084
Pb           -4.7102265913       16.3208599761        7.3743420820
Pb           -4.7124003870       16.3194683006       14.7584745526
Pb            6.9392396351        4.0796179511       22.1331023838
Pb            7.0667015144        4.0784277235        7.3745202258
Pb            7.0667781081        4.0809355801       14.7586395708
Pb            4.6475189114        8.0489793012       22.1330176256
Pb            4.7100725055        8.1601975987        7.3744395848
Pb            4.7124114902        8.1588177541       14.7585656338
Pb            2.3557966498       12.2248848365       22.1529968439
Pb            2.3556888657       12.2382119921        7.3751501016
Pb            2.3557709864       12.2394848841       14.7560157714
Pb           -0.0127396778       16.3273065185       22.1530100766
Pb           -0.0013696030       16.3207772354        7.3751696439
Pb           -0.0001339515       16.3200129329       14.7560314419
Pb           11.7783600245        4.0796232772       22.1331602018
Pb           11.7782609036        4.0781816561        7.3769912049
Pb           11.7783421471        4.0811745773       14.7562753387
Pb            9.4098207222        8.1522447215       22.1130485893
Pb            9.4223615984        8.1596377912        7.3769974961
Pb            9.4212753960        8.1588875693       14.7578478535
Pb            7.0670769062       12.2397721235       22.1330093139
Pb            7.0656369349       12.2406208601        7.3768550318
Pb            7.0683958376       12.2390100032       14.7561456111
Pb            4.7243445994       16.3272957602       22.1530728994
Pb            4.7127640762       16.3207616229        7.3752166268
Pb            4.7116902061       16.3199980840       14.7560829606
Pb           16.6174804928        4.0796287729       22.1331424737
Pb           16.4898133916        4.0784207289        7.3745546301
Pb           16.4899240330        4.0809379577       14.7586852592
Pb           14.1468883561        8.1522499911       22.1130312238
Pb           14.1341394853        8.1596369728        7.3769925090
Pb           14.1354072822        8.1588971513       14.7578516642
Pb           11.7783431451       12.2546654195       22.1129508462
Pb           11.7782367421       12.2401456468        7.3769305243
Pb           11.7783356887       12.2414518893       14.7577974591
Pb            9.4866306782       16.4305831798       22.1330179994
Pb            9.4216176423       16.3208393492        7.3744340063
Pb            9.4239798703       16.3194509843       14.7585778226
I             2.3556537592        1.3616913556        5.4845562424
I             2.3557347504        1.3604338555       12.8709760454
I             2.3557821151        1.3304939254       20.2894024281
I             0.0017142671        5.4388310245        5.4845939252
I             0.0007358722        5.4393721577       12.8710112330
I            -0.0248433115        5.4540384747       20.2895986328
I            -2.3552431755        9.5196496112        5.4919653343
I            -2.3546358569        9.5198205923       12.8699579705
I            -2.3668346319        9.5269233780       20.2589326222
I            -4.7112295483       13.6003543609        5.4919329878
I            -4.7107141237       13.6006966486       12.8699350383
I            -4.7106426036       13.5865754450       20.2589116381
I             7.0683152586        1.3590225220        5.4919814908
[...]
I             2.3557318204       14.9599224838        1.8791042778
I             2.3556706659       14.9599748223        9.2613179425
I             2.3557074707       14.9599124423       16.6404088166
I            14.1221518888        2.7134472017        1.8740717356
I            14.1343321607        2.7205247952        9.2630412490
I            14.1342637791        2.7198616244       16.6410734407
I            11.7783099168        6.7991514444        1.8849046958
I            11.7782370421        6.7996197887        9.2633568969
I            11.7783005010        6.8004662675       16.6396684411
I             9.4221096457       10.8801983513        1.8848382326
I             9.4223895742       10.8800549260        9.2632675423
I             9.4232846745       10.8795247387       16.6395950953
I             7.0557522564       14.9527779811        1.8740043708
I             7.0678877833       14.9599710482        9.2629575318
I             7.0674069870       14.9600749950       16.6410068816
End final coordinates

     Writing all to output data dir ./PbI2.save/

     General routines

     Parallel routines

     PAW routines

   This run was terminated on:  21:50:10  16Feb2024

   JOB DONE.