     Program PWSCF v.7.1 starts on 23Mar2024 at  8: 5: 8

     Reading input from espresso.pwi
Warning: card &CELL ignored
Warning: card    CELL_DYNAMICS    = 'BFGS' ignored
Warning: card / ignored

     Current dimensions of program PWSCF are:
     Max number of different atomic species (ntypx) = 10
     Max number of k-points (npk) =  40000
     Max angular momentum in pseudopotentials (lmaxx) =  4
     file Pb.pbe-dn-kjpaw_psl.1.0.0.UPF: wavefunction(s)  6S 6P 5D renormalized
     file I.pbe-dn-kjpaw_psl.1.0.0.UPF: wavefunction(s)  5S 5P renormalized

     IMPORTANT: XC functional enforced from input :
     Exchange-correlation= BEEF-VDW
                           (   1   4  43  14   2   0   0)
     Any further DFT definition will be discarded
     Please, verify this is what you really want

     K-points division:     npool     =       2
     R & G space division:  proc/nbgrp/npool/nimage =      45
     Subspace diagonalization in iterative solution of the eigenvalue problem:
     a serial algorithm will be used

     Using Slab Decomposition

     bravais-lattice index     =            4
     lattice parameter (alat)  =      26.7090  a.u.
     unit-cell volume          =   17226.5091 (a.u.)^3
     number of atoms/cell      =           54
     number of atomic types    =            2
     number of electrons       =       859.00
     number of Kohn-Sham states=          516
     kinetic-energy cutoff     =      70.0000  Ry
     charge density cutoff     =     350.0000  Ry
     scf convergence threshold =      1.0E-07
     mixing beta               =       0.7000
     number of iterations used =            8  plain     mixing
     Exchange-correlation= BEEF-VDW
                           (   1   4  43  14   2   0   0)

     celldm(1)=  26.709025  celldm(2)=   0.000000  celldm(3)=   1.043981
     celldm(4)=   0.000000  celldm(5)=   0.000000  celldm(6)=   0.000000

     crystal axes: (cart. coord. in units of alat)
               a(1) = (   1.000000   0.000000   0.000000 )
               a(2) = (  -0.500000   0.866025   0.000000 )
               a(3) = (   0.000000   0.000000   1.043981 )

     reciprocal axes: (cart. coord. in units 2 pi/alat)
               b(1) = (  1.000000  0.577350 -0.000000 )
               b(2) = (  0.000000  1.154701  0.000000 )
               b(3) = (  0.000000 -0.000000  0.957872 )

     PseudoPot. # 1 for Pb read from file:
     /trace/group/acmegroup/atimmins/packages/espresso/pseudo/psl_1.0.0/pslibrary.1.0.0/pbe/PSEUDOPOTENTIALS/Pb.pbe-dn-kjpaw_psl.1.0.0.UPF
     MD5 check sum: 39ab5b8a6bbd56b7735ad9f188aac93a
     Pseudo is Projector augmented-wave + core cor, Zval = 14.0
     Generated using 'atomic' code by A. Dal Corso  v.7.1
     Shape of augmentation charge: PSQ
     Using radial grid of 1281 points,  6 beta functions with:
                l(1) =   0
                l(2) =   0
                l(3) =   1
                l(4) =   1
                l(5) =   2
                l(6) =   2
     Q(r) pseudized with 0 coefficients

     PseudoPot. # 2 for I  read from file:
     /trace/group/acmegroup/atimmins/packages/espresso/pseudo/psl_1.0.0/pslibrary.1.0.0/pbe/PSEUDOPOTENTIALS/I.pbe-dn-kjpaw_psl.1.0.0.UPF
     MD5 check sum: bfa8781bc1224d19af3f3980e3fab11e
     Pseudo is Projector augmented-wave + core cor, Zval = 17.0
     Generated using 'atomic' code by A. Dal Corso  v.7.1
     Shape of augmentation charge: PSQ
     Using radial grid of 1247 points,  6 beta functions with:
                l(1) =   0
                l(2) =   0
                l(3) =   1
                l(4) =   1
                l(5) =   2
                l(6) =   2
     Q(r) pseudized with 0 coefficients

     atomic species   valence    mass     pseudopotential
        Pb            14.00   207.20000     Pb( 1.00)
        I             17.00   126.90447     I ( 1.00)

     No symmetry found

                                    s                        frac. trans.

      isym =  1     identity

 cryst.   s( 1) = (     1          0          0      )
                  (     0          1          0      )
                  (     0          0          1      )

 cart.    s( 1) = (  1.0000000  0.0000000  0.0000000 )
                  (  0.0000000  1.0000000  0.0000000 )
                  (  0.0000000  0.0000000  1.0000000 )

     point group C_1 (1)
     there are  1 classes
     the character table:

       E
A      1.00

     the symmetry operations in each class and the name of the first element:

     E        1
          identity

   Cartesian axes

     site n.     atom                  positions (alat units)
         1           Pb  tau(   1) = (   0.1666780   0.2886497   1.0439767  )
         2           Pb  tau(   2) = (   0.1666712   0.2886557   0.5219862  )
         3           Pb  tau(   3) = (   0.0000102   0.5773235   1.0439712  )
         4           Pb  tau(   4) = (   0.0000034   0.5773295   0.5219807  )
         5           Pb  tau(   5) = (  -0.1666576   0.8659973   1.0439657  )
         6           Pb  tau(   6) = (  -0.1666644   0.8660033   0.5219752  )
         7           Pb  tau(   7) = (   0.5000113   0.2886484   1.0439810  )
         8           Pb  tau(   8) = (   0.5000045   0.2886544   0.5219905  )
         9           Pb  tau(   9) = (   0.3333436   0.5773222   1.0439755  )
        10           Pb  tau(  10) = (   0.3333367   0.5773282   0.5219850  )
        11           Pb  tau(  11) = (   0.1666758   0.8659960   1.0439700  )
        12           Pb  tau(  12) = (   0.1666690   0.8660020   0.5219795  )
        13           Pb  tau(  13) = (   0.8333447   0.2886471   1.0439853  )
        14           Pb  tau(  14) = (   0.8333379   0.2886531   0.5219949  )
        15           Pb  tau(  15) = (   0.6666769   0.5773209   1.0439798  )
        16           Pb  tau(  16) = (   0.6666701   0.5773269   0.5219894  )
        17           Pb  tau(  17) = (   0.5000091   0.8659947   1.0439743  )
        18           Pb  tau(  18) = (   0.5000023   0.8660007   0.5219839  )
        19           I   tau(  19) = (   0.1666806   0.0962006   0.9099004  )
        20           I   tau(  20) = (   0.0000060   0.3848804   0.3879044  )
        21           I   tau(  21) = (   0.0000129   0.3848744   0.9098949  )
        22           I   tau(  22) = (  -0.1666617   0.6735542   0.3878990  )
        23           I   tau(  23) = (  -0.1666549   0.6735482   0.9098894  )
        24           I   tau(  24) = (   0.5000071   0.0962053   0.3879143  )
        25           I   tau(  25) = (   0.5000140   0.0961993   0.9099047  )
        26           I   tau(  26) = (   0.3333394   0.3848792   0.3879088  )
        27           I   tau(  27) = (   0.3333462   0.3848731   0.9098993  )
        28           I   tau(  28) = (   0.1666716   0.6735530   0.3879033  )
        29           I   tau(  29) = (   0.1666784   0.6735469   0.9098938  )
        30           I   tau(  30) = (   0.8333405   0.0962041   0.3879186  )
        31           I   tau(  31) = (   0.8333473   0.0961980   0.9099091  )
        32           I   tau(  32) = (   0.6666727   0.3848779   0.3879131  )
        33           I   tau(  33) = (   0.6666795   0.3848718   0.9099036  )
        34           I   tau(  34) = (   0.5000049   0.6735517   0.3879076  )
        35           I   tau(  35) = (   0.5000117   0.6735457   0.9098981  )
        36           I   tau(  36) = (  -0.0000023   0.1924396   0.1340740  )
        37           I   tau(  37) = (   0.0000045   0.1924336   0.6560644  )
        38           I   tau(  38) = (  -0.1666701   0.4811134   0.1340685  )
        39           I   tau(  39) = (  -0.1666632   0.4811074   0.6560589  )
        40           I   tau(  40) = (  -0.3333378   0.7697873   0.1340630  )
        41           I   tau(  41) = (  -0.3333310   0.7697812   0.6560534  )
        42           I   tau(  42) = (   0.3333311   0.1924384   0.1340783  )
        43           I   tau(  43) = (   0.3333379   0.1924323   0.6560688  )
        44           I   tau(  44) = (   0.1666633   0.4811122   0.1340728  )
        45           I   tau(  45) = (   0.1666701   0.4811061   0.6560633  )
        46           I   tau(  46) = (  -0.0000045   0.7697860   0.1340673  )
        47           I   tau(  47) = (   0.0000023   0.7697799   0.6560578  )
        48           I   tau(  48) = (   0.6666644   0.1924371   0.1340827  )
        49           I   tau(  49) = (   0.6666712   0.1924310   0.6560731  )
        50           I   tau(  50) = (   0.4999966   0.4811109   0.1340772  )
        51           I   tau(  51) = (   0.5000034   0.4811049   0.6560676  )
        52           I   tau(  52) = (   0.3333288   0.7697847   0.1340717  )
        53           I   tau(  53) = (   0.3333356   0.7697787   0.6560621  )
        54           Pb  tau(  54) = (   0.1666738   0.0962066   0.3879099  )

   Crystallographic axes

     site n.     atom                  positions (cryst. coord.)
         1           Pb  tau(   1) = (  0.3333300  0.3333039  0.9999959  )
         2           Pb  tau(   2) = (  0.3333266  0.3333109  0.4999959  )
         3           Pb  tau(   3) = (  0.3333281  0.6666357  0.9999906  )
         4           Pb  tau(   4) = (  0.3333248  0.6666427  0.4999906  )
         5           Pb  tau(   5) = (  0.3333262  0.9999675  0.9999854  )
         6           Pb  tau(   6) = (  0.3333229  0.9999745  0.4999854  )
         7           Pb  tau(   7) = (  0.6666626  0.3333025  1.0000001  )
         8           Pb  tau(   8) = (  0.6666592  0.3333094  0.5000001  )
         9           Pb  tau(   9) = (  0.6666607  0.6666343  0.9999948  )
        10           Pb  tau(  10) = (  0.6666573  0.6666412  0.4999948  )
        11           Pb  tau(  11) = (  0.6666588  0.9999661  0.9999895  )
        12           Pb  tau(  12) = (  0.6666555  0.9999730  0.4999895  )
        13           Pb  tau(  13) = (  0.9999951  0.3333010  1.0000042  )
        14           Pb  tau(  14) = (  0.9999918  0.3333079  0.5000042  )
        15           Pb  tau(  15) = (  0.9999933  0.6666328  0.9999990  )
        16           Pb  tau(  16) = (  0.9999899  0.6666397  0.4999990  )
        17           Pb  tau(  17) = (  0.9999914  0.9999646  0.9999937  )
        18           Pb  tau(  18) = (  0.9999881  0.9999715  0.4999937  )
        19           I   tau(  19) = (  0.2222221  0.1110829  0.8715680  )
        20           I   tau(  20) = (  0.2222169  0.4444217  0.3715628  )
        21           I   tau(  21) = (  0.2222202  0.4444147  0.8715628  )
        22           I   tau(  22) = (  0.2222150  0.7777534  0.3715575  )
        23           I   tau(  23) = (  0.2222183  0.7777465  0.8715575  )
        24           I   tau(  24) = (  0.5555513  0.1110884  0.3715722  )
        25           I   tau(  25) = (  0.5555547  0.1110814  0.8715722  )
        26           I   tau(  26) = (  0.5555495  0.4444202  0.3715669  )
        27           I   tau(  27) = (  0.5555528  0.4444132  0.8715669  )
        28           I   tau(  28) = (  0.5555476  0.7777520  0.3715617  )
        29           I   tau(  29) = (  0.5555509  0.7777450  0.8715617  )
        30           I   tau(  30) = (  0.8888839  0.1110869  0.3715764  )
[...]
     atom   38 type  2   force =     0.00054036    0.00031406    0.00566625
     atom   39 type  2   force =     0.00027409    0.00016143    0.00527533
     atom   40 type  2   force =    -0.00013094   -0.00322216    0.00183092
     atom   41 type  2   force =     0.00014627   -0.00039888    0.00511620
     atom   42 type  2   force =     0.00277234    0.00160203    0.00171958
     atom   43 type  2   force =     0.00021995    0.00011945    0.00509025
     atom   44 type  2   force =    -0.00010425   -0.00015830    0.00573779
     atom   45 type  2   force =     0.00008672    0.00099240    0.00524115
     atom   46 type  2   force =    -0.00019277   -0.00000660    0.00573237
     atom   47 type  2   force =     0.00090822   -0.00041569    0.00524145
     atom   48 type  2   force =    -0.00006495   -0.00066879    0.00563231
     atom   49 type  2   force =    -0.00007477   -0.00037561    0.00525273
     atom   50 type  2   force =    -0.00060002    0.00027950    0.00562940
     atom   51 type  2   force =    -0.00034927    0.00012707    0.00525021
     atom   52 type  2   force =    -0.00007326   -0.00004091    0.00577775
     atom   53 type  2   force =    -0.00068457   -0.00039380    0.00520216
     atom   54 type  1   force =    -0.00004959   -0.00002791    0.00129772
     The Hubbard contrib.    to forces
     atom    1 type  1   force =     0.00000000    0.00000000    0.00000000
     atom    2 type  1   force =     0.00000000    0.00000000    0.00000000
     atom    3 type  1   force =     0.00000000    0.00000000    0.00000000
     atom    4 type  1   force =     0.00000000    0.00000000    0.00000000
     atom    5 type  1   force =     0.00000000    0.00000000    0.00000000
     atom    6 type  1   force =     0.00000000    0.00000000    0.00000000
     atom    7 type  1   force =     0.00000000    0.00000000    0.00000000
     atom    8 type  1   force =     0.00000000    0.00000000    0.00000000
     atom    9 type  1   force =     0.00000000    0.00000000    0.00000000
     atom   10 type  1   force =     0.00000000    0.00000000    0.00000000
     atom   11 type  1   force =     0.00000000    0.00000000    0.00000000
     atom   12 type  1   force =     0.00000000    0.00000000    0.00000000
     atom   13 type  1   force =     0.00000000    0.00000000    0.00000000
     atom   14 type  1   force =     0.00000000    0.00000000    0.00000000
     atom   15 type  1   force =     0.00000000    0.00000000    0.00000000
     atom   16 type  1   force =     0.00000000    0.00000000    0.00000000
     atom   17 type  1   force =     0.00000000    0.00000000    0.00000000
     atom   18 type  1   force =     0.00000000    0.00000000    0.00000000
     atom   19 type  2   force =     0.00000000    0.00000000    0.00000000
     atom   20 type  2   force =     0.00000000    0.00000000    0.00000000
     atom   21 type  2   force =     0.00000000    0.00000000    0.00000000
     atom   22 type  2   force =     0.00000000    0.00000000    0.00000000
     atom   23 type  2   force =     0.00000000    0.00000000    0.00000000
     atom   24 type  2   force =     0.00000000    0.00000000    0.00000000
     atom   25 type  2   force =     0.00000000    0.00000000    0.00000000
     atom   26 type  2   force =     0.00000000    0.00000000    0.00000000
     atom   27 type  2   force =     0.00000000    0.00000000    0.00000000
     atom   28 type  2   force =     0.00000000    0.00000000    0.00000000
     atom   29 type  2   force =     0.00000000    0.00000000    0.00000000
     atom   30 type  2   force =     0.00000000    0.00000000    0.00000000
     atom   31 type  2   force =     0.00000000    0.00000000    0.00000000
     atom   32 type  2   force =     0.00000000    0.00000000    0.00000000
     atom   33 type  2   force =     0.00000000    0.00000000    0.00000000
     atom   34 type  2   force =     0.00000000    0.00000000    0.00000000
     atom   35 type  2   force =     0.00000000    0.00000000    0.00000000
     atom   36 type  2   force =     0.00000000    0.00000000    0.00000000
     atom   37 type  2   force =     0.00000000    0.00000000    0.00000000
     atom   38 type  2   force =     0.00000000    0.00000000    0.00000000
     atom   39 type  2   force =     0.00000000    0.00000000    0.00000000
     atom   40 type  2   force =     0.00000000    0.00000000    0.00000000
     atom   41 type  2   force =     0.00000000    0.00000000    0.00000000
     atom   42 type  2   force =     0.00000000    0.00000000    0.00000000
     atom   43 type  2   force =     0.00000000    0.00000000    0.00000000
     atom   44 type  2   force =     0.00000000    0.00000000    0.00000000
     atom   45 type  2   force =     0.00000000    0.00000000    0.00000000
     atom   46 type  2   force =     0.00000000    0.00000000    0.00000000
     atom   47 type  2   force =     0.00000000    0.00000000    0.00000000
     atom   48 type  2   force =     0.00000000    0.00000000    0.00000000
     atom   49 type  2   force =     0.00000000    0.00000000    0.00000000
     atom   50 type  2   force =     0.00000000    0.00000000    0.00000000
     atom   51 type  2   force =     0.00000000    0.00000000    0.00000000
     atom   52 type  2   force =     0.00000000    0.00000000    0.00000000
     atom   53 type  2   force =     0.00000000    0.00000000    0.00000000
     atom   54 type  1   force =     0.00000000    0.00000000    0.00000000
     The SCF correction term to forces
     atom    1 type  1   force =    -0.00000140   -0.00010154   -0.00000518
     atom    2 type  1   force =     0.00000729   -0.00001338    0.00000538
     atom    3 type  1   force =    -0.00002863   -0.00001604   -0.00002070
     atom    4 type  1   force =    -0.00001965   -0.00001119   -0.00000313
     atom    5 type  1   force =    -0.00008872    0.00004905   -0.00000492
     atom    6 type  1   force =    -0.00000819    0.00001279    0.00000533
     atom    7 type  1   force =    -0.00003610   -0.00002087    0.00000512
     atom    8 type  1   force =    -0.00000129   -0.00000057   -0.00000968
     atom    9 type  1   force =     0.00003866   -0.00001109   -0.00001160
     atom   10 type  1   force =     0.00002702   -0.00001602   -0.00001408
     atom   11 type  1   force =     0.00000941    0.00003892   -0.00001131
     atom   12 type  1   force =    -0.00000051    0.00003113   -0.00001438
     atom   13 type  1   force =     0.00003714   -0.00003320    0.00000165
     atom   14 type  1   force =    -0.00000686   -0.00000417   -0.00000444
     atom   15 type  1   force =    -0.00001013    0.00004935    0.00000166
     atom   16 type  1   force =    -0.00000720   -0.00000354   -0.00000438
     atom   17 type  1   force =     0.00007914    0.00004518   -0.00000006
     atom   18 type  1   force =     0.00001025    0.00000554    0.00000215
     atom   19 type  2   force =    -0.00000793   -0.00000512    0.00009578
     atom   20 type  2   force =    -0.00000566   -0.00003611   -0.00002231
     atom   21 type  2   force =     0.00002201   -0.00008683    0.00003446
     atom   22 type  2   force =    -0.00003453    0.00001301   -0.00002250
     atom   23 type  2   force =    -0.00006461    0.00006267    0.00003484
     atom   24 type  2   force =    -0.00001752    0.00003211   -0.00002311
     atom   25 type  2   force =    -0.00007741    0.00002288    0.00003676
     atom   26 type  2   force =     0.00001926   -0.00003105   -0.00002271
     atom   27 type  2   force =    -0.00001857   -0.00007815    0.00003630
     atom   28 type  2   force =     0.00000991    0.00000575   -0.00000432
     atom   29 type  2   force =     0.00000749    0.00000432    0.00001051
     atom   30 type  2   force =     0.00001464    0.00001810   -0.00003043
     atom   31 type  2   force =     0.00008535    0.00001578    0.00004914
     atom   32 type  2   force =    -0.00001318   -0.00000732   -0.00001116
     atom   33 type  2   force =    -0.00000330   -0.00000141    0.00003153
     atom   34 type  2   force =     0.00002344    0.00000356   -0.00003021
     atom   35 type  2   force =     0.00005686    0.00006587    0.00004928
     atom   36 type  2   force =     0.00006249   -0.00005357   -0.00008033
     atom   37 type  2   force =     0.00001586   -0.00000940    0.00005875
     atom   38 type  2   force =    -0.00003063   -0.00001694   -0.00002797
     atom   39 type  2   force =    -0.00002096   -0.00001174    0.00001105
     atom   40 type  2   force =    -0.00001474    0.00008052   -0.00008079
     atom   41 type  2   force =    -0.00000024    0.00001802    0.00005877
     atom   42 type  2   force =    -0.00006354   -0.00003715   -0.00006978
     atom   43 type  2   force =    -0.00000937   -0.00000537    0.00005054
     atom   44 type  2   force =     0.00001227   -0.00008592   -0.00002880
     atom   45 type  2   force =     0.00000446   -0.00004815    0.00002813
     atom   46 type  2   force =    -0.00006877    0.00005375   -0.00002898
     atom   47 type  2   force =    -0.00003969    0.00002762    0.00002821
     atom   48 type  2   force =     0.00000241    0.00001917   -0.00002243
     atom   49 type  2   force =    -0.00000514    0.00002266    0.00000060
     atom   50 type  2   force =     0.00001830   -0.00000709   -0.00002248
     atom   51 type  2   force =     0.00001702   -0.00001539    0.00000067
     atom   52 type  2   force =     0.00008393    0.00004839   -0.00003280
     atom   53 type  2   force =     0.00003889    0.00002195    0.00002807
     atom   54 type  1   force =    -0.00000185   -0.00000153   -0.00009411

     Total force =     0.004070     Total SCF correction =     0.000467
     SCF correction compared to forces is large: reduce conv_thr to get better values

     Computing stress (Cartesian axis) and pressure

[...]

          total   stress  (Ry/bohr**3)                   (kbar)     P=      -11.58
  -0.00007919  -0.00000058   0.00000110          -11.65       -0.09        0.16
  -0.00000058  -0.00007853   0.00000062           -0.09      -11.55        0.09
   0.00000110   0.00000062  -0.00007842            0.16        0.09      -11.54

     kinetic stress (kbar)  15114.85     -0.02      0.17
                               -0.02  15114.87      0.10
                                0.17      0.10  15129.11

     local   stress (kbar)  -7239.21     12.80     -8.12
                               12.80  -7253.89     -4.61
                               -8.12     -4.61   1132.31

     nonloc. stress (kbar)  -1271.70     -0.03      0.10
                               -0.03  -1271.66      0.06
                                0.10      0.06  -1273.81

     hartree stress (kbar)  11807.11     -4.80      2.88
                               -4.80  11812.63      1.63
                                2.88      1.63   8043.88

     exc-cor stress (kbar)   6884.97     -0.02      0.02
                               -0.02   6885.00      0.01
                                0.02      0.01   6883.96

     corecor stress (kbar) -11218.00      0.00     -0.01
                                0.00 -11218.01     -0.00
                               -0.01     -0.00 -11217.97

     ewald   stress (kbar) -14171.97     -8.03      5.12
                               -8.03 -14162.77      2.90
                                5.12      2.90 -18792.55

     hubbard stress (kbar)      0.00      0.00      0.00
                                0.00      0.00      0.00
                                0.00      0.00      0.00

     DFT-D   stress (kbar)      0.00      0.00      0.00
                                0.00      0.00      0.00
                                0.00      0.00      0.00

     XDM     stress (kbar)      0.00      0.00      0.00
                                0.00      0.00      0.00
                                0.00      0.00      0.00

     dft-nl  stress (kbar)     82.30      0.01     -0.01
                                0.01     82.29     -0.00
                               -0.01     -0.00     83.53

     TS-vdW  stress (kbar)      0.00      0.00      0.00
                                0.00      0.00      0.00
                                0.00      0.00      0.00

     MDB     stress (kbar)      0.00      0.00      0.00
                                0.00      0.00      0.00
                                0.00      0.00      0.00

     3D-RISM stress (kbar)      0.00      0.00      0.00
                                0.00      0.00      0.00
                                0.00      0.00      0.00

[...]

     Non-local corr. energy    =      25.58310577 Ry

 BEEFens 2000 ensemble energies
             -0.215699816730449E+02
             -0.217019911951768E+03
             -0.988062705613883E+02
              0.758226837354689E+02
             -0.165959620388759E+03
             -0.203134673415229E+03
              0.104290439293820E+03
              0.368045344233678E+00
              0.175635519893457E+03
             -0.111247930879542E+02
              0.900785900519462E+02
              0.911125138375382E+01
             -0.692636766843816E+01
             -0.565180376648766E+01
              0.112025696311411E+03
             -0.845426018058388E+02
             -0.165728461229197E+03
             -0.535155354538430E+02
              0.478532793434442E+02
             -0.111024101882595E+01
              0.244464049600341E+03
              0.203985026484932E+03
             -0.125650134240094E+03
              0.434073544283649E+02
             -0.261819964164794E+03
              0.214880074498672E+03
              0.735271281788047E+02
              0.193990228121101E+03
              0.130704646367662E+03
             -0.606638063972409E+02
              0.478831679702081E+02
             -0.854197785566133E+02
              0.357512241595216E+02
              0.130145708038670E+03
              0.140119633566082E+03
             -0.608370809769468E+02
              0.308807681532212E+03
             -0.124403994305876E+03
             -0.827366433526703E+02
              0.123519115006513E+03
              0.544745986412236E+02
              0.939538639838427E+02
             -0.181340368847068E+03
             -0.117935133285687E+02
              0.173963235548393E+03
              0.227436202238195E+03
             -0.230986459080864E+03
              0.147454559013616E+02
              0.800451753811511E+02
              0.517450320194537E+02
              0.902241197589759E+02
              0.198217998143312E+03
             -0.128789333861680E+03
             -0.125012028553675E+03
             -0.174033899616742E+03
             -0.251433779114170E+02
             -0.148458180358350E+03
              0.191473577881309E+02
             -0.213933576214615E+02
             -0.117799830461150E+03
[...]
              0.147108203465014E+03
              0.942102245633672E+02
              0.959944792892750E+02
             -0.177777630055061E+03
             -0.183609770137842E+03
             -0.413819832168392E+02
             -0.164103504796322E+03
              0.260527576281677E+03
              0.219399385156549E+03
              0.103547213055308E+03
              0.285315227507637E+03
             -0.142513061119921E+03
             -0.614306182994484E+02
             -0.885921938101883E+02
              0.246928852108887E+03

 BEEF-vdW xc energy contributions
            1 :    -2231.352187240718
            2 :     2044.300185635334
            3 :    -1725.619145452476
            4 :     1360.611475794643
            5 :    -1029.362095026159
            6 :     780.8175427140345
            7 :    -624.8919567432272
            8 :     540.1964441635387
            9 :    -490.1894835511939
           10 :     440.7220131413033
           11 :    -372.9611996823633
           12 :     287.3108101729367
           13 :    -197.8442413702187
           14 :     121.5825366823037
           15 :    -69.02439272380434
           16 :     40.23601940342178
           17 :    -26.83960238680174
           18 :     17.45559934079574
           19 :    -3.475678840513410
           20 :    -17.36571393063105
           21 :     40.99101151058676
           22 :    -60.27876485353090
           23 :     69.69640298974218
           24 :    -68.60224747060738
           25 :     61.48159212496921
           26 :    -55.29445001637805
           27 :     55.66226948492431
           28 :    -63.98429469920529
           29 :     76.87160442141794
           30 :    -88.06997049523170
           31 :    -192.6044022513761
           32 :    -138.6105809595110

     Writing all to output data dir ./PbI2.save/

     General routines

     Parallel routines

     PAW routines

   This run was terminated on:   8:10: 2  23Mar2024

   JOB DONE.