     Program PWSCF v.7.1 starts on 21Mar2024 at 11:11:27

     Reading input from espresso.pwi
Warning: card &CELL ignored
Warning: card    CELL_DYNAMICS    = 'BFGS' ignored
Warning: card / ignored

     Current dimensions of program PWSCF are:
     Max number of different atomic species (ntypx) = 10
     Max number of k-points (npk) =  40000
     Max angular momentum in pseudopotentials (lmaxx) =  4
     file Pb.pbe-dn-kjpaw_psl.1.0.0.UPF: wavefunction(s)  6S 6P 5D renormalized
     file I.pbe-dn-kjpaw_psl.1.0.0.UPF: wavefunction(s)  5S 5P renormalized

     IMPORTANT: XC functional enforced from input :
     Exchange-correlation= BEEF-VDW
                           (   1   4  43  14   2   0   0)
     Any further DFT definition will be discarded
     Please, verify this is what you really want

     K-points division:     npool     =       2
     R & G space division:  proc/nbgrp/npool/nimage =      45
     Subspace diagonalization in iterative solution of the eigenvalue problem:
     a serial algorithm will be used

     Using Slab Decomposition

     bravais-lattice index     =            4
     lattice parameter (alat)  =      26.7090  a.u.
     unit-cell volume          =   17226.5091 (a.u.)^3
     number of atoms/cell      =           54
     number of atomic types    =            2
     number of electrons       =       859.00
     number of Kohn-Sham states=          516
     kinetic-energy cutoff     =      70.0000  Ry
     charge density cutoff     =     350.0000  Ry
     scf convergence threshold =      1.0E-07
     mixing beta               =       0.7000
     number of iterations used =            8  plain     mixing
     energy convergence thresh.=      1.0E-04
     force convergence thresh. =      1.0E-03
     Exchange-correlation= BEEF-VDW
                           (   1   4  43  14   2   0   0)
     nstep                     =           50

     celldm(1)=  26.709025  celldm(2)=   0.000000  celldm(3)=   1.043981
     celldm(4)=   0.000000  celldm(5)=   0.000000  celldm(6)=   0.000000

     crystal axes: (cart. coord. in units of alat)
               a(1) = (   1.000000   0.000000   0.000000 )
               a(2) = (  -0.500000   0.866025   0.000000 )
               a(3) = (   0.000000   0.000000   1.043981 )

     reciprocal axes: (cart. coord. in units 2 pi/alat)
               b(1) = (  1.000000  0.577350 -0.000000 )
               b(2) = (  0.000000  1.154701  0.000000 )
               b(3) = (  0.000000 -0.000000  0.957872 )

     PseudoPot. # 1 for Pb read from file:
     /trace/group/acmegroup/atimmins/packages/espresso/pseudo/psl_1.0.0/pslibrary.1.0.0/pbe/PSEUDOPOTENTIALS/Pb.pbe-dn-kjpaw_psl.1.0.0.UPF
     MD5 check sum: 39ab5b8a6bbd56b7735ad9f188aac93a
     Pseudo is Projector augmented-wave + core cor, Zval = 14.0
     Generated using 'atomic' code by A. Dal Corso  v.7.1
     Shape of augmentation charge: PSQ
     Using radial grid of 1281 points,  6 beta functions with:
                l(1) =   0
                l(2) =   0
                l(3) =   1
                l(4) =   1
                l(5) =   2
                l(6) =   2
     Q(r) pseudized with 0 coefficients

     PseudoPot. # 2 for I  read from file:
     /trace/group/acmegroup/atimmins/packages/espresso/pseudo/psl_1.0.0/pslibrary.1.0.0/pbe/PSEUDOPOTENTIALS/I.pbe-dn-kjpaw_psl.1.0.0.UPF
     MD5 check sum: bfa8781bc1224d19af3f3980e3fab11e
     Pseudo is Projector augmented-wave + core cor, Zval = 17.0
     Generated using 'atomic' code by A. Dal Corso  v.7.1
     Shape of augmentation charge: PSQ
     Using radial grid of 1247 points,  6 beta functions with:
                l(1) =   0
                l(2) =   0
                l(3) =   1
                l(4) =   1
                l(5) =   2
                l(6) =   2
     Q(r) pseudized with 0 coefficients

     atomic species   valence    mass     pseudopotential
        Pb            14.00   207.20000     Pb( 1.00)
        I             17.00   126.90447     I ( 1.00)

     No symmetry found

                                    s                        frac. trans.

      isym =  1     identity

 cryst.   s( 1) = (     1          0          0      )
                  (     0          1          0      )
                  (     0          0          1      )

 cart.    s( 1) = (  1.0000000  0.0000000  0.0000000 )
                  (  0.0000000  1.0000000  0.0000000 )
                  (  0.0000000  0.0000000  1.0000000 )

     point group C_1 (1)
     there are  1 classes
     the character table:

       E
A      1.00

     the symmetry operations in each class and the name of the first element:

     E        1
          identity

   Cartesian axes

     site n.     atom                  positions (alat units)
         1           Pb  tau(   1) = (   0.1666780   0.2886497   1.0439767  )
         2           Pb  tau(   2) = (   0.1666712   0.2886557   0.5219862  )
         3           Pb  tau(   3) = (   0.0000102   0.5773235   1.0439712  )
         4           Pb  tau(   4) = (   0.0000034   0.5773295   0.5219807  )
         5           Pb  tau(   5) = (  -0.1666576   0.8659973   1.0439657  )
         6           Pb  tau(   6) = (  -0.1666644   0.8660033   0.5219752  )
         7           Pb  tau(   7) = (   0.5000113   0.2886484   1.0439810  )
         8           Pb  tau(   8) = (   0.5000045   0.2886544   0.5219905  )
         9           Pb  tau(   9) = (   0.3333436   0.5773222   1.0439755  )
        10           Pb  tau(  10) = (   0.3333367   0.5773282   0.5219850  )
        11           Pb  tau(  11) = (   0.1666758   0.8659960   1.0439700  )
        12           Pb  tau(  12) = (   0.1666690   0.8660020   0.5219795  )
        13           Pb  tau(  13) = (   0.8333447   0.2886471   1.0439853  )
        14           Pb  tau(  14) = (   0.8333379   0.2886531   0.5219949  )
        15           Pb  tau(  15) = (   0.6666769   0.5773209   1.0439798  )
        16           Pb  tau(  16) = (   0.6666701   0.5773269   0.5219894  )
        17           Pb  tau(  17) = (   0.5000091   0.8659947   1.0439743  )
        18           Pb  tau(  18) = (   0.5000023   0.8660007   0.5219839  )
        19           I   tau(  19) = (   0.1666806   0.0962006   0.9099004  )
        20           I   tau(  20) = (   0.0000060   0.3848804   0.3879044  )
        21           I   tau(  21) = (   0.0000129   0.3848744   0.9098949  )
        22           I   tau(  22) = (  -0.1666617   0.6735542   0.3878990  )
        23           I   tau(  23) = (  -0.1666549   0.6735482   0.9098894  )
        24           I   tau(  24) = (   0.5000071   0.0962053   0.3879143  )
        25           I   tau(  25) = (   0.5000140   0.0961993   0.9099047  )
        26           I   tau(  26) = (   0.3333394   0.3848792   0.3879088  )
        27           I   tau(  27) = (   0.3333462   0.3848731   0.9098993  )
        28           I   tau(  28) = (   0.1666716   0.6735530   0.3879033  )
        29           I   tau(  29) = (   0.1666784   0.6735469   0.9098938  )
        30           I   tau(  30) = (   0.8333405   0.0962041   0.3879186  )
        31           I   tau(  31) = (   0.8333473   0.0961980   0.9099091  )
        32           I   tau(  32) = (   0.6666727   0.3848779   0.3879131  )
        33           I   tau(  33) = (   0.6666795   0.3848718   0.9099036  )
        34           I   tau(  34) = (   0.5000049   0.6735517   0.3879076  )
        35           I   tau(  35) = (   0.5000117   0.6735457   0.9098981  )
        36           I   tau(  36) = (  -0.0000023   0.1924396   0.1340740  )
        37           I   tau(  37) = (   0.0000045   0.1924336   0.6560644  )
        38           I   tau(  38) = (  -0.1666701   0.4811134   0.1340685  )
        39           I   tau(  39) = (  -0.1666632   0.4811074   0.6560589  )
        40           I   tau(  40) = (  -0.3333378   0.7697873   0.1340630  )
        41           I   tau(  41) = (  -0.3333310   0.7697812   0.6560534  )
        42           I   tau(  42) = (   0.3333311   0.1924384   0.1340783  )
        43           I   tau(  43) = (   0.3333379   0.1924323   0.6560688  )
        44           I   tau(  44) = (   0.1666633   0.4811122   0.1340728  )
        45           I   tau(  45) = (   0.1666701   0.4811061   0.6560633  )
        46           I   tau(  46) = (  -0.0000045   0.7697860   0.1340673  )
        47           I   tau(  47) = (   0.0000023   0.7697799   0.6560578  )
        48           I   tau(  48) = (   0.6666644   0.1924371   0.1340827  )
        49           I   tau(  49) = (   0.6666712   0.1924310   0.6560731  )
        50           I   tau(  50) = (   0.4999966   0.4811109   0.1340772  )
        51           I   tau(  51) = (   0.5000034   0.4811049   0.6560676  )
        52           I   tau(  52) = (   0.3333288   0.7697847   0.1340717  )
        53           I   tau(  53) = (   0.3333356   0.7697787   0.6560621  )
        54           Pb  tau(  54) = (   0.1666738   0.0962066   0.3879099  )

   Crystallographic axes

     site n.     atom                  positions (cryst. coord.)
         1           Pb  tau(   1) = (  0.3333300  0.3333039  0.9999959  )
         2           Pb  tau(   2) = (  0.3333266  0.3333109  0.4999959  )
         3           Pb  tau(   3) = (  0.3333281  0.6666357  0.9999906  )
         4           Pb  tau(   4) = (  0.3333248  0.6666427  0.4999906  )
         5           Pb  tau(   5) = (  0.3333262  0.9999675  0.9999854  )
         6           Pb  tau(   6) = (  0.3333229  0.9999745  0.4999854  )
         7           Pb  tau(   7) = (  0.6666626  0.3333025  1.0000001  )
         8           Pb  tau(   8) = (  0.6666592  0.3333094  0.5000001  )
         9           Pb  tau(   9) = (  0.6666607  0.6666343  0.9999948  )
        10           Pb  tau(  10) = (  0.6666573  0.6666412  0.4999948  )
        11           Pb  tau(  11) = (  0.6666588  0.9999661  0.9999895  )
        12           Pb  tau(  12) = (  0.6666555  0.9999730  0.4999895  )
        13           Pb  tau(  13) = (  0.9999951  0.3333010  1.0000042  )
        14           Pb  tau(  14) = (  0.9999918  0.3333079  0.5000042  )
        15           Pb  tau(  15) = (  0.9999933  0.6666328  0.9999990  )
        16           Pb  tau(  16) = (  0.9999899  0.6666397  0.4999990  )
        17           Pb  tau(  17) = (  0.9999914  0.9999646  0.9999937  )
        18           Pb  tau(  18) = (  0.9999881  0.9999715  0.4999937  )
        19           I   tau(  19) = (  0.2222221  0.1110829  0.8715680  )
        20           I   tau(  20) = (  0.2222169  0.4444217  0.3715628  )
        21           I   tau(  21) = (  0.2222202  0.4444147  0.8715628  )
        22           I   tau(  22) = (  0.2222150  0.7777534  0.3715575  )
        23           I   tau(  23) = (  0.2222183  0.7777465  0.8715575  )
        24           I   tau(  24) = (  0.5555513  0.1110884  0.3715722  )
        25           I   tau(  25) = (  0.5555547  0.1110814  0.8715722  )
        26           I   tau(  26) = (  0.5555495  0.4444202  0.3715669  )
        27           I   tau(  27) = (  0.5555528  0.4444132  0.8715669  )
        28           I   tau(  28) = (  0.5555476  0.7777520  0.3715617  )
[...]
     atom   38 type  2   force =     0.00054023    0.00031399    0.00566614
     atom   39 type  2   force =     0.00027387    0.00016130    0.00527529
     atom   40 type  2   force =    -0.00013101   -0.00322170    0.00183050
     atom   41 type  2   force =     0.00014626   -0.00039889    0.00511639
     atom   42 type  2   force =     0.00277200    0.00160184    0.00171924
     atom   43 type  2   force =     0.00022001    0.00011948    0.00509042
     atom   44 type  2   force =    -0.00010419   -0.00015866    0.00573786
     atom   45 type  2   force =     0.00008674    0.00099211    0.00524135
     atom   46 type  2   force =    -0.00019306   -0.00000636    0.00573244
     atom   47 type  2   force =     0.00090798   -0.00041553    0.00524165
     atom   48 type  2   force =    -0.00006494   -0.00066873    0.00563218
     atom   49 type  2   force =    -0.00007477   -0.00037536    0.00525260
     atom   50 type  2   force =    -0.00059995    0.00027948    0.00562927
     atom   51 type  2   force =    -0.00034906    0.00012695    0.00525008
     atom   52 type  2   force =    -0.00007292   -0.00004071    0.00577776
     atom   53 type  2   force =    -0.00068433   -0.00039367    0.00520233
     atom   54 type  1   force =    -0.00004961   -0.00002793    0.00129582
     The Hubbard contrib.    to forces
     atom    1 type  1   force =     0.00000000    0.00000000    0.00000000
     atom    2 type  1   force =     0.00000000    0.00000000    0.00000000
     atom    3 type  1   force =     0.00000000    0.00000000    0.00000000
     atom    4 type  1   force =     0.00000000    0.00000000    0.00000000
     atom    5 type  1   force =     0.00000000    0.00000000    0.00000000
     atom    6 type  1   force =     0.00000000    0.00000000    0.00000000
     atom    7 type  1   force =     0.00000000    0.00000000    0.00000000
     atom    8 type  1   force =     0.00000000    0.00000000    0.00000000
     atom    9 type  1   force =     0.00000000    0.00000000    0.00000000
     atom   10 type  1   force =     0.00000000    0.00000000    0.00000000
     atom   11 type  1   force =     0.00000000    0.00000000    0.00000000
     atom   12 type  1   force =     0.00000000    0.00000000    0.00000000
     atom   13 type  1   force =     0.00000000    0.00000000    0.00000000
     atom   14 type  1   force =     0.00000000    0.00000000    0.00000000
     atom   15 type  1   force =     0.00000000    0.00000000    0.00000000
     atom   16 type  1   force =     0.00000000    0.00000000    0.00000000
     atom   17 type  1   force =     0.00000000    0.00000000    0.00000000
     atom   18 type  1   force =     0.00000000    0.00000000    0.00000000
     atom   19 type  2   force =     0.00000000    0.00000000    0.00000000
     atom   20 type  2   force =     0.00000000    0.00000000    0.00000000
     atom   21 type  2   force =     0.00000000    0.00000000    0.00000000
     atom   22 type  2   force =     0.00000000    0.00000000    0.00000000
     atom   23 type  2   force =     0.00000000    0.00000000    0.00000000
     atom   24 type  2   force =     0.00000000    0.00000000    0.00000000
     atom   25 type  2   force =     0.00000000    0.00000000    0.00000000
     atom   26 type  2   force =     0.00000000    0.00000000    0.00000000
     atom   27 type  2   force =     0.00000000    0.00000000    0.00000000
     atom   28 type  2   force =     0.00000000    0.00000000    0.00000000
     atom   29 type  2   force =     0.00000000    0.00000000    0.00000000
     atom   30 type  2   force =     0.00000000    0.00000000    0.00000000
     atom   31 type  2   force =     0.00000000    0.00000000    0.00000000
     atom   32 type  2   force =     0.00000000    0.00000000    0.00000000
     atom   33 type  2   force =     0.00000000    0.00000000    0.00000000
     atom   34 type  2   force =     0.00000000    0.00000000    0.00000000
     atom   35 type  2   force =     0.00000000    0.00000000    0.00000000
     atom   36 type  2   force =     0.00000000    0.00000000    0.00000000
     atom   37 type  2   force =     0.00000000    0.00000000    0.00000000
     atom   38 type  2   force =     0.00000000    0.00000000    0.00000000
     atom   39 type  2   force =     0.00000000    0.00000000    0.00000000
     atom   40 type  2   force =     0.00000000    0.00000000    0.00000000
     atom   41 type  2   force =     0.00000000    0.00000000    0.00000000
     atom   42 type  2   force =     0.00000000    0.00000000    0.00000000
     atom   43 type  2   force =     0.00000000    0.00000000    0.00000000
     atom   44 type  2   force =     0.00000000    0.00000000    0.00000000
     atom   45 type  2   force =     0.00000000    0.00000000    0.00000000
     atom   46 type  2   force =     0.00000000    0.00000000    0.00000000
     atom   47 type  2   force =     0.00000000    0.00000000    0.00000000
     atom   48 type  2   force =     0.00000000    0.00000000    0.00000000
     atom   49 type  2   force =     0.00000000    0.00000000    0.00000000
     atom   50 type  2   force =     0.00000000    0.00000000    0.00000000
     atom   51 type  2   force =     0.00000000    0.00000000    0.00000000
     atom   52 type  2   force =     0.00000000    0.00000000    0.00000000
     atom   53 type  2   force =     0.00000000    0.00000000    0.00000000
     atom   54 type  1   force =     0.00000000    0.00000000    0.00000000
     The SCF correction term to forces
     atom    1 type  1   force =     0.00000062    0.00002937    0.00000278
     atom    2 type  1   force =    -0.00000221   -0.00000050   -0.00000105
     atom    3 type  1   force =     0.00000693    0.00000386    0.00000687
     atom    4 type  1   force =     0.00000558    0.00000317    0.00000163
     atom    5 type  1   force =     0.00002575   -0.00001402    0.00000270
     atom    6 type  1   force =    -0.00000144   -0.00000161   -0.00000103
     atom    7 type  1   force =     0.00000994    0.00000577    0.00000011
     atom    8 type  1   force =    -0.00000030   -0.00000021    0.00000303
     atom    9 type  1   force =    -0.00000956    0.00000236    0.00000425
     atom   10 type  1   force =    -0.00000720    0.00000452    0.00000591
     atom   11 type  1   force =    -0.00000268   -0.00000950    0.00000415
     atom   12 type  1   force =     0.00000038   -0.00000841    0.00000605
     atom   13 type  1   force =    -0.00001040    0.00000970    0.00000082
     atom   14 type  1   force =     0.00000297    0.00000034    0.00000042
     atom   15 type  1   force =     0.00000316   -0.00001401    0.00000081
     atom   16 type  1   force =     0.00000182    0.00000230    0.00000040
     atom   17 type  1   force =    -0.00002300   -0.00001317    0.00000121
     atom   18 type  1   force =    -0.00000008    0.00000007   -0.00000077
     atom   19 type  2   force =     0.00000280    0.00000178   -0.00002583
     atom   20 type  2   force =     0.00000148    0.00001015    0.00000558
     atom   21 type  2   force =    -0.00000638    0.00002738   -0.00000889
     atom   22 type  2   force =     0.00000964   -0.00000366    0.00000564
     atom   23 type  2   force =     0.00002059   -0.00001923   -0.00000900
     atom   24 type  2   force =     0.00000432   -0.00000915    0.00000632
     atom   25 type  2   force =     0.00002353   -0.00000796   -0.00000972
     atom   26 type  2   force =    -0.00000583    0.00000817    0.00000618
     atom   27 type  2   force =     0.00000485    0.00002423   -0.00000955
     atom   28 type  2   force =    -0.00000316   -0.00000184   -0.00000012
     atom   29 type  2   force =    -0.00000254   -0.00000146   -0.00000621
     atom   30 type  2   force =    -0.00000294   -0.00000405    0.00000721
     atom   31 type  2   force =    -0.00002617   -0.00000534   -0.00001380
     atom   32 type  2   force =     0.00000410    0.00000231   -0.00000274
     atom   33 type  2   force =     0.00000156    0.00000078   -0.00000993
     atom   34 type  2   force =    -0.00000516   -0.00000050    0.00000721
     atom   35 type  2   force =    -0.00001782   -0.00002005   -0.00001393
     atom   36 type  2   force =    -0.00001742    0.00001554    0.00002300
     atom   37 type  2   force =    -0.00000272    0.00000167   -0.00001810
     atom   38 type  2   force =     0.00000993    0.00000548    0.00000964
     atom   39 type  2   force =     0.00000887    0.00000506   -0.00000100
     atom   40 type  2   force =     0.00000470   -0.00002275    0.00002319
     atom   41 type  2   force =     0.00000007   -0.00000308   -0.00001809
     atom   42 type  2   force =     0.00001735    0.00001015    0.00001885
     atom   43 type  2   force =    -0.00000002   -0.00000001   -0.00001684
     atom   44 type  2   force =    -0.00000385    0.00002411    0.00000857
     atom   45 type  2   force =    -0.00000100    0.00001719   -0.00000662
     atom   46 type  2   force =     0.00001910   -0.00001543    0.00000863
     atom   47 type  2   force =     0.00001439   -0.00000936   -0.00000668
     atom   48 type  2   force =    -0.00000110   -0.00000615    0.00000788
     atom   49 type  2   force =     0.00000121   -0.00001045    0.00000289
     atom   50 type  2   force =    -0.00000603    0.00000202    0.00000782
     atom   51 type  2   force =    -0.00000838    0.00000615    0.00000288
     atom   52 type  2   force =    -0.00002435   -0.00001407    0.00000981
     atom   53 type  2   force =    -0.00001383   -0.00000778   -0.00000614
     atom   54 type  1   force =     0.00000020    0.00000025    0.00002660

     Total force =     0.004097     Total SCF correction =     0.000137

     Computing stress (Cartesian axis) and pressure

     Non-local corr. energy    =      25.58310456 Ry

          total   stress  (Ry/bohr**3)                   (kbar)     P=      -11.58
  -0.00007917  -0.00000058   0.00000110          -11.65       -0.09        0.16
  -0.00000058  -0.00007852   0.00000062           -0.09      -11.55        0.09
   0.00000110   0.00000062  -0.00007840            0.16        0.09      -11.53

     kinetic stress (kbar)  15114.85     -0.02      0.17
                               -0.02  15114.87      0.10
                                0.17      0.10  15129.11

     local   stress (kbar)  -7239.21     12.80     -8.12
                               12.80  -7253.89     -4.61
                               -8.12     -4.61   1132.31

     nonloc. stress (kbar)  -1271.69     -0.03      0.10
                               -0.03  -1271.66      0.06
                                0.10      0.06  -1273.81

     hartree stress (kbar)  11807.11     -4.80      2.88
                               -4.80  11812.63      1.63
                                2.88      1.63   8043.88

     exc-cor stress (kbar)   6884.97     -0.02      0.02
                               -0.02   6885.00      0.01
                                0.02      0.01   6883.96

     corecor stress (kbar) -11218.00      0.00     -0.01
                                0.00 -11218.01     -0.00
                               -0.01     -0.00 -11217.97

     ewald   stress (kbar) -14171.97     -8.03      5.12
                               -8.03 -14162.77      2.90
                                5.12      2.90 -18792.55

     hubbard stress (kbar)      0.00      0.00      0.00
                                0.00      0.00      0.00
                                0.00      0.00      0.00

     DFT-D   stress (kbar)      0.00      0.00      0.00
                                0.00      0.00      0.00
                                0.00      0.00      0.00

     XDM     stress (kbar)      0.00      0.00      0.00
                                0.00      0.00      0.00
                                0.00      0.00      0.00

     dft-nl  stress (kbar)     82.30      0.01     -0.01
                                0.01     82.29     -0.00
                               -0.01     -0.00     83.53

     TS-vdW  stress (kbar)      0.00      0.00      0.00
                                0.00      0.00      0.00
                                0.00      0.00      0.00

     MDB     stress (kbar)      0.00      0.00      0.00
                                0.00      0.00      0.00
                                0.00      0.00      0.00

     3D-RISM stress (kbar)      0.00      0.00      0.00
                                0.00      0.00      0.00
                                0.00      0.00      0.00

     Energy error            =      7.0E-05 Ry
     Gradient error          =      9.7E-04 Ry/Bohr

     bfgs converged in  24 scf cycles and  23 bfgs steps
     (criteria: energy <  1.0E-04 Ry, force <  1.0E-03 Ry/Bohr)

     End of BFGS Geometry Optimization

     Final energy             =  -36758.6498311483 Ry

     File ./PbI2.bfgs deleted, as requested
Begin final coordinates

ATOMIC_POSITIONS (angstrom)
Pb            2.3548292820        4.1637384420       14.6698032228
Pb            2.3616682831        4.0656454344        7.4752415305
Pb            0.0283730355        8.1761615509       14.7698685615
Pb           -0.0140710477        8.1515744596        7.3333971018
Pb           -2.2834179333       12.1974547532       14.6695733169
Pb           -2.3646407245       12.2521183852        7.4752495002
Pb            7.1251921955        4.1134942532       14.8206059982
Pb            7.0896030655        4.0928472400        7.4274790958
Pb            4.6759736133        8.1802354633       14.7783568486
Pb            4.7297779530        8.1513658446        7.3366553019
Pb            2.3556127220       12.1988506107       14.7776504898
Pb            2.3576390528       12.2597458350        7.3360282269
Pb           11.7129874149        4.1119929757       14.8183666820
Pb           11.7607120592        4.0940219965        7.4167995038
Pb            9.4179511875        8.0875635233       14.8181301446
Pb            9.4263664074        8.1376191252        7.4166444988
Pb            6.9947567257       12.1984584666       14.6721535599
Pb            7.0795307278       12.2471484760        7.4880534709
I             2.3599812858        1.3624179059       12.9268948602
I             0.0218795736        5.4186161781        5.5174750576
I            -0.0127199572        5.3958805871       12.9111242025
I            -2.3626521883        9.5495584465        5.5173557607
I            -2.3996243350        9.5308902383       12.9109653389
I             7.0449524606        1.3664021879        5.5207409624
I             7.0476190730        1.3824872918       12.9127496390
I             4.7061069058        5.4175656655        5.5208793304
I             4.7212510462        5.4119439827       12.9129443601
I             2.3591186063        9.5208626474        5.4963383177
I             2.3553238014        9.5185951550       12.8532480033
I            11.8193858079        1.3630549596        5.5208713214
I            11.8073986764        1.3824448144       12.9118397682
I             9.4167208585        5.4364438252        5.5264498206
I             9.4126889693        5.4342273739       12.9397727048
I             7.0902115919        9.5538726289        5.5209461750
I             7.1008838359        9.5339811089       12.9119453174
I             0.0399937766        2.6904602474        2.0771637974
I             0.0101753974        2.7257845945        9.3100658219
I            -2.3498836411        6.8033369976        1.9222155156
I            -2.3453264350        6.8058580773        9.2884512995
I            -4.7167588868       10.9294559600        2.0771379382
I            -4.7007923854       10.8856390698        9.3100729944
I             4.6532844709        2.6864366194        2.0832088352
I             4.7024187266        2.7144635995        9.3164625079
I             2.3474410271        6.8119974502        1.8931377257
I             2.3569038329        6.7115558976        9.2322668465
I             0.0064597880       10.8669455704        1.8927413916
I            -0.0751338222       10.9251107110        9.2321639819
I             9.4174163360        2.7050160931        1.9255278035
I             9.4268109831        2.7051090751        9.2927517909
I             7.0525972350        6.8026767558        1.9257745856
I             7.0572394622        6.8107591407        9.2930235315
I             4.6974261413       10.8721977367        1.8983967357
I             4.7876168170       10.9241413504        9.2344719585
Pb            2.3459891364        1.3542747538        3.7546237263
End final coordinates

     Writing all to output data dir ./PbI2.save/

     General routines

     Parallel routines

     PAW routines

   This run was terminated on:  19:53:30  21Mar2024

   JOB DONE.