     Program PWSCF v.7.1 starts on 19Feb2024 at  7: 6:40

     Reading input from espresso.pwi
Warning: card &CELL ignored
Warning: card    CELL_DYNAMICS    = 'BFGS' ignored
Warning: card / ignored

     Current dimensions of program PWSCF are:
     Max number of different atomic species (ntypx) = 10
     Max number of k-points (npk) =  40000
     Max angular momentum in pseudopotentials (lmaxx) =  4
     file Ga.pbe-dn-kjpaw_psl.1.0.0.UPF: wavefunction(s)  4S renormalized
     file N.pbe-n-kjpaw_psl.1.0.0.UPF: wavefunction(s)  2S renormalized

     IMPORTANT: XC functional enforced from input :
     Exchange-correlation= BEEF-VDW
                           (   1   4  43  14   2   0   0)
     Any further DFT definition will be discarded
     Please, verify this is what you really want

     Found identity + (  0.0000  0.0000  0.5000) symmetry
     This is a supercell, fractional translations are disabled

     K-points division:     npool     =       4
     R & G space division:  proc/nbgrp/npool/nimage =      32
     Subspace diagonalization in iterative solution of the eigenvalue problem:
     a serial algorithm will be used

     Using Slab Decomposition

     bravais-lattice index     =            4
     lattice parameter (alat)  =      18.3939  a.u.
     unit-cell volume          =    5856.2271 (a.u.)^3
     number of atoms/cell      =           72
     number of atomic types    =            2
     number of electrons       =       648.00
     number of Kohn-Sham states=          389
     kinetic-energy cutoff     =      70.0000  Ry
     charge density cutoff     =     350.0000  Ry
     scf convergence threshold =      1.0E-07
     mixing beta               =       0.7000
     number of iterations used =            8  plain     mixing
     Exchange-correlation= BEEF-VDW
                           (   1   4  43  14   2   0   0)

     celldm(1)=  18.393924  celldm(2)=   0.000000  celldm(3)=   1.086586
     celldm(4)=   0.000000  celldm(5)=   0.000000  celldm(6)=   0.000000

     crystal axes: (cart. coord. in units of alat)
               a(1) = (   1.000000   0.000000   0.000000 )
               a(2) = (  -0.500000   0.866025   0.000000 )
               a(3) = (   0.000000   0.000000   1.086586 )

     reciprocal axes: (cart. coord. in units 2 pi/alat)
               b(1) = (  1.000000  0.577350 -0.000000 )
               b(2) = (  0.000000  1.154701  0.000000 )
               b(3) = (  0.000000 -0.000000  0.920314 )

     PseudoPot. # 1 for Ga read from file:
     //group///packages/espresso/pseudo/psl_1.0.0/pslibrary.1.0.0/pbe/PSEUDOPOTENTIALS/Ga.pbe-dn-kjpaw_psl.1.0.0.UPF
     MD5 check sum: cd2a01e492f15b435d17032472d8505c
     Pseudo is Projector augmented-wave + core cor, Zval = 13.0
     Generated using 'atomic' code by A. Dal Corso  v.7.1
     Shape of augmentation charge: PSQ
     Using radial grid of 1205 points,  6 beta functions with:
                l(1) =   0
                l(2) =   0
                l(3) =   1
                l(4) =   1
                l(5) =   2
                l(6) =   2
     Q(r) pseudized with 0 coefficients

     PseudoPot. # 2 for N  read from file:
     //group///packages/espresso/pseudo/psl_1.0.0/pslibrary.1.0.0/pbe/PSEUDOPOTENTIALS/N.pbe-n-kjpaw_psl.1.0.0.UPF
     MD5 check sum: f77f775694dac7e2c3fe1c82443d1a16
     Pseudo is Projector augmented-wave + core cor, Zval =  5.0
     Generated using 'atomic' code by A. Dal Corso  v.7.1
     Shape of augmentation charge: PSQ
     Using radial grid of 1085 points,  4 beta functions with:
                l(1) =   0
                l(2) =   0
                l(3) =   1
                l(4) =   1
     Q(r) pseudized with 0 coefficients

     atomic species   valence    mass     pseudopotential
        Ga            13.00    69.72300     Ga( 1.00)
        N              5.00    14.00700     N ( 1.00)

      6 Sym. Ops. (no inversion) found

                                    s                        frac. trans.

      isym =  1     identity

 cryst.   s( 1) = (     1          0          0      )
                  (     0          1          0      )
                  (     0          0          1      )

 cart.    s( 1) = (  1.0000000  0.0000000  0.0000000 )
                  (  0.0000000  1.0000000  0.0000000 )
                  (  0.0000000  0.0000000  1.0000000 )

      isym =  2     120 deg rotation - cryst. axis [0,0,1]

[...]

      isym =  3     120 deg rotation - cryst. axis [0,0,-1]

[...]

      isym =  4     inv. 180 deg rotation - cart. axis [1,0,0]

[...]

      isym =  5     inv. 180 deg rotation - cryst. axis [0,1,0]

[...]

      isym =  6     inv. 180 deg rotation - cryst. axis [1,1,0]

 cryst.   s( 6) = (     0         -1          0      )
                  (    -1          0          0      )
                  (     0          0          1      )

 cart.    s( 6) = (  0.5000000 -0.8660254  0.0000000 )
                  ( -0.8660254 -0.5000000  0.0000000 )
                  (  0.0000000  0.0000000  1.0000000 )

     point group C_3v (3m)
     there are  3 classes
     the character table:

       E     2C3   3s_v
A_1    1.00  1.00  1.00
A_2    1.00  1.00 -1.00
E      2.00 -1.00  0.00

     the symmetry operations in each class and the name of the first element:

     E        1
          identity
     2C3      2    3
          120 deg rotation - cryst. axis [0,0,1]
     3s_v     4    5    6
          inv. 180 deg rotation - cart. axis [1,0,0]

   Cartesian axes

     site n.     atom                  positions (alat units)
         1           Ga  tau(   1) = (   0.1666668   0.0962250   0.2711914  )
         2           Ga  tau(   2) = (   0.1666668   0.0962250   0.8144844  )
         3           Ga  tau(   3) = (   0.0000001   0.3849001   0.2711914  )
         4           Ga  tau(   4) = (   0.0000001   0.3849001   0.8144844  )
         5           Ga  tau(   5) = (  -0.1666665   0.6735752   0.2711914  )
         6           Ga  tau(   6) = (  -0.1666665   0.6735752   0.8144844  )
         7           Ga  tau(   7) = (   0.5000001   0.0962250   0.2711914  )
         8           Ga  tau(   8) = (   0.5000001   0.0962250   0.8144844  )
         9           Ga  tau(   9) = (   0.3333335   0.3849001   0.2711914  )
        10           Ga  tau(  10) = (   0.3333335   0.3849001   0.8144844  )
        11           Ga  tau(  11) = (   0.1666668   0.6735752   0.2711914  )
        12           Ga  tau(  12) = (   0.1666668   0.6735752   0.8144844  )
        13           Ga  tau(  13) = (   0.8333335   0.0962250   0.2711914  )
        14           Ga  tau(  14) = (   0.8333335   0.0962250   0.8144844  )
        15           Ga  tau(  15) = (   0.6666668   0.3849001   0.2711914  )
        16           Ga  tau(  16) = (   0.6666668   0.3849001   0.8144844  )
        17           Ga  tau(  17) = (   0.5000001   0.6735752   0.2711914  )
        18           Ga  tau(  18) = (   0.5000001   0.6735752   0.8144844  )
        19           Ga  tau(  19) = (  -0.0000002   0.1924502   0.5428379  )
        20           Ga  tau(  20) = (  -0.0000002   0.1924502   1.0861309  )
        21           Ga  tau(  21) = (  -0.1666669   0.4811254   0.5428379  )
        22           Ga  tau(  22) = (  -0.1666669   0.4811254   1.0861309  )
        23           Ga  tau(  23) = (  -0.3333335   0.7698005   0.5428379  )
        24           Ga  tau(  24) = (  -0.3333335   0.7698005   1.0861309  )
        25           Ga  tau(  25) = (   0.3333331   0.1924502   0.5428379  )
        26           Ga  tau(  26) = (   0.3333331   0.1924502   1.0861309  )
        27           Ga  tau(  27) = (   0.1666665   0.4811254   0.5428379  )
        28           Ga  tau(  28) = (   0.1666665   0.4811254   1.0861309  )
        29           Ga  tau(  29) = (  -0.0000002   0.7698005   0.5428379  )
        30           Ga  tau(  30) = (  -0.0000002   0.7698005   1.0861309  )
        31           Ga  tau(  31) = (   0.6666665   0.1924502   0.5428379  )
        32           Ga  tau(  32) = (   0.6666665   0.1924502   1.0861309  )
        33           Ga  tau(  33) = (   0.4999998   0.4811254   0.5428379  )
        34           Ga  tau(  34) = (   0.4999998   0.4811254   1.0861309  )
        35           Ga  tau(  35) = (   0.3333331   0.7698005   0.5428379  )
        36           Ga  tau(  36) = (   0.3333331   0.7698005   1.0861309  )
        37           N   tau(  37) = (   0.1666668   0.0962250   0.4758365  )
        38           N   tau(  38) = (   0.1666668   0.0962250   1.0191295  )
        39           N   tau(  39) = (   0.0000001   0.3849001   0.4758365  )
        40           N   tau(  40) = (   0.0000001   0.3849001   1.0191295  )
        41           N   tau(  41) = (  -0.1666665   0.6735752   0.4758365  )
        42           N   tau(  42) = (  -0.1666665   0.6735752   1.0191295  )
        43           N   tau(  43) = (   0.5000001   0.0962250   0.4758365  )
        44           N   tau(  44) = (   0.5000001   0.0962250   1.0191295  )
        45           N   tau(  45) = (   0.3333335   0.3849001   0.4758365  )
        46           N   tau(  46) = (   0.3333335   0.3849001   1.0191295  )
        47           N   tau(  47) = (   0.1666668   0.6735752   0.4758365  )
        48           N   tau(  48) = (   0.1666668   0.6735752   1.0191295  )
        49           N   tau(  49) = (   0.8333335   0.0962250   0.4758365  )
        50           N   tau(  50) = (   0.8333335   0.0962250   1.0191295  )
        51           N   tau(  51) = (   0.6666668   0.3849001   0.4758365  )
        52           N   tau(  52) = (   0.6666668   0.3849001   1.0191295  )
        53           N   tau(  53) = (   0.5000001   0.6735752   0.4758365  )
        54           N   tau(  54) = (   0.5000001   0.6735752   1.0191295  )
        55           N   tau(  55) = (  -0.0000002   0.1924502   0.2041900  )
        56           N   tau(  56) = (  -0.0000002   0.1924502   0.7474830  )
        57           N   tau(  57) = (  -0.1666669   0.4811254   0.2041900  )
        58           N   tau(  58) = (  -0.1666669   0.4811254   0.7474830  )
        59           N   tau(  59) = (  -0.3333335   0.7698005   0.2041900  )
        60           N   tau(  60) = (  -0.3333335   0.7698005   0.7474830  )
        61           N   tau(  61) = (   0.3333331   0.1924502   0.2041900  )
        62           N   tau(  62) = (   0.3333331   0.1924502   0.7474830  )
        63           N   tau(  63) = (   0.1666665   0.4811254   0.2041900  )
        64           N   tau(  64) = (   0.1666665   0.4811254   0.7474830  )
        65           N   tau(  65) = (  -0.0000002   0.7698005   0.2041900  )
        66           N   tau(  66) = (  -0.0000002   0.7698005   0.7474830  )
        67           N   tau(  67) = (   0.6666665   0.1924502   0.2041900  )
        68           N   tau(  68) = (   0.6666665   0.1924502   0.7474830  )
        69           N   tau(  69) = (   0.4999998   0.4811254   0.2041900  )
        70           N   tau(  70) = (   0.4999998   0.4811254   0.7474830  )
        71           N   tau(  71) = (   0.3333331   0.7698005   0.2041900  )
        72           N   tau(  72) = (   0.3333331   0.7698005   0.7474830  )

   Crystallographic axes

[...]
     atom   19 type  1   force =     0.00000000    0.00000000    0.00000000
     atom   20 type  1   force =     0.00000000    0.00000000    0.00000000
     atom   21 type  1   force =     0.00000000    0.00000000    0.00000000
     atom   22 type  1   force =     0.00000000    0.00000000    0.00000000
     atom   23 type  1   force =     0.00000000    0.00000000    0.00000000
     atom   24 type  1   force =     0.00000000    0.00000000    0.00000000
     atom   25 type  1   force =     0.00000000    0.00000000    0.00000000
     atom   26 type  1   force =     0.00000000    0.00000000    0.00000000
     atom   27 type  1   force =     0.00000000    0.00000000    0.00000000
     atom   28 type  1   force =     0.00000000    0.00000000    0.00000000
     atom   29 type  1   force =     0.00000000    0.00000000    0.00000000
     atom   30 type  1   force =     0.00000000    0.00000000    0.00000000
     atom   31 type  1   force =     0.00000000    0.00000000    0.00000000
     atom   32 type  1   force =     0.00000000    0.00000000    0.00000000
     atom   33 type  1   force =     0.00000000    0.00000000    0.00000000
     atom   34 type  1   force =     0.00000000    0.00000000    0.00000000
     atom   35 type  1   force =     0.00000000    0.00000000    0.00000000
     atom   36 type  1   force =     0.00000000    0.00000000    0.00000000
     atom   37 type  2   force =     0.00000000    0.00000000    0.00000000
     atom   38 type  2   force =     0.00000000    0.00000000    0.00000000
     atom   39 type  2   force =     0.00000000    0.00000000    0.00000000
     atom   40 type  2   force =     0.00000000    0.00000000    0.00000000
     atom   41 type  2   force =     0.00000000    0.00000000    0.00000000
     atom   42 type  2   force =     0.00000000    0.00000000    0.00000000
     atom   43 type  2   force =     0.00000000    0.00000000    0.00000000
     atom   44 type  2   force =     0.00000000    0.00000000    0.00000000
     atom   45 type  2   force =     0.00000000    0.00000000    0.00000000
     atom   46 type  2   force =     0.00000000    0.00000000    0.00000000
     atom   47 type  2   force =     0.00000000    0.00000000    0.00000000
     atom   48 type  2   force =     0.00000000    0.00000000    0.00000000
     atom   49 type  2   force =     0.00000000    0.00000000    0.00000000
     atom   50 type  2   force =     0.00000000    0.00000000    0.00000000
     atom   51 type  2   force =     0.00000000    0.00000000    0.00000000
     atom   52 type  2   force =     0.00000000    0.00000000    0.00000000
     atom   53 type  2   force =     0.00000000    0.00000000    0.00000000
     atom   54 type  2   force =     0.00000000    0.00000000    0.00000000
     atom   55 type  2   force =     0.00000000    0.00000000    0.00000000
     atom   56 type  2   force =     0.00000000    0.00000000    0.00000000
     atom   57 type  2   force =     0.00000000    0.00000000    0.00000000
     atom   58 type  2   force =     0.00000000    0.00000000    0.00000000
     atom   59 type  2   force =     0.00000000    0.00000000    0.00000000
     atom   60 type  2   force =     0.00000000    0.00000000    0.00000000
     atom   61 type  2   force =     0.00000000    0.00000000    0.00000000
     atom   62 type  2   force =     0.00000000    0.00000000    0.00000000
     atom   63 type  2   force =     0.00000000    0.00000000    0.00000000
     atom   64 type  2   force =     0.00000000    0.00000000    0.00000000
     atom   65 type  2   force =     0.00000000    0.00000000    0.00000000
     atom   66 type  2   force =     0.00000000    0.00000000    0.00000000
     atom   67 type  2   force =     0.00000000    0.00000000    0.00000000
     atom   68 type  2   force =     0.00000000    0.00000000    0.00000000
     atom   69 type  2   force =     0.00000000    0.00000000    0.00000000
     atom   70 type  2   force =     0.00000000    0.00000000    0.00000000
     atom   71 type  2   force =     0.00000000    0.00000000    0.00000000
     atom   72 type  2   force =     0.00000000    0.00000000    0.00000000
     The SCF correction term to forces
     atom    1 type  1   force =     0.00002178    0.00001258    0.00005514
     atom    2 type  1   force =     0.00002344    0.00001353   -0.00007930
     atom    3 type  1   force =     0.00000000   -0.00001809    0.00006129
     atom    4 type  1   force =     0.00000000   -0.00001256   -0.00007219
     atom    5 type  1   force =    -0.00001566    0.00000904    0.00006129
     atom    6 type  1   force =    -0.00001088    0.00000628   -0.00007219
     atom    7 type  1   force =     0.00000000    0.00003869    0.00006574
     atom    8 type  1   force =     0.00000000    0.00003732   -0.00007064
     atom    9 type  1   force =     0.00003350   -0.00001934    0.00006574
     atom   10 type  1   force =     0.00003232   -0.00001866   -0.00007065
     atom   11 type  1   force =     0.00001567    0.00000904    0.00006129
     atom   12 type  1   force =     0.00001088    0.00000628   -0.00007219
     atom   13 type  1   force =    -0.00002178    0.00001258    0.00005514
     atom   14 type  1   force =    -0.00002344    0.00001353   -0.00007930
     atom   15 type  1   force =    -0.00003350   -0.00001934    0.00006574
     atom   16 type  1   force =    -0.00003232   -0.00001866   -0.00007064
     atom   17 type  1   force =     0.00000000   -0.00002515    0.00005514
     atom   18 type  1   force =     0.00000000   -0.00002706   -0.00007930
     atom   19 type  1   force =    -0.00000000    0.00001076    0.00005288
     atom   20 type  1   force =    -0.00000000    0.00000721   -0.00002483
     atom   21 type  1   force =    -0.00002427   -0.00001401    0.00004089
     atom   22 type  1   force =    -0.00002702   -0.00001560   -0.00004039
     atom   23 type  1   force =     0.00000932   -0.00000538    0.00005288
     atom   24 type  1   force =     0.00000624   -0.00000360   -0.00002483
     atom   25 type  1   force =     0.00003300    0.00001905    0.00004210
     atom   26 type  1   force =     0.00003005    0.00001735   -0.00003500
     atom   27 type  1   force =     0.00002427   -0.00001401    0.00004089
     atom   28 type  1   force =     0.00002702   -0.00001560   -0.00004039
     atom   29 type  1   force =    -0.00000000    0.00002803    0.00004089
     atom   30 type  1   force =    -0.00000000    0.00003120   -0.00004039
     atom   31 type  1   force =    -0.00003300    0.00001905    0.00004210
     atom   32 type  1   force =    -0.00003006    0.00001735   -0.00003500
     atom   33 type  1   force =    -0.00000000   -0.00003810    0.00004210
     atom   34 type  1   force =    -0.00000000   -0.00003470   -0.00003500
     atom   35 type  1   force =    -0.00000932   -0.00000538    0.00005288
     atom   36 type  1   force =    -0.00000624   -0.00000360   -0.00002483
     atom   37 type  2   force =     0.00000904    0.00000522    0.00001984
     atom   38 type  2   force =     0.00000827    0.00000478   -0.00002191
     atom   39 type  2   force =    -0.00000000   -0.00000077    0.00002229
     atom   40 type  2   force =     0.00000000   -0.00000037   -0.00002538
     atom   41 type  2   force =    -0.00000067    0.00000039    0.00002229
     atom   42 type  2   force =    -0.00000032    0.00000018   -0.00002538
     atom   43 type  2   force =    -0.00000000    0.00001090    0.00002081
     atom   44 type  2   force =    -0.00000000    0.00000777   -0.00002442
     atom   45 type  2   force =     0.00000944   -0.00000545    0.00002081
     atom   46 type  2   force =     0.00000673   -0.00000389   -0.00002442
     atom   47 type  2   force =     0.00000067    0.00000039    0.00002229
     atom   48 type  2   force =     0.00000032    0.00000018   -0.00002538
     atom   49 type  2   force =    -0.00000904    0.00000522    0.00001984
     atom   50 type  2   force =    -0.00000827    0.00000478   -0.00002191
     atom   51 type  2   force =    -0.00000944   -0.00000545    0.00002081
     atom   52 type  2   force =    -0.00000673   -0.00000389   -0.00002442
     atom   53 type  2   force =    -0.00000000   -0.00001044    0.00001984
     atom   54 type  2   force =     0.00000000   -0.00000955   -0.00002191
     atom   55 type  2   force =     0.00000000    0.00000078    0.00002425
     atom   56 type  2   force =     0.00000000    0.00000513   -0.00002384
     atom   57 type  2   force =    -0.00000810   -0.00000468    0.00002459
     atom   58 type  2   force =    -0.00000501   -0.00000289   -0.00002287
     atom   59 type  2   force =     0.00000067   -0.00000039    0.00002425
     atom   60 type  2   force =     0.00000445   -0.00000257   -0.00002384
     atom   61 type  2   force =     0.00000722    0.00000417    0.00002641
     atom   62 type  2   force =     0.00000881    0.00000508   -0.00002314
     atom   63 type  2   force =     0.00000810   -0.00000468    0.00002459
     atom   64 type  2   force =     0.00000501   -0.00000289   -0.00002287
     atom   65 type  2   force =     0.00000000    0.00000935    0.00002459
     atom   66 type  2   force =     0.00000000    0.00000579   -0.00002287
     atom   67 type  2   force =    -0.00000722    0.00000417    0.00002641
     atom   68 type  2   force =    -0.00000881    0.00000508   -0.00002314
     atom   69 type  2   force =     0.00000000   -0.00000834    0.00002641
     atom   70 type  2   force =     0.00000000   -0.00001017   -0.00002314
     atom   71 type  2   force =    -0.00000067   -0.00000039    0.00002425
     atom   72 type  2   force =    -0.00000445   -0.00000257   -0.00002384

     Total force =     0.001377     Total SCF correction =     0.000402
     SCF correction compared to forces is large: reduce conv_thr to get better values

     Computing stress (Cartesian axis) and pressure

[...]

          total   stress  (Ry/bohr**3)                   (kbar)     P=        0.79
   0.00000320  -0.00000000   0.00000000            0.47       -0.00        0.00
  -0.00000000   0.00000320   0.00000000           -0.00        0.47        0.00
   0.00000000   0.00000000   0.00000967            0.00        0.00        1.42

     kinetic stress (kbar)  18452.65     -0.00      0.00
                               -0.00  18452.65      0.00
                                0.00     -0.00  18444.36

     local   stress (kbar)   5446.41     -0.07     -0.00
                               -0.07   5446.32      0.00
                               -0.00      0.00   3813.00

     nonloc. stress (kbar)     57.98      0.00      0.00
                                0.00     57.98     -0.00
                                0.00      0.00     70.52

     hartree stress (kbar)  19596.65     -0.00     -0.00
                               -0.00  19596.65     -0.00
                               -0.00     -0.00  20346.60

     exc-cor stress (kbar)   5217.92      0.00      0.00
                                0.00   5217.92     -0.00
                                0.00     -0.00   5218.14

     corecor stress (kbar) -14110.20     -0.00     -0.00
                               -0.00 -14110.20      0.00
                               -0.00      0.00 -14109.62

     ewald   stress (kbar) -34823.05      0.10      0.00
                                0.10 -34822.93     -0.00
                                0.00     -0.00 -33942.83

     hubbard stress (kbar)      0.00      0.00      0.00
                                0.00      0.00      0.00
                                0.00      0.00      0.00

     DFT-D   stress (kbar)      0.00      0.00      0.00
                                0.00      0.00      0.00
                                0.00      0.00      0.00

     XDM     stress (kbar)      0.00      0.00      0.00
                                0.00      0.00      0.00
                                0.00      0.00      0.00

     dft-nl  stress (kbar)    162.09     -0.00     -0.00
                               -0.00    162.09      0.00
                               -0.00      0.00    161.25

     TS-vdW  stress (kbar)      0.00      0.00      0.00
                                0.00      0.00      0.00
                                0.00      0.00      0.00

     MDB     stress (kbar)      0.00      0.00      0.00
                                0.00      0.00      0.00
                                0.00      0.00      0.00

     3D-RISM stress (kbar)      0.00      0.00      0.00
                                0.00      0.00      0.00
                                0.00      0.00      0.00

[...]

     Non-local corr. energy    =      19.62273487 Ry

 BEEFens 2000 ensemble energies
             -0.158767605530697E+02
             -0.142956891604468E+03
             -0.614875868892983E+02
              0.503043114568261E+02
             -0.102780459359958E+03
             -0.132184053100070E+03
              0.679250885467791E+02
             -0.715199757671201E+01
              0.113232792111309E+03
             -0.489228549932795E+01
              0.555419909887396E+02
              0.230447399187779E+01
              0.228561222915181E+01
             -0.484629618027793E+01
              0.741131158536092E+02
             -0.539599948423948E+02
             -0.111211200752240E+03
             -0.363455580152221E+02
              0.271554470385603E+02
             -0.243726023055729E+01
              0.162327275330623E+03
              0.138162159007209E+03
             -0.790863210669459E+02
              0.286341824674309E+02
             -0.173398967813355E+03
              0.139034500408501E+03
              0.454049068461754E+02
              0.135175927311799E+03
              0.888196067359393E+02
             -0.432330889544877E+02
              0.327232092023070E+02
             -0.638701271994492E+02
              0.178766818028074E+02
              0.869003704890496E+02
              0.921487746525621E+02
             -0.332867642455162E+02
              0.204705595460158E+03
             -0.776937440712862E+02
             -0.559311647617405E+02
              0.820384171124333E+02
              0.366957325128869E+02
              0.614082679782040E+02
             -0.117035816800762E+03
             -0.328181146057022E+01
              0.114886377882511E+03
              0.149226673261552E+03
             -0.148564951397423E+03
              0.105794384506194E+02
              0.560146430117038E+02
              0.272711294892512E+02
              0.621187425564056E+02
              0.131586994535134E+03
             -0.795420745691706E+02
             -0.871962609365507E+02
             -0.113378114335250E+03
             -0.175423284558174E+02
             -0.103418044602338E+03
              0.101275855459907E+02
             -0.191429577846807E+02
             -0.806000586507217E+02
[...]
              0.100579476796869E+03
              0.555710349838939E+02
              0.706089576171221E+02
             -0.114109958007548E+03
             -0.109245701236903E+03
             -0.276365866371275E+02
             -0.107074813687345E+03
              0.171424039838830E+03
              0.146915549964657E+03
              0.702076478808746E+02
              0.190118293232608E+03
             -0.989464422336964E+02
             -0.403186966778252E+02
             -0.561015458229890E+02
              0.157257748826486E+03

 BEEF-vdW xc energy contributions
            1 :    -1441.205648212315
            2 :     1298.115791125774
            3 :    -1058.387961626363
            4 :     792.1918253643478
            5 :    -561.2717690678892
            6 :     395.4620704484898
            7 :    -289.3541368218448
            8 :     217.5493576347812
            9 :    -156.2112092372072
           10 :     96.90048410867621
           11 :    -46.05829339403226
           12 :     14.01994894056133
           13 :    -3.664388531248733
           14 :     7.104851921237241
           15 :    -11.52065560287838
           16 :     8.286914143417334
           17 :     2.065096003110739
           18 :    -12.35191822488650
           19 :     15.87712751691470
           20 :    -12.14638166321174
           21 :     6.883426015154555
           22 :    -6.958209132662660
           23 :     14.74338053396332
           24 :    -26.42148201985037
           25 :     35.24730981329685
           26 :    -36.79840023394217
           27 :     31.96093867052377
           28 :    -25.55935183651013
           29 :     22.14195357717631
           30 :    -22.52098827857208
           31 :    -123.4830135381103
           32 :    -84.61729830148533

     Writing all to output data dir ./GaN.save/

     General routines

     Parallel routines

     PAW routines

   This run was terminated on:   7: 9:44  19Feb2024

   JOB DONE.