     Program PWSCF v.7.1 starts on  1May2024 at 14:41: 3

     Reading input from espresso.pwi
Warning: card &CELL ignored
Warning: card    CELL_DYNAMICS    = 'BFGS' ignored
Warning: card / ignored

     Current dimensions of program PWSCF are:
     Max number of different atomic species (ntypx) = 10
     Max number of k-points (npk) =  40000
     Max angular momentum in pseudopotentials (lmaxx) =  4
     file Ga.pbe-dn-kjpaw_psl.1.0.0.UPF: wavefunction(s)  4S renormalized
     file N.pbe-n-kjpaw_psl.1.0.0.UPF: wavefunction(s)  2S renormalized

     IMPORTANT: XC functional enforced from input :
     Exchange-correlation= BEEF-VDW
                           (   1   4  43  14   2   0   0)
     Any further DFT definition will be discarded
     Please, verify this is what you really want

     K-points division:     npool     =       4
     R & G space division:  proc/nbgrp/npool/nimage =      64
     Subspace diagonalization in iterative solution of the eigenvalue problem:
     a serial algorithm will be used

     Using Slab Decomposition

     bravais-lattice index     =            4
     lattice parameter (alat)  =      30.6565  a.u.
     unit-cell volume          =   24400.9461 (a.u.)^3
     number of atoms/cell      =          300
     number of atomic types    =            2
     number of electrons       =      2709.00
     number of Kohn-Sham states=         1626
     kinetic-energy cutoff     =      70.0000  Ry
     charge density cutoff     =     350.0000  Ry
     scf convergence threshold =      1.0E-07
     mixing beta               =       0.7000
     number of iterations used =            8  plain     mixing
     energy convergence thresh.=      1.0E-04
     force convergence thresh. =      1.0E-03
     Exchange-correlation= BEEF-VDW
                           (   1   4  43  14   2   0   0)
     nstep                     =           50

     celldm(1)=  30.656540  celldm(2)=   0.000000  celldm(3)=   0.977927
     celldm(4)=   0.000000  celldm(5)=   0.000000  celldm(6)=   0.000000

     crystal axes: (cart. coord. in units of alat)
               a(1) = (   1.000000   0.000000   0.000000 )
               a(2) = (  -0.500000   0.866025   0.000000 )
               a(3) = (   0.000000   0.000000   0.977927 )

     reciprocal axes: (cart. coord. in units 2 pi/alat)
               b(1) = (  1.000000  0.577350 -0.000000 )
               b(2) = (  0.000000  1.154701  0.000000 )
               b(3) = (  0.000000 -0.000000  1.022571 )

     PseudoPot. # 1 for Ga read from file:
     //group///packages/espresso/pseudo/psl_1.0.0/pslibrary.1.0.0/pbe/PSEUDOPOTENTIALS/Ga.pbe-dn-kjpaw_psl.1.0.0.UPF
     MD5 check sum: cd2a01e492f15b435d17032472d8505c
     Pseudo is Projector augmented-wave + core cor, Zval = 13.0
     Generated using 'atomic' code by A. Dal Corso  v.7.1
     Shape of augmentation charge: PSQ
     Using radial grid of 1205 points,  6 beta functions with:
                l(1) =   0
                l(2) =   0
                l(3) =   1
                l(4) =   1
                l(5) =   2
                l(6) =   2
     Q(r) pseudized with 0 coefficients

     PseudoPot. # 2 for N  read from file:
     //group///packages/espresso/pseudo/psl_1.0.0/pslibrary.1.0.0/pbe/PSEUDOPOTENTIALS/N.pbe-n-kjpaw_psl.1.0.0.UPF
     MD5 check sum: f77f775694dac7e2c3fe1c82443d1a16
     Pseudo is Projector augmented-wave + core cor, Zval =  5.0
     Generated using 'atomic' code by A. Dal Corso  v.7.1
     Shape of augmentation charge: PSQ
     Using radial grid of 1085 points,  4 beta functions with:
                l(1) =   0
                l(2) =   0
                l(3) =   1
                l(4) =   1
     Q(r) pseudized with 0 coefficients

     atomic species   valence    mass     pseudopotential
        Ga            13.00    69.72300     Ga( 1.00)
        N              5.00    14.00700     N ( 1.00)

      2 Sym. Ops. (no inversion) found

                                    s                        frac. trans.

      isym =  1     identity

 cryst.   s( 1) = (     1          0          0      )
                  (     0          1          0      )
                  (     0          0          1      )

 cart.    s( 1) = (  1.0000000  0.0000000  0.0000000 )
                  (  0.0000000  1.0000000  0.0000000 )
                  (  0.0000000  0.0000000  1.0000000 )

      isym =  2     inv. 180 deg rotation - cryst. axis [0,1,0]

 cryst.   s( 2) = (     1          1          0      )
                  (     0         -1          0      )
                  (     0          0          1      )

 cart.    s( 2) = (  0.5000000  0.8660254  0.0000000 )
                  (  0.8660254 -0.5000000  0.0000000 )
                  (  0.0000000  0.0000000  1.0000000 )

     point group C_s (m)
     there are  2 classes
     the character table:

       E     s
A'     1.00  1.00
A''    1.00 -1.00

     the symmetry operations in each class and the name of the first element:

     E        1
          identity
     s        2
          inv. 180 deg rotation - cryst. axis [0,1,0]

   Cartesian axes

     site n.     atom                  positions (alat units)
         1           Ga  tau(   1) = (   0.1000001   0.0577350   0.1627148  )
         2           Ga  tau(   2) = (   0.1000001   0.0577350   0.4886906  )
         3           Ga  tau(   3) = (   0.1000001   0.0577350   0.8146665  )
         4           Ga  tau(   4) = (   0.0000001   0.2309401   0.1627148  )
         5           Ga  tau(   5) = (   0.0000001   0.2309401   0.4886906  )
         6           Ga  tau(   6) = (   0.0000001   0.2309401   0.8146665  )
         7           Ga  tau(   7) = (  -0.0999999   0.4041451   0.1627148  )
         8           Ga  tau(   8) = (  -0.0999999   0.4041451   0.4886906  )
         9           Ga  tau(   9) = (  -0.0999999   0.4041451   0.8146665  )
        10           Ga  tau(  10) = (  -0.1999999   0.5773502   0.1627148  )
        11           Ga  tau(  11) = (  -0.1999999   0.5773502   0.4886906  )
        12           Ga  tau(  12) = (  -0.1999999   0.5773502   0.8146665  )
        13           Ga  tau(  13) = (  -0.2999999   0.7505553   0.1627148  )
        14           Ga  tau(  14) = (  -0.2999999   0.7505553   0.4886906  )
        15           Ga  tau(  15) = (  -0.2999999   0.7505553   0.8146665  )
        16           Ga  tau(  16) = (   0.3000001   0.0577350   0.1627148  )
        17           Ga  tau(  17) = (   0.3000001   0.0577350   0.4886906  )
        18           Ga  tau(  18) = (   0.3000001   0.0577350   0.8146665  )
        19           Ga  tau(  19) = (   0.2000001   0.2309401   0.1627148  )
        20           Ga  tau(  20) = (   0.2000001   0.2309401   0.4886906  )
        21           Ga  tau(  21) = (   0.2000001   0.2309401   0.8146665  )
        22           Ga  tau(  22) = (   0.1000001   0.4041451   0.1627148  )
        23           Ga  tau(  23) = (   0.1000001   0.4041451   0.4886906  )
        24           Ga  tau(  24) = (   0.1000001   0.4041451   0.8146665  )
        25           Ga  tau(  25) = (   0.0000001   0.5773502   0.1627148  )
        26           Ga  tau(  26) = (   0.0000001   0.5773502   0.4886906  )
        27           Ga  tau(  27) = (   0.0000001   0.5773502   0.8146665  )
        28           Ga  tau(  28) = (  -0.0999999   0.7505553   0.1627148  )
        29           Ga  tau(  29) = (  -0.0999999   0.7505553   0.4886906  )
        30           Ga  tau(  30) = (  -0.0999999   0.7505553   0.8146665  )
        31           Ga  tau(  31) = (   0.5000001   0.0577350   0.1627148  )
        32           Ga  tau(  32) = (   0.5000001   0.0577350   0.4886906  )
        33           Ga  tau(  33) = (   0.5000001   0.0577350   0.8146665  )
        34           Ga  tau(  34) = (   0.4000001   0.2309401   0.1627148  )
        35           Ga  tau(  35) = (   0.4000001   0.2309401   0.4886906  )
        36           Ga  tau(  36) = (   0.4000001   0.2309401   0.8146665  )
        37           Ga  tau(  37) = (   0.3000001   0.4041451   0.1627148  )
        38           Ga  tau(  38) = (   0.3000001   0.4041451   0.4886906  )
        39           Ga  tau(  39) = (   0.3000001   0.4041451   0.8146665  )
        40           Ga  tau(  40) = (   0.2000001   0.5773502   0.1627148  )
        41           Ga  tau(  41) = (   0.2000001   0.5773502   0.4886906  )
        42           Ga  tau(  42) = (   0.2000001   0.5773502   0.8146665  )
        43           Ga  tau(  43) = (   0.1000001   0.7505553   0.1627148  )
        44           Ga  tau(  44) = (   0.1000001   0.7505553   0.4886906  )
        45           Ga  tau(  45) = (   0.1000001   0.7505553   0.8146665  )
        46           Ga  tau(  46) = (   0.7000001   0.0577350   0.1627148  )
        47           Ga  tau(  47) = (   0.7000001   0.0577350   0.4886906  )
        48           Ga  tau(  48) = (   0.7000001   0.0577350   0.8146665  )
        49           Ga  tau(  49) = (   0.6000001   0.2309401   0.1627148  )
        50           Ga  tau(  50) = (   0.6000001   0.2309401   0.4886906  )
        51           Ga  tau(  51) = (   0.6000001   0.2309401   0.8146665  )
        52           Ga  tau(  52) = (   0.5000001   0.4041451   0.1627148  )
        53           Ga  tau(  53) = (   0.5000001   0.4041451   0.4886906  )
        54           Ga  tau(  54) = (   0.5000001   0.4041451   0.8146665  )
        55           Ga  tau(  55) = (   0.4000001   0.5773502   0.1627148  )
        56           Ga  tau(  56) = (   0.4000001   0.5773502   0.4886906  )
        57           Ga  tau(  57) = (   0.4000001   0.5773502   0.8146665  )
        58           Ga  tau(  58) = (   0.3000001   0.7505553   0.1627148  )
        59           Ga  tau(  59) = (   0.3000001   0.7505553   0.4886906  )
        60           Ga  tau(  60) = (   0.3000001   0.7505553   0.8146665  )
[...]
       286           N   tau( 286) = (   0.7999999   0.1154701   0.4484898  )
       287           N   tau( 287) = (   0.7999999   0.1154701   0.7744656  )
       288           N   tau( 288) = (   0.6999999   0.2886752   0.1225140  )
       289           N   tau( 289) = (   0.6999999   0.2886752   0.4484898  )
       290           N   tau( 290) = (   0.6999999   0.2886752   0.7744656  )
       291           N   tau( 291) = (   0.5999999   0.4618803   0.1225140  )
       292           N   tau( 292) = (   0.5999999   0.4618803   0.4484898  )
       293           N   tau( 293) = (   0.5999999   0.4618803   0.7744656  )
       294           N   tau( 294) = (   0.4999999   0.6350854   0.1225140  )
       295           N   tau( 295) = (   0.4999999   0.6350854   0.4484898  )
       296           N   tau( 296) = (   0.4999999   0.6350854   0.7744656  )
       297           N   tau( 297) = (   0.3999999   0.8082905   0.1225140  )
       298           N   tau( 298) = (   0.3999999   0.8082905   0.4484898  )
       299           N   tau( 299) = (   0.3999999   0.8082905   0.7744656  )
       300           Ga  tau( 300) = (   0.1000001   0.0577350   0.2855019  )

   Crystallographic axes

     site n.     atom                  positions (cryst. coord.)
         1           Ga  tau(   1) = (  0.1333334  0.0666666  0.1663874  )
[...]
     atom   45 type  1   force =     0.00000000    0.00000000    0.00000000
     atom   46 type  1   force =     0.00000000    0.00000000    0.00000000
     atom   47 type  1   force =     0.00000000    0.00000000    0.00000000
     atom   48 type  1   force =     0.00000000    0.00000000    0.00000000
     atom   49 type  1   force =     0.00000000    0.00000000    0.00000000
     atom   50 type  1   force =     0.00000000    0.00000000    0.00000000
     atom   51 type  1   force =     0.00000000    0.00000000    0.00000000
     atom   52 type  1   force =     0.00000000    0.00000000    0.00000000
     atom   53 type  1   force =     0.00000000    0.00000000    0.00000000
     atom   54 type  1   force =     0.00000000    0.00000000    0.00000000
     atom   55 type  1   force =     0.00000000    0.00000000    0.00000000
     atom   56 type  1   force =     0.00000000    0.00000000    0.00000000
     atom   57 type  1   force =     0.00000000    0.00000000    0.00000000
     atom   58 type  1   force =     0.00000000    0.00000000    0.00000000
     atom   59 type  1   force =     0.00000000    0.00000000    0.00000000
     atom   60 type  1   force =     0.00000000    0.00000000    0.00000000
[...]
     atom  286 type  2   force =     0.00000000    0.00000000    0.00000000
     atom  287 type  2   force =     0.00000000    0.00000000    0.00000000
     atom  288 type  2   force =     0.00000000    0.00000000    0.00000000
     atom  289 type  2   force =     0.00000000    0.00000000    0.00000000
     atom  290 type  2   force =     0.00000000    0.00000000    0.00000000
     atom  291 type  2   force =     0.00000000    0.00000000    0.00000000
     atom  292 type  2   force =     0.00000000    0.00000000    0.00000000
     atom  293 type  2   force =     0.00000000    0.00000000    0.00000000
     atom  294 type  2   force =     0.00000000    0.00000000    0.00000000
     atom  295 type  2   force =     0.00000000    0.00000000    0.00000000
     atom  296 type  2   force =     0.00000000    0.00000000    0.00000000
     atom  297 type  2   force =     0.00000000    0.00000000    0.00000000
     atom  298 type  2   force =     0.00000000    0.00000000    0.00000000
     atom  299 type  2   force =     0.00000000    0.00000000    0.00000000
     atom  300 type  1   force =     0.00000000    0.00000000    0.00000000
     The SCF correction term to forces
     atom    1 type  1   force =     0.00000124    0.00000072    0.00003215
     atom    2 type  1   force =     0.00000339    0.00000196    0.00001821
     atom    3 type  1   force =     0.00000239    0.00000138    0.00001212
     atom    4 type  1   force =     0.00001101   -0.00001007   -0.00005254
     atom    5 type  1   force =     0.00001338    0.00000207    0.00001320
     atom    6 type  1   force =    -0.00000619    0.00002882    0.00002746
     atom    7 type  1   force =     0.00001801    0.00000398   -0.00004156
     atom    8 type  1   force =     0.00002002   -0.00000558   -0.00000499
     atom    9 type  1   force =     0.00001038    0.00002035    0.00004515
     atom   10 type  1   force =     0.00001245    0.00001361   -0.00004156
     atom   11 type  1   force =     0.00000518    0.00002013   -0.00000499
     atom   12 type  1   force =     0.00002281   -0.00000118    0.00004515
     atom   13 type  1   force =    -0.00000321    0.00001457   -0.00005254
     atom   14 type  1   force =     0.00000848    0.00001055    0.00001320
     atom   15 type  1   force =     0.00002187   -0.00001977    0.00002746
     atom   16 type  1   force =    -0.00001639   -0.00000547   -0.00005425
     atom   17 type  1   force =    -0.00000775   -0.00001080    0.00001587
     atom   18 type  1   force =     0.00002940   -0.00000570    0.00002627
     atom   19 type  1   force =    -0.00001293   -0.00001146   -0.00005425
     atom   20 type  1   force =    -0.00001323   -0.00000131    0.00001587
     atom   21 type  1   force =     0.00000976    0.00002832    0.00002627
     atom   22 type  1   force =    -0.00000159    0.00000288   -0.00003936
     atom   23 type  1   force =    -0.00000076   -0.00001198    0.00000064
     atom   24 type  1   force =     0.00000191    0.00003170    0.00004194
     atom   25 type  1   force =    -0.00000044   -0.00000025   -0.00005394
     atom   26 type  1   force =    -0.00000374   -0.00000216   -0.00000112
     atom   27 type  1   force =     0.00001516    0.00000875    0.00005122
     atom   28 type  1   force =     0.00000170   -0.00000281   -0.00003936
     atom   29 type  1   force =    -0.00001076    0.00000533    0.00000064
     atom   30 type  1   force =     0.00002841   -0.00001419    0.00004194
     atom   31 type  1   force =    -0.00000715   -0.00001953   -0.00004368
     atom   32 type  1   force =    -0.00001640   -0.00001533   -0.00000028
     atom   33 type  1   force =     0.00001262   -0.00001801    0.00004377
     atom   34 type  1   force =    -0.00002302   -0.00001329   -0.00004171
     atom   35 type  1   force =    -0.00002932   -0.00001693    0.00000480
     atom   36 type  1   force =     0.00000674    0.00000389    0.00003890
     atom   37 type  1   force =    -0.00002049    0.00000357   -0.00004368
     atom   38 type  1   force =    -0.00002148   -0.00000654   -0.00000028
     atom   39 type  1   force =    -0.00000928    0.00001993    0.00004377
     atom   40 type  1   force =    -0.00000296   -0.00000044   -0.00005622
     atom   41 type  1   force =     0.00000110   -0.00000304    0.00000178
     atom   42 type  1   force =    -0.00001266    0.00000840    0.00005085
     atom   43 type  1   force =    -0.00000186   -0.00000234   -0.00005622
     atom   44 type  1   force =    -0.00000209    0.00000247    0.00000178
     atom   45 type  1   force =     0.00000095   -0.00001516    0.00005085
     atom   46 type  1   force =     0.00000609   -0.00001729   -0.00004390
     atom   47 type  1   force =     0.00001355   -0.00001351   -0.00000086
     atom   48 type  1   force =    -0.00001432   -0.00001929    0.00004473
     atom   49 type  1   force =     0.00000199   -0.00002283   -0.00004172
     atom   50 type  1   force =     0.00000046   -0.00002210    0.00000604
     atom   51 type  1   force =    -0.00000169   -0.00001027    0.00004762
     atom   52 type  1   force =    -0.00001878    0.00001314   -0.00004172
     atom   53 type  1   force =    -0.00001891    0.00001145    0.00000604
     atom   54 type  1   force =    -0.00000974    0.00000367    0.00004762
     atom   55 type  1   force =    -0.00001193    0.00001392   -0.00004390
     atom   56 type  1   force =    -0.00000492    0.00001849   -0.00000086
     atom   57 type  1   force =    -0.00002387   -0.00000275    0.00004473
     atom   58 type  1   force =    -0.00000324   -0.00000187   -0.00004140
     atom   59 type  1   force =     0.00000795    0.00000459    0.00000328
     atom   60 type  1   force =    -0.00002918   -0.00001685    0.00004257
[...]
     atom  286 type  2   force =     0.00000711   -0.00000527    0.00000046
     atom  287 type  2   force =    -0.00000540   -0.00000482    0.00001524
     atom  288 type  2   force =     0.00000791   -0.00000347   -0.00001824
     atom  289 type  2   force =     0.00001042   -0.00000485   -0.00000243
     atom  290 type  2   force =     0.00000098   -0.00000150    0.00002107
     atom  291 type  2   force =     0.00000095    0.00000859   -0.00001824
     atom  292 type  2   force =     0.00000101    0.00001145   -0.00000243
     atom  293 type  2   force =    -0.00000081    0.00000160    0.00002107
     atom  294 type  2   force =    -0.00000322    0.00000494   -0.00001536
     atom  295 type  2   force =    -0.00000101    0.00000879    0.00000046
     atom  296 type  2   force =    -0.00000687   -0.00000226    0.00001524
     atom  297 type  2   force =    -0.00000086   -0.00000050   -0.00001234
     atom  298 type  2   force =     0.00000352    0.00000203    0.00000157
     atom  299 type  2   force =    -0.00001076   -0.00000621    0.00001078
     atom  300 type  1   force =    -0.00000178   -0.00000103   -0.00007892

     Total force =     0.003562     Total SCF correction =     0.000534
     SCF correction compared to forces is large: reduce conv_thr to get better values

     Computing stress (Cartesian axis) and pressure

     Non-local corr. energy    =      82.11848758 Ry

          total   stress  (Ry/bohr**3)                   (kbar)     P=       18.03
   0.00011249  -0.00000002   0.00000001           16.55       -0.00        0.00
  -0.00000002   0.00011251   0.00000001           -0.00       16.55        0.00
   0.00000001   0.00000001   0.00014260            0.00        0.00       20.98

     kinetic stress (kbar)  18477.86      0.01      0.01
                                0.01  18477.85      0.01
                                0.01      0.01  18478.84

     local   stress (kbar)   5595.42      1.83     -0.38
                                1.83   5593.13     -0.22
                               -0.38     -0.22   3777.79

     nonloc. stress (kbar)     77.84      0.02     -0.01
                                0.02     77.82     -0.01
                               -0.01     -0.01     86.48

     hartree stress (kbar)  19678.46     -0.71      0.13
                               -0.71  19679.29      0.08
                                0.13      0.08  20496.81

     exc-cor stress (kbar)   5263.98     -0.01      0.00
                               -0.01   5263.99      0.00
                                0.00      0.00   5264.67

     corecor stress (kbar) -14196.41      0.00     -0.00
                                0.00 -14196.42     -0.00
                               -0.00     -0.00 -14195.99

     ewald   stress (kbar) -35043.57     -1.14      0.25
                               -1.14 -35042.02      0.14
                                0.25      0.14 -34049.59

     hubbard stress (kbar)      0.00      0.00      0.00
                                0.00      0.00      0.00
                                0.00      0.00      0.00

     DFT-D   stress (kbar)      0.00      0.00      0.00
                                0.00      0.00      0.00
                                0.00      0.00      0.00

     XDM     stress (kbar)      0.00      0.00      0.00
                                0.00      0.00      0.00
                                0.00      0.00      0.00

     dft-nl  stress (kbar)    162.94      0.00     -0.00
                                0.00    162.94     -0.00
                               -0.00     -0.00    161.96

     TS-vdW  stress (kbar)      0.00      0.00      0.00
                                0.00      0.00      0.00
                                0.00      0.00      0.00

     MDB     stress (kbar)      0.00      0.00      0.00
                                0.00      0.00      0.00
                                0.00      0.00      0.00

     3D-RISM stress (kbar)      0.00      0.00      0.00
                                0.00      0.00      0.00
                                0.00      0.00      0.00

     BFGS Geometry Optimization
     Energy error            =      0.0E+00 Ry
     Gradient error          =      8.6E-04 Ry/Bohr

     bfgs converged in   1 scf cycles and   0 bfgs steps
     (criteria: energy <  1.0E-04 Ry, force <  1.0E-03 Ry/Bohr)

     End of BFGS Geometry Optimization

     Final energy             =  -47096.7318825384 Ry
Begin final coordinates

ATOMIC_POSITIONS (angstrom)
Ga            1.6210339958        0.9359029429        2.3444048956
Ga            1.6208490660        0.9357961736        7.8740463666
Ga            1.6217172978        0.9362974475       13.1871123664
Ga           -0.0047293837        3.7277415901        2.6315521908
Ga           -0.0102951266        3.7811933655        7.9754210703
Ga           -0.0020497313        3.7575140039       13.1902626016
Ga           -1.6237870741        6.5563349989        2.6355262704
Ga           -1.6261118953        6.5645718012        7.9351559097
Ga           -1.6225840438        6.5596081204       13.2220170045
Ga           -3.2453106412        9.3648962030        2.6355262704
Ga           -3.2393397718        9.3587644476        7.9351559097
Ga           -3.2418745197        9.3643014970       13.2220170045
Ga           -4.8854155449       12.1813379974        2.6315521908
Ga           -4.8419078210       12.1497920349        7.9754210703
Ga           -4.8582920521       12.1687724375       13.1902626016
Ga            4.8530578643        0.9511326727        2.6315620190
Ga            4.9020863736        0.9275876222        7.9750435135
Ga            4.8779351280        0.9329248106       13.1902814204
Ga            3.2502352629        3.7273028538        2.6315620190
Ga            3.2543589057        3.7815353136        7.9750435135
Ga            3.2469054236        3.7579511272       13.1902814204
Ga            1.6223530502        6.5448125278        2.6443167577
Ga            1.6226073457        6.5610238077        7.9242851721
Ga            1.6228526565        6.5622013900       13.2258024670
Ga            0.0003803269        9.3664226211        2.6410893368
Ga            0.0008156598        9.3666739606        7.9264648190
Ga            0.0009217304        9.3667352005       13.2205439531
Ga           -1.6322193318       12.1818972505        2.6443167577
Ga           -1.6180528039       12.1740118369        7.9242851721
Ga           -1.6169103323       12.1736354911       13.2258024670
Ga            8.1120875006        0.9379311287        2.6352250443
Ga            8.1198433873        0.9353183171        7.9352827813
Ga            8.1144637624        0.9352535942       13.2220444417
Ga            6.4894585377        3.7466891628        2.6358961118
Ga            6.4940138378        3.7493191666        7.9348071204
Ga            6.4937369701        3.7491593169       13.2210780599
Ga            4.8683172086        6.5563060827        2.6352250443
Ga            4.8699323908        6.5643292834        7.9352827813
Ga            4.8671865267        6.5597027531       13.2220444417
Ga            3.2448344401        9.3663202722        2.6410888235
Ga            3.2438394140        9.3663428981        7.9266725083
Ga            3.2443997830        9.3665654206       13.2208346262
Ga            1.6225187468       12.1762534791        2.6410888235
Ga            1.6220408283       12.1753804483        7.9266725083
Ga            1.6225137229       12.1757544808       13.2208346262
Ga           11.3544075539        0.9375963326        2.6349641370
Ga           11.3451965972        0.9349952945        7.9355903880
Ga           11.3523784335        0.9349580020       13.2220413920
Ga            9.7337013629        3.7465687587        2.6379105678
Ga            9.7333546313        3.7479265150        7.9315782664
Ga            9.7334725483        3.7475408348       13.2194321725
Ga            8.1114756773        6.5563460676        2.6379105678
Ga            8.1124781629        6.5553669111        7.9315782664
Ga            8.1122031126        6.5556618703       13.2194321725
Ga            6.4891872934        9.3644050141        2.6349641370
Ga            6.4823292499        9.3577286107        7.9355903880
Ga            6.4858878718        9.3639669096       13.2220413920
Ga            4.8770255611       12.1819550599        2.6442054686
Ga            4.8612083157       12.1728229690        7.9248027246
Ga            4.8614147727       12.1729421670       13.2261273178
[...]
N            12.9578152835        1.8759126478        7.2853764505
N            12.9655935520        1.8794571599       12.5657047925
N            11.3542101536        4.6845656311        1.9863462717
N            11.3524793177        4.6853164902        7.2776609997
N            11.3533416875        4.6849439943       12.5657201148
N             9.7340555989        7.4907556360        1.9863462717
N             9.7338404441        7.4888812586        7.2776609997
N             9.7339490380        7.4898143407       12.5657201148
N             8.1081992257       10.2946791086        1.9809300431
N             8.1034933301       10.2838449077        7.2853764505
N             8.1104521019       10.2888088298       12.5657047925
N             6.4969919442       13.1172472371        1.9838558713
N             6.4874745278       13.1117523542        7.2885890198
N             6.4761709267       13.1052262171       12.5629321388
Ga            1.6208673267        0.9358067164        4.5791368064
End final coordinates

     Writing all to output data dir ./GaN.save/

     General routines

     Parallel routines

     PAW routines

   This run was terminated on:  15:55:20   1May2024

   JOB DONE.