     Program PWSCF v.7.1 starts on  2May2024 at 11:28:32

     Reading input from espresso.pwi
Warning: card &CELL ignored
Warning: card    CELL_DYNAMICS    = 'BFGS' ignored
Warning: card / ignored

     Current dimensions of program PWSCF are:
     Max number of different atomic species (ntypx) = 10
     Max number of k-points (npk) =  40000
     Max angular momentum in pseudopotentials (lmaxx) =  4
     file Ga.pbe-dn-kjpaw_psl.1.0.0.UPF: wavefunction(s)  4S renormalized
     file N.pbe-n-kjpaw_psl.1.0.0.UPF: wavefunction(s)  2S renormalized

     IMPORTANT: XC functional enforced from input :
     Exchange-correlation= BEEF-VDW
                           (   1   4  43  14   2   0   0)
     Any further DFT definition will be discarded
     Please, verify this is what you really want

     K-points division:     npool     =       4
     R & G space division:  proc/nbgrp/npool/nimage =      64
     Subspace diagonalization in iterative solution of the eigenvalue problem:
     a serial algorithm will be used

     Using Slab Decomposition

     bravais-lattice index     =            4
     lattice parameter (alat)  =      30.6565  a.u.
     unit-cell volume          =   24400.9461 (a.u.)^3
     number of atoms/cell      =          300
     number of atomic types    =            2
     number of electrons       =      2709.00
     number of Kohn-Sham states=         1626
     kinetic-energy cutoff     =      70.0000  Ry
     charge density cutoff     =     350.0000  Ry
     scf convergence threshold =      1.0E-07
     mixing beta               =       0.7000
     number of iterations used =            8  plain     mixing
     Exchange-correlation= BEEF-VDW
                           (   1   4  43  14   2   0   0)

     celldm(1)=  30.656540  celldm(2)=   0.000000  celldm(3)=   0.977927
     celldm(4)=   0.000000  celldm(5)=   0.000000  celldm(6)=   0.000000

     crystal axes: (cart. coord. in units of alat)
               a(1) = (   1.000000   0.000000   0.000000 )
               a(2) = (  -0.500000   0.866025   0.000000 )
               a(3) = (   0.000000   0.000000   0.977927 )

     reciprocal axes: (cart. coord. in units 2 pi/alat)
               b(1) = (  1.000000  0.577350 -0.000000 )
               b(2) = (  0.000000  1.154701  0.000000 )
               b(3) = (  0.000000 -0.000000  1.022571 )

     PseudoPot. # 1 for Ga read from file:
     //group///packages/espresso/pseudo/psl_1.0.0/pslibrary.1.0.0/pbe/PSEUDOPOTENTIALS/Ga.pbe-dn-kjpaw_psl.1.0.0.UPF
     MD5 check sum: cd2a01e492f15b435d17032472d8505c
     Pseudo is Projector augmented-wave + core cor, Zval = 13.0
     Generated using 'atomic' code by A. Dal Corso  v.7.1
     Shape of augmentation charge: PSQ
     Using radial grid of 1205 points,  6 beta functions with:
                l(1) =   0
                l(2) =   0
                l(3) =   1
                l(4) =   1
                l(5) =   2
                l(6) =   2
     Q(r) pseudized with 0 coefficients

     PseudoPot. # 2 for N  read from file:
     //group///packages/espresso/pseudo/psl_1.0.0/pslibrary.1.0.0/pbe/PSEUDOPOTENTIALS/N.pbe-n-kjpaw_psl.1.0.0.UPF
     MD5 check sum: f77f775694dac7e2c3fe1c82443d1a16
     Pseudo is Projector augmented-wave + core cor, Zval =  5.0
     Generated using 'atomic' code by A. Dal Corso  v.7.1
     Shape of augmentation charge: PSQ
     Using radial grid of 1085 points,  4 beta functions with:
                l(1) =   0
                l(2) =   0
                l(3) =   1
                l(4) =   1
     Q(r) pseudized with 0 coefficients

     atomic species   valence    mass     pseudopotential
        Ga            13.00    69.72300     Ga( 1.00)
        N              5.00    14.00700     N ( 1.00)

      2 Sym. Ops. (no inversion) found

                                    s                        frac. trans.

      isym =  1     identity

 cryst.   s( 1) = (     1          0          0      )
                  (     0          1          0      )
                  (     0          0          1      )

 cart.    s( 1) = (  1.0000000  0.0000000  0.0000000 )
                  (  0.0000000  1.0000000  0.0000000 )
                  (  0.0000000  0.0000000  1.0000000 )

      isym =  2     inv. 180 deg rotation - cryst. axis [0,1,0]

 cryst.   s( 2) = (     1          1          0      )
                  (     0         -1          0      )
                  (     0          0          1      )

 cart.    s( 2) = (  0.5000000  0.8660254  0.0000000 )
                  (  0.8660254 -0.5000000  0.0000000 )
                  (  0.0000000  0.0000000  1.0000000 )

     point group C_s (m)
     there are  2 classes
     the character table:

       E     s
A'     1.00  1.00
A''    1.00 -1.00

     the symmetry operations in each class and the name of the first element:

     E        1
          identity
     s        2
          inv. 180 deg rotation - cryst. axis [0,1,0]

   Cartesian axes

     site n.     atom                  positions (alat units)
         1           Ga  tau(   1) = (   0.1000001   0.0577350   0.1627148  )
         2           Ga  tau(   2) = (   0.1000001   0.0577350   0.4886906  )
         3           Ga  tau(   3) = (   0.1000001   0.0577350   0.8146665  )
         4           Ga  tau(   4) = (   0.0000001   0.2309401   0.1627148  )
         5           Ga  tau(   5) = (   0.0000001   0.2309401   0.4886906  )
         6           Ga  tau(   6) = (   0.0000001   0.2309401   0.8146665  )
         7           Ga  tau(   7) = (  -0.0999999   0.4041451   0.1627148  )
         8           Ga  tau(   8) = (  -0.0999999   0.4041451   0.4886906  )
         9           Ga  tau(   9) = (  -0.0999999   0.4041451   0.8146665  )
        10           Ga  tau(  10) = (  -0.1999999   0.5773502   0.1627148  )
        11           Ga  tau(  11) = (  -0.1999999   0.5773502   0.4886906  )
        12           Ga  tau(  12) = (  -0.1999999   0.5773502   0.8146665  )
        13           Ga  tau(  13) = (  -0.2999999   0.7505553   0.1627148  )
        14           Ga  tau(  14) = (  -0.2999999   0.7505553   0.4886906  )
        15           Ga  tau(  15) = (  -0.2999999   0.7505553   0.8146665  )
        16           Ga  tau(  16) = (   0.3000001   0.0577350   0.1627148  )
        17           Ga  tau(  17) = (   0.3000001   0.0577350   0.4886906  )
        18           Ga  tau(  18) = (   0.3000001   0.0577350   0.8146665  )
        19           Ga  tau(  19) = (   0.2000001   0.2309401   0.1627148  )
        20           Ga  tau(  20) = (   0.2000001   0.2309401   0.4886906  )
        21           Ga  tau(  21) = (   0.2000001   0.2309401   0.8146665  )
        22           Ga  tau(  22) = (   0.1000001   0.4041451   0.1627148  )
        23           Ga  tau(  23) = (   0.1000001   0.4041451   0.4886906  )
        24           Ga  tau(  24) = (   0.1000001   0.4041451   0.8146665  )
        25           Ga  tau(  25) = (   0.0000001   0.5773502   0.1627148  )
        26           Ga  tau(  26) = (   0.0000001   0.5773502   0.4886906  )
        27           Ga  tau(  27) = (   0.0000001   0.5773502   0.8146665  )
        28           Ga  tau(  28) = (  -0.0999999   0.7505553   0.1627148  )
        29           Ga  tau(  29) = (  -0.0999999   0.7505553   0.4886906  )
        30           Ga  tau(  30) = (  -0.0999999   0.7505553   0.8146665  )
        31           Ga  tau(  31) = (   0.5000001   0.0577350   0.1627148  )
        32           Ga  tau(  32) = (   0.5000001   0.0577350   0.4886906  )
        33           Ga  tau(  33) = (   0.5000001   0.0577350   0.8146665  )
        34           Ga  tau(  34) = (   0.4000001   0.2309401   0.1627148  )
        35           Ga  tau(  35) = (   0.4000001   0.2309401   0.4886906  )
        36           Ga  tau(  36) = (   0.4000001   0.2309401   0.8146665  )
        37           Ga  tau(  37) = (   0.3000001   0.4041451   0.1627148  )
        38           Ga  tau(  38) = (   0.3000001   0.4041451   0.4886906  )
        39           Ga  tau(  39) = (   0.3000001   0.4041451   0.8146665  )
        40           Ga  tau(  40) = (   0.2000001   0.5773502   0.1627148  )
        41           Ga  tau(  41) = (   0.2000001   0.5773502   0.4886906  )
        42           Ga  tau(  42) = (   0.2000001   0.5773502   0.8146665  )
        43           Ga  tau(  43) = (   0.1000001   0.7505553   0.1627148  )
        44           Ga  tau(  44) = (   0.1000001   0.7505553   0.4886906  )
        45           Ga  tau(  45) = (   0.1000001   0.7505553   0.8146665  )
        46           Ga  tau(  46) = (   0.7000001   0.0577350   0.1627148  )
        47           Ga  tau(  47) = (   0.7000001   0.0577350   0.4886906  )
        48           Ga  tau(  48) = (   0.7000001   0.0577350   0.8146665  )
        49           Ga  tau(  49) = (   0.6000001   0.2309401   0.1627148  )
        50           Ga  tau(  50) = (   0.6000001   0.2309401   0.4886906  )
        51           Ga  tau(  51) = (   0.6000001   0.2309401   0.8146665  )
        52           Ga  tau(  52) = (   0.5000001   0.4041451   0.1627148  )
        53           Ga  tau(  53) = (   0.5000001   0.4041451   0.4886906  )
        54           Ga  tau(  54) = (   0.5000001   0.4041451   0.8146665  )
        55           Ga  tau(  55) = (   0.4000001   0.5773502   0.1627148  )
        56           Ga  tau(  56) = (   0.4000001   0.5773502   0.4886906  )
        57           Ga  tau(  57) = (   0.4000001   0.5773502   0.8146665  )
        58           Ga  tau(  58) = (   0.3000001   0.7505553   0.1627148  )
        59           Ga  tau(  59) = (   0.3000001   0.7505553   0.4886906  )
        60           Ga  tau(  60) = (   0.3000001   0.7505553   0.8146665  )
[...]
       286           N   tau( 286) = (   0.7999999   0.1154701   0.4484898  )
       287           N   tau( 287) = (   0.7999999   0.1154701   0.7744656  )
       288           N   tau( 288) = (   0.6999999   0.2886752   0.1225140  )
       289           N   tau( 289) = (   0.6999999   0.2886752   0.4484898  )
       290           N   tau( 290) = (   0.6999999   0.2886752   0.7744656  )
       291           N   tau( 291) = (   0.5999999   0.4618803   0.1225140  )
       292           N   tau( 292) = (   0.5999999   0.4618803   0.4484898  )
       293           N   tau( 293) = (   0.5999999   0.4618803   0.7744656  )
       294           N   tau( 294) = (   0.4999999   0.6350854   0.1225140  )
       295           N   tau( 295) = (   0.4999999   0.6350854   0.4484898  )
       296           N   tau( 296) = (   0.4999999   0.6350854   0.7744656  )
       297           N   tau( 297) = (   0.3999999   0.8082905   0.1225140  )
       298           N   tau( 298) = (   0.3999999   0.8082905   0.4484898  )
       299           N   tau( 299) = (   0.3999999   0.8082905   0.7744656  )
       300           Ga  tau( 300) = (   0.1000001   0.0577350   0.2855019  )

   Crystallographic axes

     site n.     atom                  positions (cryst. coord.)
         1           Ga  tau(   1) = (  0.1333334  0.0666666  0.1663874  )
         2           Ga  tau(   2) = (  0.1333334  0.0666666  0.4997208  )
         3           Ga  tau(   3) = (  0.1333334  0.0666666  0.8330541  )
[...]
     atom   26 type  1   force =     0.00000000    0.00000000    0.00000000
     atom   27 type  1   force =     0.00000000    0.00000000    0.00000000
     atom   28 type  1   force =     0.00000000    0.00000000    0.00000000
     atom   29 type  1   force =     0.00000000    0.00000000    0.00000000
     atom   30 type  1   force =     0.00000000    0.00000000    0.00000000
     atom   31 type  1   force =     0.00000000    0.00000000    0.00000000
     atom   32 type  1   force =     0.00000000    0.00000000    0.00000000
     atom   33 type  1   force =     0.00000000    0.00000000    0.00000000
     atom   34 type  1   force =     0.00000000    0.00000000    0.00000000
     atom   35 type  1   force =     0.00000000    0.00000000    0.00000000
     atom   36 type  1   force =     0.00000000    0.00000000    0.00000000
     atom   37 type  1   force =     0.00000000    0.00000000    0.00000000
     atom   38 type  1   force =     0.00000000    0.00000000    0.00000000
     atom   39 type  1   force =     0.00000000    0.00000000    0.00000000
     atom   40 type  1   force =     0.00000000    0.00000000    0.00000000
     atom   41 type  1   force =     0.00000000    0.00000000    0.00000000
     atom   42 type  1   force =     0.00000000    0.00000000    0.00000000
     atom   43 type  1   force =     0.00000000    0.00000000    0.00000000
     atom   44 type  1   force =     0.00000000    0.00000000    0.00000000
     atom   45 type  1   force =     0.00000000    0.00000000    0.00000000
     atom   46 type  1   force =     0.00000000    0.00000000    0.00000000
     atom   47 type  1   force =     0.00000000    0.00000000    0.00000000
     atom   48 type  1   force =     0.00000000    0.00000000    0.00000000
     atom   49 type  1   force =     0.00000000    0.00000000    0.00000000
     atom   50 type  1   force =     0.00000000    0.00000000    0.00000000
     atom   51 type  1   force =     0.00000000    0.00000000    0.00000000
     atom   52 type  1   force =     0.00000000    0.00000000    0.00000000
     atom   53 type  1   force =     0.00000000    0.00000000    0.00000000
     atom   54 type  1   force =     0.00000000    0.00000000    0.00000000
     atom   55 type  1   force =     0.00000000    0.00000000    0.00000000
     atom   56 type  1   force =     0.00000000    0.00000000    0.00000000
     atom   57 type  1   force =     0.00000000    0.00000000    0.00000000
     atom   58 type  1   force =     0.00000000    0.00000000    0.00000000
     atom   59 type  1   force =     0.00000000    0.00000000    0.00000000
     atom   60 type  1   force =     0.00000000    0.00000000    0.00000000
[...]
     atom  286 type  2   force =     0.00000000    0.00000000    0.00000000
     atom  287 type  2   force =     0.00000000    0.00000000    0.00000000
     atom  288 type  2   force =     0.00000000    0.00000000    0.00000000
     atom  289 type  2   force =     0.00000000    0.00000000    0.00000000
     atom  290 type  2   force =     0.00000000    0.00000000    0.00000000
     atom  291 type  2   force =     0.00000000    0.00000000    0.00000000
     atom  292 type  2   force =     0.00000000    0.00000000    0.00000000
     atom  293 type  2   force =     0.00000000    0.00000000    0.00000000
     atom  294 type  2   force =     0.00000000    0.00000000    0.00000000
     atom  295 type  2   force =     0.00000000    0.00000000    0.00000000
     atom  296 type  2   force =     0.00000000    0.00000000    0.00000000
     atom  297 type  2   force =     0.00000000    0.00000000    0.00000000
     atom  298 type  2   force =     0.00000000    0.00000000    0.00000000
     atom  299 type  2   force =     0.00000000    0.00000000    0.00000000
     atom  300 type  1   force =     0.00000000    0.00000000    0.00000000
     The SCF correction term to forces
     atom    1 type  1   force =     0.00000395    0.00000228    0.00010047
     atom    2 type  1   force =     0.00000808    0.00000467   -0.00004955
     atom    3 type  1   force =     0.00000284    0.00000164   -0.00010531
     atom    4 type  1   force =    -0.00001403    0.00004172    0.00009506
     atom    5 type  1   force =     0.00002711   -0.00003369   -0.00002406
     atom    6 type  1   force =    -0.00002105    0.00004876   -0.00006649
     atom    7 type  1   force =     0.00000907   -0.00000128    0.00003158
     atom    8 type  1   force =     0.00002236   -0.00002668   -0.00001793
     atom    9 type  1   force =    -0.00000296    0.00002538   -0.00001431
     atom   10 type  1   force =     0.00000342    0.00000849    0.00003158
     atom   11 type  1   force =    -0.00001192    0.00003270   -0.00001793
     atom   12 type  1   force =     0.00002050   -0.00001525   -0.00001431
     atom   13 type  1   force =     0.00002912   -0.00003301    0.00009506
     atom   14 type  1   force =    -0.00001562    0.00004032   -0.00002406
     atom   15 type  1   force =     0.00003170   -0.00004261   -0.00006649
     atom   16 type  1   force =     0.00004281   -0.00000399    0.00010191
     atom   17 type  1   force =    -0.00004627    0.00000065   -0.00002634
     atom   18 type  1   force =     0.00005481   -0.00000194   -0.00006776
     atom   19 type  1   force =     0.00001795    0.00003907    0.00010191
     atom   20 type  1   force =    -0.00002257   -0.00004040   -0.00002634
     atom   21 type  1   force =     0.00002573    0.00004843   -0.00006776
     atom   22 type  1   force =     0.00000214   -0.00000333    0.00004253
     atom   23 type  1   force =     0.00000180   -0.00004647   -0.00001496
     atom   24 type  1   force =     0.00000275    0.00004373   -0.00002188
     atom   25 type  1   force =    -0.00000852   -0.00000492    0.00000497
     atom   26 type  1   force =    -0.00001299   -0.00000750   -0.00000618
     atom   27 type  1   force =     0.00001328    0.00000767   -0.00000074
     atom   28 type  1   force =    -0.00000181    0.00000352    0.00004253
     atom   29 type  1   force =    -0.00003934    0.00002479   -0.00001496
     atom   30 type  1   force =     0.00003924   -0.00001948   -0.00002188
     atom   31 type  1   force =    -0.00000834   -0.00000825    0.00003360
     atom   32 type  1   force =    -0.00003616   -0.00000648   -0.00001612
     atom   33 type  1   force =     0.00002415   -0.00000873   -0.00001571
     atom   34 type  1   force =    -0.00001619   -0.00000935    0.00004451
     atom   35 type  1   force =    -0.00005390   -0.00003112   -0.00001486
     atom   36 type  1   force =     0.00002691    0.00001554   -0.00002752
     atom   37 type  1   force =    -0.00001131   -0.00000310    0.00003360
     atom   38 type  1   force =    -0.00002370   -0.00002807   -0.00001612
     atom   39 type  1   force =     0.00000451    0.00002528   -0.00001571
     atom   40 type  1   force =     0.00000897   -0.00000601    0.00000364
     atom   41 type  1   force =     0.00001312   -0.00000898   -0.00000407
     atom   42 type  1   force =    -0.00000922    0.00000743   -0.00000110
     atom   43 type  1   force =    -0.00000072    0.00001077    0.00000364
     atom   44 type  1   force =    -0.00000121    0.00001585   -0.00000407
     atom   45 type  1   force =     0.00000183   -0.00001170   -0.00000110
     atom   46 type  1   force =     0.00000544   -0.00000775    0.00003200
     atom   47 type  1   force =     0.00003202   -0.00000587   -0.00001585
     atom   48 type  1   force =    -0.00002567   -0.00001080   -0.00001479
     atom   49 type  1   force =     0.00000042   -0.00002551    0.00002034
     atom   50 type  1   force =    -0.00000065   -0.00002679   -0.00000156
     atom   51 type  1   force =    -0.00000211   -0.00000241   -0.00000626
     atom   52 type  1   force =    -0.00002189    0.00001312    0.00002034
     atom   53 type  1   force =    -0.00002353    0.00001283   -0.00000156
     atom   54 type  1   force =    -0.00000314   -0.00000062   -0.00000626
     atom   55 type  1   force =    -0.00000399    0.00000859    0.00003200
     atom   56 type  1   force =     0.00001092    0.00003067   -0.00001585
     atom   57 type  1   force =    -0.00002219   -0.00001683   -0.00001479
     atom   58 type  1   force =     0.00000145    0.00000084    0.00004096
     atom   59 type  1   force =     0.00003669    0.00002119   -0.00001278
     atom   60 type  1   force =    -0.00003990   -0.00002304   -0.00002127
[...]
     atom  286 type  2   force =     0.00002083   -0.00000619   -0.00000406
     atom  287 type  2   force =    -0.00001169   -0.00000193   -0.00001885
     atom  288 type  2   force =     0.00000544   -0.00000308    0.00000671
     atom  289 type  2   force =     0.00001447   -0.00000821   -0.00000177
     atom  290 type  2   force =    -0.00000260    0.00000013   -0.00000493
     atom  291 type  2   force =     0.00000005    0.00000625    0.00000671
     atom  292 type  2   force =     0.00000013    0.00001663   -0.00000177
     atom  293 type  2   force =    -0.00000119   -0.00000231   -0.00000493
     atom  294 type  2   force =    -0.00000867   -0.00000917    0.00002271
     atom  295 type  2   force =     0.00000506    0.00002113   -0.00000406
     atom  296 type  2   force =    -0.00000751   -0.00000916   -0.00001885
     atom  297 type  2   force =    -0.00002126   -0.00001228    0.00003301
     atom  298 type  2   force =     0.00002039    0.00001177   -0.00000622
     atom  299 type  2   force =    -0.00001546   -0.00000893   -0.00002912
     atom  300 type  1   force =     0.00001104    0.00000637    0.00025883

     Total force =     0.003582     Total SCF correction =     0.000804
     SCF correction compared to forces is large: reduce conv_thr to get better values

     Computing stress (Cartesian axis) and pressure

[...]

          total   stress  (Ry/bohr**3)                   (kbar)     P=       18.03
   0.00011250  -0.00000002   0.00000001           16.55       -0.00        0.00
  -0.00000002   0.00011252   0.00000001           -0.00       16.55        0.00
   0.00000001   0.00000001   0.00014260            0.00        0.00       20.98

     kinetic stress (kbar)  18477.86      0.01      0.01
                                0.01  18477.85      0.01
                                0.01      0.01  18478.84

     local   stress (kbar)   5595.42      1.83     -0.38
                                1.83   5593.13     -0.22
                               -0.38     -0.22   3777.78

     nonloc. stress (kbar)     77.84      0.02     -0.01
                                0.02     77.82     -0.01
                               -0.01     -0.01     86.48

     hartree stress (kbar)  19678.46     -0.71      0.13
                               -0.71  19679.28      0.08
                                0.13      0.08  20496.81

     exc-cor stress (kbar)   5263.98     -0.01      0.00
                               -0.01   5263.99      0.00
                                0.00      0.00   5264.67

     corecor stress (kbar) -14196.41      0.00     -0.00
                                0.00 -14196.42     -0.00
                               -0.00     -0.00 -14195.99

     ewald   stress (kbar) -35043.57     -1.14      0.25
                               -1.14 -35042.02      0.14
                                0.25      0.14 -34049.59

     hubbard stress (kbar)      0.00      0.00      0.00
                                0.00      0.00      0.00
                                0.00      0.00      0.00

     DFT-D   stress (kbar)      0.00      0.00      0.00
                                0.00      0.00      0.00
                                0.00      0.00      0.00

     XDM     stress (kbar)      0.00      0.00      0.00
                                0.00      0.00      0.00
                                0.00      0.00      0.00

     dft-nl  stress (kbar)    162.94      0.00     -0.00
                                0.00    162.94     -0.00
                               -0.00     -0.00    161.96

     TS-vdW  stress (kbar)      0.00      0.00      0.00
                                0.00      0.00      0.00
                                0.00      0.00      0.00

     MDB     stress (kbar)      0.00      0.00      0.00
                                0.00      0.00      0.00
                                0.00      0.00      0.00

     3D-RISM stress (kbar)      0.00      0.00      0.00
                                0.00      0.00      0.00
                                0.00      0.00      0.00

[...]

     Non-local corr. energy    =      82.11848781 Ry

 BEEFens 2000 ensemble energies
             -0.664487156049643E+02
             -0.598630561347439E+03
             -0.257477929192254E+03
              0.210649675113662E+03
             -0.430536232887039E+03
             -0.553604432335593E+03
              0.284333806121225E+03
             -0.298261305714836E+02
              0.474237502880365E+03
             -0.204815931261955E+02
              0.232643423889205E+03
              0.974199407051617E+01
              0.941551220776319E+01
             -0.202654026307023E+02
              0.310301153070565E+03
             -0.225950284712552E+03
             -0.465626634198776E+03
             -0.152051511228680E+03
              0.113799167318758E+03
             -0.102223497030654E+02
              0.679753351541819E+03
              0.578422255232074E+03
             -0.331326418992305E+03
              0.119849089108493E+03
             -0.726128763519244E+03
              0.582258141947921E+03
              0.190131800217179E+03
              0.565870291106533E+03
              0.371905312732339E+03
             -0.180932784347422E+03
              0.136971700042335E+03
             -0.267342705262546E+03
              0.749403455187210E+02
              0.363954976158452E+03
              0.385816448314661E+03
             -0.139417759116854E+03
              0.857226760279249E+03
             -0.325464224002986E+03
             -0.234194219349940E+03
              0.343544980122661E+03
              0.153732755482207E+03
              0.257123242764555E+03
             -0.490122636209547E+03
             -0.138010774375143E+02
              0.481025330405669E+03
              0.624895078520316E+03
             -0.622207903583172E+03
              0.442960769460794E+02
              0.234531887800661E+03
              0.114414736109125E+03
              0.260027650081059E+03
              0.551050798831905E+03
             -0.333137787385155E+03
             -0.365226532880003E+03
             -0.474858785612049E+03
             -0.733885740059009E+02
             -0.433091465266317E+03
              0.424719366918102E+02
             -0.800497981297767E+02
             -0.337538854209806E+03
[...]
              0.421136828370809E+03
              0.232782157764609E+03
              0.295642877094060E+03
             -0.477908835626334E+03
             -0.457719641433930E+03
             -0.115653370409055E+03
             -0.448491088330133E+03
              0.717866243653032E+03
              0.615198369261117E+03
              0.293968030180604E+03
              0.796223897574077E+03
             -0.414277731721647E+03
             -0.168817438746063E+03
             -0.235010622531035E+03
              0.658638976106245E+03

 BEEF-vdW xc energy contributions
            1 :    -6036.072430867396
            2 :     5437.565961741655
            3 :    -4434.539913753639
            4 :     3320.210209366708
            5 :    -2352.935071370222
            6 :     1658.025507270866
            7 :    -1213.453562931342
            8 :     913.1788932054997
            9 :    -657.1015606423716
           10 :     409.2014439929480
           11 :    -195.9161223413776
           12 :     60.57369306111832
           13 :    -15.83556093671359
           14 :     29.37061501019525
           15 :    -47.74871084926872
           16 :     34.51050612246672
           17 :     8.735607923896168
           18 :    -52.26457937732994
           19 :     67.82648765039175
           20 :    -52.74490027288630
           21 :     30.47173474506417
           22 :    -29.75640390840817
           23 :     61.02541358604685
           24 :    -108.9324576272456
           25 :     145.6058670659895
           26 :    -152.4975314580252
           27 :     133.0791577381897
           28 :    -107.3767831213227
           29 :     94.37043910585544
           30 :    -97.26848410119601
           31 :    -516.8102883433567
           32 :    -354.2717455142356

     Writing all to output data dir ./GaN.save/

     General routines

     Parallel routines

     PAW routines

   This run was terminated on:  14:57:33   2May2024

   JOB DONE.