     Program PWSCF v.7.1 starts on 24Apr2024 at  7:45:33

     Reading input from espresso.pwi
Warning: card &CELL ignored
Warning: card    CELL_DYNAMICS    = 'BFGS' ignored
Warning: card / ignored

     Current dimensions of program PWSCF are:
     Max number of different atomic species (ntypx) = 10
     Max number of k-points (npk) =  40000
     Max angular momentum in pseudopotentials (lmaxx) =  4
     file Ga.pbe-dn-kjpaw_psl.1.0.0.UPF: wavefunction(s)  4S renormalized
     file N.pbe-n-kjpaw_psl.1.0.0.UPF: wavefunction(s)  2S renormalized

     IMPORTANT: XC functional enforced from input :
     Exchange-correlation= BEEF-VDW
                           (   1   4  43  14   2   0   0)
     Any further DFT definition will be discarded
     Please, verify this is what you really want

     K-points division:     npool     =       4
     R & G space division:  proc/nbgrp/npool/nimage =      64
     Subspace diagonalization in iterative solution of the eigenvalue problem:
     a serial algorithm will be used

     Using Slab Decomposition

     bravais-lattice index     =            4
     lattice parameter (alat)  =      30.6565  a.u.
     unit-cell volume          =   24400.9461 (a.u.)^3
     number of atoms/cell      =          300
     number of atomic types    =            2
     number of electrons       =      2709.00
     number of Kohn-Sham states=         1626
     kinetic-energy cutoff     =      70.0000  Ry
     charge density cutoff     =     350.0000  Ry
     scf convergence threshold =      1.0E-07
     mixing beta               =       0.7000
     number of iterations used =            8  plain     mixing
     energy convergence thresh.=      1.0E-04
     force convergence thresh. =      1.0E-03
     Exchange-correlation= BEEF-VDW
                           (   1   4  43  14   2   0   0)
     nstep                     =           50

     celldm(1)=  30.656540  celldm(2)=   0.000000  celldm(3)=   0.977927
     celldm(4)=   0.000000  celldm(5)=   0.000000  celldm(6)=   0.000000

     crystal axes: (cart. coord. in units of alat)
               a(1) = (   1.000000   0.000000   0.000000 )
               a(2) = (  -0.500000   0.866025   0.000000 )
               a(3) = (   0.000000   0.000000   0.977927 )

     reciprocal axes: (cart. coord. in units 2 pi/alat)
               b(1) = (  1.000000  0.577350 -0.000000 )
               b(2) = (  0.000000  1.154701  0.000000 )
               b(3) = (  0.000000 -0.000000  1.022571 )

     PseudoPot. # 1 for Ga read from file:
     //group///packages/espresso/pseudo/psl_1.0.0/pslibrary.1.0.0/pbe/PSEUDOPOTENTIALS/Ga.pbe-dn-kjpaw_psl.1.0.0.UPF
     MD5 check sum: cd2a01e492f15b435d17032472d8505c
     Pseudo is Projector augmented-wave + core cor, Zval = 13.0
     Generated using 'atomic' code by A. Dal Corso  v.7.1
     Shape of augmentation charge: PSQ
     Using radial grid of 1205 points,  6 beta functions with:
                l(1) =   0
                l(2) =   0
                l(3) =   1
                l(4) =   1
                l(5) =   2
                l(6) =   2
     Q(r) pseudized with 0 coefficients

     PseudoPot. # 2 for N  read from file:
     //group///packages/espresso/pseudo/psl_1.0.0/pslibrary.1.0.0/pbe/PSEUDOPOTENTIALS/N.pbe-n-kjpaw_psl.1.0.0.UPF
     MD5 check sum: f77f775694dac7e2c3fe1c82443d1a16
     Pseudo is Projector augmented-wave + core cor, Zval =  5.0
     Generated using 'atomic' code by A. Dal Corso  v.7.1
     Shape of augmentation charge: PSQ
     Using radial grid of 1085 points,  4 beta functions with:
                l(1) =   0
                l(2) =   0
                l(3) =   1
                l(4) =   1
     Q(r) pseudized with 0 coefficients

     atomic species   valence    mass     pseudopotential
        Ga            13.00    69.72300     Ga( 1.00)
        N              5.00    14.00700     N ( 1.00)

      2 Sym. Ops. (no inversion) found

                                    s                        frac. trans.

      isym =  1     identity

 cryst.   s( 1) = (     1          0          0      )
                  (     0          1          0      )
                  (     0          0          1      )

 cart.    s( 1) = (  1.0000000  0.0000000  0.0000000 )
                  (  0.0000000  1.0000000  0.0000000 )
                  (  0.0000000  0.0000000  1.0000000 )

      isym =  2     inv. 180 deg rotation - cryst. axis [0,1,0]

 cryst.   s( 2) = (     1          1          0      )
                  (     0         -1          0      )
                  (     0          0          1      )

 cart.    s( 2) = (  0.5000000  0.8660254  0.0000000 )
                  (  0.8660254 -0.5000000  0.0000000 )
                  (  0.0000000  0.0000000  1.0000000 )

     point group C_s (m)
     there are  2 classes
     the character table:

       E     s
A'     1.00  1.00
A''    1.00 -1.00

     the symmetry operations in each class and the name of the first element:

     E        1
          identity
     s        2
          inv. 180 deg rotation - cryst. axis [0,1,0]

   Cartesian axes

     site n.     atom                  positions (alat units)
         1           Ga  tau(   1) = (   0.1000001   0.0577350   0.1627148  )
         2           Ga  tau(   2) = (   0.1000001   0.0577350   0.4886906  )
         3           Ga  tau(   3) = (   0.1000001   0.0577350   0.8146665  )
         4           Ga  tau(   4) = (   0.0000001   0.2309401   0.1627148  )
         5           Ga  tau(   5) = (   0.0000001   0.2309401   0.4886906  )
         6           Ga  tau(   6) = (   0.0000001   0.2309401   0.8146665  )
         7           Ga  tau(   7) = (  -0.0999999   0.4041451   0.1627148  )
         8           Ga  tau(   8) = (  -0.0999999   0.4041451   0.4886906  )
         9           Ga  tau(   9) = (  -0.0999999   0.4041451   0.8146665  )
        10           Ga  tau(  10) = (  -0.1999999   0.5773502   0.1627148  )
        11           Ga  tau(  11) = (  -0.1999999   0.5773502   0.4886906  )
        12           Ga  tau(  12) = (  -0.1999999   0.5773502   0.8146665  )
        13           Ga  tau(  13) = (  -0.2999999   0.7505553   0.1627148  )
        14           Ga  tau(  14) = (  -0.2999999   0.7505553   0.4886906  )
        15           Ga  tau(  15) = (  -0.2999999   0.7505553   0.8146665  )
        16           Ga  tau(  16) = (   0.3000001   0.0577350   0.1627148  )
        17           Ga  tau(  17) = (   0.3000001   0.0577350   0.4886906  )
        18           Ga  tau(  18) = (   0.3000001   0.0577350   0.8146665  )
        19           Ga  tau(  19) = (   0.2000001   0.2309401   0.1627148  )
        20           Ga  tau(  20) = (   0.2000001   0.2309401   0.4886906  )
        21           Ga  tau(  21) = (   0.2000001   0.2309401   0.8146665  )
        22           Ga  tau(  22) = (   0.1000001   0.4041451   0.1627148  )
        23           Ga  tau(  23) = (   0.1000001   0.4041451   0.4886906  )
        24           Ga  tau(  24) = (   0.1000001   0.4041451   0.8146665  )
        25           Ga  tau(  25) = (   0.0000001   0.5773502   0.1627148  )
        26           Ga  tau(  26) = (   0.0000001   0.5773502   0.4886906  )
        27           Ga  tau(  27) = (   0.0000001   0.5773502   0.8146665  )
        28           Ga  tau(  28) = (  -0.0999999   0.7505553   0.1627148  )
        29           Ga  tau(  29) = (  -0.0999999   0.7505553   0.4886906  )
        30           Ga  tau(  30) = (  -0.0999999   0.7505553   0.8146665  )
        31           Ga  tau(  31) = (   0.5000001   0.0577350   0.1627148  )
        32           Ga  tau(  32) = (   0.5000001   0.0577350   0.4886906  )
        33           Ga  tau(  33) = (   0.5000001   0.0577350   0.8146665  )
        34           Ga  tau(  34) = (   0.4000001   0.2309401   0.1627148  )
        35           Ga  tau(  35) = (   0.4000001   0.2309401   0.4886906  )
        36           Ga  tau(  36) = (   0.4000001   0.2309401   0.8146665  )
        37           Ga  tau(  37) = (   0.3000001   0.4041451   0.1627148  )
        38           Ga  tau(  38) = (   0.3000001   0.4041451   0.4886906  )
        39           Ga  tau(  39) = (   0.3000001   0.4041451   0.8146665  )
        40           Ga  tau(  40) = (   0.2000001   0.5773502   0.1627148  )
        41           Ga  tau(  41) = (   0.2000001   0.5773502   0.4886906  )
        42           Ga  tau(  42) = (   0.2000001   0.5773502   0.8146665  )
        43           Ga  tau(  43) = (   0.1000001   0.7505553   0.1627148  )
        44           Ga  tau(  44) = (   0.1000001   0.7505553   0.4886906  )
        45           Ga  tau(  45) = (   0.1000001   0.7505553   0.8146665  )
        46           Ga  tau(  46) = (   0.7000001   0.0577350   0.1627148  )
        47           Ga  tau(  47) = (   0.7000001   0.0577350   0.4886906  )
        48           Ga  tau(  48) = (   0.7000001   0.0577350   0.8146665  )
        49           Ga  tau(  49) = (   0.6000001   0.2309401   0.1627148  )
        50           Ga  tau(  50) = (   0.6000001   0.2309401   0.4886906  )
        51           Ga  tau(  51) = (   0.6000001   0.2309401   0.8146665  )
        52           Ga  tau(  52) = (   0.5000001   0.4041451   0.1627148  )
        53           Ga  tau(  53) = (   0.5000001   0.4041451   0.4886906  )
        54           Ga  tau(  54) = (   0.5000001   0.4041451   0.8146665  )
        55           Ga  tau(  55) = (   0.4000001   0.5773502   0.1627148  )
        56           Ga  tau(  56) = (   0.4000001   0.5773502   0.4886906  )
        57           Ga  tau(  57) = (   0.4000001   0.5773502   0.8146665  )
        58           Ga  tau(  58) = (   0.3000001   0.7505553   0.1627148  )
        59           Ga  tau(  59) = (   0.3000001   0.7505553   0.4886906  )
        60           Ga  tau(  60) = (   0.3000001   0.7505553   0.8146665  )
[...]
       286           N   tau( 286) = (   0.7999999   0.1154701   0.4484898  )
       287           N   tau( 287) = (   0.7999999   0.1154701   0.7744656  )
       288           N   tau( 288) = (   0.6999999   0.2886752   0.1225140  )
       289           N   tau( 289) = (   0.6999999   0.2886752   0.4484898  )
       290           N   tau( 290) = (   0.6999999   0.2886752   0.7744656  )
       291           N   tau( 291) = (   0.5999999   0.4618803   0.1225140  )
       292           N   tau( 292) = (   0.5999999   0.4618803   0.4484898  )
       293           N   tau( 293) = (   0.5999999   0.4618803   0.7744656  )
       294           N   tau( 294) = (   0.4999999   0.6350854   0.1225140  )
       295           N   tau( 295) = (   0.4999999   0.6350854   0.4484898  )
       296           N   tau( 296) = (   0.4999999   0.6350854   0.7744656  )
       297           N   tau( 297) = (   0.3999999   0.8082905   0.1225140  )
       298           N   tau( 298) = (   0.3999999   0.8082905   0.4484898  )
       299           N   tau( 299) = (   0.3999999   0.8082905   0.7744656  )
       300           Ga  tau( 300) = (   0.1000001   0.0577350   0.2855019  )

   Crystallographic axes

     site n.     atom                  positions (cryst. coord.)
         1           Ga  tau(   1) = (  0.1333334  0.0666666  0.1663874  )
[...]
     atom   54 type  1   force =     0.00000000    0.00000000    0.00000000
     atom   55 type  1   force =     0.00000000    0.00000000    0.00000000
     atom   56 type  1   force =     0.00000000    0.00000000    0.00000000
     atom   57 type  1   force =     0.00000000    0.00000000    0.00000000
     atom   58 type  1   force =     0.00000000    0.00000000    0.00000000
     atom   59 type  1   force =     0.00000000    0.00000000    0.00000000
     atom   60 type  1   force =     0.00000000    0.00000000    0.00000000
[...]
     atom  286 type  2   force =     0.00000000    0.00000000    0.00000000
     atom  287 type  2   force =     0.00000000    0.00000000    0.00000000
     atom  288 type  2   force =     0.00000000    0.00000000    0.00000000
     atom  289 type  2   force =     0.00000000    0.00000000    0.00000000
     atom  290 type  2   force =     0.00000000    0.00000000    0.00000000
     atom  291 type  2   force =     0.00000000    0.00000000    0.00000000
     atom  292 type  2   force =     0.00000000    0.00000000    0.00000000
     atom  293 type  2   force =     0.00000000    0.00000000    0.00000000
     atom  294 type  2   force =     0.00000000    0.00000000    0.00000000
     atom  295 type  2   force =     0.00000000    0.00000000    0.00000000
     atom  296 type  2   force =     0.00000000    0.00000000    0.00000000
     atom  297 type  2   force =     0.00000000    0.00000000    0.00000000
     atom  298 type  2   force =     0.00000000    0.00000000    0.00000000
     atom  299 type  2   force =     0.00000000    0.00000000    0.00000000
     atom  300 type  1   force =     0.00000000    0.00000000    0.00000000
     The SCF correction term to forces
     atom    1 type  1   force =    -0.00000021   -0.00000012   -0.00001823
     atom    2 type  1   force =    -0.00000089   -0.00000051    0.00000778
     atom    3 type  1   force =    -0.00000105   -0.00000060    0.00000882
     atom    4 type  1   force =     0.00000828   -0.00000279   -0.00000838
     atom    5 type  1   force =     0.00000624    0.00000055   -0.00000529
     atom    6 type  1   force =     0.00000285    0.00000973    0.00001157
     atom    7 type  1   force =     0.00000379    0.00000943    0.00000407
     atom    8 type  1   force =     0.00000289    0.00000829   -0.00000451
     atom    9 type  1   force =     0.00001239    0.00001501   -0.00000011
     atom   10 type  1   force =     0.00001006   -0.00000143    0.00000407
     atom   11 type  1   force =     0.00000863   -0.00000164   -0.00000451
     atom   12 type  1   force =     0.00001919    0.00000322   -0.00000011
     atom   13 type  1   force =     0.00000172    0.00000857   -0.00000838
     atom   14 type  1   force =     0.00000359    0.00000513   -0.00000529
     atom   15 type  1   force =     0.00000986   -0.00000240    0.00001157
     atom   16 type  1   force =    -0.00000680   -0.00000692   -0.00000991
     atom   17 type  1   force =    -0.00000461   -0.00000834   -0.00000403
     atom   18 type  1   force =     0.00000592   -0.00000912    0.00001179
     atom   19 type  1   force =    -0.00000939   -0.00000243   -0.00000991
     atom   20 type  1   force =    -0.00000952    0.00000018   -0.00000403
     atom   21 type  1   force =    -0.00000494    0.00000968    0.00001179
     atom   22 type  1   force =    -0.00000187    0.00001416   -0.00000635
     atom   23 type  1   force =    -0.00000138    0.00001934    0.00000391
     atom   24 type  1   force =    -0.00000093    0.00002261    0.00000120
     atom   25 type  1   force =     0.00000691    0.00000399   -0.00000637
     atom   26 type  1   force =     0.00000710    0.00000410    0.00000010
     atom   27 type  1   force =     0.00001395    0.00000806   -0.00000004
     atom   28 type  1   force =     0.00001133   -0.00000870   -0.00000635
     atom   29 type  1   force =     0.00001605   -0.00001086    0.00000391
     atom   30 type  1   force =     0.00001912   -0.00001211    0.00000120
     atom   31 type  1   force =     0.00000514   -0.00000952    0.00000296
     atom   32 type  1   force =     0.00000547   -0.00000881   -0.00000289
     atom   33 type  1   force =     0.00000712   -0.00001948   -0.00000020
     atom   34 type  1   force =     0.00000078    0.00000045    0.00000723
     atom   35 type  1   force =     0.00000561    0.00000324   -0.00000009
     atom   36 type  1   force =    -0.00000042   -0.00000024    0.00000182
     atom   37 type  1   force =    -0.00000568    0.00000921    0.00000296
     atom   38 type  1   force =    -0.00000489    0.00000914   -0.00000289
     atom   39 type  1   force =    -0.00001331    0.00001591   -0.00000020
     atom   40 type  1   force =    -0.00000923    0.00000508   -0.00000691
     atom   41 type  1   force =    -0.00000871    0.00000542    0.00000118
     atom   42 type  1   force =    -0.00001422    0.00000909   -0.00000043
     atom   43 type  1   force =    -0.00000022   -0.00001053   -0.00000691
     atom   44 type  1   force =     0.00000033   -0.00001026    0.00000118
     atom   45 type  1   force =     0.00000076   -0.00001686   -0.00000043
     atom   46 type  1   force =    -0.00000396   -0.00000841    0.00000265
     atom   47 type  1   force =    -0.00000332   -0.00000753   -0.00000262
     atom   48 type  1   force =    -0.00000527   -0.00001905   -0.00000054
     atom   49 type  1   force =     0.00000172    0.00000272    0.00001092
     atom   50 type  1   force =     0.00000229    0.00000300   -0.00000925
     atom   51 type  1   force =     0.00000136   -0.00000667   -0.00000131
     atom   52 type  1   force =     0.00000322    0.00000013    0.00001092
     atom   53 type  1   force =     0.00000374    0.00000048   -0.00000925
     atom   54 type  1   force =    -0.00000510    0.00000451   -0.00000131
     atom   55 type  1   force =    -0.00000926    0.00000077    0.00000265
     atom   56 type  1   force =    -0.00000818    0.00000088   -0.00000262
     atom   57 type  1   force =    -0.00001913    0.00000496   -0.00000054
     atom   58 type  1   force =    -0.00001101   -0.00000636   -0.00000682
     atom   59 type  1   force =    -0.00001491   -0.00000861    0.00000476
     atom   60 type  1   force =    -0.00001850   -0.00001068    0.00000056
[...]
     atom  286 type  2   force =    -0.00000219   -0.00000118   -0.00000208
     atom  287 type  2   force =    -0.00000134   -0.00000490   -0.00000019
     atom  288 type  2   force =     0.00000008    0.00000101    0.00000610
     atom  289 type  2   force =    -0.00000140    0.00000207   -0.00000448
     atom  290 type  2   force =     0.00000189   -0.00000068   -0.00000149
     atom  291 type  2   force =     0.00000091   -0.00000044    0.00000610
     atom  292 type  2   force =     0.00000109   -0.00000225   -0.00000448
     atom  293 type  2   force =     0.00000036    0.00000197   -0.00000149
     atom  294 type  2   force =    -0.00000224    0.00000239    0.00000347
     atom  295 type  2   force =    -0.00000212   -0.00000131   -0.00000208
     atom  296 type  2   force =    -0.00000492    0.00000129   -0.00000019
     atom  297 type  2   force =    -0.00000144   -0.00000083    0.00000295
     atom  298 type  2   force =    -0.00000308   -0.00000178   -0.00000097
     atom  299 type  2   force =    -0.00000552   -0.00000319    0.00000003
     atom  300 type  1   force =    -0.00000328   -0.00000189   -0.00003376

     Total force =     0.004805     Total SCF correction =     0.000213

     Computing stress (Cartesian axis) and pressure

[...]

          total   stress  (Ry/bohr**3)                   (kbar)     P=       18.03
   0.00011249   0.00000004   0.00000002           16.55        0.01        0.00
   0.00000004   0.00011244   0.00000001            0.01       16.54        0.00
   0.00000002   0.00000001   0.00014284            0.00        0.00       21.01

     kinetic stress (kbar)  18477.88      0.03      0.02
                                0.03  18477.85      0.01
                                0.02      0.01  18479.01

     local   stress (kbar)   5595.29      1.40     -0.59
                                1.40   5593.50     -0.34
                               -0.59     -0.34   3777.39

     nonloc. stress (kbar)     77.77      0.02     -0.02
                                0.02     77.75     -0.01
                               -0.02     -0.01     86.40

     hartree stress (kbar)  19678.51     -0.54      0.21
                               -0.54  19679.13      0.12
                                0.21      0.12  20497.03

     exc-cor stress (kbar)   5263.98     -0.00      0.00
                               -0.00   5263.99      0.00
                                0.00      0.00   5264.67

     corecor stress (kbar) -14196.41      0.00     -0.00
                                0.00 -14196.42     -0.00
                               -0.00     -0.00 -14195.99

     ewald   stress (kbar) -35043.44     -0.88      0.38
                               -0.88 -35042.19      0.22
                                0.38      0.22 -34049.46

     hubbard stress (kbar)      0.00      0.00      0.00
                                0.00      0.00      0.00
                                0.00      0.00      0.00

     DFT-D   stress (kbar)      0.00      0.00      0.00
                                0.00      0.00      0.00
                                0.00      0.00      0.00

     XDM     stress (kbar)      0.00      0.00      0.00
                                0.00      0.00      0.00
                                0.00      0.00      0.00

     dft-nl  stress (kbar)    162.95      0.00     -0.00
                                0.00    162.94     -0.00
                               -0.00     -0.00    161.96

     TS-vdW  stress (kbar)      0.00      0.00      0.00
                                0.00      0.00      0.00
                                0.00      0.00      0.00

     MDB     stress (kbar)      0.00      0.00      0.00
                                0.00      0.00      0.00
                                0.00      0.00      0.00

     3D-RISM stress (kbar)      0.00      0.00      0.00
                                0.00      0.00      0.00
                                0.00      0.00      0.00

     Energy error            =      6.9E-05 Ry
     Gradient error          =      1.1E-03 Ry/Bohr

     number of scf cycles    =   5
     number of bfgs steps    =   4

     energy             old  =  -47096.7317270507 Ry
     energy             new  =  -47096.7317957267 Ry

     CASE: energy            _new < energy            _old

     new trust radius        =       0.0022274870 bohr
     new conv_thr            =       0.0000000010 Ry

ATOMIC_POSITIONS (angstrom)
Ga            1.6210965699        0.9359390701        2.3453431623
Ga            1.6208919024        0.9358209052        7.8753846465
Ga            1.6217231582        0.9363008310       13.1878566395
Ga           -0.0043530957        3.7278329309        2.6304677769
Ga           -0.0101621202        3.7815400672        7.9762215749
Ga           -0.0019910403        3.7574204309       13.1909051940
Ga           -1.6237920783        6.5563581018        2.6351180634
Ga           -1.6260884459        6.5643511568        7.9352830636
Ga           -1.6224662804        6.5595675176       13.2218893354
Ga           -3.2452931356        9.3648803177        2.6351180634
Ga           -3.2395191308        9.3588950775        7.9352830636
Ga           -3.2418508010        9.3644237845       13.2218893354
Ga           -4.8851482975       12.1816182020        2.6304677769
Ga           -4.8415410653       12.1497338710        7.9762215749
Ga           -4.8583437432       12.1688700520       13.1909051940
Ga            4.8529722852        0.9508122431        2.6304914540
Ga            4.9022358013        0.9273061597        7.9759065952
Ga            4.8778034720        0.9329128819       13.1909285761
Ga            3.2499149732        3.7273889550        2.6304914540
Ga            3.2541898659        3.7818054531        7.9759065952
Ga            3.2468292651        3.7578430742       13.1909285761
Ga            1.6223741274        6.5455757652        2.6437489957
Ga            1.6226386534        6.5621636195        7.9252847584
Ga            1.6228519158        6.5620936458       13.2257116978
Ga            0.0004109088        9.3664402775        2.6405715042
Ga            0.0008216530        9.3666774208        7.9265029164
Ga            0.0009438497        9.3667479711       13.2203543820
Ga           -1.6315478103       12.1815338852        2.6437489957
Ga           -1.6170500440       12.1734690442        7.9252847584
Ga           -1.6170040118       12.1736887217       13.2257116978
Ga            8.1121019469        0.9378986544        2.6348307039
Ga            8.1196138206        0.9354320358        7.9353907968
Ga            8.1143675234        0.9351528020       13.2219182378
Ga            6.4895077626        3.7467175828        2.6356512658
Ga            6.4939274822        3.7492693091        7.9352613583
Ga            6.4936864456        3.7491301466       13.2209520261
Ga            4.8682963082        6.5563348307        2.6348307039
Ga            4.8699160908        6.5640736135        7.9353907968
Ga            4.8670511186        6.5596698037       13.2219182378
Ga            3.2448108624        9.3663630640        2.6405662031
Ga            3.2438817198        9.3663469249        7.9267117694
Ga            3.2443935428        9.3665866036       13.2206400858
Ga            1.6225440167       12.1762116644        2.6405662031
Ga            1.6220654686       12.1754150728        7.9267117694
Ga            1.6225289479       12.1757384852       13.2206400858
Ga           11.3544186190        0.9375671181        2.6345476549
Ga           11.3454046241        0.9351059567        7.9357061609
Ga           11.3524631453        0.9348647813       13.2219214673
Ga            9.7336803377        3.7465634695        2.6374577866
Ga            9.7333205158        3.7478240874        7.9315590832
Ga            9.7334438273        3.7474734736       13.2191506877
Ga            8.1114605841        6.5563305039        2.6374577866
Ga            8.1123724003        6.5553885800        7.9315590832
Ga            8.1121304155        6.5556706778       13.2191506877
Ga            6.4891675254        9.3644292041        2.6345476549
Ga            6.4825290996        9.3578534361        7.9357061609
Ga            6.4858494962        9.3640868825       13.2219214673
Ga            4.8764392270       12.1816165397        2.6436775041
Ga            4.8602953821       12.1722958865        7.9257579675
Ga            4.8615526013       12.1730217424       13.2260571392
[...]
N            12.9583294906        1.8757900002        7.2854183128
N            12.9657745208        1.8793605023       12.5659773921
N            11.3541524246        4.6845765924        1.9858079027
N            11.3525172710        4.6852907352        7.2777412975
N            11.3533412834        4.6849253932       12.5657187292
N             9.7340362272        7.4907001606        1.9858079027
N             9.7338371162        7.4889270046        7.2777412975
N             9.7339327269        7.4898232913       12.5657187292
N             8.1081451833       10.2945947493        1.9804455730
N             8.1036442176       10.2843515479        7.2854183128
N             8.1104588783       10.2890138822       12.5659773921
N             6.4964041679       13.1169078843        1.9830450845
N             6.4867612726       13.1113405561        7.2896761489
N             6.4763654404       13.1053385196       12.5632230903
Ga            1.6206925142        0.9357057884        4.5796571139

     Writing config-only to output data dir ./GaN.save/
     NEW-OLD atomic charge density approx. for the potential

     Check: negative core charge=   -0.000003

[...]

     Self-consistent Calculation

[...]

     Threshold (ethr) on eigenvalues was too large:
     Diagonalizing with lowered threshold

     Davidson diagonalization with overlap

[...]

     iteration #  4     ecut=    70.00 Ry     beta= 0.70
     Davidson diagonalization with overlap

     ethr =  6.27E-09,  avg # of iterations = 15.5

     Non-local corr. energy    =      82.11852527 Ry

     total energy              =  -47096.73181834 Ry
     estimated scf accuracy    <       0.00004556 Ry

     max_seconds     =  154800.00
     Calculation stopped in scf loop at iteration #     4

     Writing config to output data dir ./GaN.save/

     General routines

     Parallel routines

     PAW routines

   This run was terminated on:   2:47:49  26Apr2024

   JOB DONE.