     Program PWSCF v.7.1 starts on 27Mar2024 at 21:19:37

     Reading input from espresso.pwi
Warning: card &CELL ignored
Warning: card    CELL_DYNAMICS    = 'BFGS' ignored
Warning: card / ignored

     Current dimensions of program PWSCF are:
     Max number of different atomic species (ntypx) = 10
     Max number of k-points (npk) =  40000
     Max angular momentum in pseudopotentials (lmaxx) =  4
     file Pb.pbe-dn-kjpaw_psl.1.0.0.UPF: wavefunction(s)  6S 6P 5D renormalized
     file I.pbe-dn-kjpaw_psl.1.0.0.UPF: wavefunction(s)  5S 5P renormalized

     IMPORTANT: XC functional enforced from input :
     Exchange-correlation= BEEF-VDW
                           (   1   4  43  14   2   0   0)
     Any further DFT definition will be discarded
     Please, verify this is what you really want

     Found identity + (  0.5000 -0.0000  0.0000) symmetry
     This is a supercell, fractional translations are disabled

     R & G space division:  proc/nbgrp/npool/nimage =      20
     Subspace diagonalization in iterative solution of the eigenvalue problem:
     a serial algorithm will be used

     Using Slab Decomposition

     bravais-lattice index     =            4
     lattice parameter (alat)  =      17.8060  a.u.
     unit-cell volume          =    7656.2263 (a.u.)^3
     number of atoms/cell      =           24
     number of atomic types    =            2
     number of electrons       =       384.00
     number of Kohn-Sham states=          230
     kinetic-energy cutoff     =      70.0000  Ry
     charge density cutoff     =     350.0000  Ry
     scf convergence threshold =      1.0E-07
     mixing beta               =       0.7000
     number of iterations used =            8  plain     mixing
     energy convergence thresh.=      1.0E-04
     force convergence thresh. =      1.0E-03
     Exchange-correlation= BEEF-VDW
                           (   1   4  43  14   2   0   0)
     nstep                     =           50

     celldm(1)=  17.806016  celldm(2)=   0.000000  celldm(3)=   1.565971
     celldm(4)=   0.000000  celldm(5)=   0.000000  celldm(6)=   0.000000

     crystal axes: (cart. coord. in units of alat)
               a(1) = (   1.000000   0.000000   0.000000 )
               a(2) = (  -0.500000   0.866025   0.000000 )
               a(3) = (   0.000000   0.000000   1.565971 )

     reciprocal axes: (cart. coord. in units 2 pi/alat)
               b(1) = (  1.000000  0.577350 -0.000000 )
               b(2) = (  0.000000  1.154701  0.000000 )
               b(3) = (  0.000000 -0.000000  0.638581 )

     PseudoPot. # 1 for Pb read from file:
     /trace/group/acmegroup/atimmins/packages/espresso/pseudo/psl_1.0.0/pslibrary.1.0.0/pbe/PSEUDOPOTENTIALS/Pb.pbe-dn-kjpaw_psl.1.0.0.UPF
     MD5 check sum: 39ab5b8a6bbd56b7735ad9f188aac93a
     Pseudo is Projector augmented-wave + core cor, Zval = 14.0
     Generated using 'atomic' code by A. Dal Corso  v.7.1
     Shape of augmentation charge: PSQ
     Using radial grid of 1281 points,  6 beta functions with:
                l(1) =   0
                l(2) =   0
                l(3) =   1
                l(4) =   1
                l(5) =   2
                l(6) =   2
     Q(r) pseudized with 0 coefficients

     PseudoPot. # 2 for I  read from file:
     /trace/group/acmegroup/atimmins/packages/espresso/pseudo/psl_1.0.0/pslibrary.1.0.0/pbe/PSEUDOPOTENTIALS/I.pbe-dn-kjpaw_psl.1.0.0.UPF
     MD5 check sum: bfa8781bc1224d19af3f3980e3fab11e
     Pseudo is Projector augmented-wave + core cor, Zval = 17.0
     Generated using 'atomic' code by A. Dal Corso  v.7.1
     Shape of augmentation charge: PSQ
     Using radial grid of 1247 points,  6 beta functions with:
                l(1) =   0
                l(2) =   0
                l(3) =   1
                l(4) =   1
                l(5) =   2
                l(6) =   2
     Q(r) pseudized with 0 coefficients

     atomic species   valence    mass     pseudopotential
        Pb            14.00   207.20000     Pb( 1.00)
        I             17.00   126.90447     I ( 1.00)

     No symmetry found

                                    s                        frac. trans.

      isym =  1     identity

 cryst.   s( 1) = (     1          0          0      )
                  (     0          1          0      )
                  (     0          0          1      )

 cart.    s( 1) = (  1.0000000  0.0000000  0.0000000 )
                  (  0.0000000  1.0000000  0.0000000 )
                  (  0.0000000  0.0000000  1.0000000 )

     point group C_1 (1)
     there are  1 classes
     the character table:

       E
A      1.00

     the symmetry operations in each class and the name of the first element:

     E        1
          identity

   Cartesian axes

     site n.     atom                  positions (alat units)
         1           Pb  tau(   1) = (   0.2500170   0.4329745   1.5659650  )
         2           Pb  tau(   2) = (   0.2500068   0.4329836   0.7829793  )
         3           Pb  tau(   3) = (   0.0000153   0.8659852   1.5659567  )
         4           Pb  tau(   4) = (   0.0000051   0.8659943   0.7829710  )
         5           Pb  tau(   5) = (   0.7500170   0.4329726   1.5659715  )
         6           Pb  tau(   6) = (   0.7500068   0.4329816   0.7829858  )
         7           Pb  tau(   7) = (   0.5000153   0.8659833   1.5659633  )
         8           Pb  tau(   8) = (   0.5000051   0.8659923   0.7829776  )
         9           I   tau(   9) = (   0.2500107   0.1443099   0.5818649  )
        10           I   tau(  10) = (   0.2500209   0.1443009   1.3648506  )
        11           I   tau(  11) = (   0.0000091   0.5773207   0.5818567  )
        12           I   tau(  12) = (   0.0000193   0.5773116   1.3648424  )
        13           I   tau(  13) = (   0.7500107   0.1443080   0.5818714  )
        14           I   tau(  14) = (   0.7500209   0.1442990   1.3648571  )
        15           I   tau(  15) = (   0.5000091   0.5773187   0.5818632  )
        16           I   tau(  16) = (   0.5000193   0.5773097   1.3648489  )
        17           I   tau(  17) = (  -0.0000034   0.2886595   0.2011110  )
        18           I   tau(  18) = (   0.0000068   0.2886504   0.9840967  )
        19           I   tau(  19) = (  -0.2500051   0.7216702   0.2011027  )
        20           I   tau(  20) = (  -0.2499949   0.7216611   0.9840884  )
        21           I   tau(  21) = (   0.4999966   0.2886575   0.2011175  )
        22           I   tau(  22) = (   0.5000068   0.2886485   0.9841032  )
        23           I   tau(  23) = (   0.2499949   0.7216682   0.2011092  )
        24           I   tau(  24) = (   0.2500051   0.7216592   0.9840949  )

   Crystallographic axes

     site n.     atom                  positions (cryst. coord.)
         1           Pb  tau(   1) = (  0.4999949  0.4999559  0.9999959  )
         2           Pb  tau(   2) = (  0.4999900  0.4999663  0.4999959  )
         3           Pb  tau(   3) = (  0.4999921  0.9999536  0.9999906  )
         4           Pb  tau(   4) = (  0.4999871  0.9999640  0.4999906  )
         5           Pb  tau(   5) = (  0.9999938  0.4999537  1.0000001  )
         6           Pb  tau(   6) = (  0.9999888  0.4999641  0.5000001  )
         7           Pb  tau(   7) = (  0.9999910  0.9999514  0.9999948  )
         8           Pb  tau(   8) = (  0.9999860  0.9999618  0.4999948  )
         9           I   tau(   9) = (  0.3333281  0.1666348  0.3715680  )
        10           I   tau(  10) = (  0.3333331  0.1666243  0.8715680  )
        11           I   tau(  11) = (  0.3333253  0.6666325  0.3715628  )
        12           I   tau(  12) = (  0.3333303  0.6666220  0.8715628  )
        13           I   tau(  13) = (  0.8333270  0.1666326  0.3715722  )
        14           I   tau(  14) = (  0.8333320  0.1666221  0.8715722  )
        15           I   tau(  15) = (  0.8333242  0.6666303  0.3715669  )
        16           I   tau(  16) = (  0.8333292  0.6666198  0.8715669  )
        17           I   tau(  17) = (  0.1666542  0.3333152  0.1284257  )
        18           I   tau(  18) = (  0.1666592  0.3333048  0.6284257  )
        19           I   tau(  19) = (  0.1666514  0.8333129  0.1284204  )
        20           I   tau(  20) = (  0.1666564  0.8333025  0.6284204  )
        21           I   tau(  21) = (  0.6666531  0.3333130  0.1284299  )
        22           I   tau(  22) = (  0.6666581  0.3333026  0.6284299  )
        23           I   tau(  23) = (  0.6666503  0.8333107  0.1284246  )
        24           I   tau(  24) = (  0.6666553  0.8333003  0.6284246  )

     number of k points=     4  Gaussian smearing, width (Ry)=  0.0100
                       cart. coord. in units 2pi/alat
        k(    1) = (   0.0000000   0.0000000   0.0000000), wk =   0.5000000
        k(    2) = (   0.0000000  -0.5773503   0.0000000), wk =   0.5000000
        k(    3) = (   0.5000000  -0.2886751   0.0000000), wk =   0.5000000
        k(    4) = (  -0.5000000  -0.2886751   0.0000000), wk =   0.5000000

                       cryst. coord.
        k(    1) = (   0.0000000   0.0000000   0.0000000), wk =   0.5000000
        k(    2) = (   0.0000000  -0.5000000   0.0000000), wk =   0.5000000
        k(    3) = (   0.5000000  -0.5000000   0.0000000), wk =   0.5000000
        k(    4) = (  -0.5000000  -0.0000000   0.0000000), wk =   0.5000000

     Check: negative core charge=   -0.000001

     Initial potential from superposition of free atoms

     starting charge     383.9800, renormalised to     384.0000

     %%%%%%%%%%%%%%%%%%%%%%%%%%%%%%%%%%%%%%%%%%%%%%%%%%%%%%%%%%%%%%%%%%%%%%%%
     %                                                                      %
     % You are using vdW-DF, which was implemented by the Thonhauser group. %
     % Please cite the following two papers that made this development      %
     % possible and the two reviews that describe the various versions:     %
     %                                                                      %
     %   T. Thonhauser et al., PRL 115, 136402 (2015).                      %
     %   T. Thonhauser et al., PRB 76, 125112 (2007).                       %
     %   K. Berland et al., Rep. Prog. Phys. 78, 066501 (2015).             %
     %   D.C. Langreth et al., J. Phys.: Condens. Matter 21, 084203 (2009). %
     %                                                                      %
     % If you are calculating stress with vdW-DF, please also cite:         %
     %                                                                      %
     %   R. Sabatini et al., J. Phys.: Condens. Matter 24, 424209 (2012).   %
     %                                                                      %
     %%%%%%%%%%%%%%%%%%%%%%%%%%%%%%%%%%%%%%%%%%%%%%%%%%%%%%%%%%%%%%%%%%%%%%%%

     %%%%%%%%%%%%%%%%%%%%%%%%%%%%%%%%%%%%%%%%%%%%%%%%%%%%%%%%%%%%%%%%%%%%%%%%
     %                                                                      %
     %  vdW-DF NEWS:                                                        %
     %                                                                      %
     %  * vdW-DF3 is now available. DOI: 10.1021/acs.jctc.0c00471           %
[...]
     atom   19 type  2   force =     0.00000846   -0.00000436   -0.00074314
     atom   20 type  2   force =    -0.00000006   -0.00000403   -0.00074629
     atom   21 type  2   force =     0.00000907   -0.00001034   -0.00074776
     atom   22 type  2   force =    -0.00000061    0.00000452   -0.00074183
     atom   23 type  2   force =     0.00000759   -0.00000115   -0.00074770
     atom   24 type  2   force =     0.00000257   -0.00000449   -0.00074389
     The non-local contrib.  to forces
     atom    1 type  1   force =     0.00002119   -0.00005361   -0.00000784
     atom    2 type  1   force =     0.00000170   -0.00001693    0.00000705
     atom    3 type  1   force =     0.00002708   -0.00003359   -0.00000755
     atom    4 type  1   force =    -0.00000144   -0.00000729   -0.00000265
     atom    5 type  1   force =     0.00003076   -0.00005612    0.00000709
     atom    6 type  1   force =    -0.00000766   -0.00003032    0.00002845
     atom    7 type  1   force =     0.00002052   -0.00003082    0.00000131
     atom    8 type  1   force =    -0.00001504   -0.00001543    0.00001130
     atom    9 type  2   force =     0.00001922   -0.00000956    0.24720071
     atom   10 type  2   force =    -0.00001286    0.00004260    0.24718824
     atom   11 type  2   force =    -0.00000699    0.00002989    0.24719971
     atom   12 type  2   force =     0.00000308   -0.00000026    0.24717862
     atom   13 type  2   force =    -0.00001490    0.00000182    0.24719323
     atom   14 type  2   force =    -0.00000588    0.00002497    0.24719927
     atom   15 type  2   force =     0.00000547    0.00001271    0.24721298
     atom   16 type  2   force =    -0.00002547    0.00000562    0.24716248
     atom   17 type  2   force =    -0.00002373   -0.00000033   -0.24721665
     atom   18 type  2   force =    -0.00000005    0.00001241   -0.24717804
     atom   19 type  2   force =    -0.00000866    0.00002270   -0.24717961
     atom   20 type  2   force =    -0.00001360   -0.00000402   -0.24719788
     atom   21 type  2   force =     0.00000574    0.00000049   -0.24720589
     atom   22 type  2   force =    -0.00000048    0.00003122   -0.24719545
     atom   23 type  2   force =    -0.00000546    0.00004166   -0.24719256
     atom   24 type  2   force =     0.00002079   -0.00000809   -0.24719108
     The ionic contribution  to forces
     atom    1 type  1   force =    -0.00008913    0.00187711   -0.00117425
     atom    2 type  1   force =    -0.00016821    0.00074462    0.00104887
     atom    3 type  1   force =    -0.00057499   -0.00000908    0.00052355
     atom    4 type  1   force =    -0.00035770   -0.00058183   -0.00114602
     atom    5 type  1   force =    -0.00094100    0.00199184   -0.00025024
     atom    6 type  1   force =     0.00028113    0.00145294   -0.00044750
     atom    7 type  1   force =    -0.00037635   -0.00043107    0.00018129
     atom    8 type  1   force =     0.00069478   -0.00026035   -0.00008100
     atom    9 type  2   force =    -0.00033214   -0.00094817  -14.20717822
     atom   10 type  2   force =    -0.00059251   -0.00014095  -14.21010950
     atom   11 type  2   force =    -0.00119449    0.00007764  -14.20614585
     atom   12 type  2   force =    -0.00010661   -0.00036488  -14.20890609
     atom   13 type  2   force =    -0.00012846    0.00027091  -14.20785205
     atom   14 type  2   force =     0.00027626   -0.00004398  -14.21051277
     atom   15 type  2   force =     0.00105000    0.00023434  -14.20701111
     atom   16 type  2   force =    -0.00010912    0.00014023  -14.20905015
     atom   17 type  2   force =     0.00050272   -0.00089491   14.20934939
     atom   18 type  2   force =     0.00019172    0.00005543   14.20852100
     atom   19 type  2   force =     0.00037079   -0.00088774   14.20861718
     atom   20 type  2   force =     0.00002282   -0.00062996   14.20782588
     atom   21 type  2   force =     0.00076763   -0.00051657   14.20865943
     atom   22 type  2   force =    -0.00008691    0.00021300   14.20862912
     atom   23 type  2   force =     0.00084806   -0.00068092   14.20815296
     atom   24 type  2   force =     0.00005171   -0.00066765   14.20835607
     The local contribution  to forces
     atom    1 type  1   force =     0.00007686   -0.00180167    0.00118293
     atom    2 type  1   force =     0.00015757   -0.00072716   -0.00107530
     atom    3 type  1   force =     0.00053992    0.00003174   -0.00050314
     atom    4 type  1   force =     0.00036452    0.00058766    0.00113311
     atom    5 type  1   force =     0.00089531   -0.00190652    0.00024301
     atom    6 type  1   force =    -0.00026378   -0.00142719    0.00039807
     atom    7 type  1   force =     0.00035929    0.00043730   -0.00017576
     atom    8 type  1   force =    -0.00068359    0.00028584    0.00005537
     atom    9 type  2   force =     0.00030973    0.00095992   13.96614708
     atom   10 type  2   force =     0.00059879    0.00010295   13.96908113
     atom   11 type  2   force =     0.00119829   -0.00010856   13.96512594
     atom   12 type  2   force =     0.00009727    0.00036975   13.96790291
     atom   13 type  2   force =     0.00014139   -0.00026779   13.96682722
     atom   14 type  2   force =    -0.00027610    0.00002489   13.96946864
     atom   15 type  2   force =    -0.00105530   -0.00024584   13.96596672
     atom   16 type  2   force =     0.00012892   -0.00013970   13.96806451
     atom   17 type  2   force =    -0.00047195    0.00088734  -13.96829165
     atom   18 type  2   force =    -0.00019428   -0.00007033  -13.96750490
     atom   19 type  2   force =    -0.00035765    0.00085794  -13.96761269
     atom   20 type  2   force =    -0.00000816    0.00063324  -13.96678752
     atom   21 type  2   force =    -0.00076633    0.00051276  -13.96762728
     atom   22 type  2   force =     0.00009013   -0.00024512  -13.96759401
     atom   23 type  2   force =    -0.00083199    0.00063353  -13.96713538
     atom   24 type  2   force =    -0.00007107    0.00067845  -13.96732763
     The core correction contribution to forces
     atom    1 type  1   force =    -0.00000069   -0.00000095   -0.00000023
     atom    2 type  1   force =     0.00000061   -0.00000013    0.00000159
     atom    3 type  1   force =     0.00000018    0.00000155   -0.00000101
     atom    4 type  1   force =    -0.00000033    0.00000058    0.00000090
     atom    5 type  1   force =     0.00000029   -0.00000133   -0.00000026
     atom    6 type  1   force =    -0.00000058    0.00000027    0.00000111
     atom    7 type  1   force =    -0.00000056    0.00000212   -0.00000076
     atom    8 type  1   force =     0.00000039   -0.00000008    0.00000080
     atom    9 type  2   force =    -0.00000086    0.00000213   -0.00543868
     atom   10 type  2   force =    -0.00000079    0.00000198   -0.00543659
     atom   11 type  2   force =    -0.00000074    0.00000197   -0.00543954
     atom   12 type  2   force =    -0.00000096    0.00000253   -0.00543730
     atom   13 type  2   force =    -0.00000058    0.00000227   -0.00543717
     atom   14 type  2   force =    -0.00000089    0.00000218   -0.00543655
     atom   15 type  2   force =    -0.00000051    0.00000217   -0.00543962
     atom   16 type  2   force =    -0.00000068    0.00000249   -0.00543550
     atom   17 type  2   force =    -0.00000005    0.00000196    0.00543682
     atom   18 type  2   force =    -0.00000053    0.00000215    0.00543478
     atom   19 type  2   force =    -0.00000023    0.00000163    0.00543469
     atom   20 type  2   force =    -0.00000049    0.00000225    0.00543624
     atom   21 type  2   force =    -0.00000043    0.00000206    0.00543727
     atom   22 type  2   force =    -0.00000083    0.00000202    0.00543600
     atom   23 type  2   force =    -0.00000020    0.00000149    0.00543587
     atom   24 type  2   force =    -0.00000086    0.00000213    0.00543583
     The Hubbard contrib.    to forces
     atom    1 type  1   force =     0.00000000    0.00000000    0.00000000
     atom    2 type  1   force =     0.00000000    0.00000000    0.00000000
     atom    3 type  1   force =     0.00000000    0.00000000    0.00000000
     atom    4 type  1   force =     0.00000000    0.00000000    0.00000000
     atom    5 type  1   force =     0.00000000    0.00000000    0.00000000
     atom    6 type  1   force =     0.00000000    0.00000000    0.00000000
     atom    7 type  1   force =     0.00000000    0.00000000    0.00000000
     atom    8 type  1   force =     0.00000000    0.00000000    0.00000000
     atom    9 type  2   force =     0.00000000    0.00000000    0.00000000
     atom   10 type  2   force =     0.00000000    0.00000000    0.00000000
     atom   11 type  2   force =     0.00000000    0.00000000    0.00000000
     atom   12 type  2   force =     0.00000000    0.00000000    0.00000000
     atom   13 type  2   force =     0.00000000    0.00000000    0.00000000
     atom   14 type  2   force =     0.00000000    0.00000000    0.00000000
     atom   15 type  2   force =     0.00000000    0.00000000    0.00000000
     atom   16 type  2   force =     0.00000000    0.00000000    0.00000000
     atom   17 type  2   force =     0.00000000    0.00000000    0.00000000
     atom   18 type  2   force =     0.00000000    0.00000000    0.00000000
     atom   19 type  2   force =     0.00000000    0.00000000    0.00000000
     atom   20 type  2   force =     0.00000000    0.00000000    0.00000000
     atom   21 type  2   force =     0.00000000    0.00000000    0.00000000
     atom   22 type  2   force =     0.00000000    0.00000000    0.00000000
     atom   23 type  2   force =     0.00000000    0.00000000    0.00000000
     atom   24 type  2   force =     0.00000000    0.00000000    0.00000000
     The SCF correction term to forces
     atom    1 type  1   force =    -0.00000884   -0.00000780   -0.00000079
     atom    2 type  1   force =     0.00000604    0.00000587    0.00000871
     atom    3 type  1   force =     0.00000381    0.00000467   -0.00000194
     atom    4 type  1   force =    -0.00000506   -0.00000515    0.00000792
     atom    5 type  1   force =     0.00000930   -0.00001250   -0.00000008
     atom    6 type  1   force =    -0.00000621    0.00001204    0.00000723
     atom    7 type  1   force =    -0.00000381    0.00001546   -0.00000015
     atom    8 type  1   force =     0.00000528   -0.00001235    0.00000779
     atom    9 type  2   force =     0.00000440   -0.00000569    0.00002264
     atom   10 type  2   force =    -0.00000317    0.00000608    0.00000619
     atom   11 type  2   force =    -0.00000382    0.00000602    0.00002326
     atom   12 type  2   force =     0.00000293   -0.00000604   -0.00000045
     atom   13 type  2   force =    -0.00000410   -0.00000132    0.00001688
     atom   14 type  2   force =     0.00000315    0.00000273    0.00001107
     atom   15 type  2   force =     0.00000407    0.00000101    0.00003160
     atom   16 type  2   force =    -0.00000275   -0.00000259   -0.00000897
     atom   17 type  2   force =    -0.00000156   -0.00000261   -0.00002369
     atom   18 type  2   force =     0.00000337    0.00000420   -0.00000991
     atom   19 type  2   force =     0.00000346    0.00000356   -0.00000368
     atom   20 type  2   force =    -0.00000138   -0.00000308   -0.00002398
     atom   21 type  2   force =     0.00000171   -0.00000663   -0.00001226
     atom   22 type  2   force =    -0.00000326    0.00000587   -0.00001846
     atom   23 type  2   force =    -0.00000356    0.00000555   -0.00000957
     atom   24 type  2   force =     0.00000125   -0.00000686   -0.00001805

     Total force =     0.002979     Total SCF correction =     0.000082

     Computing stress (Cartesian axis) and pressure

     Non-local corr. energy    =      11.50682950 Ry

          total   stress  (Ry/bohr**3)                   (kbar)     P=        0.98
   0.00000637  -0.00000001   0.00000002            0.94       -0.00        0.00
  -0.00000001   0.00000635  -0.00000002           -0.00        0.93       -0.00
   0.00000002  -0.00000002   0.00000720            0.00       -0.00        1.06

     kinetic stress (kbar)  14991.04      0.00      0.00
                                0.00  14991.04     -0.00
                                0.00     -0.00  15001.64

     local   stress (kbar)  -7409.21      0.32     -0.28
                                0.32  -7408.67      0.24
                               -0.28      0.24   1415.35

     nonloc. stress (kbar)  -1072.51     -0.00      0.00
                               -0.00  -1072.51     -0.00
                                0.00     -0.00  -1078.70

     hartree stress (kbar)  11990.33     -0.12      0.11
                               -0.12  11990.12     -0.09
                                0.11     -0.09   8013.52

     exc-cor stress (kbar)   6946.55     -0.00      0.00
                               -0.00   6946.55     -0.00
                                0.00     -0.00   6945.53

     corecor stress (kbar) -11310.02      0.00     -0.00
                                0.00 -11310.02      0.00
                               -0.00      0.00 -11310.01

     ewald   stress (kbar) -14218.53     -0.20      0.17
                               -0.20 -14218.88     -0.15
                                0.17     -0.15 -19070.86

     hubbard stress (kbar)      0.00      0.00      0.00
                                0.00      0.00      0.00
                                0.00      0.00      0.00

     DFT-D   stress (kbar)      0.00      0.00      0.00
                                0.00      0.00      0.00
                                0.00      0.00      0.00

     XDM     stress (kbar)      0.00      0.00      0.00
                                0.00      0.00      0.00
                                0.00      0.00      0.00

     dft-nl  stress (kbar)     83.30      0.00     -0.00
                                0.00     83.30      0.00
                               -0.00      0.00     84.60

     TS-vdW  stress (kbar)      0.00      0.00      0.00
                                0.00      0.00      0.00
                                0.00      0.00      0.00

     MDB     stress (kbar)      0.00      0.00      0.00
                                0.00      0.00      0.00
                                0.00      0.00      0.00

     3D-RISM stress (kbar)      0.00      0.00      0.00
                                0.00      0.00      0.00
                                0.00      0.00      0.00

     Energy error            =      4.7E-05 Ry
     Gradient error          =      7.6E-04 Ry/Bohr

     bfgs converged in   5 scf cycles and   4 bfgs steps
     (criteria: energy <  1.0E-04 Ry, force <  1.0E-03 Ry/Bohr)

     End of BFGS Geometry Optimization

     Final energy             =  -16189.0630552048 Ry

     File ./PbI2.bfgs deleted, as requested
Begin final coordinates

ATOMIC_POSITIONS (angstrom)
Pb            2.3557424361        4.0796211249       14.7553080368
Pb            2.3557509676        4.0797898205        7.3777540544
Pb            0.0001716416        8.1598632256       14.7553463761
Pb            0.0000249439        8.1598688051        7.3775811003
Pb            7.0670873095        4.0795880991       14.7554036126
Pb            7.0669253873        4.0797988707        7.3777313478
Pb            4.7113671755        8.1598999436       14.7553821259
Pb            4.7113490356        8.1598049151        7.3776872309
I             2.3556885847        1.3598214064        5.4870363739
I             2.3558017369        1.3596589266       12.8648372921
I             0.0001347931        5.4397932553        5.4869866632
I             0.0001240930        5.4398176366       12.8647933011
I             7.0670338508        1.3597471289        5.4871210871
I             7.0670373584        1.3596827955       12.8648476267
I             4.7113001775        5.4398186479        5.4869977188
I             4.7114467186        5.4397869211       12.8648910685
I             0.0000320714        2.7198865976        1.8905272084
I             0.0000548930        2.7197884751        9.2681655095
I            -2.3556233677        6.7999206780        1.8904216564
I            -2.3555520902        6.7999104400        9.2682351369
I             4.7112567856        2.7198631439        1.8905625808
I             4.7113545009        2.7197413163        9.2682266409
I             2.3556256187        6.7998751052        1.8904759333
I             2.3556611550        6.7999301640        9.2682126696
End final coordinates

     Writing all to output data dir ./PbI2.save/

     General routines

     Parallel routines

     PAW routines

   This run was terminated on:  21:43: 6  27Mar2024

   JOB DONE.