     Program PWSCF v.7.1 starts on 19Feb2024 at 18:21:20

     Reading input from espresso.pwi
Warning: card &CELL ignored
Warning: card    CELL_DYNAMICS    = 'BFGS' ignored
Warning: card / ignored

     Current dimensions of program PWSCF are:
     Max number of different atomic species (ntypx) = 10
     Max number of k-points (npk) =  40000
     Max angular momentum in pseudopotentials (lmaxx) =  4
     file Ga.pbe-dn-kjpaw_psl.1.0.0.UPF: wavefunction(s)  4S renormalized
     file N.pbe-n-kjpaw_psl.1.0.0.UPF: wavefunction(s)  2S renormalized

     IMPORTANT: XC functional enforced from input :
     Exchange-correlation= BEEF-VDW
                           (   1   4  43  14   2   0   0)
     Any further DFT definition will be discarded
     Please, verify this is what you really want

     K-points division:     npool     =       4
     R & G space division:  proc/nbgrp/npool/nimage =      64
     Subspace diagonalization in iterative solution of the eigenvalue problem:
     a serial algorithm will be used

     Using Slab Decomposition

     bravais-lattice index     =            4
     lattice parameter (alat)  =      30.6565  a.u.
     unit-cell volume          =   24400.9461 (a.u.)^3
     number of atoms/cell      =          299
     number of atomic types    =            2
     number of electrons       =      2688.00
     number of Kohn-Sham states=         1613
     kinetic-energy cutoff     =      70.0000  Ry
     charge density cutoff     =     350.0000  Ry
     scf convergence threshold =      1.0E-07
     mixing beta               =       0.7000
     number of iterations used =            8  plain     mixing
     Exchange-correlation= BEEF-VDW
                           (   1   4  43  14   2   0   0)

     celldm(1)=  30.656540  celldm(2)=   0.000000  celldm(3)=   0.977927
     celldm(4)=   0.000000  celldm(5)=   0.000000  celldm(6)=   0.000000

     crystal axes: (cart. coord. in units of alat)
               a(1) = (   1.000000   0.000000   0.000000 )
               a(2) = (  -0.500000   0.866025   0.000000 )
               a(3) = (   0.000000   0.000000   0.977927 )

     reciprocal axes: (cart. coord. in units 2 pi/alat)
               b(1) = (  1.000000  0.577350 -0.000000 )
               b(2) = (  0.000000  1.154701  0.000000 )
               b(3) = (  0.000000 -0.000000  1.022571 )

     PseudoPot. # 1 for Ga read from file:
     /trace/group/acmegroup/atimmins/packages/espresso/pseudo/psl_1.0.0/pslibrary.1.0.0/pbe/PSEUDOPOTENTIALS/Ga.pbe-dn-kjpaw_psl.1.0.0.UPF
     MD5 check sum: cd2a01e492f15b435d17032472d8505c
     Pseudo is Projector augmented-wave + core cor, Zval = 13.0
     Generated using 'atomic' code by A. Dal Corso  v.7.1
     Shape of augmentation charge: PSQ
     Using radial grid of 1205 points,  6 beta functions with:
                l(1) =   0
                l(2) =   0
                l(3) =   1
                l(4) =   1
                l(5) =   2
                l(6) =   2
     Q(r) pseudized with 0 coefficients

     PseudoPot. # 2 for N  read from file:
     /trace/group/acmegroup/atimmins/packages/espresso/pseudo/psl_1.0.0/pslibrary.1.0.0/pbe/PSEUDOPOTENTIALS/N.pbe-n-kjpaw_psl.1.0.0.UPF
     MD5 check sum: f77f775694dac7e2c3fe1c82443d1a16
     Pseudo is Projector augmented-wave + core cor, Zval =  5.0
     Generated using 'atomic' code by A. Dal Corso  v.7.1
     Shape of augmentation charge: PSQ
     Using radial grid of 1085 points,  4 beta functions with:
                l(1) =   0
                l(2) =   0
                l(3) =   1
                l(4) =   1
     Q(r) pseudized with 0 coefficients

     atomic species   valence    mass     pseudopotential
        Ga            13.00    69.72300     Ga( 1.00)
        N              5.00    14.00700     N ( 1.00)

      2 Sym. Ops. (no inversion) found

                                    s                        frac. trans.

      isym =  1     identity

 cryst.   s( 1) = (     1          0          0      )
                  (     0          1          0      )
                  (     0          0          1      )

 cart.    s( 1) = (  1.0000000  0.0000000  0.0000000 )
                  (  0.0000000  1.0000000  0.0000000 )
                  (  0.0000000  0.0000000  1.0000000 )

      isym =  2     inv. 180 deg rotation - cryst. axis [0,1,0]

 cryst.   s( 2) = (     1          1          0      )
                  (     0         -1          0      )
                  (     0          0          1      )

 cart.    s( 2) = (  0.5000000  0.8660254  0.0000000 )
                  (  0.8660254 -0.5000000  0.0000000 )
                  (  0.0000000  0.0000000  1.0000000 )

     point group C_s (m)
     there are  2 classes
     the character table:

       E     s
A'     1.00  1.00
A''    1.00 -1.00

     the symmetry operations in each class and the name of the first element:

     E        1
          identity
     s        2
          inv. 180 deg rotation - cryst. axis [0,1,0]

   Cartesian axes

     site n.     atom                  positions (alat units)
         1           Ga  tau(   1) = (   0.1000001   0.0577350   0.4886906  )
         2           Ga  tau(   2) = (   0.1000001   0.0577350   0.8146665  )
         3           Ga  tau(   3) = (   0.0000001   0.2309401   0.1627148  )
         4           Ga  tau(   4) = (   0.0000001   0.2309401   0.4886906  )
         5           Ga  tau(   5) = (   0.0000001   0.2309401   0.8146665  )
         6           Ga  tau(   6) = (  -0.0999999   0.4041451   0.1627148  )
         7           Ga  tau(   7) = (  -0.0999999   0.4041451   0.4886906  )
         8           Ga  tau(   8) = (  -0.0999999   0.4041451   0.8146665  )
         9           Ga  tau(   9) = (  -0.1999999   0.5773502   0.1627148  )
        10           Ga  tau(  10) = (  -0.1999999   0.5773502   0.4886906  )
        11           Ga  tau(  11) = (  -0.1999999   0.5773502   0.8146665  )
        12           Ga  tau(  12) = (  -0.2999999   0.7505553   0.1627148  )
        13           Ga  tau(  13) = (  -0.2999999   0.7505553   0.4886906  )
        14           Ga  tau(  14) = (  -0.2999999   0.7505553   0.8146665  )
        15           Ga  tau(  15) = (   0.3000001   0.0577350   0.1627148  )
        16           Ga  tau(  16) = (   0.3000001   0.0577350   0.4886906  )
        17           Ga  tau(  17) = (   0.3000001   0.0577350   0.8146665  )
        18           Ga  tau(  18) = (   0.2000001   0.2309401   0.1627148  )
        19           Ga  tau(  19) = (   0.2000001   0.2309401   0.4886906  )
        20           Ga  tau(  20) = (   0.2000001   0.2309401   0.8146665  )
        21           Ga  tau(  21) = (   0.1000001   0.4041451   0.1627148  )
        22           Ga  tau(  22) = (   0.1000001   0.4041451   0.4886906  )
        23           Ga  tau(  23) = (   0.1000001   0.4041451   0.8146665  )
        24           Ga  tau(  24) = (   0.0000001   0.5773502   0.1627148  )
        25           Ga  tau(  25) = (   0.0000001   0.5773502   0.4886906  )
        26           Ga  tau(  26) = (   0.0000001   0.5773502   0.8146665  )
        27           Ga  tau(  27) = (  -0.0999999   0.7505553   0.1627148  )
        28           Ga  tau(  28) = (  -0.0999999   0.7505553   0.4886906  )
        29           Ga  tau(  29) = (  -0.0999999   0.7505553   0.8146665  )
        30           Ga  tau(  30) = (   0.5000001   0.0577350   0.1627148  )
        31           Ga  tau(  31) = (   0.5000001   0.0577350   0.4886906  )
        32           Ga  tau(  32) = (   0.5000001   0.0577350   0.8146665  )
        33           Ga  tau(  33) = (   0.4000001   0.2309401   0.1627148  )
        34           Ga  tau(  34) = (   0.4000001   0.2309401   0.4886906  )
        35           Ga  tau(  35) = (   0.4000001   0.2309401   0.8146665  )
        36           Ga  tau(  36) = (   0.3000001   0.4041451   0.1627148  )
        37           Ga  tau(  37) = (   0.3000001   0.4041451   0.4886906  )
        38           Ga  tau(  38) = (   0.3000001   0.4041451   0.8146665  )
        39           Ga  tau(  39) = (   0.2000001   0.5773502   0.1627148  )
        40           Ga  tau(  40) = (   0.2000001   0.5773502   0.4886906  )
        41           Ga  tau(  41) = (   0.2000001   0.5773502   0.8146665  )
        42           Ga  tau(  42) = (   0.1000001   0.7505553   0.1627148  )
        43           Ga  tau(  43) = (   0.1000001   0.7505553   0.4886906  )
        44           Ga  tau(  44) = (   0.1000001   0.7505553   0.8146665  )
        45           Ga  tau(  45) = (   0.7000001   0.0577350   0.1627148  )
        46           Ga  tau(  46) = (   0.7000001   0.0577350   0.4886906  )
        47           Ga  tau(  47) = (   0.7000001   0.0577350   0.8146665  )
        48           Ga  tau(  48) = (   0.6000001   0.2309401   0.1627148  )
        49           Ga  tau(  49) = (   0.6000001   0.2309401   0.4886906  )
        50           Ga  tau(  50) = (   0.6000001   0.2309401   0.8146665  )
        51           Ga  tau(  51) = (   0.5000001   0.4041451   0.1627148  )
        52           Ga  tau(  52) = (   0.5000001   0.4041451   0.4886906  )
        53           Ga  tau(  53) = (   0.5000001   0.4041451   0.8146665  )
        54           Ga  tau(  54) = (   0.4000001   0.5773502   0.1627148  )
        55           Ga  tau(  55) = (   0.4000001   0.5773502   0.4886906  )
        56           Ga  tau(  56) = (   0.4000001   0.5773502   0.8146665  )
        57           Ga  tau(  57) = (   0.3000001   0.7505553   0.1627148  )
        58           Ga  tau(  58) = (   0.3000001   0.7505553   0.4886906  )
        59           Ga  tau(  59) = (   0.3000001   0.7505553   0.8146665  )
        60           Ga  tau(  60) = (   0.9000001   0.0577350   0.1627148  )
[...]
       285           N   tau( 285) = (   0.7999999   0.1154701   0.1225140  )
       286           N   tau( 286) = (   0.7999999   0.1154701   0.4484898  )
       287           N   tau( 287) = (   0.7999999   0.1154701   0.7744656  )
       288           N   tau( 288) = (   0.6999999   0.2886752   0.1225140  )
       289           N   tau( 289) = (   0.6999999   0.2886752   0.4484898  )
       290           N   tau( 290) = (   0.6999999   0.2886752   0.7744656  )
       291           N   tau( 291) = (   0.5999999   0.4618803   0.1225140  )
       292           N   tau( 292) = (   0.5999999   0.4618803   0.4484898  )
       293           N   tau( 293) = (   0.5999999   0.4618803   0.7744656  )
       294           N   tau( 294) = (   0.4999999   0.6350854   0.1225140  )
       295           N   tau( 295) = (   0.4999999   0.6350854   0.4484898  )
       296           N   tau( 296) = (   0.4999999   0.6350854   0.7744656  )
       297           N   tau( 297) = (   0.3999999   0.8082905   0.1225140  )
       298           N   tau( 298) = (   0.3999999   0.8082905   0.4484898  )
       299           N   tau( 299) = (   0.3999999   0.8082905   0.7744656  )

   Crystallographic axes

     site n.     atom                  positions (cryst. coord.)
         1           Ga  tau(   1) = (  0.1333334  0.0666666  0.4997208  )
         2           Ga  tau(   2) = (  0.1333334  0.0666666  0.8330541  )
[...]
     atom   26 type  1   force =     0.00000000    0.00000000    0.00000000
     atom   27 type  1   force =     0.00000000    0.00000000    0.00000000
     atom   28 type  1   force =     0.00000000    0.00000000    0.00000000
     atom   29 type  1   force =     0.00000000    0.00000000    0.00000000
     atom   30 type  1   force =     0.00000000    0.00000000    0.00000000
     atom   31 type  1   force =     0.00000000    0.00000000    0.00000000
     atom   32 type  1   force =     0.00000000    0.00000000    0.00000000
     atom   33 type  1   force =     0.00000000    0.00000000    0.00000000
     atom   34 type  1   force =     0.00000000    0.00000000    0.00000000
     atom   35 type  1   force =     0.00000000    0.00000000    0.00000000
     atom   36 type  1   force =     0.00000000    0.00000000    0.00000000
     atom   37 type  1   force =     0.00000000    0.00000000    0.00000000
     atom   38 type  1   force =     0.00000000    0.00000000    0.00000000
     atom   39 type  1   force =     0.00000000    0.00000000    0.00000000
     atom   40 type  1   force =     0.00000000    0.00000000    0.00000000
     atom   41 type  1   force =     0.00000000    0.00000000    0.00000000
     atom   42 type  1   force =     0.00000000    0.00000000    0.00000000
     atom   43 type  1   force =     0.00000000    0.00000000    0.00000000
     atom   44 type  1   force =     0.00000000    0.00000000    0.00000000
     atom   45 type  1   force =     0.00000000    0.00000000    0.00000000
     atom   46 type  1   force =     0.00000000    0.00000000    0.00000000
     atom   47 type  1   force =     0.00000000    0.00000000    0.00000000
     atom   48 type  1   force =     0.00000000    0.00000000    0.00000000
     atom   49 type  1   force =     0.00000000    0.00000000    0.00000000
     atom   50 type  1   force =     0.00000000    0.00000000    0.00000000
     atom   51 type  1   force =     0.00000000    0.00000000    0.00000000
     atom   52 type  1   force =     0.00000000    0.00000000    0.00000000
     atom   53 type  1   force =     0.00000000    0.00000000    0.00000000
     atom   54 type  1   force =     0.00000000    0.00000000    0.00000000
     atom   55 type  1   force =     0.00000000    0.00000000    0.00000000
     atom   56 type  1   force =     0.00000000    0.00000000    0.00000000
     atom   57 type  1   force =     0.00000000    0.00000000    0.00000000
     atom   58 type  1   force =     0.00000000    0.00000000    0.00000000
     atom   59 type  1   force =     0.00000000    0.00000000    0.00000000
     atom   60 type  1   force =     0.00000000    0.00000000    0.00000000
[...]
     atom  285 type  2   force =     0.00000000    0.00000000    0.00000000
     atom  286 type  2   force =     0.00000000    0.00000000    0.00000000
     atom  287 type  2   force =     0.00000000    0.00000000    0.00000000
     atom  288 type  2   force =     0.00000000    0.00000000    0.00000000
     atom  289 type  2   force =     0.00000000    0.00000000    0.00000000
     atom  290 type  2   force =     0.00000000    0.00000000    0.00000000
     atom  291 type  2   force =     0.00000000    0.00000000    0.00000000
     atom  292 type  2   force =     0.00000000    0.00000000    0.00000000
     atom  293 type  2   force =     0.00000000    0.00000000    0.00000000
     atom  294 type  2   force =     0.00000000    0.00000000    0.00000000
     atom  295 type  2   force =     0.00000000    0.00000000    0.00000000
     atom  296 type  2   force =     0.00000000    0.00000000    0.00000000
     atom  297 type  2   force =     0.00000000    0.00000000    0.00000000
     atom  298 type  2   force =     0.00000000    0.00000000    0.00000000
     atom  299 type  2   force =     0.00000000    0.00000000    0.00000000
     The SCF correction term to forces
     atom    1 type  1   force =     0.00000516    0.00000298    0.00006806
     atom    2 type  1   force =     0.00000468    0.00000270   -0.00000564
     atom    3 type  1   force =    -0.00001587    0.00007861    0.00000477
     atom    4 type  1   force =    -0.00001158    0.00004134    0.00001784
     atom    5 type  1   force =    -0.00000447    0.00001637    0.00000342
     atom    6 type  1   force =    -0.00001828    0.00001537   -0.00000052
     atom    7 type  1   force =    -0.00001269    0.00000958    0.00000234
     atom    8 type  1   force =    -0.00000608    0.00000515    0.00000877
     atom    9 type  1   force =     0.00000417   -0.00002351   -0.00000052
     atom   10 type  1   force =     0.00000195   -0.00001578    0.00000234
     atom   11 type  1   force =     0.00000142   -0.00000784    0.00000877
     atom   12 type  1   force =     0.00006014   -0.00005305    0.00000477
     atom   13 type  1   force =     0.00003001   -0.00003070    0.00001784
     atom   14 type  1   force =     0.00001194   -0.00001206    0.00000342
     atom   15 type  1   force =     0.00005635    0.00001452   -0.00001472
     atom   16 type  1   force =     0.00004265   -0.00000409    0.00001681
     atom   17 type  1   force =     0.00001860    0.00000206    0.00000703
     atom   18 type  1   force =     0.00004075    0.00004154   -0.00001472
     atom   19 type  1   force =     0.00001778    0.00003898    0.00001681
     atom   20 type  1   force =     0.00001108    0.00001508    0.00000703
     atom   21 type  1   force =     0.00000565    0.00002916   -0.00000945
     atom   22 type  1   force =     0.00000217    0.00001773   -0.00000229
     atom   23 type  1   force =     0.00000265    0.00001122    0.00000345
     atom   24 type  1   force =     0.00000881    0.00000509   -0.00000136
     atom   25 type  1   force =     0.00000647    0.00000374   -0.00000647
     atom   26 type  1   force =     0.00000608    0.00000351    0.00000729
     atom   27 type  1   force =     0.00002808   -0.00000969   -0.00000945
     atom   28 type  1   force =     0.00001644   -0.00000698   -0.00000229
     atom   29 type  1   force =     0.00001104   -0.00000332    0.00000345
     atom   30 type  1   force =     0.00001370    0.00001656   -0.00000464
     atom   31 type  1   force =     0.00001185    0.00000941    0.00000123
     atom   32 type  1   force =     0.00000556    0.00000609    0.00001068
     atom   33 type  1   force =     0.00003438    0.00001985    0.00000191
     atom   34 type  1   force =     0.00002963    0.00001710    0.00000631
     atom   35 type  1   force =     0.00001628    0.00000940    0.00001297
     atom   36 type  1   force =     0.00002119    0.00000358   -0.00000464
     atom   37 type  1   force =     0.00001408    0.00000556    0.00000123
     atom   38 type  1   force =     0.00000806    0.00000177    0.00001068
     atom   39 type  1   force =    -0.00000715    0.00000065   -0.00000220
     atom   40 type  1   force =    -0.00000685    0.00000120   -0.00000666
     atom   41 type  1   force =    -0.00000532    0.00000070    0.00000759
     atom   42 type  1   force =    -0.00000301   -0.00000652   -0.00000220
     atom   43 type  1   force =    -0.00000238   -0.00000654   -0.00000666
     atom   44 type  1   force =    -0.00000205   -0.00000496    0.00000759
     atom   45 type  1   force =    -0.00002814    0.00001145   -0.00000229
     atom   46 type  1   force =    -0.00001838    0.00000834    0.00000179
     atom   47 type  1   force =    -0.00001195    0.00000503    0.00000978
     atom   48 type  1   force =    -0.00000677    0.00001888    0.00000173
     atom   49 type  1   force =    -0.00000388    0.00001696    0.00000141
     atom   50 type  1   force =    -0.00000430    0.00001051    0.00000895
     atom   51 type  1   force =     0.00001296   -0.00001530    0.00000173
     atom   52 type  1   force =     0.00001275   -0.00001184    0.00000141
     atom   53 type  1   force =     0.00000695   -0.00000898    0.00000895
     atom   54 type  1   force =    -0.00000415   -0.00003010   -0.00000229
     atom   55 type  1   force =    -0.00000197   -0.00002009    0.00000179
     atom   56 type  1   force =    -0.00000162   -0.00001286    0.00000978
     atom   57 type  1   force =    -0.00003086   -0.00001782   -0.00000970
     atom   58 type  1   force =    -0.00001808   -0.00001044   -0.00000209
     atom   59 type  1   force =    -0.00001309   -0.00000756    0.00000287
     atom   60 type  1   force =    -0.00008127   -0.00001513    0.00000687
[...]
     atom  285 type  2   force =    -0.00002107    0.00000619   -0.00000059
     atom  286 type  2   force =    -0.00001499    0.00000579    0.00000086
     atom  287 type  2   force =    -0.00000634    0.00000371    0.00000386
     atom  288 type  2   force =    -0.00000963    0.00000409    0.00000294
     atom  289 type  2   force =    -0.00000829    0.00000423   -0.00000048
     atom  290 type  2   force =    -0.00000492    0.00000191    0.00000333
     atom  291 type  2   force =    -0.00000127   -0.00001039    0.00000294
     atom  292 type  2   force =    -0.00000048   -0.00000929   -0.00000048
     atom  293 type  2   force =    -0.00000080   -0.00000522    0.00000333
     atom  294 type  2   force =    -0.00000517   -0.00002135   -0.00000059
     atom  295 type  2   force =    -0.00000248   -0.00001588    0.00000086
     atom  296 type  2   force =     0.00000004   -0.00000734    0.00000386
     atom  297 type  2   force =    -0.00001933   -0.00001116   -0.00000403
     atom  298 type  2   force =    -0.00001509   -0.00000871    0.00000405
     atom  299 type  2   force =    -0.00000471   -0.00000272    0.00000305

     Total force =     0.003607     Total SCF correction =     0.000464
     SCF correction compared to forces is large: reduce conv_thr to get better values

     Computing stress (Cartesian axis) and pressure

[...]

          total   stress  (Ry/bohr**3)                   (kbar)     P=        8.34
   0.00005280  -0.00000004   0.00000001            7.77       -0.01        0.00
  -0.00000004   0.00005284   0.00000001           -0.01        7.77        0.00
   0.00000001   0.00000001   0.00006447            0.00        0.00        9.48

     kinetic stress (kbar)  18386.45     -0.01      0.00
                               -0.01  18386.46      0.00
                                0.00      0.00  18383.22

     local   stress (kbar)   5104.96      1.05     -0.17
                                1.05   5103.57     -0.10
                               -0.17     -0.10   3447.83

     nonloc. stress (kbar)     53.36      0.01     -0.01
                                0.01     53.35     -0.00
                               -0.01     -0.00     64.00

     hartree stress (kbar)  19610.02     -0.42      0.05
                               -0.42  19610.50      0.03
                                0.05      0.03  20366.40

     exc-cor stress (kbar)   5175.42     -0.00      0.00
                               -0.00   5175.42      0.00
                                0.00      0.00   5175.76

     corecor stress (kbar) -14020.45      0.00     -0.00
                                0.00 -14020.45     -0.00
                               -0.00     -0.00 -14019.93

     ewald   stress (kbar) -34463.19     -0.63      0.12
                               -0.63 -34462.23      0.07
                                0.12      0.07 -33568.10

     hubbard stress (kbar)      0.00      0.00      0.00
                                0.00      0.00      0.00
                                0.00      0.00      0.00

     DFT-D   stress (kbar)      0.00      0.00      0.00
                                0.00      0.00      0.00
                                0.00      0.00      0.00

     XDM     stress (kbar)      0.00      0.00      0.00
                                0.00      0.00      0.00
                                0.00      0.00      0.00

     dft-nl  stress (kbar)    161.18      0.00     -0.00
                                0.00    161.18     -0.00
                               -0.00     -0.00    160.31

     TS-vdW  stress (kbar)      0.00      0.00      0.00
                                0.00      0.00      0.00
                                0.00      0.00      0.00

     MDB     stress (kbar)      0.00      0.00      0.00
                                0.00      0.00      0.00
                                0.00      0.00      0.00

     3D-RISM stress (kbar)      0.00      0.00      0.00
                                0.00      0.00      0.00
                                0.00      0.00      0.00

[...]

     Non-local corr. energy    =      81.30988740 Ry

 BEEFens 2000 ensemble energies
             -0.658215570199964E+02
             -0.592252100483086E+03
             -0.254665281064279E+03
              0.208453832429114E+03
             -0.425742505770032E+03
             -0.547627952904744E+03
              0.281453990517244E+03
             -0.297081011659634E+02
              0.469065899764450E+03
             -0.202464672054230E+02
              0.230045248655802E+03
              0.953914391556862E+01
              0.949159968201684E+01
             -0.201414141121463E+02
              0.306993709261021E+03
             -0.223575791207261E+03
             -0.460840440225777E+03
             -0.150554427934215E+03
              0.112497044572285E+03
             -0.100811098729346E+02
              0.672425595420553E+03
              0.572356065018056E+03
             -0.327547057001988E+03
              0.118696266081329E+03
             -0.718349288235638E+03
              0.575993933641968E+03
              0.188139125775080E+03
              0.560047812638145E+03
              0.367969821135821E+03
             -0.179176698140964E+03
              0.135574210660634E+03
             -0.264697279278316E+03
              0.739433808835082E+02
              0.359939286418260E+03
              0.381784035534177E+03
             -0.137849994989770E+03
              0.848049566619057E+03
             -0.321834462528529E+03
             -0.231695174292110E+03
              0.339856027116785E+03
              0.151977371974770E+03
              0.254420428122640E+03
             -0.484849089259665E+03
             -0.136168038536707E+02
              0.476005225722622E+03
              0.618252251134606E+03
             -0.615424437970500E+03
              0.438410548640392E+02
              0.232057365334418E+03
              0.112896874930869E+03
              0.257371840807004E+03
              0.545154745681091E+03
             -0.329575532038767E+03
             -0.361284240851833E+03
             -0.469728208523637E+03
             -0.727589046591411E+02
             -0.428440828617787E+03
              0.419091652253492E+02
             -0.793655253918628E+02
             -0.333977293876580E+03
[...]
              0.416833029033297E+03
              0.230165005968303E+03
              0.292577063221056E+03
             -0.472747885350985E+03
             -0.452444763587300E+03
             -0.114529278703784E+03
             -0.443554575301847E+03
              0.710223441288976E+03
              0.608697407551505E+03
              0.290857280251887E+03
              0.787582989484599E+03
             -0.409903370403148E+03
             -0.167080252227642E+03
             -0.232366049342430E+03
              0.651404463370000E+03

 BEEF-vdW xc energy contributions
            1 :    -5970.479737845212
            2 :     5377.496709916016
            3 :    -4384.025830258396
            4 :     3280.844213650347
            5 :    -2323.823740824758
            6 :     1636.638759722641
            7 :    -1196.959082118434
            8 :     899.6041782534730
            9 :    -645.7760531451158
           10 :     400.3718308805919
           11 :    -189.9264972607662
           12 :     57.21949673950257
           13 :    -14.29523049420823
           14 :     28.66201844115221
           15 :    -47.29208533783367
           16 :     34.35522541372029
           17 :     8.165636326408276
           18 :    -50.67949066929850
           19 :     65.43294046436222
           20 :    -50.19714394142284
           21 :     28.46835346795979
           22 :    -28.60309133233295
           23 :     60.49552393424801
           24 :    -108.5157197577619
           25 :     144.9315437692358
           26 :    -151.5889590881716
           27 :     132.2429061018602
           28 :    -106.8338038229713
           29 :     93.95318955076709
           30 :    -96.46087080055077
           31 :    -511.7980374749031
           32 :    -350.6877478434653

     Writing all to output data dir ./GaN.save/

     General routines

     Parallel routines

     PAW routines

   This run was terminated on:  22:14:59  19Feb2024

   JOB DONE.