     Program PWSCF v.7.1 starts on  9Feb2024 at  7:49:50

     Reading input from espresso.pwi

     Current dimensions of program PWSCF are:
     Max number of different atomic species (ntypx) = 10
     Max number of k-points (npk) =  40000
     Max angular momentum in pseudopotentials (lmaxx) =  4
     file Pb.pbe-dn-kjpaw_psl.1.0.0.UPF: wavefunction(s)  6S 6P 5D renormalized
     file I.pbe-dn-kjpaw_psl.1.0.0.UPF: wavefunction(s)  5S 5P renormalized

     IMPORTANT: XC functional enforced from input :
     Exchange-correlation= BEEF-VDW
                           (   1   4  43  14   2   0   0)
     Any further DFT definition will be discarded
     Please, verify this is what you really want

     K-points division:     npool     =       4
     R & G space division:  proc/nbgrp/npool/nimage =      32
     Subspace diagonalization in iterative solution of the eigenvalue problem:
     a serial algorithm will be used

     Using Slab Decomposition

     bravais-lattice index     =            4
     lattice parameter (alat)  =       8.7168  a.u.
     unit-cell volume          =     902.4058 (a.u.)^3
     number of atoms/cell      =            3
     number of atomic types    =            2
     number of electrons       =        48.00
     number of Kohn-Sham states=           29
     kinetic-energy cutoff     =      70.0000  Ry
     charge density cutoff     =     350.0000  Ry
     scf convergence threshold =      1.0E-09
     mixing beta               =       0.7000
     number of iterations used =            8  plain     mixing
     energy convergence thresh.=      1.0E-04
     force convergence thresh. =      1.0E-03
     press convergence thresh. =      5.0E-01
     Exchange-correlation= BEEF-VDW
                           (   1   4  43  14   2   0   0)
     nstep                     =           50

     celldm(1)=   8.716793  celldm(2)=   0.000000  celldm(3)=   1.573262
     celldm(4)=   0.000000  celldm(5)=   0.000000  celldm(6)=   0.000000

     crystal axes: (cart. coord. in units of alat)
               a(1) = (   1.000000   0.000000   0.000000 )
               a(2) = (  -0.500000   0.866025   0.000000 )
               a(3) = (   0.000000   0.000000   1.573262 )

     reciprocal axes: (cart. coord. in units 2 pi/alat)
               b(1) = (  1.000000  0.577350 -0.000000 )
               b(2) = (  0.000000  1.154701  0.000000 )
               b(3) = (  0.000000 -0.000000  0.635622 )

     PseudoPot. # 1 for Pb read from file:
     /trace/group/acmegroup/atimmins/packages/espresso/pseudo/psl_1.0.0/pslibrary.1.0.0/pbe/PSEUDOPOTENTIALS/Pb.pbe-dn-kjpaw_psl.1.0.0.UPF
     MD5 check sum: 39ab5b8a6bbd56b7735ad9f188aac93a
     Pseudo is Projector augmented-wave + core cor, Zval = 14.0
     Generated using 'atomic' code by A. Dal Corso  v.7.1
     Shape of augmentation charge: PSQ
     Using radial grid of 1281 points,  6 beta functions with:
                l(1) =   0
                l(2) =   0
                l(3) =   1
                l(4) =   1
                l(5) =   2
                l(6) =   2
     Q(r) pseudized with 0 coefficients

     PseudoPot. # 2 for I  read from file:
     /trace/group/acmegroup/atimmins/packages/espresso/pseudo/psl_1.0.0/pslibrary.1.0.0/pbe/PSEUDOPOTENTIALS/I.pbe-dn-kjpaw_psl.1.0.0.UPF
     MD5 check sum: bfa8781bc1224d19af3f3980e3fab11e
     Pseudo is Projector augmented-wave + core cor, Zval = 17.0
     Generated using 'atomic' code by A. Dal Corso  v.7.1
     Shape of augmentation charge: PSQ
     Using radial grid of 1247 points,  6 beta functions with:
                l(1) =   0
                l(2) =   0
                l(3) =   1
                l(4) =   1
                l(5) =   2
                l(6) =   2
     Q(r) pseudized with 0 coefficients

     atomic species   valence    mass     pseudopotential
        Pb            14.00   207.20000     Pb( 1.00)
        I             17.00   126.90447     I ( 1.00)

     No symmetry found

                                    s                        frac. trans.

      isym =  1     identity

 cryst.   s( 1) = (     1          0          0      )
                  (     0          1          0      )
                  (     0          0          1      )

 cart.    s( 1) = (  1.0000000  0.0000000  0.0000000 )
                  (  0.0000000  1.0000000  0.0000000 )
                  (  0.0000000  0.0000000  1.0000000 )

     point group C_1 (1)
     there are  1 classes
     the character table:

       E
A      1.00

     the symmetry operations in each class and the name of the first element:

     E        1
          identity

   Cartesian axes

     site n.     atom                  positions (alat units)
         1           Pb  tau(   1) = (   0.4999919   0.8659920  -0.0000128  )
         2           I   tau(   2) = (   0.5000218   0.2886270   1.1657005  )
         3           I   tau(   3) = (  -0.0000197   0.5773387   0.4075485  )

   Crystallographic axes

     site n.     atom                  positions (cryst. coord.)
         1           Pb  tau(   1) = (  0.9999726  0.9999614 -0.0000081  )
         2           I   tau(   2) = (  0.6666607  0.3332778  0.7409450  )
         3           I   tau(   3) = (  0.3333070  0.6666534  0.2590469  )

     number of k points=    20  Gaussian smearing, width (Ry)=  0.0100
                       cart. coord. in units 2pi/alat
        k(    1) = (   0.0000000   0.0000000   0.0000000), wk =   0.0625000
        k(    2) = (   0.0000000   0.0000000  -0.3178111), wk =   0.0625000
        k(    3) = (   0.0000000   0.2886751   0.0000000), wk =   0.1250000
        k(    4) = (   0.0000000   0.2886751  -0.3178111), wk =   0.1250000
        k(    5) = (   0.0000000  -0.5773503   0.0000000), wk =   0.0625000
        k(    6) = (   0.0000000  -0.5773503  -0.3178111), wk =   0.0625000
        k(    7) = (   0.2500000   0.4330127   0.0000000), wk =   0.1250000
        k(    8) = (   0.2500000   0.4330127  -0.3178111), wk =   0.1250000
        k(    9) = (  -0.2500000   0.1443376   0.0000000), wk =   0.1250000
        k(   10) = (   0.2500000   0.1443376   0.0000000), wk =   0.1250000
        k(   11) = (  -0.2500000   0.1443376  -0.3178111), wk =   0.1250000
        k(   12) = (   0.2500000   0.1443376  -0.3178111), wk =   0.1250000
        k(   13) = (   0.5000000  -0.2886751   0.0000000), wk =   0.0625000
        k(   14) = (  -0.5000000  -0.2886751   0.0000000), wk =   0.0625000
        k(   15) = (   0.5000000  -0.2886751  -0.3178111), wk =   0.0625000
        k(   16) = (  -0.5000000  -0.2886751  -0.3178111), wk =   0.0625000
        k(   17) = (  -0.2500000   0.4330127   0.0000000), wk =   0.1250000
        k(   18) = (   0.5000000   0.0000000   0.0000000), wk =   0.1250000
        k(   19) = (  -0.2500000   0.4330127   0.3178111), wk =   0.1250000
        k(   20) = (   0.5000000   0.0000000  -0.3178111), wk =   0.1250000

                       cryst. coord.
        k(    1) = (   0.0000000   0.0000000   0.0000000), wk =   0.0625000
        k(    2) = (   0.0000000   0.0000000  -0.5000000), wk =   0.0625000
        k(    3) = (   0.0000000   0.2500000   0.0000000), wk =   0.1250000
        k(    4) = (   0.0000000   0.2500000  -0.5000000), wk =   0.1250000
        k(    5) = (   0.0000000  -0.5000000   0.0000000), wk =   0.0625000
        k(    6) = (   0.0000000  -0.5000000  -0.5000000), wk =   0.0625000
        k(    7) = (   0.2500000   0.2500000   0.0000000), wk =   0.1250000
        k(    8) = (   0.2500000   0.2500000  -0.5000000), wk =   0.1250000
        k(    9) = (  -0.2500000   0.2500000   0.0000000), wk =   0.1250000
        k(   10) = (   0.2500000   0.0000000   0.0000000), wk =   0.1250000
        k(   11) = (  -0.2500000   0.2500000  -0.5000000), wk =   0.1250000
        k(   12) = (   0.2500000   0.0000000  -0.5000000), wk =   0.1250000
        k(   13) = (   0.5000000  -0.5000000   0.0000000), wk =   0.0625000
        k(   14) = (  -0.5000000  -0.0000000   0.0000000), wk =   0.0625000
        k(   15) = (   0.5000000  -0.5000000  -0.5000000), wk =   0.0625000
        k(   16) = (  -0.5000000  -0.0000000  -0.5000000), wk =   0.0625000
        k(   17) = (  -0.2500000   0.5000000   0.0000000), wk =   0.1250000
        k(   18) = (   0.5000000  -0.2500000   0.0000000), wk =   0.1250000
        k(   19) = (  -0.2500000   0.5000000   0.5000000), wk =   0.1250000
        k(   20) = (   0.5000000  -0.2500000  -0.5000000), wk =   0.1250000

     Check: negative core charge=   -0.000001

     Initial potential from superposition of free atoms

     starting charge      47.9975, renormalised to      48.0000

     %%%%%%%%%%%%%%%%%%%%%%%%%%%%%%%%%%%%%%%%%%%%%%%%%%%%%%%%%%%%%%%%%%%%%%%%
     %                                                                      %
     % You are using vdW-DF, which was implemented by the Thonhauser group. %
     % Please cite the following two papers that made this development      %
     % possible and the two reviews that describe the various versions:     %
     %                                                                      %
     %   T. Thonhauser et al., PRL 115, 136402 (2015).                      %
     %   T. Thonhauser et al., PRB 76, 125112 (2007).                       %
     %   K. Berland et al., Rep. Prog. Phys. 78, 066501 (2015).             %
     %   D.C. Langreth et al., J. Phys.: Condens. Matter 21, 084203 (2009). %
     %                                                                      %
     % If you are calculating stress with vdW-DF, please also cite:         %
     %                                                                      %
     %   R. Sabatini et al., J. Phys.: Condens. Matter 24, 424209 (2012).   %
     %                                                                      %
     %%%%%%%%%%%%%%%%%%%%%%%%%%%%%%%%%%%%%%%%%%%%%%%%%%%%%%%%%%%%%%%%%%%%%%%%

     %%%%%%%%%%%%%%%%%%%%%%%%%%%%%%%%%%%%%%%%%%%%%%%%%%%%%%%%%%%%%%%%%%%%%%%%
     %                                                                      %
     %  vdW-DF NEWS:                                                        %
     %                                                                      %
     %  * vdW-DF3 is now available. DOI: 10.1021/acs.jctc.0c00471           %
     %    use with input_dft = 'vdW-DF3-opt1' or 'vdW-DF3-opt2'             %
     %                                                                      %
     %  * Unscreened and range-separated vdW-DF hybrid functionals          %
     %    DOI: 10.1063/1.4986522 and 10.1088/1361-648X/ac2ad2               %
     %    use with input_dft = 'vdW-DF-cx0' (etc) and 'vdW-DF-ahcx'         %
     %                                                                      %
     %%%%%%%%%%%%%%%%%%%%%%%%%%%%%%%%%%%%%%%%%%%%%%%%%%%%%%%%%%%%%%%%%%%%%%%%

     Carrying out vdW-DF run using the following parameters:
     Nqs    =  20  Npoints =  1024  r_max =  100.000
     q_mesh =  0.00001000  0.04494208  0.09755937  0.15916263
               0.23128650  0.31572767  0.41458969  0.53033537
               0.66584808  0.82450364  1.01025438  1.22772762
               1.48234092  1.78043706  2.12944203  2.53805004
[...]

     CASE: enthalpy          _new < enthalpy          _old

     new trust radius        =       0.0182229967 bohr
     new conv_thr            =            1.0E-11 Ry

     new unit-cell volume =    957.02176 a.u.^3 (   141.81599 Ang^3 )
     density =      5.39800 g/cm^3

[...]

ATOMIC_POSITIONS (angstrom)
Pb            2.3556021770        4.0798891515       -0.0000603163
I             2.3557355957        1.3597659983        5.4826443618
I            -0.0000321176        2.7199047810        1.8949757376

     Writing config-only to output data dir ./PbI2.save/
     NEW-OLD atomic charge density approx. for the potential

[...]

     extrapolated charge   48.13364, renormalised to   48.00000

[...]

     Energy error            =      3.3E-05 Ry
     Gradient error          =      5.7E-04 Ry/Bohr
     Cell gradient error     =      4.9E-01 kbar

     bfgs converged in  10 scf cycles and   9 bfgs steps
     (criteria: energy <  1.0E-04 Ry, force <  1.0E-03 Ry/Bohr, cell <  5.0E-01 kbar)

     End of BFGS Geometry Optimization

     Final enthalpy           =   -2023.6323457991 Ry

     File ./PbI2.bfgs deleted, as requested
Begin final coordinates
     new unit-cell volume =    957.02176 a.u.^3 (   141.81599 Ang^3 )
     density =      5.39800 g/cm^3

CELL_PARAMETERS (alat=  8.71679314)
   1.021362793  -0.000003934   0.000013302
  -0.510684803   0.884522059  -0.000016843
   0.000020866  -0.000018460   1.599424915

ATOMIC_POSITIONS (angstrom)
Pb            2.3556021770        4.0798891515       -0.0000603163
I             2.3557355957        1.3597659983        5.4826443618
I            -0.0000321176        2.7199047810        1.8949757376
End final coordinates

     Writing config-only to output data dir ./PbI2.save/

     Final scf calculation at the relaxed structure.
     The G-vectors are recalculated for the final unit cell
     Results may differ from those at the preceding step.

     Using Slab Decomposition

     bravais-lattice index     =            4
     lattice parameter (alat)  =       8.7168  a.u.
     unit-cell volume          =     957.0218 (a.u.)^3
     number of atoms/cell      =            3
     number of atomic types    =            2
     number of electrons       =        48.00
     number of Kohn-Sham states=           29
     kinetic-energy cutoff     =      70.0000  Ry
     charge density cutoff     =     350.0000  Ry
     scf convergence threshold =      1.0E-11
     mixing beta               =       0.7000
     number of iterations used =            8  plain     mixing
     press convergence thresh. =      5.0E-01
     Exchange-correlation= BEEF-VDW
                           (   1   4  43  14   2   0   0)

     celldm(1)=   8.716793  celldm(2)=   0.000000  celldm(3)=   1.573262
     celldm(4)=   0.000000  celldm(5)=   0.000000  celldm(6)=   0.000000

     crystal axes: (cart. coord. in units of alat)
               a(1) = (   1.021363  -0.000004   0.000013 )
               a(2) = (  -0.510685   0.884522  -0.000017 )
               a(3) = (   0.000021  -0.000018   1.599425 )

     reciprocal axes: (cart. coord. in units 2 pi/alat)
               b(1) = (  0.979086  0.565282 -0.000006 )
               b(2) = (  0.000004  1.130557  0.000013 )
               b(3) = ( -0.000008  0.000007  0.625225 )

     PseudoPot. # 1 for Pb read from file:
     /trace/group/acmegroup/atimmins/packages/espresso/pseudo/psl_1.0.0/pslibrary.1.0.0/pbe/PSEUDOPOTENTIALS/Pb.pbe-dn-kjpaw_psl.1.0.0.UPF
     MD5 check sum: 39ab5b8a6bbd56b7735ad9f188aac93a
     Pseudo is Projector augmented-wave + core cor, Zval = 14.0
     Generated using 'atomic' code by A. Dal Corso  v.7.1
     Shape of augmentation charge: PSQ
     Using radial grid of 1281 points,  6 beta functions with:
                l(1) =   0
                l(2) =   0
                l(3) =   1
                l(4) =   1
                l(5) =   2
                l(6) =   2
     Q(r) pseudized with 0 coefficients

     PseudoPot. # 2 for I  read from file:
     /trace/group/acmegroup/atimmins/packages/espresso/pseudo/psl_1.0.0/pslibrary.1.0.0/pbe/PSEUDOPOTENTIALS/I.pbe-dn-kjpaw_psl.1.0.0.UPF
     MD5 check sum: bfa8781bc1224d19af3f3980e3fab11e
     Pseudo is Projector augmented-wave + core cor, Zval = 17.0
     Generated using 'atomic' code by A. Dal Corso  v.7.1
     Shape of augmentation charge: PSQ
     Using radial grid of 1247 points,  6 beta functions with:
                l(1) =   0
                l(2) =   0
                l(3) =   1
                l(4) =   1
                l(5) =   2
                l(6) =   2
     Q(r) pseudized with 0 coefficients

     atomic species   valence    mass     pseudopotential
        Pb            14.00   207.20000     Pb( 1.00)
        I             17.00   126.90447     I ( 1.00)

     No symmetry found

                                    s                        frac. trans.

      isym =  1     identity

 cryst.   s( 1) = (     1          0          0      )
                  (     0          1          0      )
                  (     0          0          1      )

 cart.    s( 1) = (  1.0000000  0.0000000  0.0000000 )
                  (  0.0000000  1.0000000  0.0000000 )
                  (  0.0000000  0.0000000  1.0000000 )

     point group C_1 (1)
     there are  1 classes
     the character table:

       E
A      1.00

     the symmetry operations in each class and the name of the first element:

     E        1
          identity

   Cartesian axes

     site n.     atom                  positions (alat units)
         1           Pb  tau(   1) = (   0.5106744   0.8844850  -0.0000131  )
         2           I   tau(   2) = (   0.5107033   0.2947856   1.1885904  )
         3           I   tau(   3) = (  -0.0000070   0.5896521   0.4108145  )

   Crystallographic axes

     site n.     atom                  positions (cryst. coord.)
         1           Pb  tau(   1) = (  0.9999778  0.9999626 -0.0000060  )
         2           I   tau(   2) = (  0.6666522  0.3332896  0.7431340  )
         3           I   tau(   3) = (  0.3333103  0.6666404  0.2568556  )

     number of k points=    20  Gaussian smearing, width (Ry)=  0.0100
                       cart. coord. in units 2pi/alat
        k(    1) = (   0.0000000   0.0000000   0.0000000), wk =   0.0625000
        k(    2) = (   0.0000041  -0.0000036  -0.3126124), wk =   0.0625000
        k(    3) = (   0.0000011   0.2826391   0.0000033), wk =   0.1250000
        k(    4) = (   0.0000052   0.2826355  -0.3126091), wk =   0.1250000
        k(    5) = (  -0.0000022  -0.5652783  -0.0000065), wk =   0.0625000
        k(    6) = (   0.0000019  -0.5652819  -0.3126189), wk =   0.0625000
        k(    7) = (   0.2447726   0.4239597   0.0000017), wk =   0.1250000
        k(    8) = (   0.2447767   0.4239561  -0.3126107), wk =   0.1250000
        k(    9) = (  -0.2447705   0.1413186   0.0000048), wk =   0.1250000
        k(   10) = (   0.2447716   0.1413205  -0.0000016), wk =   0.1250000
        k(   11) = (  -0.2447664   0.1413150  -0.3126075), wk =   0.1250000
        k(   12) = (   0.2447756   0.1413169  -0.3126139), wk =   0.1250000
        k(   13) = (   0.4895409  -0.2826373  -0.0000096), wk =   0.0625000
        k(   14) = (  -0.4895431  -0.2826410   0.0000031), wk =   0.0625000
        k(   15) = (   0.4895450  -0.2826409  -0.3126220), wk =   0.0625000
        k(   16) = (  -0.4895390  -0.2826446  -0.3126092), wk =   0.0625000
        k(   17) = (  -0.2447694   0.4239578   0.0000081), wk =   0.1250000
        k(   18) = (   0.4895420   0.0000019  -0.0000064), wk =   0.1250000
        k(   19) = (  -0.2447734   0.4239614   0.3126204), wk =   0.1250000
        k(   20) = (   0.4895461  -0.0000017  -0.3126187), wk =   0.1250000

                       cryst. coord.
        k(    1) = (   0.0000000   0.0000000   0.0000000), wk =   0.0625000
        k(    2) = (   0.0000000  -0.0000000  -0.5000000), wk =   0.0625000
        k(    3) = (   0.0000000   0.2500000   0.0000000), wk =   0.1250000
        k(    4) = (  -0.0000000   0.2500000  -0.5000000), wk =   0.1250000
        k(    5) = (  -0.0000000  -0.5000000  -0.0000000), wk =   0.0625000
        k(    6) = (  -0.0000000  -0.5000000  -0.5000000), wk =   0.0625000
        k(    7) = (   0.2500000   0.2500000   0.0000000), wk =   0.1250000
        k(    8) = (   0.2500000   0.2500000  -0.5000000), wk =   0.1250000
        k(    9) = (  -0.2500000   0.2500000  -0.0000000), wk =   0.1250000
        k(   10) = (   0.2500000  -0.0000000   0.0000000), wk =   0.1250000
        k(   11) = (  -0.2500000   0.2500000  -0.5000000), wk =   0.1250000
        k(   12) = (   0.2500000  -0.0000000  -0.5000000), wk =   0.1250000
        k(   13) = (   0.5000000  -0.5000000   0.0000000), wk =   0.0625000
        k(   14) = (  -0.5000000   0.0000000  -0.0000000), wk =   0.0625000
        k(   15) = (   0.5000000  -0.5000000  -0.5000000), wk =   0.0625000
        k(   16) = (  -0.5000000   0.0000000  -0.5000000), wk =   0.0625000
        k(   17) = (  -0.2500000   0.5000000   0.0000000), wk =   0.1250000
        k(   18) = (   0.5000000  -0.2500000   0.0000000), wk =   0.1250000
        k(   19) = (  -0.2500000   0.5000000   0.5000000), wk =   0.1250000
        k(   20) = (   0.5000000  -0.2500000  -0.5000000), wk =   0.1250000

     Check: negative core charge=   -0.000001

     Initial potential from superposition of free atoms

     starting charge      47.9975, renormalised to      48.0000

[...]

     Starting wfcs are   27 randomized atomic wfcs +    2 random wfcs
     Checking if some PAW data can be deallocated...

     Self-consistent Calculation

[...]

     c_bands:  1 eigenvalues not converged
     ethr =  4.48E-13,  avg # of iterations =  7.3

[...]

     total energy              =   -2023.63286471 Ry
     estimated scf accuracy    <          8.1E-11 Ry

     iteration # 17     ecut=    70.00 Ry     beta= 0.70
     Davidson diagonalization with overlap

     ethr =  1.69E-13,  avg # of iterations =  3.2

[...]

     End of self-consistent calculation

[...]

          k =-0.2448 0.4240 0.3126 (  9468 PWs)   bands (ev):

[...]

          k = 0.4895-0.0000-0.3126 (  9468 PWs)   bands (ev):

   -40.7636 -40.7635 -40.7635 -40.7635 -40.7634 -40.7634 -40.7624 -40.7624
   -40.7624 -40.7624 -12.9398 -12.9281 -12.9182 -12.9175 -12.9119  -7.5886
    -7.4975  -3.6173   1.2059   1.3918   1.8207   2.8307   2.9078   3.4017
     6.9702   7.2578   7.5876  10.4473  11.2027

     occupation numbers
     1.0000   1.0000   1.0000   1.0000   1.0000   1.0000   1.0000   1.0000
     1.0000   1.0000   1.0000   1.0000   1.0000   1.0000   1.0000   1.0000
     1.0000   1.0000   1.0000   1.0000   1.0000   1.0000   1.0000   1.0000
     0.0000   0.0000   0.0000   0.0000   0.0000

     the Fermi energy is     4.2834 ev

!    total energy              =   -2023.63286471 Ry
     total all-electron energy =    -70280.323307 Ry
     estimated scf accuracy    <          5.1E-12 Ry
     smearing contrib. (-TS)   =      -0.00000000 Ry
     internal energy E=F+TS    =   -2023.63286471 Ry

     The total energy is F=E-TS. E is the sum of the following terms:
     one-electron contribution =    -372.00077593 Ry
     hartree contribution      =     207.90756642 Ry
     xc contribution           =    -141.76636295 Ry
     ewald contribution        =    -309.31692642 Ry
     one-center paw contrib.   =   -1408.45636582 Ry
      -> PAW hartree energy AE =      95.88955420 Ry
      -> PAW hartree energy PS =     -96.12605081 Ry
      -> PAW xc energy AE      =    -798.42890161 Ry
      -> PAW xc energy PS      =      33.30887609 Ry
      -> total E_H with PAW    =     207.67106980 Ry
      -> total E_XC with PAW   =    -906.88638848 Ry

     convergence has been achieved in  17 iterations

[...]

     Forces acting on atoms (cartesian axes, Ry/au):

     atom    1 type  1   force =     0.00000038   -0.00000098    0.00000079
     atom    2 type  2   force =     0.00000220   -0.00000175    0.00126595
     atom    3 type  2   force =    -0.00000257    0.00000273   -0.00126674
     The non-local contrib.  to forces
     atom    1 type  1   force =    -0.00000438   -0.00000388   -0.00000120
     atom    2 type  2   force =    -0.00000306    0.00000669    0.24759207
     atom    3 type  2   force =     0.00000625   -0.00000174   -0.24759233
     The ionic contribution  to forces
     atom    1 type  1   force =     0.00008580    0.00007678    0.00004620
     atom    2 type  2   force =     0.00015862   -0.00021792  -14.07707026
     atom    3 type  2   force =    -0.00024442    0.00014114   14.07702405
     The local contribution  to forces
     atom    1 type  1   force =    -0.00008104   -0.00007258   -0.00004400
     atom    2 type  2   force =    -0.00015421    0.00021048   13.83626815
     atom    3 type  2   force =     0.00023648   -0.00013731  -13.83622404
     The core correction contribution to forces
     atom    1 type  1   force =     0.00000003    0.00000005   -0.00000014
     atom    2 type  2   force =     0.00000071    0.00000055   -0.00552424
     atom    3 type  2   force =    -0.00000067    0.00000191    0.00552355
     The Hubbard contrib.    to forces
     atom    1 type  1   force =     0.00000000    0.00000000    0.00000000
     atom    2 type  2   force =     0.00000000    0.00000000    0.00000000
     atom    3 type  2   force =     0.00000000    0.00000000    0.00000000
     The SCF correction term to forces
     atom    1 type  1   force =    -0.00000001    0.00000005   -0.00000038
     atom    2 type  2   force =     0.00000017   -0.00000016   -0.00000010
     atom    3 type  2   force =    -0.00000018    0.00000012    0.00000171

     Total force =     0.001791     Total SCF correction =     0.000002

     Computing stress (Cartesian axis) and pressure

     Non-local corr. energy    =       1.43840351 Ry

          total   stress  (Ry/bohr**3)                   (kbar)     P=        0.58
   0.00000390   0.00000001  -0.00000001            0.57        0.00       -0.00
   0.00000001   0.00000392   0.00000001            0.00        0.58        0.00
  -0.00000001   0.00000001   0.00000395           -0.00        0.00        0.58

     kinetic stress (kbar)  14991.00      0.00     -0.00
                                0.00  14991.00      0.00
                               -0.00      0.00  15001.09

     local   stress (kbar)  -7307.10     -0.29      0.28
                               -0.29  -7307.62     -0.25
                                0.28     -0.25   1285.51

     nonloc. stress (kbar)  -1072.65      0.00     -0.00
                                0.00  -1072.65      0.00
                               -0.00      0.00  -1079.00

     hartree stress (kbar)  11943.50      0.12     -0.11
                                0.12  11943.72      0.10
                               -0.11      0.10   8070.53

     exc-cor stress (kbar)   6946.65      0.00     -0.00
                                0.00   6946.65      0.00
                               -0.00      0.00   6945.69

     corecor stress (kbar) -11310.09      0.00      0.00
                                0.00 -11310.09     -0.00
                                0.00     -0.00 -11310.07

     ewald   stress (kbar) -14274.04      0.17     -0.17
                                0.17 -14273.74      0.15
                               -0.17      0.15 -18997.73

     hubbard stress (kbar)      0.00      0.00      0.00
                                0.00      0.00      0.00
                                0.00      0.00      0.00

     DFT-D   stress (kbar)      0.00      0.00      0.00
                                0.00      0.00      0.00
                                0.00      0.00      0.00

     XDM     stress (kbar)      0.00      0.00      0.00
                                0.00      0.00      0.00
                                0.00      0.00      0.00

     dft-nl  stress (kbar)     83.32     -0.00      0.00
                               -0.00     83.32     -0.00
                                0.00     -0.00     84.57

     TS-vdW  stress (kbar)      0.00      0.00      0.00
                                0.00      0.00      0.00
                                0.00      0.00      0.00

     MDB     stress (kbar)      0.00      0.00      0.00
                                0.00      0.00      0.00
                                0.00      0.00      0.00

     3D-RISM stress (kbar)      0.00      0.00      0.00
                                0.00      0.00      0.00
                                0.00      0.00      0.00

     Writing all to output data dir ./PbI2.save/

     General routines

     Parallel routines

     PAW routines

   This run was terminated on:   7:51:28   9Feb2024

   JOB DONE.