     Program PWSCF v.7.1 starts on 20Feb2024 at 15:48: 8

     Reading input from espresso.pwi

     Current dimensions of program PWSCF are:
     Max number of different atomic species (ntypx) = 10
     Max number of k-points (npk) =  40000
     Max angular momentum in pseudopotentials (lmaxx) =  4
     file Pb.pbe-dn-kjpaw_psl.1.0.0.UPF: wavefunction(s)  6S 6P 5D renormalized
     file I.pbe-dn-kjpaw_psl.1.0.0.UPF: wavefunction(s)  5S 5P renormalized

     IMPORTANT: XC functional enforced from input :
     Exchange-correlation= BEEF-VDW
                           (   1   4  43  14   2   0   0)
     Any further DFT definition will be discarded
     Please, verify this is what you really want

     K-points division:     npool     =       2
     R & G space division:  proc/nbgrp/npool/nimage =      64
     Subspace diagonalization in iterative solution of the eigenvalue problem:
     a serial algorithm will be used

     Using Slab Decomposition

     bravais-lattice index     =            4
     lattice parameter (alat)  =       8.7265  a.u.
     unit-cell volume          =    1813.4484 (a.u.)^3
     number of atoms/cell      =            6
     number of atomic types    =            2
     number of electrons       =        96.00
     number of Kohn-Sham states=           58
     kinetic-energy cutoff     =      70.0000  Ry
     charge density cutoff     =     350.0000  Ry
     scf convergence threshold =      1.0E-07
     mixing beta               =       0.7000
     number of iterations used =            8  plain     mixing
     energy convergence thresh.=      1.0E-04
     force convergence thresh. =      1.0E-03
     press convergence thresh. =      5.0E-01
     Exchange-correlation= BEEF-VDW
                           (   1   4  43  14   2   0   0)
     nstep                     =           50

     celldm(1)=   8.726458  celldm(2)=   0.000000  celldm(3)=   3.151088
     celldm(4)=   0.000000  celldm(5)=   0.000000  celldm(6)=   0.000000

     crystal axes: (cart. coord. in units of alat)
               a(1) = (   1.000000   0.000000   0.000000 )
               a(2) = (  -0.500000   0.866025   0.000000 )
               a(3) = (   0.000000   0.000000   3.151088 )

     reciprocal axes: (cart. coord. in units 2 pi/alat)
               b(1) = (  1.000000  0.577350 -0.000000 )
               b(2) = (  0.000000  1.154701  0.000000 )
               b(3) = (  0.000000 -0.000000  0.317351 )

     PseudoPot. # 1 for Pb read from file:
     //group///packages/espresso/pseudo/psl_1.0.0/pslibrary.1.0.0/pbe/PSEUDOPOTENTIALS/Pb.pbe-dn-kjpaw_psl.1.0.0.UPF
     MD5 check sum: 39ab5b8a6bbd56b7735ad9f188aac93a
     Pseudo is Projector augmented-wave + core cor, Zval = 14.0
     Generated using 'atomic' code by A. Dal Corso  v.7.1
     Shape of augmentation charge: PSQ
     Using radial grid of 1281 points,  6 beta functions with:
                l(1) =   0
                l(2) =   0
                l(3) =   1
                l(4) =   1
                l(5) =   2
                l(6) =   2
     Q(r) pseudized with 0 coefficients

     PseudoPot. # 2 for I  read from file:
     //group///packages/espresso/pseudo/psl_1.0.0/pslibrary.1.0.0/pbe/PSEUDOPOTENTIALS/I.pbe-dn-kjpaw_psl.1.0.0.UPF
     MD5 check sum: bfa8781bc1224d19af3f3980e3fab11e
     Pseudo is Projector augmented-wave + core cor, Zval = 17.0
     Generated using 'atomic' code by A. Dal Corso  v.7.1
     Shape of augmentation charge: PSQ
     Using radial grid of 1247 points,  6 beta functions with:
                l(1) =   0
                l(2) =   0
                l(3) =   1
                l(4) =   1
                l(5) =   2
                l(6) =   2
     Q(r) pseudized with 0 coefficients

     atomic species   valence    mass     pseudopotential
        Pb            14.00   207.20000     Pb( 1.00)
        I             17.00   126.90447     I ( 1.00)

     12 Sym. Ops. (no inversion) found ( 6 have fractional translation)

                                    s                        frac. trans.

      isym =  1     identity

 cryst.   s( 1) = (     1          0          0      )
                  (     0          1          0      )
                  (     0          0          1      )

 cart.    s( 1) = (  1.0000000  0.0000000  0.0000000 )
                  (  0.0000000  1.0000000  0.0000000 )
                  (  0.0000000  0.0000000  1.0000000 )

      isym =  2     180 deg rotation - cart. axis [0,0,1]

 cryst.   s( 2) = (    -1          0          0      )    f =( -0.0000001 )
                  (     0         -1          0      )       ( -0.0000001 )
                  (     0          0          1      )       (  0.5000000 )

 cart.    s( 2) = ( -1.0000000  0.0000000  0.0000000 )    f =(  0.0000000 )
                  (  0.0000000 -1.0000000  0.0000000 )       ( -0.0000001 )
                  (  0.0000000  0.0000000  1.0000000 )       (  1.5755441 )

      isym =  3      60 deg rotation - cryst. axis [0,0,1]

[...]

      isym =  7     inv. 180 deg rotation - cart. axis [0,1,0]

[...]

      isym =  9     inv. 180 deg rotation - cryst. axis [1,-1,0]

[...]

 cryst.   s(10) = (    -1         -1          0      )    f =( -0.0000001 )
                  (     0          1          0      )       (  0.0000010 )
                  (     0          0          1      )       (  0.5000000 )

 cart.    s(10) = ( -0.5000000 -0.8660254  0.0000000 )    f =( -0.0000006 )
                  ( -0.8660254  0.5000000  0.0000000 )       (  0.0000009 )
                  (  0.0000000  0.0000000  1.0000000 )       (  1.5755441 )

[...]

 cryst.   s(11) = (     1          1          0      )
                  (     0         -1          0      )
                  (     0          0          1      )

 cart.    s(11) = (  0.5000000  0.8660254  0.0000000 )
                  (  0.8660254 -0.5000000  0.0000000 )
                  (  0.0000000  0.0000000  1.0000000 )

[...]

     point group C_6v (6mm)
     there are  6 classes
     the character table:

       E     2C6   2C3   C2    3s_v  3s_d
A_1    1.00  1.00  1.00  1.00  1.00  1.00
A_2    1.00  1.00  1.00  1.00 -1.00 -1.00
B_1    1.00 -1.00  1.00 -1.00  1.00 -1.00
B_2    1.00 -1.00  1.00 -1.00 -1.00  1.00
E_1    2.00  1.00 -1.00 -2.00  0.00  0.00
E_2    2.00 -1.00 -1.00  2.00  0.00  0.00

     the symmetry operations in each class and the name of the first element:

     E        1
          identity
     2C6      3    4
           60 deg rotation - cryst. axis [0,0,1]
     2C3      5    6
          120 deg rotation - cryst. axis [0,0,1]
     C2       2
          180 deg rotation - cart. axis [0,0,1]
     3s_v     8   12   11
          inv. 180 deg rotation - cart. axis [1,0,0]
     3s_d     7    9   10
          inv. 180 deg rotation - cart. axis [0,1,0]

   Cartesian axes

     site n.     atom                  positions (alat units)
         1           Pb  tau(   1) = (   0.5000005   0.2886749   1.5758614  )
         2           Pb  tau(   2) = (  -0.0000005   0.5773506   3.1514055  )
         3           I   tau(   3) = (   0.5000005   0.2886749   2.7457068  )
         4           I   tau(   4) = (   0.0000000   0.0000000   0.4050671  )
         5           I   tau(   5) = (   0.0000000   0.0000000   1.9806112  )
         6           I   tau(   6) = (  -0.0000005   0.5773506   1.1701627  )

   Crystallographic axes

     site n.     atom                  positions (cryst. coord.)
         1           Pb  tau(   1) = (  0.6666670  0.3333330  0.5001007  )
         2           Pb  tau(   2) = (  0.3333330  0.6666671  1.0001007  )
         3           I   tau(   3) = (  0.6666670  0.3333330  0.8713519  )
         4           I   tau(   4) = (  0.0000000  0.0000000  0.1285483  )
         5           I   tau(   5) = (  0.0000000  0.0000000  0.6285483  )
         6           I   tau(   6) = (  0.3333330  0.6666671  0.3713519  )

     number of k points=     4  Gaussian smearing, width (Ry)=  0.0100
                       cart. coord. in units 2pi/alat
        k(    1) = (   0.0000000   0.0000000   0.0000000), wk =   0.1250000
        k(    2) = (   0.0000000   0.2886751   0.0000000), wk =   0.7500000
        k(    3) = (   0.0000000  -0.5773503   0.0000000), wk =   0.3750000
        k(    4) = (   0.2500000   0.4330127   0.0000000), wk =   0.7500000

                       cryst. coord.
        k(    1) = (   0.0000000   0.0000000   0.0000000), wk =   0.1250000
        k(    2) = (   0.0000000   0.2500000   0.0000000), wk =   0.7500000
        k(    3) = (   0.0000000  -0.5000000   0.0000000), wk =   0.3750000
        k(    4) = (   0.2500000   0.2500000   0.0000000), wk =   0.7500000

     Check: negative core charge=   -0.000001

     Initial potential from superposition of free atoms

     starting charge      95.9950, renormalised to      96.0000

     %%%%%%%%%%%%%%%%%%%%%%%%%%%%%%%%%%%%%%%%%%%%%%%%%%%%%%%%%%%%%%%%%%%%%%%%
     %                                                                      %
     % You are using vdW-DF, which was implemented by the Thonhauser group. %
     % Please cite the following two papers that made this development      %
     % possible and the two reviews that describe the various versions:     %
     %                                                                      %
     %   T. Thonhauser et al., PRL 115, 136402 (2015).                      %
     %   T. Thonhauser et al., PRB 76, 125112 (2007).                       %
     %   K. Berland et al., Rep. Prog. Phys. 78, 066501 (2015).             %
     %   D.C. Langreth et al., J. Phys.: Condens. Matter 21, 084203 (2009). %
     %                                                                      %
     % If you are calculating stress with vdW-DF, please also cite:         %
     %                                                                      %
     %   R. Sabatini et al., J. Phys.: Condens. Matter 24, 424209 (2012).   %
     %                                                                      %
     %%%%%%%%%%%%%%%%%%%%%%%%%%%%%%%%%%%%%%%%%%%%%%%%%%%%%%%%%%%%%%%%%%%%%%%%

     %%%%%%%%%%%%%%%%%%%%%%%%%%%%%%%%%%%%%%%%%%%%%%%%%%%%%%%%%%%%%%%%%%%%%%%%
     %                                                                      %
     %  vdW-DF NEWS:                                                        %
     %                                                                      %
     %  * vdW-DF3 is now available. DOI: 10.1021/acs.jctc.0c00471           %
     %    use with input_dft = 'vdW-DF3-opt1' or 'vdW-DF3-opt2'             %
     %                                                                      %
     %  * Unscreened and range-separated vdW-DF hybrid functionals          %
     %    DOI: 10.1063/1.4986522 and 10.1088/1361-648X/ac2ad2               %
     %    use with input_dft = 'vdW-DF-cx0' (etc) and 'vdW-DF-ahcx'         %
     %                                                                      %
     %%%%%%%%%%%%%%%%%%%%%%%%%%%%%%%%%%%%%%%%%%%%%%%%%%%%%%%%%%%%%%%%%%%%%%%%

     Carrying out vdW-DF run using the following parameters:
     Nqs    =  20  Npoints =  1024  r_max =  100.000
     q_mesh =  0.00001000  0.04494208  0.09755937  0.15916263
[...]
     scf convergence threshold =      1.2E-09
     mixing beta               =       0.7000
     number of iterations used =            8  plain     mixing
     press convergence thresh. =      5.0E-01
     Exchange-correlation= BEEF-VDW
                           (   1   4  43  14   2   0   0)

     celldm(1)=   8.726458  celldm(2)=   0.000000  celldm(3)=   3.151088
     celldm(4)=   0.000000  celldm(5)=   0.000000  celldm(6)=   0.000000

     crystal axes: (cart. coord. in units of alat)
               a(1) = (   1.022197   0.000000   0.000000 )
               a(2) = (  -0.511098   0.885248   0.000000 )
               a(3) = (   0.000000  -0.000000   3.207022 )

     reciprocal axes: (cart. coord. in units 2 pi/alat)
               b(1) = (  0.978285  0.564813  0.000000 )
               b(2) = ( -0.000000  1.129627  0.000000 )
               b(3) = ( -0.000000 -0.000000  0.311816 )

     PseudoPot. # 1 for Pb read from file:
     //group///packages/espresso/pseudo/psl_1.0.0/pslibrary.1.0.0/pbe/PSEUDOPOTENTIALS/Pb.pbe-dn-kjpaw_psl.1.0.0.UPF
     MD5 check sum: 39ab5b8a6bbd56b7735ad9f188aac93a
     Pseudo is Projector augmented-wave + core cor, Zval = 14.0
     Generated using 'atomic' code by A. Dal Corso  v.7.1
     Shape of augmentation charge: PSQ
     Using radial grid of 1281 points,  6 beta functions with:
                l(1) =   0
                l(2) =   0
                l(3) =   1
                l(4) =   1
                l(5) =   2
                l(6) =   2
     Q(r) pseudized with 0 coefficients

     PseudoPot. # 2 for I  read from file:
     //group///packages/espresso/pseudo/psl_1.0.0/pslibrary.1.0.0/pbe/PSEUDOPOTENTIALS/I.pbe-dn-kjpaw_psl.1.0.0.UPF
     MD5 check sum: bfa8781bc1224d19af3f3980e3fab11e
     Pseudo is Projector augmented-wave + core cor, Zval = 17.0
     Generated using 'atomic' code by A. Dal Corso  v.7.1
     Shape of augmentation charge: PSQ
     Using radial grid of 1247 points,  6 beta functions with:
                l(1) =   0
                l(2) =   0
                l(3) =   1
                l(4) =   1
                l(5) =   2
                l(6) =   2
     Q(r) pseudized with 0 coefficients

     atomic species   valence    mass     pseudopotential
        Pb            14.00   207.20000     Pb( 1.00)
        I             17.00   126.90447     I ( 1.00)

     12 Sym. Ops. (no inversion) found ( 6 have fractional translation)

                                    s                        frac. trans.

      isym =  1     identity

[...]

      isym =  2     180 deg rotation - cart. axis [0,0,1]

[...]

      isym =  6     120 deg rotation - cryst. axis [0,0,-1]

[...]

      isym =  8     inv. 180 deg rotation - cart. axis [1,0,0]

 cryst.   s( 8) = (    -1          0          0      )
                  (     1          1          0      )
                  (     0          0          1      )

 cart.    s( 8) = ( -1.0000000  0.0000000  0.0000000 )
                  (  0.0000000  1.0000000  0.0000000 )
                  (  0.0000000  0.0000000  1.0000000 )

[...]

 cryst.   s( 9) = (     0          1          0      )    f =(  0.0000001 )
                  (     1          0          0      )       ( -0.0000000 )
                  (     0          0          1      )       (  0.5000000 )

 cart.    s( 9) = ( -0.5000000  0.8660254  0.0000000 )    f =(  0.0000001 )
                  (  0.8660254  0.5000000  0.0000000 )       ( -0.0000000 )
                  (  0.0000000  0.0000000  1.0000000 )       (  1.6035107 )

[...]

 cryst.   s(10) = (    -1         -1          0      )    f =( -0.0000001 )
                  (     0          1          0      )       (  0.0000010 )
                  (     0          0          1      )       (  0.5000000 )

 cart.    s(10) = ( -0.5000000 -0.8660254  0.0000000 )    f =( -0.0000006 )
                  ( -0.8660254  0.5000000  0.0000000 )       (  0.0000009 )
                  (  0.0000000  0.0000000  1.0000000 )       (  1.6035107 )

[...]

      isym = 12     inv. 180 deg rotation - cryst. axis [1,1,0]

 cryst.   s(12) = (     0         -1          0      )
                  (    -1          0          0      )
                  (     0          0          1      )

 cart.    s(12) = (  0.5000000 -0.8660254  0.0000000 )
                  ( -0.8660254 -0.5000000  0.0000000 )
                  (  0.0000000  0.0000000  1.0000000 )

     point group C_6v (6mm)
     there are  6 classes
     the character table:

       E     2C6   2C3   C2    3s_v  3s_d
A_1    1.00  1.00  1.00  1.00  1.00  1.00
A_2    1.00  1.00  1.00  1.00 -1.00 -1.00
B_1    1.00 -1.00  1.00 -1.00  1.00 -1.00
B_2    1.00 -1.00  1.00 -1.00 -1.00  1.00
E_1    2.00  1.00 -1.00 -2.00  0.00  0.00
E_2    2.00 -1.00 -1.00  2.00  0.00  0.00

     the symmetry operations in each class and the name of the first element:

     E        1
          identity
     2C6      3    4
           60 deg rotation - cryst. axis [0,0,1]
     2C3      5    6
          120 deg rotation - cryst. axis [0,0,1]
     C2       2
          180 deg rotation - cart. axis [0,0,1]
     3s_v     8   12   11
          inv. 180 deg rotation - cart. axis [1,0,0]
     3s_d     7    9   10
          inv. 180 deg rotation - cart. axis [0,1,0]

   Cartesian axes

     site n.     atom                  positions (alat units)
         1           Pb  tau(   1) = (   0.5110989   0.2950825   1.6033229  )
         2           Pb  tau(   2) = (  -0.0000005   0.5901659   3.2068337  )
         3           I   tau(   3) = (   0.5110989   0.2950825   2.7996037  )
         4           I   tau(   4) = (   0.0000000   0.0000000   0.4076088  )
         5           I   tau(   5) = (   0.0000000  -0.0000000   2.0111196  )
         6           I   tau(   6) = (  -0.0000005   0.5901659   1.1960930  )

   Crystallographic axes

     site n.     atom                  positions (cryst. coord.)
         1           Pb  tau(   1) = (  0.6666670  0.3333330  0.4999414  )
         2           Pb  tau(   2) = (  0.3333330  0.6666671  0.9999414  )
         3           I   tau(   3) = (  0.6666670  0.3333330  0.8729607  )
         4           I   tau(   4) = (  0.0000000  0.0000000  0.1270989  )
         5           I   tau(   5) = ( -0.0000000 -0.0000000  0.6270989  )
         6           I   tau(   6) = (  0.3333330  0.6666671  0.3729607  )

     number of k points=     4  Gaussian smearing, width (Ry)=  0.0100
                       cart. coord. in units 2pi/alat
        k(    1) = (   0.0000000   0.0000000   0.0000000), wk =   0.1250000
        k(    2) = (  -0.0000000   0.2824066   0.0000000), wk =   0.7500000
        k(    3) = (   0.0000000  -0.5648133  -0.0000000), wk =   0.3750000
        k(    4) = (   0.2445713   0.4236100   0.0000000), wk =   0.7500000

                       cryst. coord.
        k(    1) = (   0.0000000   0.0000000   0.0000000), wk =   0.1250000
        k(    2) = (   0.0000000   0.2500000  -0.0000000), wk =   0.7500000
        k(    3) = (  -0.0000000  -0.5000000   0.0000000), wk =   0.3750000
        k(    4) = (   0.2500000   0.2500000  -0.0000000), wk =   0.7500000

     Check: negative core charge=   -0.000001

     Initial potential from superposition of free atoms

     starting charge      95.9950, renormalised to      96.0000

[...]

     Starting wfcs are   54 randomized atomic wfcs +    4 random wfcs
     Checking if some PAW data can be deallocated...

     Self-consistent Calculation

[...]

     c_bands:  2 eigenvalues not converged
     c_bands:  1 eigenvalues not converged
     ethr =  1.00E-06,  avg # of iterations = 19.5

[...]

     total energy              =   -4047.26567140 Ry
     estimated scf accuracy    <          5.4E-09 Ry

     iteration # 15     ecut=    70.00 Ry     beta= 0.70
     Davidson diagonalization with overlap

     ethr =  5.62E-12,  avg # of iterations =  6.8

[...]

     End of self-consistent calculation

[...]

          k =-0.0000 0.2824 0.0000 ( 19047 PWs)   bands (ev):

[...]

          k = 0.2446 0.4236 0.0000 ( 19112 PWs)   bands (ev):

   -40.8448 -40.8448 -40.8448 -40.8448 -40.8437 -40.8437 -40.8437 -40.8437
   -40.8432 -40.8432 -40.8374 -40.8373 -40.8373 -40.8373 -40.8368 -40.8368
   -40.8368 -40.8367 -40.8366 -40.8366 -13.0172 -13.0172 -13.0057 -13.0057
   -12.9951 -12.9951 -12.9947 -12.9947 -12.9886 -12.9886  -7.7078  -7.6717
    -7.5744  -7.5379  -3.7048  -3.6966   1.1248   1.3094   1.3517   1.3619
     1.8182   1.9277   2.2841   2.6485   2.7426   2.7762   3.1694   3.3446
     6.9446   7.1636   7.2797   7.3506   7.5606   7.6205  10.2275  10.2519
    10.5266  10.7270

     occupation numbers
     1.0000   1.0000   1.0000   1.0000   1.0000   1.0000   1.0000   1.0000
     1.0000   1.0000   1.0000   1.0000   1.0000   1.0000   1.0000   1.0000
     1.0000   1.0000   1.0000   1.0000   1.0000   1.0000   1.0000   1.0000
     1.0000   1.0000   1.0000   1.0000   1.0000   1.0000   1.0000   1.0000
     1.0000   1.0000   1.0000   1.0000   1.0000   1.0000   1.0000   1.0000
     1.0000   1.0000   1.0000   1.0000   1.0000   1.0000   1.0000   1.0000
     0.0000   0.0000   0.0000   0.0000   0.0000   0.0000   0.0000   0.0000
     0.0000   0.0000

     the Fermi energy is     4.0950 ev

!    total energy              =   -4047.26567140 Ry
     total all-electron energy =   -140560.646556 Ry
     estimated scf accuracy    <          1.2E-09 Ry
     smearing contrib. (-TS)   =      -0.00000000 Ry
     internal energy E=F+TS    =   -4047.26567140 Ry

     The total energy is F=E-TS. E is the sum of the following terms:
     one-electron contribution =    -751.40949406 Ry
     hartree contribution      =     419.24627236 Ry
     xc contribution           =    -283.53488034 Ry
     ewald contribution        =    -614.65435357 Ry
     one-center paw contrib.   =   -2816.91321579 Ry
      -> PAW hartree energy AE =      95.89484581 Ry
      -> PAW hartree energy PS =     -96.13142411 Ry
      -> PAW xc energy AE      =    -798.42944798 Ry
      -> PAW xc energy PS      =      33.30937564 Ry
      -> total E_H with PAW    =     419.00969405 Ry
      -> total E_XC with PAW   =   -1048.65495268 Ry

     convergence has been achieved in  15 iterations

[...]

     Forces acting on atoms (cartesian axes, Ry/au):

     atom    1 type  1   force =    -0.00000000   -0.00000000    0.00012647
     atom    2 type  1   force =    -0.00000000   -0.00000000    0.00012647
     atom    3 type  2   force =    -0.00000000   -0.00000000    0.00032267
     atom    4 type  2   force =     0.00000000    0.00000000   -0.00044914
     atom    5 type  2   force =     0.00000000    0.00000000   -0.00044914
     atom    6 type  2   force =    -0.00000000   -0.00000000    0.00032267
     The non-local contrib.  to forces
     atom    1 type  1   force =     0.00000000    0.00000000   -0.00038824
     atom    2 type  1   force =     0.00000000    0.00000000   -0.00038824
     atom    3 type  2   force =    -0.00000000    0.00000000    0.24513659
     atom    4 type  2   force =     0.00000000   -0.00000000   -0.24547462
     atom    5 type  2   force =     0.00000000    0.00000000   -0.24547462
     atom    6 type  2   force =     0.00000000   -0.00000000    0.24513659
     The ionic contribution  to forces
     atom    1 type  1   force =    -0.00002826    0.00001637   -0.07031549
     atom    2 type  1   force =     0.00002830   -0.00001829   -0.07031487
     atom    3 type  2   force =    -0.00002069    0.00001249  -14.55857662
     atom    4 type  2   force =    -0.00000953    0.00000698   14.62889208
     atom    5 type  2   force =     0.00000948   -0.00000467   14.62889290
     atom    6 type  2   force =     0.00002070   -0.00001287  -14.55857800
     The local contribution  to forces
     atom    1 type  1   force =    -0.00012230    0.00006261    0.07087490
     atom    2 type  1   force =     0.00036808   -0.00023786    0.07083894
     atom    3 type  2   force =    -0.00034976    0.00017907   14.31893970
     atom    4 type  2   force =     0.00034970   -0.00017904  -14.38907039
     atom    5 type  2   force =     0.00034970   -0.00017904  -14.38904456
     atom    6 type  2   force =     0.00105266   -0.00068025   14.31894801
     The core correction contribution to forces
     atom    1 type  1   force =    -0.00000823    0.00000421   -0.00001569
     atom    2 type  1   force =     0.00002477   -0.00001601   -0.00001570
     atom    3 type  2   force =    -0.00002881    0.00001475   -0.00517893
     atom    4 type  2   force =     0.00002879   -0.00001474    0.00520116
     atom    5 type  2   force =     0.00002879   -0.00001474    0.00520209
     atom    6 type  2   force =     0.00008666   -0.00005600   -0.00517974
     The Hubbard contrib.    to forces
     atom    1 type  1   force =     0.00000000    0.00000000    0.00000000
     atom    2 type  1   force =     0.00000000    0.00000000    0.00000000
     atom    3 type  2   force =     0.00000000    0.00000000    0.00000000
     atom    4 type  2   force =     0.00000000    0.00000000    0.00000000
     atom    5 type  2   force =     0.00000000    0.00000000    0.00000000
     atom    6 type  2   force =     0.00000000    0.00000000    0.00000000
     The SCF correction term to forces
     atom    1 type  1   force =    -0.00000000    0.00000000    0.00000179
     atom    2 type  1   force =     0.00000000   -0.00000000    0.00000179
     atom    3 type  2   force =    -0.00000000    0.00000000    0.00001201
     atom    4 type  2   force =     0.00000000   -0.00000000    0.00000198
     atom    5 type  2   force =     0.00000000   -0.00000000    0.00000198
     atom    6 type  2   force =     0.00000001   -0.00000001    0.00001201

     Total force =     0.000802     Total SCF correction =     0.000017

     Computing stress (Cartesian axis) and pressure

     Non-local corr. energy    =       2.87805570 Ry

          total   stress  (Ry/bohr**3)                   (kbar)     P=        0.89
   0.00000440  -0.00000000  -0.00000000            0.65       -0.00       -0.00
  -0.00000000   0.00000440   0.00000000           -0.00        0.65        0.00
  -0.00000000  -0.00000000   0.00000930           -0.00       -0.00        1.37

     kinetic stress (kbar)  14878.27     -0.00     -0.00
                               -0.00  14878.27      0.00
                               -0.00      0.00  14890.14

     local   stress (kbar)  -7696.90     -0.00      0.00
                               -0.00  -7696.90     -0.00
                                0.00     -0.00   1599.10

     nonloc. stress (kbar)  -1064.60      0.00      0.00
                                0.00  -1064.60     -0.00
                                0.00     -0.00  -1070.17

     hartree stress (kbar)  12058.10     -0.00      0.00
                               -0.00  12058.10     -0.00
                                0.00     -0.00   7864.02

     exc-cor stress (kbar)   6894.63      0.00     -0.00
                                0.00   6894.63      0.00
                               -0.00      0.00   6893.44

     corecor stress (kbar) -11225.42     -0.00      0.00
                               -0.00 -11225.42      0.00
                                0.00      0.00 -11225.40

     ewald   stress (kbar) -13926.10      0.01     -0.00
                                0.01 -13926.09      0.00
                               -0.00      0.00 -19033.81

     hubbard stress (kbar)      0.00      0.00      0.00
                                0.00      0.00      0.00
                                0.00      0.00      0.00

     DFT-D   stress (kbar)      0.00      0.00      0.00
                                0.00      0.00      0.00
                                0.00      0.00      0.00

     XDM     stress (kbar)      0.00      0.00      0.00
                                0.00      0.00      0.00
                                0.00      0.00      0.00

     dft-nl  stress (kbar)     82.68     -0.00      0.00
                               -0.00     82.68     -0.00
                                0.00     -0.00     84.04

     TS-vdW  stress (kbar)      0.00      0.00      0.00
                                0.00      0.00      0.00
                                0.00      0.00      0.00

     MDB     stress (kbar)      0.00      0.00      0.00
                                0.00      0.00      0.00
                                0.00      0.00      0.00

     3D-RISM stress (kbar)      0.00      0.00      0.00
                                0.00      0.00      0.00
                                0.00      0.00      0.00

     Writing all to output data dir ./PbI2.save/

     General routines

     Parallel routines

     PAW routines

   This run was terminated on:  15:50: 5  20Feb2024

   JOB DONE.