     Program PWSCF v.7.1 starts on 18Mar2024 at 14:16:28

     Reading input from espresso.pwi
Warning: card &CELL ignored
Warning: card    CELL_DYNAMICS    = 'BFGS' ignored
Warning: card / ignored

     Current dimensions of program PWSCF are:
     Max number of different atomic species (ntypx) = 10
     Max number of k-points (npk) =  40000
     Max angular momentum in pseudopotentials (lmaxx) =  4
     file Ga.pbe-dn-kjpaw_psl.1.0.0.UPF: wavefunction(s)  4S renormalized
     file N.pbe-n-kjpaw_psl.1.0.0.UPF: wavefunction(s)  2S renormalized

     IMPORTANT: XC functional enforced from input :
     Exchange-correlation= BEEF-VDW
                           (   1   4  43  14   2   0   0)
     Any further DFT definition will be discarded
     Please, verify this is what you really want

     K-points division:     npool     =       4
     R & G space division:  proc/nbgrp/npool/nimage =      64
     Subspace diagonalization in iterative solution of the eigenvalue problem:
     a serial algorithm will be used

     Using Slab Decomposition

     bravais-lattice index     =            4
     lattice parameter (alat)  =      24.5252  a.u.
     unit-cell volume          =   15616.6055 (a.u.)^3
     number of atoms/cell      =          191
     number of atomic types    =            2
     number of electrons       =      1721.00
     number of Kohn-Sham states=         1033
     kinetic-energy cutoff     =      70.0000  Ry
     charge density cutoff     =     350.0000  Ry
     scf convergence threshold =      1.0E-07
     mixing beta               =       0.7000
     number of iterations used =            8  plain     mixing
     Exchange-correlation= BEEF-VDW
                           (   1   4  43  14   2   0   0)

     celldm(1)=  24.525232  celldm(2)=   0.000000  celldm(3)=   1.222409
     celldm(4)=   0.000000  celldm(5)=   0.000000  celldm(6)=   0.000000

     crystal axes: (cart. coord. in units of alat)
               a(1) = (   1.000000   0.000000   0.000000 )
               a(2) = (  -0.500000   0.866025   0.000000 )
               a(3) = (   0.000000   0.000000   1.222409 )

     reciprocal axes: (cart. coord. in units 2 pi/alat)
               b(1) = (  1.000000  0.577350 -0.000000 )
               b(2) = (  0.000000  1.154701  0.000000 )
               b(3) = (  0.000000 -0.000000  0.818057 )

     PseudoPot. # 1 for Ga read from file:
     /trace/group/acmegroup/atimmins/packages/espresso/pseudo/psl_1.0.0/pslibrary.1.0.0/pbe/PSEUDOPOTENTIALS/Ga.pbe-dn-kjpaw_psl.1.0.0.UPF
     MD5 check sum: cd2a01e492f15b435d17032472d8505c
     Pseudo is Projector augmented-wave + core cor, Zval = 13.0
     Generated using 'atomic' code by A. Dal Corso  v.7.1
     Shape of augmentation charge: PSQ
     Using radial grid of 1205 points,  6 beta functions with:
                l(1) =   0
                l(2) =   0
                l(3) =   1
                l(4) =   1
                l(5) =   2
                l(6) =   2
     Q(r) pseudized with 0 coefficients

     PseudoPot. # 2 for N  read from file:
     /trace/group/acmegroup/atimmins/packages/espresso/pseudo/psl_1.0.0/pslibrary.1.0.0/pbe/PSEUDOPOTENTIALS/N.pbe-n-kjpaw_psl.1.0.0.UPF
     MD5 check sum: f77f775694dac7e2c3fe1c82443d1a16
     Pseudo is Projector augmented-wave + core cor, Zval =  5.0
     Generated using 'atomic' code by A. Dal Corso  v.7.1
     Shape of augmentation charge: PSQ
     Using radial grid of 1085 points,  4 beta functions with:
                l(1) =   0
                l(2) =   0
                l(3) =   1
                l(4) =   1
     Q(r) pseudized with 0 coefficients

     atomic species   valence    mass     pseudopotential
        Ga            13.00    69.72300     Ga( 1.00)
        N              5.00    14.00700     N ( 1.00)

      6 Sym. Ops. (no inversion) found ( 4 have fractional translation)

                                    s                        frac. trans.

      isym =  1     identity

 cryst.   s( 1) = (     1          0          0      )
                  (     0          1          0      )
                  (     0          0          1      )

 cart.    s( 1) = (  1.0000000  0.0000000  0.0000000 )
                  (  0.0000000  1.0000000  0.0000000 )
                  (  0.0000000  0.0000000  1.0000000 )

      isym =  2     120 deg rotation - cryst. axis [0,0,1]

 cryst.   s( 2) = (     0          1          0      )    f =( -0.2500000 )
                  (    -1         -1          0      )       (  0.0000002 )
                  (     0          0          1      )       (  0.0000000 )

 cart.    s( 2) = ( -0.5000000 -0.8660254  0.0000000 )    f =( -0.2500001 )
                  (  0.8660254 -0.5000000  0.0000000 )       (  0.0000002 )
                  (  0.0000000  0.0000000  1.0000000 )       (  0.0000000 )

      isym =  3     120 deg rotation - cryst. axis [0,0,-1]

[...]

      isym =  4     inv. 180 deg rotation - cart. axis [1,0,0]

[...]

      isym =  5     inv. 180 deg rotation - cryst. axis [0,1,0]

 cryst.   s( 5) = (     1          1          0      )
                  (     0         -1          0      )
                  (     0          0          1      )

 cart.    s( 5) = (  0.5000000  0.8660254  0.0000000 )
                  (  0.8660254 -0.5000000  0.0000000 )
                  (  0.0000000  0.0000000  1.0000000 )

      isym =  6     inv. 180 deg rotation - cryst. axis [1,1,0]

 cryst.   s( 6) = (     0         -1          0      )    f =( -0.2500000 )
                  (    -1          0          0      )       ( -0.2500000 )
                  (     0          0          1      )       (  0.0000000 )

 cart.    s( 6) = (  0.5000000 -0.8660254  0.0000000 )    f =( -0.1250000 )
                  ( -0.8660254 -0.5000000  0.0000000 )       ( -0.2165064 )
                  (  0.0000000  0.0000000  1.0000000 )       (  0.0000000 )

     point group C_3v (3m)
     there are  3 classes
     the character table:

       E     2C3   3s_v
A_1    1.00  1.00  1.00
A_2    1.00  1.00 -1.00
E      2.00 -1.00  0.00

     the symmetry operations in each class and the name of the first element:

     E        1
          identity
     2C3      2    3
          120 deg rotation - cryst. axis [0,0,1]
     3s_v     4    5    6
          inv. 180 deg rotation - cart. axis [1,0,0]

   Cartesian axes

     site n.     atom                  positions (alat units)
         1           Ga  tau(   1) = (   0.1250001   0.0721687   0.2033935  )
         2           Ga  tau(   2) = (   0.1250001   0.0721687   0.6108633  )
         3           Ga  tau(   3) = (   0.1250001   0.0721687   1.0183331  )
         4           Ga  tau(   4) = (   0.0000001   0.2886751   0.2033935  )
         5           Ga  tau(   5) = (   0.0000001   0.2886751   0.6108633  )
         6           Ga  tau(   6) = (   0.0000001   0.2886751   1.0183331  )
         7           Ga  tau(   7) = (  -0.1249999   0.5051814   0.2033935  )
         8           Ga  tau(   8) = (  -0.1249999   0.5051814   0.6108633  )
         9           Ga  tau(   9) = (  -0.1249999   0.5051814   1.0183331  )
        10           Ga  tau(  10) = (  -0.2499999   0.7216878   0.2033935  )
        11           Ga  tau(  11) = (  -0.2499999   0.7216878   0.6108633  )
        12           Ga  tau(  12) = (  -0.2499999   0.7216878   1.0183331  )
        13           Ga  tau(  13) = (   0.3750001   0.0721687   0.2033935  )
        14           Ga  tau(  14) = (   0.3750001   0.0721687   0.6108633  )
        15           Ga  tau(  15) = (   0.3750001   0.0721687   1.0183331  )
        16           Ga  tau(  16) = (   0.2500001   0.2886751   0.2033935  )
        17           Ga  tau(  17) = (   0.2500001   0.2886751   0.6108633  )
        18           Ga  tau(  18) = (   0.2500001   0.2886751   1.0183331  )
        19           Ga  tau(  19) = (   0.1250001   0.5051814   0.2033935  )
        20           Ga  tau(  20) = (   0.1250001   0.5051814   0.6108633  )
        21           Ga  tau(  21) = (   0.1250001   0.5051814   1.0183331  )
        22           Ga  tau(  22) = (   0.0000001   0.7216878   0.2033935  )
        23           Ga  tau(  23) = (   0.0000001   0.7216878   0.6108633  )
        24           Ga  tau(  24) = (   0.0000001   0.7216878   1.0183331  )
        25           Ga  tau(  25) = (   0.6250001   0.0721687   0.2033935  )
        26           Ga  tau(  26) = (   0.6250001   0.0721687   0.6108633  )
        27           Ga  tau(  27) = (   0.6250001   0.0721687   1.0183331  )
        28           Ga  tau(  28) = (   0.5000001   0.2886751   0.2033935  )
        29           Ga  tau(  29) = (   0.5000001   0.2886751   0.6108633  )
        30           Ga  tau(  30) = (   0.5000001   0.2886751   1.0183331  )
        31           Ga  tau(  31) = (   0.3750001   0.5051814   0.2033935  )
        32           Ga  tau(  32) = (   0.3750001   0.5051814   0.6108633  )
        33           Ga  tau(  33) = (   0.3750001   0.5051814   1.0183331  )
        34           Ga  tau(  34) = (   0.2500001   0.7216878   0.2033935  )
        35           Ga  tau(  35) = (   0.2500001   0.7216878   0.6108633  )
        36           Ga  tau(  36) = (   0.2500001   0.7216878   1.0183331  )
        37           Ga  tau(  37) = (   0.8750001   0.0721687   0.2033935  )
        38           Ga  tau(  38) = (   0.8750001   0.0721687   0.6108633  )
        39           Ga  tau(  39) = (   0.8750001   0.0721687   1.0183331  )
        40           Ga  tau(  40) = (   0.7500001   0.2886751   0.2033935  )
        41           Ga  tau(  41) = (   0.7500001   0.2886751   0.6108633  )
        42           Ga  tau(  42) = (   0.7500001   0.2886751   1.0183331  )
        43           Ga  tau(  43) = (   0.6250001   0.5051814   0.2033935  )
        44           Ga  tau(  44) = (   0.6250001   0.5051814   0.6108633  )
        45           Ga  tau(  45) = (   0.6250001   0.5051814   1.0183331  )
        46           Ga  tau(  46) = (   0.5000001   0.7216878   0.2033935  )
        47           Ga  tau(  47) = (   0.5000001   0.7216878   0.6108633  )
        48           Ga  tau(  48) = (   0.5000001   0.7216878   1.0183331  )
        49           Ga  tau(  49) = (  -0.0000002   0.1443377   0.4071284  )
        50           Ga  tau(  50) = (  -0.0000002   0.1443377   0.8145982  )
        51           Ga  tau(  51) = (  -0.0000002   0.1443377   1.2220680  )
        52           Ga  tau(  52) = (  -0.1250002   0.3608440   0.4071284  )
        53           Ga  tau(  53) = (  -0.1250002   0.3608440   0.8145982  )
        54           Ga  tau(  54) = (  -0.1250002   0.3608440   1.2220680  )
        55           Ga  tau(  55) = (  -0.2500002   0.5773504   0.4071284  )
        56           Ga  tau(  56) = (  -0.2500002   0.5773504   0.8145982  )
        57           Ga  tau(  57) = (  -0.2500002   0.5773504   1.2220680  )
        58           Ga  tau(  58) = (  -0.3750001   0.7938567   0.4071284  )
        59           Ga  tau(  59) = (  -0.3750001   0.7938567   0.8145982  )
        60           Ga  tau(  60) = (  -0.3750001   0.7938567   1.2220680  )
[...]
       177           N   tau( 177) = (   0.1249998   0.7938567   0.1531425  )
[...]
     atom   26 type  1   force =     0.00000000    0.00000000    0.00000000
     atom   27 type  1   force =     0.00000000    0.00000000    0.00000000
     atom   28 type  1   force =     0.00000000    0.00000000    0.00000000
     atom   29 type  1   force =     0.00000000    0.00000000    0.00000000
     atom   30 type  1   force =     0.00000000    0.00000000    0.00000000
     atom   31 type  1   force =     0.00000000    0.00000000    0.00000000
     atom   32 type  1   force =     0.00000000    0.00000000    0.00000000
     atom   33 type  1   force =     0.00000000    0.00000000    0.00000000
     atom   34 type  1   force =     0.00000000    0.00000000    0.00000000
     atom   35 type  1   force =     0.00000000    0.00000000    0.00000000
     atom   36 type  1   force =     0.00000000    0.00000000    0.00000000
     atom   37 type  1   force =     0.00000000    0.00000000    0.00000000
     atom   38 type  1   force =     0.00000000    0.00000000    0.00000000
     atom   39 type  1   force =     0.00000000    0.00000000    0.00000000
     atom   40 type  1   force =     0.00000000    0.00000000    0.00000000
     atom   41 type  1   force =     0.00000000    0.00000000    0.00000000
     atom   42 type  1   force =     0.00000000    0.00000000    0.00000000
     atom   43 type  1   force =     0.00000000    0.00000000    0.00000000
     atom   44 type  1   force =     0.00000000    0.00000000    0.00000000
     atom   45 type  1   force =     0.00000000    0.00000000    0.00000000
     atom   46 type  1   force =     0.00000000    0.00000000    0.00000000
     atom   47 type  1   force =     0.00000000    0.00000000    0.00000000
     atom   48 type  1   force =     0.00000000    0.00000000    0.00000000
     atom   49 type  1   force =     0.00000000    0.00000000    0.00000000
     atom   50 type  1   force =     0.00000000    0.00000000    0.00000000
     atom   51 type  1   force =     0.00000000    0.00000000    0.00000000
     atom   52 type  1   force =     0.00000000    0.00000000    0.00000000
     atom   53 type  1   force =     0.00000000    0.00000000    0.00000000
     atom   54 type  1   force =     0.00000000    0.00000000    0.00000000
     atom   55 type  1   force =     0.00000000    0.00000000    0.00000000
     atom   56 type  1   force =     0.00000000    0.00000000    0.00000000
     atom   57 type  1   force =     0.00000000    0.00000000    0.00000000
     atom   58 type  1   force =     0.00000000    0.00000000    0.00000000
     atom   59 type  1   force =     0.00000000    0.00000000    0.00000000
     atom   60 type  1   force =     0.00000000    0.00000000    0.00000000
[...]
     atom  177 type  2   force =     0.00000000    0.00000000    0.00000000
     atom  178 type  2   force =     0.00000000    0.00000000    0.00000000
     atom  179 type  2   force =     0.00000000    0.00000000    0.00000000
     atom  180 type  2   force =     0.00000000    0.00000000    0.00000000
     atom  181 type  2   force =     0.00000000    0.00000000    0.00000000
     atom  182 type  2   force =     0.00000000    0.00000000    0.00000000
     atom  183 type  2   force =     0.00000000    0.00000000    0.00000000
     atom  184 type  2   force =     0.00000000    0.00000000    0.00000000
     atom  185 type  2   force =     0.00000000    0.00000000    0.00000000
     atom  186 type  2   force =     0.00000000    0.00000000    0.00000000
     atom  187 type  2   force =     0.00000000    0.00000000    0.00000000
     atom  188 type  2   force =     0.00000000    0.00000000    0.00000000
     atom  189 type  2   force =     0.00000000    0.00000000    0.00000000
     atom  190 type  2   force =     0.00000000    0.00000000    0.00000000
     atom  191 type  2   force =     0.00000000    0.00000000    0.00000000
     The SCF correction term to forces
     atom    1 type  1   force =     0.00000000   -0.00000000    0.00000317
     atom    2 type  1   force =     0.00000000   -0.00000000    0.00002476
     atom    3 type  1   force =    -0.00000000    0.00000000   -0.00004497
     atom    4 type  1   force =    -0.00001856    0.00003420    0.00001324
     atom    5 type  1   force =    -0.00000681    0.00001724    0.00002249
     atom    6 type  1   force =    -0.00001716    0.00002742   -0.00003279
     atom    7 type  1   force =     0.00000843    0.00000487   -0.00000652
     atom    8 type  1   force =     0.00001702    0.00000983    0.00002854
     atom    9 type  1   force =    -0.00000091   -0.00000053   -0.00002793
     atom   10 type  1   force =     0.00002034   -0.00003317    0.00001324
     atom   11 type  1   force =     0.00001152   -0.00001452    0.00002249
     atom   12 type  1   force =     0.00001517   -0.00002857   -0.00003279
     atom   13 type  1   force =     0.00003890   -0.00000102    0.00001324
     atom   14 type  1   force =     0.00001834   -0.00000272    0.00002249
     atom   15 type  1   force =     0.00003233    0.00000115   -0.00003279
     atom   16 type  1   force =     0.00001856    0.00003420    0.00001324
     atom   17 type  1   force =     0.00000681    0.00001724    0.00002249
     atom   18 type  1   force =     0.00001716    0.00002742   -0.00003279
     atom   19 type  1   force =     0.00000000    0.00002220    0.00000292
     atom   20 type  1   force =    -0.00000000    0.00002880    0.00002461
     atom   21 type  1   force =     0.00000000    0.00001538   -0.00003412
     atom   22 type  1   force =     0.00001923   -0.00001110    0.00000292
     atom   23 type  1   force =     0.00002494   -0.00001440    0.00002461
     atom   24 type  1   force =     0.00001332   -0.00000769   -0.00003412
     atom   25 type  1   force =    -0.00000000   -0.00000973   -0.00000652
     atom   26 type  1   force =     0.00000000   -0.00001965    0.00002854
     atom   27 type  1   force =    -0.00000000    0.00000106   -0.00002793
     atom   28 type  1   force =     0.00001314    0.00000758   -0.00000926
     atom   29 type  1   force =     0.00000830    0.00000479    0.00002879
     atom   30 type  1   force =     0.00001243    0.00000718   -0.00002688
     atom   31 type  1   force =    -0.00000843    0.00000487   -0.00000652
     atom   32 type  1   force =    -0.00001702    0.00000983    0.00002854
     atom   33 type  1   force =     0.00000091   -0.00000053   -0.00002793
     atom   34 type  1   force =    -0.00001923   -0.00001110    0.00000292
     atom   35 type  1   force =    -0.00002494   -0.00001440    0.00002461
     atom   36 type  1   force =    -0.00001332   -0.00000769   -0.00003412
     atom   37 type  1   force =    -0.00003890   -0.00000102    0.00001324
     atom   38 type  1   force =    -0.00001834   -0.00000272    0.00002249
     atom   39 type  1   force =    -0.00003233    0.00000115   -0.00003279
     atom   40 type  1   force =    -0.00001314    0.00000758   -0.00000926
     atom   41 type  1   force =    -0.00000830    0.00000479    0.00002879
     atom   42 type  1   force =    -0.00001243    0.00000718   -0.00002688
     atom   43 type  1   force =     0.00000000   -0.00001517   -0.00000926
     atom   44 type  1   force =    -0.00000000   -0.00000959    0.00002879
     atom   45 type  1   force =     0.00000000   -0.00001435   -0.00002688
     atom   46 type  1   force =    -0.00002034   -0.00003317    0.00001324
     atom   47 type  1   force =    -0.00001152   -0.00001452    0.00002249
     atom   48 type  1   force =    -0.00001517   -0.00002857   -0.00003279
     atom   49 type  1   force =    -0.00003925    0.00002266    0.00004628
     atom   50 type  1   force =    -0.00001842    0.00001063   -0.00000518
     atom   51 type  1   force =    -0.00003769    0.00002176   -0.00002323
     atom   52 type  1   force =     0.00001361    0.00000947    0.00002464
     atom   53 type  1   force =    -0.00000116    0.00001794   -0.00000386
     atom   54 type  1   force =    -0.00000961    0.00002294   -0.00002175
     atom   55 type  1   force =     0.00001501    0.00000705    0.00002464
     atom   56 type  1   force =     0.00001496   -0.00000997   -0.00000386
     atom   57 type  1   force =     0.00001506   -0.00001980   -0.00002175
     atom   58 type  1   force =    -0.00000000   -0.00004532    0.00004628
     atom   59 type  1   force =    -0.00000000   -0.00002127   -0.00000518
     atom   60 type  1   force =    -0.00000000   -0.00004352   -0.00002323
[...]
     atom  177 type  2   force =     0.00000000   -0.00000614   -0.00000048
     atom  178 type  2   force =     0.00000000   -0.00001069    0.00001379
     atom  179 type  2   force =     0.00000000   -0.00000406   -0.00001481
     atom  180 type  2   force =    -0.00000872   -0.00000108   -0.00000251
     atom  181 type  2   force =    -0.00000409   -0.00000521    0.00001375
     atom  182 type  2   force =    -0.00000772   -0.00000068   -0.00001147
     atom  183 type  2   force =     0.00000000   -0.00000000   -0.00000549
     atom  184 type  2   force =     0.00000000   -0.00000000    0.00001457
     atom  185 type  2   force =     0.00000000   -0.00000000   -0.00000935
     atom  186 type  2   force =    -0.00000530   -0.00000701   -0.00000251
     atom  187 type  2   force =    -0.00000656   -0.00000093    0.00001375
     atom  188 type  2   force =    -0.00000445   -0.00000635   -0.00001147
     atom  189 type  2   force =    -0.00001708   -0.00000986    0.00000162
     atom  190 type  2   force =    -0.00001331   -0.00000768    0.00001321
     atom  191 type  2   force =    -0.00001207   -0.00000697   -0.00001406

     Total force =     0.003586     Total SCF correction =     0.000372
     SCF correction compared to forces is large: reduce conv_thr to get better values

     Computing stress (Cartesian axis) and pressure

[...]

          total   stress  (Ry/bohr**3)                   (kbar)     P=      -15.38
  -0.00010816  -0.00000000   0.00000000          -15.91       -0.00        0.00
  -0.00000000  -0.00010816   0.00000000           -0.00      -15.91        0.00
   0.00000000   0.00000000  -0.00009726            0.00        0.00      -14.31

     kinetic stress (kbar)  18333.81     -0.00      0.00
                                0.00  18333.81     -0.00
                                0.00     -0.00  18329.10

     local   stress (kbar)   5198.85     -0.07      0.00
                               -0.07   5198.76     -0.00
                                0.00     -0.00   3672.97

     nonloc. stress (kbar)     90.01      0.00      0.00
                                0.00     90.01      0.00
                                0.00     -0.00    101.34

     hartree stress (kbar)  19699.48     -0.00      0.00
                               -0.00  19699.48     -0.00
                                0.00     -0.00  20395.88

     exc-cor stress (kbar)   5233.98      0.00     -0.00
                                0.00   5233.98      0.00
                               -0.00      0.00   5234.16

     corecor stress (kbar) -14103.49     -0.00     -0.00
                               -0.00 -14103.49      0.00
                               -0.00      0.00 -14102.97

     ewald   stress (kbar) -34630.48      0.09     -0.00
                                0.09 -34630.36      0.00
                               -0.00      0.00 -33805.87

     hubbard stress (kbar)      0.00      0.00      0.00
                                0.00      0.00      0.00
                                0.00      0.00      0.00

     DFT-D   stress (kbar)      0.00      0.00      0.00
                                0.00      0.00      0.00
                                0.00      0.00      0.00

     XDM     stress (kbar)      0.00      0.00      0.00
                                0.00      0.00      0.00
                                0.00      0.00      0.00

     dft-nl  stress (kbar)    161.91     -0.00     -0.00
                               -0.00    161.91     -0.00
                               -0.00     -0.00    161.08

     TS-vdW  stress (kbar)      0.00      0.00      0.00
                                0.00      0.00      0.00
                                0.00      0.00      0.00

     MDB     stress (kbar)      0.00      0.00      0.00
                                0.00      0.00      0.00
                                0.00      0.00      0.00

     3D-RISM stress (kbar)      0.00      0.00      0.00
                                0.00      0.00      0.00
                                0.00      0.00      0.00

[...]

     Non-local corr. energy    =      52.26096578 Ry

 BEEFens 2000 ensemble energies
             -0.422159357119590E+02
             -0.380480160014679E+03
             -0.163777577865797E+03
              0.133877795547693E+03
             -0.273682855126316E+03
             -0.351936003136014E+03
              0.180794375359592E+03
             -0.190600518449016E+02
              0.301419436896589E+03
             -0.130470946443111E+02
              0.148030645408657E+03
              0.611896735203970E+01
              0.601187777987707E+01
             -0.129416192346282E+02
              0.197270281543434E+03
             -0.143646491127659E+03
             -0.295916152419662E+03
             -0.967622837352121E+02
              0.722678387820166E+02
             -0.652904315152182E+01
              0.432237371493379E+03
              0.367735458033735E+03
             -0.210592473905602E+03
              0.761722426409401E+02
             -0.461592781111767E+03
              0.370117463384426E+03
              0.120876305483388E+03
              0.359725487520804E+03
              0.236344802182193E+03
             -0.114953753906321E+03
              0.871099036328538E+02
             -0.169914576566379E+03
              0.476749814309663E+02
              0.231418869842947E+03
              0.245337060579406E+03
             -0.886680249638900E+02
              0.544870019481590E+03
             -0.206886696343344E+03
             -0.148885994691999E+03
              0.218420145109420E+03
              0.976780814034346E+02
              0.163461411890329E+03
             -0.311582389091085E+03
             -0.870203846543518E+01
              0.305805628648151E+03
              0.397331806680628E+03
             -0.395581724114001E+03
              0.281459127993397E+02
              0.149086003093245E+03
              0.727347709549135E+02
              0.165382065208632E+03
              0.350251991545508E+03
             -0.211696301793553E+03
             -0.232132763468386E+03
             -0.301806641279486E+03
             -0.466108161979651E+02
             -0.275329293576614E+03
              0.269861583035383E+02
             -0.508802358674643E+02
             -0.214471571165535E+03
[...]
              0.267678419357351E+03
              0.147988951348663E+03
              0.187830066847752E+03
             -0.303729912670039E+03
             -0.290955998131990E+03
             -0.735035945704094E+02
             -0.285073767833867E+03
              0.456273320845479E+03
              0.391055507652878E+03
              0.186917519092738E+03
              0.506158837706067E+03
             -0.263420310835739E+03
             -0.107275281420580E+03
             -0.149371815565047E+03
              0.418763649805902E+03

 BEEF-vdW xc energy contributions
            1 :    -3836.290227474628
            2 :     3455.279243182298
            3 :    -2817.154990763612
            4 :     2108.974218247075
            5 :    -1495.128991579149
            6 :     1054.748364351489
            7 :    -772.9956098537077
            8 :     581.9636168139568
            9 :    -418.2375820153275
           10 :     259.6726549771274
           11 :    -123.7741328470320
           12 :     38.21221812503973
           13 :    -10.54828588470264
           14 :     19.57058217539816
           15 :    -31.02682538650879
           16 :     22.02272675246104
           17 :     5.856482476511701
           18 :    -33.38022548535173
           19 :     42.77082298097912
           20 :    -32.85091756218753
           21 :     18.92481976264207
           22 :    -19.17621607311685
           23 :     39.71281188326657
           24 :    -70.25788877586911
           25 :     93.00229384790964
           26 :    -96.56540532763211
           27 :     83.72587972651627
           28 :    -67.49201940449166
           29 :     59.73189211775480
           30 :    -62.05046233647317
           31 :    -328.4158436017951
           32 :    -224.9927023957684

     Writing all to output data dir ./GaN.save/

     General routines

     Parallel routines

     PAW routines

   This run was terminated on:  14:27: 7  18Mar2024

   JOB DONE.