     Program PWSCF v.7.1 starts on 17Mar2024 at  1:40:27

     Reading input from espresso.pwi
Warning: card &CELL ignored
Warning: card    CELL_DYNAMICS    = 'BFGS' ignored
Warning: card / ignored

     Current dimensions of program PWSCF are:
     Max number of different atomic species (ntypx) = 10
     Max number of k-points (npk) =  40000
     Max angular momentum in pseudopotentials (lmaxx) =  4
     file Ga.pbe-dn-kjpaw_psl.1.0.0.UPF: wavefunction(s)  4S renormalized
     file N.pbe-n-kjpaw_psl.1.0.0.UPF: wavefunction(s)  2S renormalized

     IMPORTANT: XC functional enforced from input :
     Exchange-correlation= BEEF-VDW
                           (   1   4  43  14   2   0   0)
     Any further DFT definition will be discarded
     Please, verify this is what you really want

     K-points division:     npool     =       4
     R & G space division:  proc/nbgrp/npool/nimage =      64
     Subspace diagonalization in iterative solution of the eigenvalue problem:
     a serial algorithm will be used

     Using Slab Decomposition

     bravais-lattice index     =            4
     lattice parameter (alat)  =      24.5252  a.u.
     unit-cell volume          =   15616.6055 (a.u.)^3
     number of atoms/cell      =          191
     number of atomic types    =            2
     number of electrons       =      1721.00
     number of Kohn-Sham states=         1033
     kinetic-energy cutoff     =      70.0000  Ry
     charge density cutoff     =     350.0000  Ry
     scf convergence threshold =      1.0E-07
     mixing beta               =       0.7000
     number of iterations used =            8  plain     mixing
     energy convergence thresh.=      1.0E-04
     force convergence thresh. =      1.0E-03
     Exchange-correlation= BEEF-VDW
                           (   1   4  43  14   2   0   0)
     nstep                     =           50

     celldm(1)=  24.525232  celldm(2)=   0.000000  celldm(3)=   1.222409
     celldm(4)=   0.000000  celldm(5)=   0.000000  celldm(6)=   0.000000

     crystal axes: (cart. coord. in units of alat)
               a(1) = (   1.000000   0.000000   0.000000 )
               a(2) = (  -0.500000   0.866025   0.000000 )
               a(3) = (   0.000000   0.000000   1.222409 )

     reciprocal axes: (cart. coord. in units 2 pi/alat)
               b(1) = (  1.000000  0.577350 -0.000000 )
               b(2) = (  0.000000  1.154701  0.000000 )
               b(3) = (  0.000000 -0.000000  0.818057 )

     PseudoPot. # 1 for Ga read from file:
     /trace/group/acmegroup/atimmins/packages/espresso/pseudo/psl_1.0.0/pslibrary.1.0.0/pbe/PSEUDOPOTENTIALS/Ga.pbe-dn-kjpaw_psl.1.0.0.UPF
     MD5 check sum: cd2a01e492f15b435d17032472d8505c
     Pseudo is Projector augmented-wave + core cor, Zval = 13.0
     Generated using 'atomic' code by A. Dal Corso  v.7.1
     Shape of augmentation charge: PSQ
     Using radial grid of 1205 points,  6 beta functions with:
                l(1) =   0
                l(2) =   0
                l(3) =   1
                l(4) =   1
                l(5) =   2
                l(6) =   2
     Q(r) pseudized with 0 coefficients

     PseudoPot. # 2 for N  read from file:
     /trace/group/acmegroup/atimmins/packages/espresso/pseudo/psl_1.0.0/pslibrary.1.0.0/pbe/PSEUDOPOTENTIALS/N.pbe-n-kjpaw_psl.1.0.0.UPF
     MD5 check sum: f77f775694dac7e2c3fe1c82443d1a16
     Pseudo is Projector augmented-wave + core cor, Zval =  5.0
     Generated using 'atomic' code by A. Dal Corso  v.7.1
     Shape of augmentation charge: PSQ
     Using radial grid of 1085 points,  4 beta functions with:
                l(1) =   0
                l(2) =   0
                l(3) =   1
                l(4) =   1
     Q(r) pseudized with 0 coefficients

     atomic species   valence    mass     pseudopotential
        Ga            13.00    69.72300     Ga( 1.00)
        N              5.00    14.00700     N ( 1.00)

      6 Sym. Ops. (no inversion) found ( 4 have fractional translation)

                                    s                        frac. trans.

      isym =  1     identity

 cryst.   s( 1) = (     1          0          0      )
                  (     0          1          0      )
                  (     0          0          1      )

 cart.    s( 1) = (  1.0000000  0.0000000  0.0000000 )
                  (  0.0000000  1.0000000  0.0000000 )
                  (  0.0000000  0.0000000  1.0000000 )

      isym =  2     120 deg rotation - cryst. axis [0,0,1]

 cryst.   s( 2) = (     0          1          0      )    f =( -0.2500000 )
                  (    -1         -1          0      )       (  0.0000002 )
                  (     0          0          1      )       (  0.0000000 )

 cart.    s( 2) = ( -0.5000000 -0.8660254  0.0000000 )    f =( -0.2500001 )
                  (  0.8660254 -0.5000000  0.0000000 )       (  0.0000002 )
                  (  0.0000000  0.0000000  1.0000000 )       (  0.0000000 )

      isym =  3     120 deg rotation - cryst. axis [0,0,-1]

[...]

      isym =  4     inv. 180 deg rotation - cart. axis [1,0,0]

[...]

      isym =  5     inv. 180 deg rotation - cryst. axis [0,1,0]

 cryst.   s( 5) = (     1          1          0      )
                  (     0         -1          0      )
                  (     0          0          1      )

 cart.    s( 5) = (  0.5000000  0.8660254  0.0000000 )
                  (  0.8660254 -0.5000000  0.0000000 )
                  (  0.0000000  0.0000000  1.0000000 )

      isym =  6     inv. 180 deg rotation - cryst. axis [1,1,0]

 cryst.   s( 6) = (     0         -1          0      )    f =( -0.2500000 )
                  (    -1          0          0      )       ( -0.2500000 )
                  (     0          0          1      )       (  0.0000000 )

 cart.    s( 6) = (  0.5000000 -0.8660254  0.0000000 )    f =( -0.1250000 )
                  ( -0.8660254 -0.5000000  0.0000000 )       ( -0.2165064 )
                  (  0.0000000  0.0000000  1.0000000 )       (  0.0000000 )

     point group C_3v (3m)
     there are  3 classes
     the character table:

       E     2C3   3s_v
A_1    1.00  1.00  1.00
A_2    1.00  1.00 -1.00
E      2.00 -1.00  0.00

     the symmetry operations in each class and the name of the first element:

     E        1
          identity
     2C3      2    3
          120 deg rotation - cryst. axis [0,0,1]
     3s_v     4    5    6
          inv. 180 deg rotation - cart. axis [1,0,0]

   Cartesian axes

     site n.     atom                  positions (alat units)
         1           Ga  tau(   1) = (   0.1250001   0.0721687   0.2033935  )
         2           Ga  tau(   2) = (   0.1250001   0.0721687   0.6108633  )
         3           Ga  tau(   3) = (   0.1250001   0.0721687   1.0183331  )
         4           Ga  tau(   4) = (   0.0000001   0.2886751   0.2033935  )
         5           Ga  tau(   5) = (   0.0000001   0.2886751   0.6108633  )
         6           Ga  tau(   6) = (   0.0000001   0.2886751   1.0183331  )
         7           Ga  tau(   7) = (  -0.1249999   0.5051814   0.2033935  )
         8           Ga  tau(   8) = (  -0.1249999   0.5051814   0.6108633  )
         9           Ga  tau(   9) = (  -0.1249999   0.5051814   1.0183331  )
        10           Ga  tau(  10) = (  -0.2499999   0.7216878   0.2033935  )
        11           Ga  tau(  11) = (  -0.2499999   0.7216878   0.6108633  )
        12           Ga  tau(  12) = (  -0.2499999   0.7216878   1.0183331  )
        13           Ga  tau(  13) = (   0.3750001   0.0721687   0.2033935  )
        14           Ga  tau(  14) = (   0.3750001   0.0721687   0.6108633  )
        15           Ga  tau(  15) = (   0.3750001   0.0721687   1.0183331  )
        16           Ga  tau(  16) = (   0.2500001   0.2886751   0.2033935  )
        17           Ga  tau(  17) = (   0.2500001   0.2886751   0.6108633  )
        18           Ga  tau(  18) = (   0.2500001   0.2886751   1.0183331  )
        19           Ga  tau(  19) = (   0.1250001   0.5051814   0.2033935  )
        20           Ga  tau(  20) = (   0.1250001   0.5051814   0.6108633  )
        21           Ga  tau(  21) = (   0.1250001   0.5051814   1.0183331  )
        22           Ga  tau(  22) = (   0.0000001   0.7216878   0.2033935  )
        23           Ga  tau(  23) = (   0.0000001   0.7216878   0.6108633  )
        24           Ga  tau(  24) = (   0.0000001   0.7216878   1.0183331  )
        25           Ga  tau(  25) = (   0.6250001   0.0721687   0.2033935  )
        26           Ga  tau(  26) = (   0.6250001   0.0721687   0.6108633  )
        27           Ga  tau(  27) = (   0.6250001   0.0721687   1.0183331  )
        28           Ga  tau(  28) = (   0.5000001   0.2886751   0.2033935  )
        29           Ga  tau(  29) = (   0.5000001   0.2886751   0.6108633  )
        30           Ga  tau(  30) = (   0.5000001   0.2886751   1.0183331  )
        31           Ga  tau(  31) = (   0.3750001   0.5051814   0.2033935  )
        32           Ga  tau(  32) = (   0.3750001   0.5051814   0.6108633  )
        33           Ga  tau(  33) = (   0.3750001   0.5051814   1.0183331  )
        34           Ga  tau(  34) = (   0.2500001   0.7216878   0.2033935  )
        35           Ga  tau(  35) = (   0.2500001   0.7216878   0.6108633  )
        36           Ga  tau(  36) = (   0.2500001   0.7216878   1.0183331  )
        37           Ga  tau(  37) = (   0.8750001   0.0721687   0.2033935  )
        38           Ga  tau(  38) = (   0.8750001   0.0721687   0.6108633  )
        39           Ga  tau(  39) = (   0.8750001   0.0721687   1.0183331  )
        40           Ga  tau(  40) = (   0.7500001   0.2886751   0.2033935  )
        41           Ga  tau(  41) = (   0.7500001   0.2886751   0.6108633  )
        42           Ga  tau(  42) = (   0.7500001   0.2886751   1.0183331  )
        43           Ga  tau(  43) = (   0.6250001   0.5051814   0.2033935  )
        44           Ga  tau(  44) = (   0.6250001   0.5051814   0.6108633  )
        45           Ga  tau(  45) = (   0.6250001   0.5051814   1.0183331  )
        46           Ga  tau(  46) = (   0.5000001   0.7216878   0.2033935  )
        47           Ga  tau(  47) = (   0.5000001   0.7216878   0.6108633  )
        48           Ga  tau(  48) = (   0.5000001   0.7216878   1.0183331  )
        49           Ga  tau(  49) = (  -0.0000002   0.1443377   0.4071284  )
        50           Ga  tau(  50) = (  -0.0000002   0.1443377   0.8145982  )
        51           Ga  tau(  51) = (  -0.0000002   0.1443377   1.2220680  )
        52           Ga  tau(  52) = (  -0.1250002   0.3608440   0.4071284  )
        53           Ga  tau(  53) = (  -0.1250002   0.3608440   0.8145982  )
        54           Ga  tau(  54) = (  -0.1250002   0.3608440   1.2220680  )
        55           Ga  tau(  55) = (  -0.2500002   0.5773504   0.4071284  )
        56           Ga  tau(  56) = (  -0.2500002   0.5773504   0.8145982  )
        57           Ga  tau(  57) = (  -0.2500002   0.5773504   1.2220680  )
        58           Ga  tau(  58) = (  -0.3750001   0.7938567   0.4071284  )
        59           Ga  tau(  59) = (  -0.3750001   0.7938567   0.8145982  )
[...]
     atom   44 type  1   force =     0.00000000    0.00000000    0.00000000
     atom   45 type  1   force =     0.00000000    0.00000000    0.00000000
     atom   46 type  1   force =     0.00000000    0.00000000    0.00000000
     atom   47 type  1   force =     0.00000000    0.00000000    0.00000000
     atom   48 type  1   force =     0.00000000    0.00000000    0.00000000
     atom   49 type  1   force =     0.00000000    0.00000000    0.00000000
     atom   50 type  1   force =     0.00000000    0.00000000    0.00000000
     atom   51 type  1   force =     0.00000000    0.00000000    0.00000000
     atom   52 type  1   force =     0.00000000    0.00000000    0.00000000
     atom   53 type  1   force =     0.00000000    0.00000000    0.00000000
     atom   54 type  1   force =     0.00000000    0.00000000    0.00000000
     atom   55 type  1   force =     0.00000000    0.00000000    0.00000000
     atom   56 type  1   force =     0.00000000    0.00000000    0.00000000
     atom   57 type  1   force =     0.00000000    0.00000000    0.00000000
     atom   58 type  1   force =     0.00000000    0.00000000    0.00000000
     atom   59 type  1   force =     0.00000000    0.00000000    0.00000000
     atom   60 type  1   force =     0.00000000    0.00000000    0.00000000
[...]
     atom  177 type  2   force =     0.00000000    0.00000000    0.00000000
     atom  178 type  2   force =     0.00000000    0.00000000    0.00000000
     atom  179 type  2   force =     0.00000000    0.00000000    0.00000000
     atom  180 type  2   force =     0.00000000    0.00000000    0.00000000
     atom  181 type  2   force =     0.00000000    0.00000000    0.00000000
     atom  182 type  2   force =     0.00000000    0.00000000    0.00000000
     atom  183 type  2   force =     0.00000000    0.00000000    0.00000000
     atom  184 type  2   force =     0.00000000    0.00000000    0.00000000
     atom  185 type  2   force =     0.00000000    0.00000000    0.00000000
     atom  186 type  2   force =     0.00000000    0.00000000    0.00000000
     atom  187 type  2   force =     0.00000000    0.00000000    0.00000000
     atom  188 type  2   force =     0.00000000    0.00000000    0.00000000
     atom  189 type  2   force =     0.00000000    0.00000000    0.00000000
     atom  190 type  2   force =     0.00000000    0.00000000    0.00000000
     atom  191 type  2   force =     0.00000000    0.00000000    0.00000000
     The SCF correction term to forces
     atom    1 type  1   force =    -0.00000000    0.00000000    0.00000703
     atom    2 type  1   force =     0.00000000   -0.00000000   -0.00000474
     atom    3 type  1   force =     0.00000000   -0.00000000    0.00001003
     atom    4 type  1   force =     0.00000567   -0.00000889   -0.00000301
     atom    5 type  1   force =     0.00000278   -0.00000511   -0.00000864
     atom    6 type  1   force =     0.00000482   -0.00000712    0.00000908
     atom    7 type  1   force =    -0.00000207   -0.00000119    0.00000440
     atom    8 type  1   force =    -0.00000515   -0.00000297   -0.00000915
     atom    9 type  1   force =    -0.00000031   -0.00000018    0.00000586
     atom   10 type  1   force =    -0.00000486    0.00000935   -0.00000301
     atom   11 type  1   force =    -0.00000303    0.00000496   -0.00000864
     atom   12 type  1   force =    -0.00000376    0.00000773    0.00000908
     atom   13 type  1   force =    -0.00001053   -0.00000047   -0.00000301
     atom   14 type  1   force =    -0.00000581    0.00000015   -0.00000864
     atom   15 type  1   force =    -0.00000858   -0.00000061    0.00000908
     atom   16 type  1   force =    -0.00000567   -0.00000889   -0.00000301
     atom   17 type  1   force =    -0.00000278   -0.00000511   -0.00000864
     atom   18 type  1   force =    -0.00000482   -0.00000712    0.00000908
     atom   19 type  1   force =    -0.00000000   -0.00000494   -0.00000003
     atom   20 type  1   force =     0.00000000   -0.00000790   -0.00000630
     atom   21 type  1   force =    -0.00000000   -0.00000416    0.00000689
     atom   22 type  1   force =    -0.00000427    0.00000247   -0.00000003
     atom   23 type  1   force =    -0.00000684    0.00000395   -0.00000630
     atom   24 type  1   force =    -0.00000360    0.00000208    0.00000689
     atom   25 type  1   force =     0.00000000    0.00000239    0.00000440
     atom   26 type  1   force =    -0.00000000    0.00000595   -0.00000915
     atom   27 type  1   force =     0.00000000    0.00000036    0.00000586
     atom   28 type  1   force =    -0.00000349   -0.00000202    0.00000354
     atom   29 type  1   force =    -0.00000250   -0.00000145   -0.00000826
     atom   30 type  1   force =    -0.00000378   -0.00000218    0.00000537
     atom   31 type  1   force =     0.00000207   -0.00000119    0.00000440
     atom   32 type  1   force =     0.00000515   -0.00000297   -0.00000915
     atom   33 type  1   force =     0.00000031   -0.00000018    0.00000586
     atom   34 type  1   force =     0.00000427    0.00000247   -0.00000003
     atom   35 type  1   force =     0.00000684    0.00000395   -0.00000630
     atom   36 type  1   force =     0.00000360    0.00000208    0.00000689
     atom   37 type  1   force =     0.00001053   -0.00000047   -0.00000301
     atom   38 type  1   force =     0.00000581    0.00000015   -0.00000864
     atom   39 type  1   force =     0.00000858   -0.00000061    0.00000908
     atom   40 type  1   force =     0.00000349   -0.00000202    0.00000354
     atom   41 type  1   force =     0.00000250   -0.00000145   -0.00000826
     atom   42 type  1   force =     0.00000378   -0.00000218    0.00000537
     atom   43 type  1   force =    -0.00000000    0.00000403    0.00000354
     atom   44 type  1   force =     0.00000000    0.00000289   -0.00000826
     atom   45 type  1   force =     0.00000000    0.00000436    0.00000537
     atom   46 type  1   force =     0.00000486    0.00000935   -0.00000301
     atom   47 type  1   force =     0.00000303    0.00000496   -0.00000864
     atom   48 type  1   force =     0.00000376    0.00000773    0.00000908
     atom   49 type  1   force =     0.00001286   -0.00000743   -0.00001095
     atom   50 type  1   force =     0.00000365   -0.00000211    0.00000218
     atom   51 type  1   force =     0.00001146   -0.00000662    0.00000758
     atom   52 type  1   force =    -0.00000325   -0.00000228   -0.00000675
     atom   53 type  1   force =     0.00000168   -0.00000481   -0.00000119
     atom   54 type  1   force =     0.00000290   -0.00000581    0.00000579
     atom   55 type  1   force =    -0.00000360   -0.00000168   -0.00000675
     atom   56 type  1   force =    -0.00000333    0.00000386   -0.00000119
     atom   57 type  1   force =    -0.00000358    0.00000542    0.00000579
     atom   58 type  1   force =     0.00000000    0.00001485   -0.00001095
     atom   59 type  1   force =     0.00000000    0.00000422    0.00000218
     atom   60 type  1   force =     0.00000000    0.00001323    0.00000758
[...]
     atom  177 type  2   force =    -0.00000000    0.00000157    0.00000084
     atom  178 type  2   force =    -0.00000000    0.00000308   -0.00000324
     atom  179 type  2   force =    -0.00000000    0.00000092    0.00000397
     atom  180 type  2   force =     0.00000205    0.00000031    0.00000125
     atom  181 type  2   force =     0.00000116    0.00000145   -0.00000359
     atom  182 type  2   force =     0.00000183    0.00000030    0.00000272
     atom  183 type  2   force =    -0.00000000    0.00000000    0.00000168
     atom  184 type  2   force =    -0.00000000    0.00000000   -0.00000358
     atom  185 type  2   force =    -0.00000000    0.00000000    0.00000194
     atom  186 type  2   force =     0.00000130    0.00000162    0.00000125
     atom  187 type  2   force =     0.00000183    0.00000028   -0.00000359
     atom  188 type  2   force =     0.00000118    0.00000144    0.00000272
     atom  189 type  2   force =     0.00000451    0.00000260    0.00000019
     atom  190 type  2   force =     0.00000399    0.00000230   -0.00000355
     atom  191 type  2   force =     0.00000295    0.00000170    0.00000329

     Total force =     0.003579     Total SCF correction =     0.000101

     Computing stress (Cartesian axis) and pressure

     Non-local corr. energy    =      52.26096607 Ry

          total   stress  (Ry/bohr**3)                   (kbar)     P=      -15.38
  -0.00010815   0.00000000   0.00000000          -15.91        0.00        0.00
   0.00000000  -0.00010815   0.00000000            0.00      -15.91        0.00
   0.00000000  -0.00000000  -0.00009726            0.00       -0.00      -14.31

     kinetic stress (kbar)  18333.81      0.00      0.00
                                0.00  18333.81      0.00
                                0.00      0.00  18329.10

     local   stress (kbar)   5198.85     -0.07      0.00
                               -0.07   5198.76     -0.00
                                0.00     -0.00   3672.96

     nonloc. stress (kbar)     90.01     -0.00     -0.00
                                0.00     90.01     -0.00
                               -0.00     -0.00    101.34

     hartree stress (kbar)  19699.48     -0.00      0.00
                               -0.00  19699.48     -0.00
                                0.00     -0.00  20395.88

     exc-cor stress (kbar)   5233.98      0.00     -0.00
                                0.00   5233.98      0.00
                               -0.00      0.00   5234.16

     corecor stress (kbar) -14103.49     -0.00     -0.00
                               -0.00 -14103.49      0.00
                               -0.00      0.00 -14102.97

     ewald   stress (kbar) -34630.48      0.09     -0.00
                                0.09 -34630.36      0.00
                               -0.00      0.00 -33805.87

     hubbard stress (kbar)      0.00      0.00      0.00
                                0.00      0.00      0.00
                                0.00      0.00      0.00

     DFT-D   stress (kbar)      0.00      0.00      0.00
                                0.00      0.00      0.00
                                0.00      0.00      0.00

     XDM     stress (kbar)      0.00      0.00      0.00
                                0.00      0.00      0.00
                                0.00      0.00      0.00

     dft-nl  stress (kbar)    161.91     -0.00     -0.00
                               -0.00    161.91     -0.00
                               -0.00     -0.00    161.08

     TS-vdW  stress (kbar)      0.00      0.00      0.00
                                0.00      0.00      0.00
                                0.00      0.00      0.00

     MDB     stress (kbar)      0.00      0.00      0.00
                                0.00      0.00      0.00
                                0.00      0.00      0.00

     3D-RISM stress (kbar)      0.00      0.00      0.00
                                0.00      0.00      0.00
                                0.00      0.00      0.00

     Energy error            =      2.6E-05 Ry
     Gradient error          =      7.2E-04 Ry/Bohr

     bfgs converged in  19 scf cycles and  18 bfgs steps
     (criteria: energy <  1.0E-04 Ry, force <  1.0E-03 Ry/Bohr)

     End of BFGS Geometry Optimization

     Final energy             =  -29952.1656189656 Ry

     File ./GaN.bfgs deleted, as requested
Begin final coordinates

ATOMIC_POSITIONS (angstrom)
Ga            1.6222756606        0.9366198184        2.4171243553
Ga            1.6222756606        0.9366198184        7.9406419634
Ga            1.6222756606        0.9366198184       13.2132028164
Ga            0.0000045680        3.7663148280        2.6230026029
Ga            0.0015518564        3.7693753018        7.9522482210
Ga           -0.0015851749        3.7514282671       13.2107962281
Ga           -1.6186078677        6.5584584491        2.6254759780
Ga           -1.6183090342        6.5586309807        7.9380395564
Ga           -1.6214080195        6.5568417808       13.2139957524
Ga           -3.2273689566        9.3562897478        2.6230026029
Ga           -3.2239448644        9.3560995020        7.9522482210
Ga           -3.2410559681        9.3623562705       13.2107962281
Ga            4.8839989701        0.9267002917        2.6230026029
Ga            4.8858757739        0.9238300637        7.9522482210
Ga            4.8719017016        0.9355203299       13.2107962281
Ga            3.2445467532        3.7663148280        2.6230026029
Ga            3.2429994647        3.7693753018        7.9522482210
Ga            3.2461364961        3.7514282671       13.2107962281
Ga            1.6222756606        6.5635058224        2.6316363082
Ga            1.6222756606        6.5655287202        7.9392236231
Ga            1.6222756606        6.5596083959       13.2126607673
Ga            0.0062050499        9.3626222287        2.6316363082
Ga            0.0079569309        9.3616107798        7.9392236231
Ga            0.0028297796        9.3645709419       13.2126607673
Ga            8.1113724947        0.9323879693        2.6254759780
Ga            8.1113724947        0.9320429061        7.9380395564
Ga            8.1113724947        0.9356213061       13.2139957524
Ga            6.4917274276        3.7479991070        2.6315951079
Ga            6.4915503533        3.7478968731        7.9388556313
Ga            6.4903924808        3.7472283751       13.2145050994
Ga            4.8631591889        6.5584584491        2.6254759780
Ga            4.8628603554        6.5586309807        7.9380395564
Ga            4.8659593406        6.5568417808       13.2139957524
Ga            3.2383462713        9.3626222287        2.6316363082
Ga            3.2365943903        9.3616107798        7.9392236231
Ga            3.2417215416        9.3645709419       13.2126607673
Ga           11.3387460194        0.9267002917        2.6230026029
Ga           11.3368692155        0.9238300637        7.9522482210
Ga           11.3508432878        0.9355203299       13.2107962281
Ga            9.7310175619        3.7479991070        2.6315951079
Ga            9.7311946362        3.7478968731        7.9388556313
Ga            9.7323525087        3.7472283751       13.2145050994
Ga            8.1113724947        6.5533066536        2.6315951079
Ga            8.1113724947        6.5535111214        7.9388556313
Ga            8.1113724947        6.5548481174       13.2145050994
Ga            6.4719202778        9.3562897478        2.6230026029
Ga            6.4684961856        9.3560995020        7.9522482210
Ga            6.4856072893        9.3623562705       13.2107962281
Ga           -0.1403490637        1.9542718818        5.3424961235
Ga           -0.0010681491        1.8738580083       10.5827714368
Ga           -0.0152087925        1.8820221126       15.8209801376
Ga           -1.6438255542        4.7010835152        5.2932979111
Ga           -1.6269974892        4.6851433089       10.5785053139
Ga           -1.6281180339        4.6868780890       15.8513271769
Ga           -3.2397541819        7.4653129836        5.2932979111
Ga           -3.2451447729        7.4878566185       10.5785053139
Ga           -3.2442026817        7.4860188083       15.8513271769
Ga           -4.8668245904       10.1407676350        5.3424961235
Ga           -4.8668245904       10.3015953821       10.5827714368
Ga           -4.8668245904       10.2852671736       15.8209801376
[...]
N             1.6222722437       10.3021473287        1.9823159139
N             1.6222722437       10.3027085341        7.2755511025
N             1.6222722437       10.3034941205       12.5639105849
N             9.7338065941        1.8743074686        1.9855920476
N             9.7347090872        1.8730077152        7.2752753586
N             9.7328255772        1.8738735940       12.5650841799
N             8.1113690779        4.6831037996        1.9848155818
N             8.1113690779        4.6831037996        7.2751060395
N             8.1113690779        4.6831037996       12.5643382244
N             6.4900988594        7.4925740703        1.9855920476
N             6.4894244864        7.4940055289        7.2752753586
N             6.4892326045        7.4919414220       12.5650841799
N             4.8652905650       10.3019431044        1.9848294378
N             4.8645844484       10.3015354278        7.2814952177
N             4.8662388108       10.3024905744       12.5672847427
End final coordinates

     Writing all to output data dir ./GaN.save/

     General routines

     Parallel routines

     PAW routines

   This run was terminated on:  17:16:40  17Mar2024

   JOB DONE.