     Program PWSCF v.7.1 starts on 23Mar2024 at 13:29:34

     Reading input from espresso.pwi
Warning: card &CELL ignored
Warning: card    CELL_DYNAMICS    = 'BFGS' ignored
Warning: card / ignored

     Current dimensions of program PWSCF are:
     Max number of different atomic species (ntypx) = 10
     Max number of k-points (npk) =  40000
     Max angular momentum in pseudopotentials (lmaxx) =  4
     file Ga.pbe-dn-kjpaw_psl.1.0.0.UPF: wavefunction(s)  4S renormalized
     file N.pbe-n-kjpaw_psl.1.0.0.UPF: wavefunction(s)  2S renormalized

     IMPORTANT: XC functional enforced from input :
     Exchange-correlation= BEEF-VDW
                           (   1   4  43  14   2   0   0)
     Any further DFT definition will be discarded
     Please, verify this is what you really want

     K-points division:     npool     =       2
     R & G space division:  proc/nbgrp/npool/nimage =      30
     Subspace diagonalization in iterative solution of the eigenvalue problem:
     a serial algorithm will be used

     Using Slab Decomposition

     bravais-lattice index     =            4
     lattice parameter (alat)  =      18.3939  a.u.
     unit-cell volume          =    5856.2271 (a.u.)^3
     number of atoms/cell      =           71
     number of atomic types    =            2
     number of electrons       =       641.00
     number of Kohn-Sham states=          385
     kinetic-energy cutoff     =      70.0000  Ry
     charge density cutoff     =     350.0000  Ry
     scf convergence threshold =      1.0E-07
     mixing beta               =       0.7000
     number of iterations used =            8  plain     mixing
     energy convergence thresh.=      1.0E-04
     force convergence thresh. =      1.0E-03
     Exchange-correlation= BEEF-VDW
                           (   1   4  43  14   2   0   0)
     nstep                     =           50

     celldm(1)=  18.393924  celldm(2)=   0.000000  celldm(3)=   1.086586
     celldm(4)=   0.000000  celldm(5)=   0.000000  celldm(6)=   0.000000

     crystal axes: (cart. coord. in units of alat)
               a(1) = (   1.000000   0.000000   0.000000 )
               a(2) = (  -0.500000   0.866025   0.000000 )
               a(3) = (   0.000000   0.000000   1.086586 )

     reciprocal axes: (cart. coord. in units 2 pi/alat)
               b(1) = (  1.000000  0.577350 -0.000000 )
               b(2) = (  0.000000  1.154701  0.000000 )
               b(3) = (  0.000000 -0.000000  0.920314 )

     PseudoPot. # 1 for Ga read from file:
     //group///packages/espresso/pseudo/psl_1.0.0/pslibrary.1.0.0/pbe/PSEUDOPOTENTIALS/Ga.pbe-dn-kjpaw_psl.1.0.0.UPF
     MD5 check sum: cd2a01e492f15b435d17032472d8505c
     Pseudo is Projector augmented-wave + core cor, Zval = 13.0
     Generated using 'atomic' code by A. Dal Corso  v.7.1
     Shape of augmentation charge: PSQ
     Using radial grid of 1205 points,  6 beta functions with:
                l(1) =   0
                l(2) =   0
                l(3) =   1
                l(4) =   1
                l(5) =   2
                l(6) =   2
     Q(r) pseudized with 0 coefficients

     PseudoPot. # 2 for N  read from file:
     //group///packages/espresso/pseudo/psl_1.0.0/pslibrary.1.0.0/pbe/PSEUDOPOTENTIALS/N.pbe-n-kjpaw_psl.1.0.0.UPF
     MD5 check sum: f77f775694dac7e2c3fe1c82443d1a16
     Pseudo is Projector augmented-wave + core cor, Zval =  5.0
     Generated using 'atomic' code by A. Dal Corso  v.7.1
     Shape of augmentation charge: PSQ
     Using radial grid of 1085 points,  4 beta functions with:
                l(1) =   0
                l(2) =   0
                l(3) =   1
                l(4) =   1
     Q(r) pseudized with 0 coefficients

     atomic species   valence    mass     pseudopotential
        Ga            13.00    69.72300     Ga( 1.00)
        N              5.00    14.00700     N ( 1.00)

      6 Sym. Ops. (no inversion) found ( 4 have fractional translation)

                                    s                        frac. trans.

      isym =  1     identity

 cryst.   s( 1) = (     1          0          0      )
                  (     0          1          0      )
                  (     0          0          1      )

 cart.    s( 1) = (  1.0000000  0.0000000  0.0000000 )
                  (  0.0000000  1.0000000  0.0000000 )
                  (  0.0000000  0.0000000  1.0000000 )

      isym =  2     120 deg rotation - cryst. axis [0,0,1]

 cryst.   s( 2) = (     0          1          0      )    f =( -0.3333334 )
                  (    -1         -1          0      )       (  0.0000003 )
                  (     0          0          1      )       (  0.0000000 )

 cart.    s( 2) = ( -0.5000000 -0.8660254  0.0000000 )    f =( -0.3333335 )
                  (  0.8660254 -0.5000000  0.0000000 )       (  0.0000002 )
                  (  0.0000000  0.0000000  1.0000000 )       (  0.0000000 )

      isym =  3     120 deg rotation - cryst. axis [0,0,-1]

[...]

      isym =  4     inv. 180 deg rotation - cart. axis [1,0,0]

[...]

      isym =  5     inv. 180 deg rotation - cryst. axis [0,1,0]

 cryst.   s( 5) = (     1          1          0      )
                  (     0         -1          0      )
                  (     0          0          1      )

 cart.    s( 5) = (  0.5000000  0.8660254  0.0000000 )
                  (  0.8660254 -0.5000000  0.0000000 )
                  (  0.0000000  0.0000000  1.0000000 )

      isym =  6     inv. 180 deg rotation - cryst. axis [1,1,0]

 cryst.   s( 6) = (     0         -1          0      )    f =( -0.3333334 )
                  (    -1          0          0      )       ( -0.3333334 )
                  (     0          0          1      )       (  0.0000000 )

 cart.    s( 6) = (  0.5000000 -0.8660254  0.0000000 )    f =( -0.1666667 )
                  ( -0.8660254 -0.5000000  0.0000000 )       ( -0.2886752 )
                  (  0.0000000  0.0000000  1.0000000 )       (  0.0000000 )

     point group C_3v (3m)
     there are  3 classes
     the character table:

       E     2C3   3s_v
A_1    1.00  1.00  1.00
A_2    1.00  1.00 -1.00
E      2.00 -1.00  0.00

     the symmetry operations in each class and the name of the first element:

     E        1
          identity
     2C3      2    3
          120 deg rotation - cryst. axis [0,0,1]
     3s_v     4    5    6
          inv. 180 deg rotation - cart. axis [1,0,0]

   Cartesian axes

     site n.     atom                  positions (alat units)
         1           Ga  tau(   1) = (   0.1666668   0.0962250   0.2711914  )
         2           Ga  tau(   2) = (   0.1666668   0.0962250   0.8144844  )
         3           Ga  tau(   3) = (   0.0000001   0.3849001   0.2711914  )
         4           Ga  tau(   4) = (   0.0000001   0.3849001   0.8144844  )
         5           Ga  tau(   5) = (  -0.1666665   0.6735752   0.2711914  )
         6           Ga  tau(   6) = (  -0.1666665   0.6735752   0.8144844  )
         7           Ga  tau(   7) = (   0.5000001   0.0962250   0.2711914  )
         8           Ga  tau(   8) = (   0.5000001   0.0962250   0.8144844  )
         9           Ga  tau(   9) = (   0.3333335   0.3849001   0.2711914  )
        10           Ga  tau(  10) = (   0.3333335   0.3849001   0.8144844  )
        11           Ga  tau(  11) = (   0.1666668   0.6735752   0.2711914  )
        12           Ga  tau(  12) = (   0.1666668   0.6735752   0.8144844  )
        13           Ga  tau(  13) = (   0.8333335   0.0962250   0.2711914  )
        14           Ga  tau(  14) = (   0.8333335   0.0962250   0.8144844  )
        15           Ga  tau(  15) = (   0.6666668   0.3849001   0.2711914  )
        16           Ga  tau(  16) = (   0.6666668   0.3849001   0.8144844  )
        17           Ga  tau(  17) = (   0.5000001   0.6735752   0.2711914  )
        18           Ga  tau(  18) = (   0.5000001   0.6735752   0.8144844  )
        19           Ga  tau(  19) = (  -0.0000002   0.1924502   0.5428379  )
        20           Ga  tau(  20) = (  -0.0000002   0.1924502   1.0861309  )
        21           Ga  tau(  21) = (  -0.1666669   0.4811254   0.5428379  )
        22           Ga  tau(  22) = (  -0.1666669   0.4811254   1.0861309  )
        23           Ga  tau(  23) = (  -0.3333335   0.7698005   0.5428379  )
        24           Ga  tau(  24) = (  -0.3333335   0.7698005   1.0861309  )
        25           Ga  tau(  25) = (   0.3333331   0.1924502   0.5428379  )
        26           Ga  tau(  26) = (   0.3333331   0.1924502   1.0861309  )
        27           Ga  tau(  27) = (   0.1666665   0.4811254   0.5428379  )
        28           Ga  tau(  28) = (   0.1666665   0.4811254   1.0861309  )
        29           Ga  tau(  29) = (  -0.0000002   0.7698005   0.5428379  )
        30           Ga  tau(  30) = (  -0.0000002   0.7698005   1.0861309  )
        31           Ga  tau(  31) = (   0.6666665   0.1924502   0.5428379  )
        32           Ga  tau(  32) = (   0.6666665   0.1924502   1.0861309  )
        33           Ga  tau(  33) = (   0.4999998   0.4811254   0.5428379  )
        34           Ga  tau(  34) = (   0.4999998   0.4811254   1.0861309  )
        35           Ga  tau(  35) = (   0.3333331   0.7698005   0.5428379  )
        36           Ga  tau(  36) = (   0.3333331   0.7698005   1.0861309  )
        37           N   tau(  37) = (   0.1666668   0.0962250   1.0191295  )
        38           N   tau(  38) = (   0.0000001   0.3849001   0.4758365  )
        39           N   tau(  39) = (   0.0000001   0.3849001   1.0191295  )
        40           N   tau(  40) = (  -0.1666665   0.6735752   0.4758365  )
        41           N   tau(  41) = (  -0.1666665   0.6735752   1.0191295  )
        42           N   tau(  42) = (   0.5000001   0.0962250   0.4758365  )
        43           N   tau(  43) = (   0.5000001   0.0962250   1.0191295  )
        44           N   tau(  44) = (   0.3333335   0.3849001   0.4758365  )
        45           N   tau(  45) = (   0.3333335   0.3849001   1.0191295  )
        46           N   tau(  46) = (   0.1666668   0.6735752   0.4758365  )
        47           N   tau(  47) = (   0.1666668   0.6735752   1.0191295  )
        48           N   tau(  48) = (   0.8333335   0.0962250   0.4758365  )
        49           N   tau(  49) = (   0.8333335   0.0962250   1.0191295  )
        50           N   tau(  50) = (   0.6666668   0.3849001   0.4758365  )
        51           N   tau(  51) = (   0.6666668   0.3849001   1.0191295  )
        52           N   tau(  52) = (   0.5000001   0.6735752   0.4758365  )
        53           N   tau(  53) = (   0.5000001   0.6735752   1.0191295  )
        54           N   tau(  54) = (  -0.0000002   0.1924502   0.2041900  )
        55           N   tau(  55) = (  -0.0000002   0.1924502   0.7474830  )
        56           N   tau(  56) = (  -0.1666669   0.4811254   0.2041900  )
        57           N   tau(  57) = (  -0.1666669   0.4811254   0.7474830  )
        58           N   tau(  58) = (  -0.3333335   0.7698005   0.2041900  )
        59           N   tau(  59) = (  -0.3333335   0.7698005   0.7474830  )
        60           N   tau(  60) = (   0.3333331   0.1924502   0.2041900  )
[...]
     atom   32 type  1   force =     0.00000000    0.00000000    0.00000000
     atom   33 type  1   force =     0.00000000    0.00000000    0.00000000
     atom   34 type  1   force =     0.00000000    0.00000000    0.00000000
     atom   35 type  1   force =     0.00000000    0.00000000    0.00000000
     atom   36 type  1   force =     0.00000000    0.00000000    0.00000000
     atom   37 type  2   force =     0.00000000    0.00000000    0.00000000
     atom   38 type  2   force =     0.00000000    0.00000000    0.00000000
     atom   39 type  2   force =     0.00000000    0.00000000    0.00000000
     atom   40 type  2   force =     0.00000000    0.00000000    0.00000000
     atom   41 type  2   force =     0.00000000    0.00000000    0.00000000
     atom   42 type  2   force =     0.00000000    0.00000000    0.00000000
     atom   43 type  2   force =     0.00000000    0.00000000    0.00000000
     atom   44 type  2   force =     0.00000000    0.00000000    0.00000000
     atom   45 type  2   force =     0.00000000    0.00000000    0.00000000
     atom   46 type  2   force =     0.00000000    0.00000000    0.00000000
     atom   47 type  2   force =     0.00000000    0.00000000    0.00000000
     atom   48 type  2   force =     0.00000000    0.00000000    0.00000000
     atom   49 type  2   force =     0.00000000    0.00000000    0.00000000
     atom   50 type  2   force =     0.00000000    0.00000000    0.00000000
     atom   51 type  2   force =     0.00000000    0.00000000    0.00000000
     atom   52 type  2   force =     0.00000000    0.00000000    0.00000000
     atom   53 type  2   force =     0.00000000    0.00000000    0.00000000
     atom   54 type  2   force =     0.00000000    0.00000000    0.00000000
     atom   55 type  2   force =     0.00000000    0.00000000    0.00000000
     atom   56 type  2   force =     0.00000000    0.00000000    0.00000000
     atom   57 type  2   force =     0.00000000    0.00000000    0.00000000
     atom   58 type  2   force =     0.00000000    0.00000000    0.00000000
     atom   59 type  2   force =     0.00000000    0.00000000    0.00000000
     atom   60 type  2   force =     0.00000000    0.00000000    0.00000000
     atom   61 type  2   force =     0.00000000    0.00000000    0.00000000
     atom   62 type  2   force =     0.00000000    0.00000000    0.00000000
     atom   63 type  2   force =     0.00000000    0.00000000    0.00000000
     atom   64 type  2   force =     0.00000000    0.00000000    0.00000000
     atom   65 type  2   force =     0.00000000    0.00000000    0.00000000
     atom   66 type  2   force =     0.00000000    0.00000000    0.00000000
     atom   67 type  2   force =     0.00000000    0.00000000    0.00000000
     atom   68 type  2   force =     0.00000000    0.00000000    0.00000000
     atom   69 type  2   force =     0.00000000    0.00000000    0.00000000
     atom   70 type  2   force =     0.00000000    0.00000000    0.00000000
     atom   71 type  2   force =     0.00000000    0.00000000    0.00000000
     The SCF correction term to forces
     atom    1 type  1   force =     0.00000000   -0.00000000   -0.00000368
     atom    2 type  1   force =     0.00000000   -0.00000000   -0.00000501
     atom    3 type  1   force =    -0.00000430    0.00000607   -0.00000071
     atom    4 type  1   force =    -0.00000052    0.00000368   -0.00000286
     atom    5 type  1   force =     0.00000311   -0.00000676   -0.00000071
     atom    6 type  1   force =     0.00000293   -0.00000229   -0.00000286
     atom    7 type  1   force =     0.00000741    0.00000069   -0.00000071
     atom    8 type  1   force =     0.00000345   -0.00000139   -0.00000286
     atom    9 type  1   force =     0.00000430    0.00000607   -0.00000071
     atom   10 type  1   force =     0.00000052    0.00000368   -0.00000286
     atom   11 type  1   force =     0.00000000   -0.00000000    0.00001096
     atom   12 type  1   force =     0.00000000   -0.00000000   -0.00000398
     atom   13 type  1   force =    -0.00000741    0.00000069   -0.00000071
     atom   14 type  1   force =    -0.00000345   -0.00000139   -0.00000286
     atom   15 type  1   force =     0.00000000   -0.00000000    0.00000904
     atom   16 type  1   force =    -0.00000000   -0.00000000   -0.00000043
     atom   17 type  1   force =    -0.00000311   -0.00000676   -0.00000071
     atom   18 type  1   force =    -0.00000293   -0.00000229   -0.00000286
     atom   19 type  1   force =    -0.00001531    0.00000884    0.00001966
     atom   20 type  1   force =    -0.00000573    0.00000331   -0.00002055
     atom   21 type  1   force =     0.00000566    0.00000326    0.00000849
     atom   22 type  1   force =     0.00000052    0.00000030   -0.00001003
     atom   23 type  1   force =     0.00000000   -0.00001768    0.00001966
     atom   24 type  1   force =    -0.00000000   -0.00000661   -0.00002055
     atom   25 type  1   force =     0.00001531    0.00000884    0.00001966
     atom   26 type  1   force =     0.00000573    0.00000331   -0.00002055
     atom   27 type  1   force =    -0.00000000    0.00000714    0.00001183
     atom   28 type  1   force =    -0.00000000    0.00000517   -0.00000600
     atom   29 type  1   force =     0.00000619   -0.00000357    0.00001183
     atom   30 type  1   force =     0.00000448   -0.00000259   -0.00000600
     atom   31 type  1   force =     0.00000000   -0.00000653    0.00000849
     atom   32 type  1   force =     0.00000000   -0.00000060   -0.00001003
     atom   33 type  1   force =    -0.00000565    0.00000326    0.00000849
     atom   34 type  1   force =    -0.00000052    0.00000030   -0.00001003
     atom   35 type  1   force =    -0.00000619   -0.00000357    0.00001183
     atom   36 type  1   force =    -0.00000448   -0.00000259   -0.00000600
     atom   37 type  2   force =     0.00000000    0.00000000   -0.00000394
     atom   38 type  2   force =    -0.00000651    0.00000659    0.00000729
     atom   39 type  2   force =    -0.00000154    0.00000354   -0.00000642
     atom   40 type  2   force =     0.00000245   -0.00000894    0.00000729
     atom   41 type  2   force =     0.00000229   -0.00000310   -0.00000642
     atom   42 type  2   force =     0.00000896    0.00000235    0.00000729
     atom   43 type  2   force =     0.00000383   -0.00000044   -0.00000642
     atom   44 type  2   force =     0.00000651    0.00000659    0.00000729
     atom   45 type  2   force =     0.00000154    0.00000354   -0.00000642
     atom   46 type  2   force =    -0.00000000    0.00000000    0.00000762
     atom   47 type  2   force =     0.00000000   -0.00000000   -0.00000720
     atom   48 type  2   force =    -0.00000896    0.00000235    0.00000729
     atom   49 type  2   force =    -0.00000383   -0.00000044   -0.00000642
     atom   50 type  2   force =     0.00000000   -0.00000000    0.00000857
     atom   51 type  2   force =     0.00000000   -0.00000000   -0.00000614
     atom   52 type  2   force =    -0.00000245   -0.00000894    0.00000729
     atom   53 type  2   force =    -0.00000229   -0.00000310   -0.00000642
     atom   54 type  2   force =    -0.00000423    0.00000244   -0.00000497
     atom   55 type  2   force =    -0.00000688    0.00000397    0.00000262
     atom   56 type  2   force =     0.00000091    0.00000053   -0.00000152
     atom   57 type  2   force =     0.00000026    0.00000015   -0.00000004
     atom   58 type  2   force =    -0.00000000   -0.00000488   -0.00000497
     atom   59 type  2   force =     0.00000000   -0.00000794    0.00000262
     atom   60 type  2   force =     0.00000423    0.00000244   -0.00000497
     atom   61 type  2   force =     0.00000688    0.00000397    0.00000262
     atom   62 type  2   force =     0.00000000    0.00000488   -0.00000240
     atom   63 type  2   force =     0.00000000    0.00000237    0.00000153
     atom   64 type  2   force =     0.00000423   -0.00000244   -0.00000240
     atom   65 type  2   force =     0.00000205   -0.00000118    0.00000153
     atom   66 type  2   force =     0.00000000   -0.00000106   -0.00000152
     atom   67 type  2   force =     0.00000000   -0.00000030   -0.00000004
     atom   68 type  2   force =    -0.00000091    0.00000053   -0.00000152
     atom   69 type  2   force =    -0.00000026    0.00000015   -0.00000004
     atom   70 type  2   force =    -0.00000423   -0.00000244   -0.00000240
     atom   71 type  2   force =    -0.00000205   -0.00000118    0.00000153

     Total force =     0.002258     Total SCF correction =     0.000087

     Computing stress (Cartesian axis) and pressure

     Non-local corr. energy    =      19.55961489 Ry

          total   stress  (Ry/bohr**3)                   (kbar)     P=      -43.05
  -0.00029692  -0.00000000   0.00000000          -43.68       -0.00        0.00
   0.00000000  -0.00029692   0.00000000            0.00      -43.68        0.00
   0.00000000   0.00000000  -0.00028414            0.00        0.00      -41.80

     kinetic stress (kbar)  18144.34     -0.00      0.00
                               -0.00  18144.34     -0.00
                                0.00     -0.00  18139.04

     local   stress (kbar)   4865.62     -0.07      0.00
                               -0.07   4865.52      0.01
                                0.00      0.01   3466.71

     nonloc. stress (kbar)    134.97     -0.00      0.00
                               -0.00    134.97     -0.00
                                0.00     -0.00    145.39

     hartree stress (kbar)  19832.17     -0.00     -0.00
                               -0.00  19832.17      0.00
                               -0.00      0.00  20465.81

     exc-cor stress (kbar)   5260.35      0.00     -0.00
                                0.00   5260.35      0.00
                               -0.00      0.00   5260.50

     corecor stress (kbar) -14092.23     -0.00     -0.00
                               -0.00 -14092.23     -0.00
                               -0.00     -0.00 -14091.71

     ewald   stress (kbar) -34350.53      0.09     -0.00
                                0.09 -34350.41      0.00
                               -0.00      0.00 -33588.34

     hubbard stress (kbar)      0.00      0.00      0.00
                                0.00      0.00      0.00
                                0.00      0.00      0.00

     DFT-D   stress (kbar)      0.00      0.00      0.00
                                0.00      0.00      0.00
                                0.00      0.00      0.00

     XDM     stress (kbar)      0.00      0.00      0.00
                                0.00      0.00      0.00
                                0.00      0.00      0.00

     dft-nl  stress (kbar)    161.62     -0.00     -0.00
                               -0.00    161.62     -0.00
                               -0.00     -0.00    160.81

     TS-vdW  stress (kbar)      0.00      0.00      0.00
                                0.00      0.00      0.00
                                0.00      0.00      0.00

     MDB     stress (kbar)      0.00      0.00      0.00
                                0.00      0.00      0.00
                                0.00      0.00      0.00

     3D-RISM stress (kbar)      0.00      0.00      0.00
                                0.00      0.00      0.00
                                0.00      0.00      0.00

     Energy error            =      2.3E-05 Ry
     Gradient error          =      9.3E-04 Ry/Bohr

     bfgs converged in  18 scf cycles and  17 bfgs steps
     (criteria: energy <  1.0E-04 Ry, force <  1.0E-03 Ry/Bohr)

     End of BFGS Geometry Optimization

     Final energy             =  -11214.7453471440 Ry

     File ./GaN.bfgs deleted, as requested
Begin final coordinates

ATOMIC_POSITIONS (angstrom)
Ga            1.6222756606        0.9366198184        2.4096687653
Ga            1.6222756606        0.9366198184        7.9288343337
Ga            0.0024101126        3.7615763294        2.6220834494
Ga            0.0040298531        3.7684005890        7.9459337493
Ga           -1.6079956361        6.5508809068        2.6220834494
Ga           -1.6012757836        6.5488715134        7.9459337493
Ga            4.8786925377        0.9269862783        2.6220834494
Ga            4.8837926496        0.9221714120        7.9459337493
Ga            3.2421412086        3.7615763294        2.6220834494
Ga            3.2405214681        3.7684005890        7.9459337493
Ga            1.6222756606        6.5563425246        2.6350548014
Ga            1.6222756606        6.5563425246        7.9413162155
Ga            8.0995040347        0.9269862783        2.6220834494
Ga            8.0944039228        0.9221714120        7.9459337493
Ga            6.4890982862        3.7464811715        2.6321266540
Ga            6.4890982862        3.7464811715        7.9420697948
Ga            4.8525469572        6.5508809068        2.6220834494
Ga            4.8458271048        6.5488715134        7.9459337493
Ga           -0.1367912031        1.9522177501        5.3442281036
Ga           -0.0127279437        1.8805897938       10.5371718986
Ga           -1.6325516964        4.6771712236        5.2987677412
Ga           -1.6275365458        4.6800667221       10.5733548533
Ga           -3.2445503819        7.3350145456        5.3442281036
Ga           -3.2445503819        7.4782704580       10.5371718986
Ga            3.3813356906        1.9522177501        5.3442281036
Ga            3.2572724312        1.8805897938       10.5371718986
Ga            1.6222722437        4.6974913136        5.3045345371
Ga            1.6222722437        4.6889341999       10.5736260182
Ga            0.0124579878        7.4857713957        5.3045345371
Ga            0.0050473099        7.4900499526       10.5736260182
Ga            6.4890948693        1.8851075985        5.2987677412
Ga            6.4890948693        1.8793166015       10.5733548533
Ga            4.8770961839        4.6771712236        5.2987677412
Ga            4.8720810333        4.6800667221       10.5733548533
Ga            3.2320864997        7.4857713957        5.3045345371
Ga            3.2394971776        7.4900499526       10.5736260182
N             1.6222756606        0.9366198184        9.9200055375
N             0.0120231019        3.7478341432        4.6220835920
N            -0.0007473470        3.7505348563        9.9239069345
N            -1.6150902237        6.5660770929        4.6220835920
N            -1.6191365620        6.5536672031        9.9239069345
N             4.8619849607        0.9255322784        4.6220835920
N             4.8707090713        0.9352414550        9.9239069345
N             3.2325282193        3.7478341432        4.6220835920
N             3.2452986682        3.7505348563        9.9239069345
N             1.6222756606        6.5563425246        4.6305022865
N             1.6222756606        6.5563425246        9.9225503131
N             8.1162116117        0.9255322784        4.6220835920
N             8.1074875011        0.9352414550        9.9239069345
N             6.4890982862        3.7464811715        4.6297385960
N             6.4890982862        3.7464811715        9.9217343293
N             4.8596415449        6.5660770929        4.6220835920
N             4.8636878832        6.5536672031        9.9239069345
N            -0.0088982716        1.8783787316        1.9922261611
N            -0.0002889105        1.8734081147        7.2813871382
N            -1.6236202155        4.6823278165        1.9888631823
N            -1.6229013433        4.6827428575        7.2754874730
N            -3.2445503819        7.4826925824        1.9922261611
N            -3.2445503819        7.4926338163        7.2813871382
N             3.2534427591        1.8783787316        1.9922261611
N             3.2448333980        1.8734081147        7.2813871382
N             1.6222722437        4.6840886379        1.9873233894
N             1.6222722437        4.6851923608        7.2809208294
N             0.0008509301        7.4924727336        1.9873233894
N             0.0018067823        7.4919208721        7.2809208294
N             6.4890948693        1.8747944127        1.9888631823
N             6.4890948693        1.8739643306        7.2754874730
N             4.8681647030        4.6823278165        1.9888631823
N             4.8674458308        4.6827428575        7.2754874730
N             3.2436935574        7.4924727336        1.9873233894
N             3.2427377052        7.4919208721        7.2809208294
End final coordinates

     Writing all to output data dir ./GaN.save/

     General routines

     Parallel routines

     PAW routines

   This run was terminated on:  13:38:19  23Mar2024

   JOB DONE.