     Program PWSCF v.7.1 starts on 23Mar2024 at 13:53:30

     Reading input from espresso.pwi
Warning: card &CELL ignored
Warning: card    CELL_DYNAMICS    = 'BFGS' ignored
Warning: card / ignored

     Current dimensions of program PWSCF are:
     Max number of different atomic species (ntypx) = 10
     Max number of k-points (npk) =  40000
     Max angular momentum in pseudopotentials (lmaxx) =  4
     file Ga.pbe-dn-kjpaw_psl.1.0.0.UPF: wavefunction(s)  4S renormalized
     file N.pbe-n-kjpaw_psl.1.0.0.UPF: wavefunction(s)  2S renormalized

     IMPORTANT: XC functional enforced from input :
     Exchange-correlation= BEEF-VDW
                           (   1   4  43  14   2   0   0)
     Any further DFT definition will be discarded
     Please, verify this is what you really want

     K-points division:     npool     =       2
     R & G space division:  proc/nbgrp/npool/nimage =      30
     Subspace diagonalization in iterative solution of the eigenvalue problem:
     a serial algorithm will be used

     Using Slab Decomposition

     bravais-lattice index     =            4
     lattice parameter (alat)  =      18.3939  a.u.
     unit-cell volume          =    5856.2271 (a.u.)^3
     number of atoms/cell      =           71
     number of atomic types    =            2
     number of electrons       =       641.00
     number of Kohn-Sham states=          385
     kinetic-energy cutoff     =      70.0000  Ry
     charge density cutoff     =     350.0000  Ry
     scf convergence threshold =      1.0E-07
     mixing beta               =       0.7000
     number of iterations used =            8  plain     mixing
     Exchange-correlation= BEEF-VDW
                           (   1   4  43  14   2   0   0)

     celldm(1)=  18.393924  celldm(2)=   0.000000  celldm(3)=   1.086586
     celldm(4)=   0.000000  celldm(5)=   0.000000  celldm(6)=   0.000000

     crystal axes: (cart. coord. in units of alat)
               a(1) = (   1.000000   0.000000   0.000000 )
               a(2) = (  -0.500000   0.866025   0.000000 )
               a(3) = (   0.000000   0.000000   1.086586 )

     reciprocal axes: (cart. coord. in units 2 pi/alat)
               b(1) = (  1.000000  0.577350 -0.000000 )
               b(2) = (  0.000000  1.154701  0.000000 )
               b(3) = (  0.000000 -0.000000  0.920314 )

     PseudoPot. # 1 for Ga read from file:
     //group///packages/espresso/pseudo/psl_1.0.0/pslibrary.1.0.0/pbe/PSEUDOPOTENTIALS/Ga.pbe-dn-kjpaw_psl.1.0.0.UPF
     MD5 check sum: cd2a01e492f15b435d17032472d8505c
     Pseudo is Projector augmented-wave + core cor, Zval = 13.0
     Generated using 'atomic' code by A. Dal Corso  v.7.1
     Shape of augmentation charge: PSQ
     Using radial grid of 1205 points,  6 beta functions with:
                l(1) =   0
                l(2) =   0
                l(3) =   1
                l(4) =   1
                l(5) =   2
                l(6) =   2
     Q(r) pseudized with 0 coefficients

     PseudoPot. # 2 for N  read from file:
     //group///packages/espresso/pseudo/psl_1.0.0/pslibrary.1.0.0/pbe/PSEUDOPOTENTIALS/N.pbe-n-kjpaw_psl.1.0.0.UPF
     MD5 check sum: f77f775694dac7e2c3fe1c82443d1a16
     Pseudo is Projector augmented-wave + core cor, Zval =  5.0
     Generated using 'atomic' code by A. Dal Corso  v.7.1
     Shape of augmentation charge: PSQ
     Using radial grid of 1085 points,  4 beta functions with:
                l(1) =   0
                l(2) =   0
                l(3) =   1
                l(4) =   1
     Q(r) pseudized with 0 coefficients

     atomic species   valence    mass     pseudopotential
        Ga            13.00    69.72300     Ga( 1.00)
        N              5.00    14.00700     N ( 1.00)

      6 Sym. Ops. (no inversion) found ( 4 have fractional translation)

                                    s                        frac. trans.

      isym =  1     identity

 cryst.   s( 1) = (     1          0          0      )
                  (     0          1          0      )
                  (     0          0          1      )

 cart.    s( 1) = (  1.0000000  0.0000000  0.0000000 )
                  (  0.0000000  1.0000000  0.0000000 )
                  (  0.0000000  0.0000000  1.0000000 )

      isym =  2     120 deg rotation - cryst. axis [0,0,1]

 cryst.   s( 2) = (     0          1          0      )    f =( -0.3333334 )
                  (    -1         -1          0      )       (  0.0000003 )
                  (     0          0          1      )       (  0.0000000 )

 cart.    s( 2) = ( -0.5000000 -0.8660254  0.0000000 )    f =( -0.3333335 )
                  (  0.8660254 -0.5000000  0.0000000 )       (  0.0000002 )
                  (  0.0000000  0.0000000  1.0000000 )       (  0.0000000 )

      isym =  3     120 deg rotation - cryst. axis [0,0,-1]

[...]

      isym =  4     inv. 180 deg rotation - cart. axis [1,0,0]

[...]

      isym =  5     inv. 180 deg rotation - cryst. axis [0,1,0]

 cryst.   s( 5) = (     1          1          0      )
                  (     0         -1          0      )
                  (     0          0          1      )

 cart.    s( 5) = (  0.5000000  0.8660254  0.0000000 )
                  (  0.8660254 -0.5000000  0.0000000 )
                  (  0.0000000  0.0000000  1.0000000 )

      isym =  6     inv. 180 deg rotation - cryst. axis [1,1,0]

 cryst.   s( 6) = (     0         -1          0      )    f =( -0.3333334 )
                  (    -1          0          0      )       ( -0.3333334 )
                  (     0          0          1      )       (  0.0000000 )

 cart.    s( 6) = (  0.5000000 -0.8660254  0.0000000 )    f =( -0.1666667 )
                  ( -0.8660254 -0.5000000  0.0000000 )       ( -0.2886752 )
                  (  0.0000000  0.0000000  1.0000000 )       (  0.0000000 )

     point group C_3v (3m)
     there are  3 classes
     the character table:

       E     2C3   3s_v
A_1    1.00  1.00  1.00
A_2    1.00  1.00 -1.00
E      2.00 -1.00  0.00

     the symmetry operations in each class and the name of the first element:

     E        1
          identity
     2C3      2    3
          120 deg rotation - cryst. axis [0,0,1]
     3s_v     4    5    6
          inv. 180 deg rotation - cart. axis [1,0,0]

   Cartesian axes

     site n.     atom                  positions (alat units)
         1           Ga  tau(   1) = (   0.1666668   0.0962250   0.2711914  )
         2           Ga  tau(   2) = (   0.1666668   0.0962250   0.8144844  )
         3           Ga  tau(   3) = (   0.0000001   0.3849001   0.2711914  )
         4           Ga  tau(   4) = (   0.0000001   0.3849001   0.8144844  )
         5           Ga  tau(   5) = (  -0.1666665   0.6735752   0.2711914  )
         6           Ga  tau(   6) = (  -0.1666665   0.6735752   0.8144844  )
         7           Ga  tau(   7) = (   0.5000001   0.0962250   0.2711914  )
         8           Ga  tau(   8) = (   0.5000001   0.0962250   0.8144844  )
         9           Ga  tau(   9) = (   0.3333335   0.3849001   0.2711914  )
        10           Ga  tau(  10) = (   0.3333335   0.3849001   0.8144844  )
        11           Ga  tau(  11) = (   0.1666668   0.6735752   0.2711914  )
        12           Ga  tau(  12) = (   0.1666668   0.6735752   0.8144844  )
        13           Ga  tau(  13) = (   0.8333335   0.0962250   0.2711914  )
        14           Ga  tau(  14) = (   0.8333335   0.0962250   0.8144844  )
        15           Ga  tau(  15) = (   0.6666668   0.3849001   0.2711914  )
        16           Ga  tau(  16) = (   0.6666668   0.3849001   0.8144844  )
        17           Ga  tau(  17) = (   0.5000001   0.6735752   0.2711914  )
        18           Ga  tau(  18) = (   0.5000001   0.6735752   0.8144844  )
        19           Ga  tau(  19) = (  -0.0000002   0.1924502   0.5428379  )
        20           Ga  tau(  20) = (  -0.0000002   0.1924502   1.0861309  )
        21           Ga  tau(  21) = (  -0.1666669   0.4811254   0.5428379  )
        22           Ga  tau(  22) = (  -0.1666669   0.4811254   1.0861309  )
        23           Ga  tau(  23) = (  -0.3333335   0.7698005   0.5428379  )
        24           Ga  tau(  24) = (  -0.3333335   0.7698005   1.0861309  )
        25           Ga  tau(  25) = (   0.3333331   0.1924502   0.5428379  )
        26           Ga  tau(  26) = (   0.3333331   0.1924502   1.0861309  )
        27           Ga  tau(  27) = (   0.1666665   0.4811254   0.5428379  )
        28           Ga  tau(  28) = (   0.1666665   0.4811254   1.0861309  )
        29           Ga  tau(  29) = (  -0.0000002   0.7698005   0.5428379  )
        30           Ga  tau(  30) = (  -0.0000002   0.7698005   1.0861309  )
        31           Ga  tau(  31) = (   0.6666665   0.1924502   0.5428379  )
        32           Ga  tau(  32) = (   0.6666665   0.1924502   1.0861309  )
        33           Ga  tau(  33) = (   0.4999998   0.4811254   0.5428379  )
        34           Ga  tau(  34) = (   0.4999998   0.4811254   1.0861309  )
        35           Ga  tau(  35) = (   0.3333331   0.7698005   0.5428379  )
        36           Ga  tau(  36) = (   0.3333331   0.7698005   1.0861309  )
        37           N   tau(  37) = (   0.1666668   0.0962250   1.0191295  )
        38           N   tau(  38) = (   0.0000001   0.3849001   0.4758365  )
        39           N   tau(  39) = (   0.0000001   0.3849001   1.0191295  )
        40           N   tau(  40) = (  -0.1666665   0.6735752   0.4758365  )
        41           N   tau(  41) = (  -0.1666665   0.6735752   1.0191295  )
        42           N   tau(  42) = (   0.5000001   0.0962250   0.4758365  )
        43           N   tau(  43) = (   0.5000001   0.0962250   1.0191295  )
        44           N   tau(  44) = (   0.3333335   0.3849001   0.4758365  )
        45           N   tau(  45) = (   0.3333335   0.3849001   1.0191295  )
        46           N   tau(  46) = (   0.1666668   0.6735752   0.4758365  )
        47           N   tau(  47) = (   0.1666668   0.6735752   1.0191295  )
        48           N   tau(  48) = (   0.8333335   0.0962250   0.4758365  )
        49           N   tau(  49) = (   0.8333335   0.0962250   1.0191295  )
        50           N   tau(  50) = (   0.6666668   0.3849001   0.4758365  )
        51           N   tau(  51) = (   0.6666668   0.3849001   1.0191295  )
        52           N   tau(  52) = (   0.5000001   0.6735752   0.4758365  )
        53           N   tau(  53) = (   0.5000001   0.6735752   1.0191295  )
        54           N   tau(  54) = (  -0.0000002   0.1924502   0.2041900  )
        55           N   tau(  55) = (  -0.0000002   0.1924502   0.7474830  )
        56           N   tau(  56) = (  -0.1666669   0.4811254   0.2041900  )
        57           N   tau(  57) = (  -0.1666669   0.4811254   0.7474830  )
        58           N   tau(  58) = (  -0.3333335   0.7698005   0.2041900  )
        59           N   tau(  59) = (  -0.3333335   0.7698005   0.7474830  )
        60           N   tau(  60) = (   0.3333331   0.1924502   0.2041900  )
        61           N   tau(  61) = (   0.3333331   0.1924502   0.7474830  )
        62           N   tau(  62) = (   0.1666665   0.4811254   0.2041900  )
[...]
     atom   17 type  1   force =     0.00000000    0.00000000    0.00000000
     atom   18 type  1   force =     0.00000000    0.00000000    0.00000000
     atom   19 type  1   force =     0.00000000    0.00000000    0.00000000
     atom   20 type  1   force =     0.00000000    0.00000000    0.00000000
     atom   21 type  1   force =     0.00000000    0.00000000    0.00000000
     atom   22 type  1   force =     0.00000000    0.00000000    0.00000000
     atom   23 type  1   force =     0.00000000    0.00000000    0.00000000
     atom   24 type  1   force =     0.00000000    0.00000000    0.00000000
     atom   25 type  1   force =     0.00000000    0.00000000    0.00000000
     atom   26 type  1   force =     0.00000000    0.00000000    0.00000000
     atom   27 type  1   force =     0.00000000    0.00000000    0.00000000
     atom   28 type  1   force =     0.00000000    0.00000000    0.00000000
     atom   29 type  1   force =     0.00000000    0.00000000    0.00000000
     atom   30 type  1   force =     0.00000000    0.00000000    0.00000000
     atom   31 type  1   force =     0.00000000    0.00000000    0.00000000
     atom   32 type  1   force =     0.00000000    0.00000000    0.00000000
     atom   33 type  1   force =     0.00000000    0.00000000    0.00000000
     atom   34 type  1   force =     0.00000000    0.00000000    0.00000000
     atom   35 type  1   force =     0.00000000    0.00000000    0.00000000
     atom   36 type  1   force =     0.00000000    0.00000000    0.00000000
     atom   37 type  2   force =     0.00000000    0.00000000    0.00000000
     atom   38 type  2   force =     0.00000000    0.00000000    0.00000000
     atom   39 type  2   force =     0.00000000    0.00000000    0.00000000
     atom   40 type  2   force =     0.00000000    0.00000000    0.00000000
     atom   41 type  2   force =     0.00000000    0.00000000    0.00000000
     atom   42 type  2   force =     0.00000000    0.00000000    0.00000000
     atom   43 type  2   force =     0.00000000    0.00000000    0.00000000
     atom   44 type  2   force =     0.00000000    0.00000000    0.00000000
     atom   45 type  2   force =     0.00000000    0.00000000    0.00000000
     atom   46 type  2   force =     0.00000000    0.00000000    0.00000000
     atom   47 type  2   force =     0.00000000    0.00000000    0.00000000
     atom   48 type  2   force =     0.00000000    0.00000000    0.00000000
     atom   49 type  2   force =     0.00000000    0.00000000    0.00000000
     atom   50 type  2   force =     0.00000000    0.00000000    0.00000000
     atom   51 type  2   force =     0.00000000    0.00000000    0.00000000
     atom   52 type  2   force =     0.00000000    0.00000000    0.00000000
     atom   53 type  2   force =     0.00000000    0.00000000    0.00000000
     atom   54 type  2   force =     0.00000000    0.00000000    0.00000000
     atom   55 type  2   force =     0.00000000    0.00000000    0.00000000
     atom   56 type  2   force =     0.00000000    0.00000000    0.00000000
     atom   57 type  2   force =     0.00000000    0.00000000    0.00000000
     atom   58 type  2   force =     0.00000000    0.00000000    0.00000000
     atom   59 type  2   force =     0.00000000    0.00000000    0.00000000
     atom   60 type  2   force =     0.00000000    0.00000000    0.00000000
     atom   61 type  2   force =     0.00000000    0.00000000    0.00000000
     atom   62 type  2   force =     0.00000000    0.00000000    0.00000000
     atom   63 type  2   force =     0.00000000    0.00000000    0.00000000
     atom   64 type  2   force =     0.00000000    0.00000000    0.00000000
     atom   65 type  2   force =     0.00000000    0.00000000    0.00000000
     atom   66 type  2   force =     0.00000000    0.00000000    0.00000000
     atom   67 type  2   force =     0.00000000    0.00000000    0.00000000
     atom   68 type  2   force =     0.00000000    0.00000000    0.00000000
     atom   69 type  2   force =     0.00000000    0.00000000    0.00000000
     atom   70 type  2   force =     0.00000000    0.00000000    0.00000000
     atom   71 type  2   force =     0.00000000    0.00000000    0.00000000
     The SCF correction term to forces
     atom    1 type  1   force =    -0.00000000    0.00000000    0.00003488
     atom    2 type  1   force =    -0.00000000    0.00000000   -0.00001490
     atom    3 type  1   force =     0.00001755   -0.00003218    0.00000834
     atom    4 type  1   force =     0.00001058   -0.00001205    0.00000025
     atom    5 type  1   force =    -0.00001909    0.00003129    0.00000834
     atom    6 type  1   force =    -0.00000515    0.00001518    0.00000025
     atom    7 type  1   force =    -0.00003664    0.00000089    0.00000834
     atom    8 type  1   force =    -0.00001572   -0.00000313    0.00000025
     atom    9 type  1   force =    -0.00001755   -0.00003218    0.00000834
     atom   10 type  1   force =    -0.00001057   -0.00001205    0.00000025
     atom   11 type  1   force =     0.00000000   -0.00000000   -0.00000045
     atom   12 type  1   force =     0.00000000   -0.00000000    0.00001190
     atom   13 type  1   force =     0.00003664    0.00000089    0.00000834
     atom   14 type  1   force =     0.00001572   -0.00000313    0.00000025
     atom   15 type  1   force =    -0.00000000    0.00000000   -0.00000083
     atom   16 type  1   force =     0.00000000   -0.00000000    0.00000884
     atom   17 type  1   force =     0.00001909    0.00003129    0.00000834
     atom   18 type  1   force =     0.00000515    0.00001518    0.00000025
     atom   19 type  1   force =     0.00005152   -0.00002974   -0.00006835
     atom   20 type  1   force =     0.00001877   -0.00001084    0.00005536
     atom   21 type  1   force =    -0.00000765   -0.00000442   -0.00004351
     atom   22 type  1   force =    -0.00000822   -0.00000475    0.00004405
     atom   23 type  1   force =     0.00000000    0.00005949   -0.00006835
     atom   24 type  1   force =     0.00000000    0.00002168    0.00005536
     atom   25 type  1   force =    -0.00005152   -0.00002974   -0.00006835
     atom   26 type  1   force =    -0.00001877   -0.00001084    0.00005536
     atom   27 type  1   force =     0.00000000   -0.00003921   -0.00004968
     atom   28 type  1   force =     0.00000000   -0.00001412    0.00003908
     atom   29 type  1   force =    -0.00003396    0.00001960   -0.00004968
     atom   30 type  1   force =    -0.00001223    0.00000706    0.00003908
     atom   31 type  1   force =    -0.00000000    0.00000883   -0.00004351
     atom   32 type  1   force =    -0.00000000    0.00000950    0.00004405
     atom   33 type  1   force =     0.00000765   -0.00000442   -0.00004351
     atom   34 type  1   force =     0.00000822   -0.00000475    0.00004405
     atom   35 type  1   force =     0.00003396    0.00001960   -0.00004968
     atom   36 type  1   force =     0.00001223    0.00000706    0.00003908
     atom   37 type  2   force =    -0.00000000    0.00000000    0.00002052
     atom   38 type  2   force =     0.00001415   -0.00001872   -0.00002307
     atom   39 type  2   force =     0.00000415   -0.00000855    0.00002157
     atom   40 type  2   force =    -0.00000913    0.00002162   -0.00002307
     atom   41 type  2   force =    -0.00000533    0.00000787    0.00002157
     atom   42 type  2   force =    -0.00002329   -0.00000290   -0.00002307
     atom   43 type  2   force =    -0.00000948    0.00000068    0.00002157
     atom   44 type  2   force =    -0.00001415   -0.00001872   -0.00002307
     atom   45 type  2   force =    -0.00000415   -0.00000855    0.00002157
     atom   46 type  2   force =     0.00000000   -0.00000000   -0.00002267
     atom   47 type  2   force =    -0.00000000    0.00000000    0.00002073
     atom   48 type  2   force =     0.00002329   -0.00000290   -0.00002307
     atom   49 type  2   force =     0.00000948    0.00000068    0.00002157
     atom   50 type  2   force =    -0.00000000    0.00000000   -0.00002616
     atom   51 type  2   force =    -0.00000000    0.00000000    0.00002085
     atom   52 type  2   force =     0.00000913    0.00002162   -0.00002307
     atom   53 type  2   force =     0.00000533    0.00000787    0.00002157
     atom   54 type  2   force =     0.00001324   -0.00000764    0.00001445
     atom   55 type  2   force =     0.00001668   -0.00000963   -0.00001248
     atom   56 type  2   force =    -0.00000214   -0.00000124    0.00000500
     atom   57 type  2   force =     0.00000009    0.00000005   -0.00000230
     atom   58 type  2   force =     0.00000000    0.00001528    0.00001445
     atom   59 type  2   force =    -0.00000000    0.00001926   -0.00001248
     atom   60 type  2   force =    -0.00001324   -0.00000764    0.00001445
     atom   61 type  2   force =    -0.00001668   -0.00000963   -0.00001248
     atom   62 type  2   force =    -0.00000000   -0.00001441    0.00000710
     atom   63 type  2   force =    -0.00000000   -0.00001022   -0.00000605
     atom   64 type  2   force =    -0.00001248    0.00000720    0.00000710
     atom   65 type  2   force =    -0.00000885    0.00000511   -0.00000605
     atom   66 type  2   force =    -0.00000000    0.00000248    0.00000500
     atom   67 type  2   force =    -0.00000000   -0.00000010   -0.00000230
     atom   68 type  2   force =     0.00000214   -0.00000124    0.00000500
     atom   69 type  2   force =    -0.00000009    0.00000005   -0.00000230
     atom   70 type  2   force =     0.00001248    0.00000720    0.00000710
     atom   71 type  2   force =     0.00000885    0.00000511   -0.00000605

     Total force =     0.002254     Total SCF correction =     0.000304
     SCF correction compared to forces is large: reduce conv_thr to get better values

     Computing stress (Cartesian axis) and pressure

[...]

          total   stress  (Ry/bohr**3)                   (kbar)     P=      -43.05
  -0.00029690   0.00000000  -0.00000000          -43.68        0.00       -0.00
   0.00000000  -0.00029690  -0.00000000            0.00      -43.68       -0.00
   0.00000000  -0.00000000  -0.00028413            0.00       -0.00      -41.80

     kinetic stress (kbar)  18144.34      0.00      0.00
                                0.00  18144.34      0.00
                                0.00      0.00  18139.04

     local   stress (kbar)   4865.61     -0.07      0.00
                               -0.07   4865.52      0.01
                                0.00      0.01   3466.70

     nonloc. stress (kbar)    134.97     -0.00      0.00
                                0.00    134.97      0.00
                                0.00      0.00    145.39

     hartree stress (kbar)  19832.17     -0.00     -0.00
                               -0.00  19832.17      0.00
                               -0.00      0.00  20465.82

     exc-cor stress (kbar)   5260.35      0.00     -0.00
                                0.00   5260.35      0.00
                               -0.00      0.00   5260.50

     corecor stress (kbar) -14092.23     -0.00     -0.00
                               -0.00 -14092.23     -0.00
                               -0.00     -0.00 -14091.71

     ewald   stress (kbar) -34350.53      0.09     -0.00
                                0.09 -34350.41      0.00
                               -0.00      0.00 -33588.34

     hubbard stress (kbar)      0.00      0.00      0.00
                                0.00      0.00      0.00
                                0.00      0.00      0.00

     DFT-D   stress (kbar)      0.00      0.00      0.00
                                0.00      0.00      0.00
                                0.00      0.00      0.00

     XDM     stress (kbar)      0.00      0.00      0.00
                                0.00      0.00      0.00
                                0.00      0.00      0.00

     dft-nl  stress (kbar)    161.62     -0.00     -0.00
                               -0.00    161.62     -0.00
                               -0.00     -0.00    160.81

     TS-vdW  stress (kbar)      0.00      0.00      0.00
                                0.00      0.00      0.00
                                0.00      0.00      0.00

     MDB     stress (kbar)      0.00      0.00      0.00
                                0.00      0.00      0.00
                                0.00      0.00      0.00

     3D-RISM stress (kbar)      0.00      0.00      0.00
                                0.00      0.00      0.00
                                0.00      0.00      0.00

[...]

     Non-local corr. energy    =      19.55961686 Ry

 BEEFens 2000 ensemble energies
             -0.157552406333836E+02
             -0.142230268985532E+03
             -0.613003022729756E+02
              0.500323165728709E+02
             -0.102380352305726E+03
             -0.131624523096218E+03
              0.675873739780045E+02
             -0.713083602859240E+01
              0.112698713680920E+03
             -0.489657259920784E+01
              0.554585824035497E+02
              0.227220903698955E+01
              0.221609057096157E+01
             -0.485371124072446E+01
              0.737579212170570E+02
             -0.537123386018502E+02
             -0.110563357035833E+03
             -0.361975852547505E+02
              0.270040664935379E+02
             -0.246738401788275E+01
              0.161697248652410E+03
              0.137484566260910E+03
             -0.787858753422031E+02
              0.284445007242467E+02
             -0.172604484589694E+03
              0.138394696137043E+03
              0.451954483253182E+02
              0.134447205515153E+03
              0.883195277093437E+02
             -0.429038164845614E+02
              0.325726523640158E+02
             -0.634644657332208E+02
              0.178905141994475E+02
              0.865912287738036E+02
              0.917538761389829E+02
             -0.331957206370570E+02
              0.203706458812490E+03
             -0.773988119790912E+02
             -0.556777613895853E+02
              0.816934046919130E+02
              0.365264723429389E+02
              0.611188473871276E+02
             -0.116519696007469E+03
             -0.323078607723210E+01
              0.114325919964447E+03
              0.148612031807232E+03
             -0.147977275048020E+03
              0.105093928311032E+02
              0.557330071656330E+02
              0.272752306423334E+02
              0.618471955320159E+02
              0.130941725190127E+03
             -0.791254908018256E+02
             -0.867986590424471E+02
             -0.112840623755676E+03
             -0.173677196240341E+02
             -0.102969767790396E+03
              0.101062212585730E+02
             -0.189789584310937E+02
             -0.801380613803456E+02
[...]
              0.100033631843828E+03
              0.553725323721044E+02
              0.701539429716349E+02
             -0.113547424935325E+03
             -0.108879734446597E+03
             -0.274478687962203E+02
             -0.106619652465881E+03
              0.170568511100498E+03
              0.146191599841709E+03
              0.699081585394385E+02
              0.189297441089378E+03
             -0.985126228502640E+02
             -0.400750868776405E+02
             -0.558749173640816E+02
              0.156667394110152E+03

 BEEF-vdW xc energy contributions
            1 :    -1434.325053934698
            2 :     1291.781728609668
            3 :    -1053.190450569867
            4 :     788.6760530014727
            5 :    -559.7219229653078
            6 :     395.7103286206923
            7 :    -290.7917374606438
            8 :     219.3826733193755
            9 :    -157.8182777458233
           10 :     98.05787499676467
           11 :    -46.89949162641551
           12 :     14.78449981201265
           13 :    -4.443877467118909
           14 :     7.772468719230119
           15 :    -11.86805695778048
           16 :     8.223938572432644
           17 :     2.428396663150579
           18 :    -12.80352508996066
           19 :     16.28014780172953
           20 :    -12.52644339604672
           21 :     7.343431380374113
           22 :    -7.498640902953412
           23 :     15.16087342585070
           24 :    -26.40147664991650
           25 :     34.60314779644386
           26 :    -35.67555545681444
           27 :     30.83430946363978
           28 :    -24.99955271510885
           29 :     22.49680609031975
           30 :    -23.71894812253595
           31 :    -122.6130589457398
           32 :    -83.96282397171058

     Writing all to output data dir ./GaN.save/

     General routines

     Parallel routines

     PAW routines

   This run was terminated on:  13:55:20  23Mar2024

   JOB DONE.