     Program PWSCF v.7.1 starts on 12Apr2024 at  8: 3:58

     Reading input from espresso.pwi
Warning: card &CELL ignored
Warning: card    CELL_DYNAMICS    = 'BFGS' ignored
Warning: card / ignored

     Current dimensions of program PWSCF are:
     Max number of different atomic species (ntypx) = 10
     Max number of k-points (npk) =  40000
     Max angular momentum in pseudopotentials (lmaxx) =  4
     file Ga.pbe-dn-kjpaw_psl.1.0.0.UPF: wavefunction(s)  4S renormalized
     file N.pbe-n-kjpaw_psl.1.0.0.UPF: wavefunction(s)  2S renormalized

     IMPORTANT: XC functional enforced from input :
     Exchange-correlation= BEEF-VDW
                           (   1   4  43  14   2   0   0)
     Any further DFT definition will be discarded
     Please, verify this is what you really want

     K-points division:     npool     =       2
     R & G space division:  proc/nbgrp/npool/nimage =      64
     Subspace diagonalization in iterative solution of the eigenvalue problem:
     a serial algorithm will be used

     Using Slab Decomposition

     bravais-lattice index     =            4
     lattice parameter (alat)  =      24.5252  a.u.
     unit-cell volume          =   15616.6055 (a.u.)^3
     number of atoms/cell      =          191
     number of atomic types    =            2
     number of electrons       =      1718.00
     number of Kohn-Sham states=         1031
     kinetic-energy cutoff     =      70.0000  Ry
     charge density cutoff     =     350.0000  Ry
     scf convergence threshold =      1.0E-07
     mixing beta               =       0.7000
     number of iterations used =            8  plain     mixing
     Exchange-correlation= BEEF-VDW
                           (   1   4  43  14   2   0   0)

     celldm(1)=  24.525232  celldm(2)=   0.000000  celldm(3)=   1.222409
     celldm(4)=   0.000000  celldm(5)=   0.000000  celldm(6)=   0.000000

     crystal axes: (cart. coord. in units of alat)
               a(1) = (   1.000000   0.000000   0.000000 )
               a(2) = (  -0.500000   0.866025   0.000000 )
               a(3) = (   0.000000   0.000000   1.222409 )

     reciprocal axes: (cart. coord. in units 2 pi/alat)
               b(1) = (  1.000000  0.577350 -0.000000 )
               b(2) = (  0.000000  1.154701  0.000000 )
               b(3) = (  0.000000 -0.000000  0.818057 )

     PseudoPot. # 1 for Ga read from file:
     //group///packages/espresso/pseudo/psl_1.0.0/pslibrary.1.0.0/pbe/PSEUDOPOTENTIALS/Ga.pbe-dn-kjpaw_psl.1.0.0.UPF
     MD5 check sum: cd2a01e492f15b435d17032472d8505c
     Pseudo is Projector augmented-wave + core cor, Zval = 13.0
     Generated using 'atomic' code by A. Dal Corso  v.7.1
     Shape of augmentation charge: PSQ
     Using radial grid of 1205 points,  6 beta functions with:
                l(1) =   0
                l(2) =   0
                l(3) =   1
                l(4) =   1
                l(5) =   2
                l(6) =   2
     Q(r) pseudized with 0 coefficients

     PseudoPot. # 2 for N  read from file:
     //group///packages/espresso/pseudo/psl_1.0.0/pslibrary.1.0.0/pbe/PSEUDOPOTENTIALS/N.pbe-n-kjpaw_psl.1.0.0.UPF
     MD5 check sum: f77f775694dac7e2c3fe1c82443d1a16
     Pseudo is Projector augmented-wave + core cor, Zval =  5.0
     Generated using 'atomic' code by A. Dal Corso  v.7.1
     Shape of augmentation charge: PSQ
     Using radial grid of 1085 points,  4 beta functions with:
                l(1) =   0
                l(2) =   0
                l(3) =   1
                l(4) =   1
     Q(r) pseudized with 0 coefficients

     atomic species   valence    mass     pseudopotential
        Ga            13.00    69.72300     Ga( 1.00)
        N              5.00    14.00700     N ( 1.00)

      6 Sym. Ops. (no inversion) found ( 4 have fractional translation)

                                    s                        frac. trans.

      isym =  1     identity

 cryst.   s( 1) = (     1          0          0      )
                  (     0          1          0      )
                  (     0          0          1      )

 cart.    s( 1) = (  1.0000000  0.0000000  0.0000000 )
                  (  0.0000000  1.0000000  0.0000000 )
                  (  0.0000000  0.0000000  1.0000000 )

      isym =  2     120 deg rotation - cryst. axis [0,0,1]

 cryst.   s( 2) = (     0          1          0      )    f =( -0.2500000 )
                  (    -1         -1          0      )       (  0.0000002 )
                  (     0          0          1      )       (  0.0000000 )

 cart.    s( 2) = ( -0.5000000 -0.8660254  0.0000000 )    f =( -0.2500001 )
                  (  0.8660254 -0.5000000  0.0000000 )       (  0.0000002 )
                  (  0.0000000  0.0000000  1.0000000 )       (  0.0000000 )

      isym =  3     120 deg rotation - cryst. axis [0,0,-1]

[...]

      isym =  4     inv. 180 deg rotation - cart. axis [1,0,0]

[...]

      isym =  5     inv. 180 deg rotation - cryst. axis [0,1,0]

 cryst.   s( 5) = (     1          1          0      )
                  (     0         -1          0      )
                  (     0          0          1      )

 cart.    s( 5) = (  0.5000000  0.8660254  0.0000000 )
                  (  0.8660254 -0.5000000  0.0000000 )
                  (  0.0000000  0.0000000  1.0000000 )

      isym =  6     inv. 180 deg rotation - cryst. axis [1,1,0]

 cryst.   s( 6) = (     0         -1          0      )    f =( -0.2500000 )
                  (    -1          0          0      )       ( -0.2500000 )
                  (     0          0          1      )       (  0.0000000 )

 cart.    s( 6) = (  0.5000000 -0.8660254  0.0000000 )    f =( -0.1250000 )
                  ( -0.8660254 -0.5000000  0.0000000 )       ( -0.2165064 )
                  (  0.0000000  0.0000000  1.0000000 )       (  0.0000000 )

     point group C_3v (3m)
     there are  3 classes
     the character table:

       E     2C3   3s_v
A_1    1.00  1.00  1.00
A_2    1.00  1.00 -1.00
E      2.00 -1.00  0.00

     the symmetry operations in each class and the name of the first element:

     E        1
          identity
     2C3      2    3
          120 deg rotation - cryst. axis [0,0,1]
     3s_v     4    5    6
          inv. 180 deg rotation - cart. axis [1,0,0]

   Cartesian axes

     site n.     atom                  positions (alat units)
         1           Ga  tau(   1) = (   0.1250001   0.0721687   0.6108633  )
         2           Ga  tau(   2) = (   0.1250001   0.0721687   1.0183331  )
         3           Ga  tau(   3) = (   0.0000001   0.2886751   0.2033935  )
         4           Ga  tau(   4) = (   0.0000001   0.2886751   0.6108633  )
         5           Ga  tau(   5) = (   0.0000001   0.2886751   1.0183331  )
         6           Ga  tau(   6) = (  -0.1249999   0.5051814   0.2033935  )
         7           Ga  tau(   7) = (  -0.1249999   0.5051814   0.6108633  )
         8           Ga  tau(   8) = (  -0.1249999   0.5051814   1.0183331  )
         9           Ga  tau(   9) = (  -0.2499999   0.7216878   0.2033935  )
        10           Ga  tau(  10) = (  -0.2499999   0.7216878   0.6108633  )
        11           Ga  tau(  11) = (  -0.2499999   0.7216878   1.0183331  )
        12           Ga  tau(  12) = (   0.3750001   0.0721687   0.2033935  )
        13           Ga  tau(  13) = (   0.3750001   0.0721687   0.6108633  )
        14           Ga  tau(  14) = (   0.3750001   0.0721687   1.0183331  )
        15           Ga  tau(  15) = (   0.2500001   0.2886751   0.2033935  )
        16           Ga  tau(  16) = (   0.2500001   0.2886751   0.6108633  )
        17           Ga  tau(  17) = (   0.2500001   0.2886751   1.0183331  )
        18           Ga  tau(  18) = (   0.1250001   0.5051814   0.2033935  )
        19           Ga  tau(  19) = (   0.1250001   0.5051814   0.6108633  )
        20           Ga  tau(  20) = (   0.1250001   0.5051814   1.0183331  )
        21           Ga  tau(  21) = (   0.0000001   0.7216878   0.2033935  )
        22           Ga  tau(  22) = (   0.0000001   0.7216878   0.6108633  )
        23           Ga  tau(  23) = (   0.0000001   0.7216878   1.0183331  )
        24           Ga  tau(  24) = (   0.6250001   0.0721687   0.2033935  )
        25           Ga  tau(  25) = (   0.6250001   0.0721687   0.6108633  )
        26           Ga  tau(  26) = (   0.6250001   0.0721687   1.0183331  )
        27           Ga  tau(  27) = (   0.5000001   0.2886751   0.2033935  )
        28           Ga  tau(  28) = (   0.5000001   0.2886751   0.6108633  )
        29           Ga  tau(  29) = (   0.5000001   0.2886751   1.0183331  )
        30           Ga  tau(  30) = (   0.3750001   0.5051814   0.2033935  )
        31           Ga  tau(  31) = (   0.3750001   0.5051814   0.6108633  )
        32           Ga  tau(  32) = (   0.3750001   0.5051814   1.0183331  )
        33           Ga  tau(  33) = (   0.2500001   0.7216878   0.2033935  )
        34           Ga  tau(  34) = (   0.2500001   0.7216878   0.6108633  )
        35           Ga  tau(  35) = (   0.2500001   0.7216878   1.0183331  )
        36           Ga  tau(  36) = (   0.8750001   0.0721687   0.2033935  )
        37           Ga  tau(  37) = (   0.8750001   0.0721687   0.6108633  )
        38           Ga  tau(  38) = (   0.8750001   0.0721687   1.0183331  )
        39           Ga  tau(  39) = (   0.7500001   0.2886751   0.2033935  )
        40           Ga  tau(  40) = (   0.7500001   0.2886751   0.6108633  )
        41           Ga  tau(  41) = (   0.7500001   0.2886751   1.0183331  )
        42           Ga  tau(  42) = (   0.6250001   0.5051814   0.2033935  )
        43           Ga  tau(  43) = (   0.6250001   0.5051814   0.6108633  )
        44           Ga  tau(  44) = (   0.6250001   0.5051814   1.0183331  )
        45           Ga  tau(  45) = (   0.5000001   0.7216878   0.2033935  )
        46           Ga  tau(  46) = (   0.5000001   0.7216878   0.6108633  )
        47           Ga  tau(  47) = (   0.5000001   0.7216878   1.0183331  )
        48           Ga  tau(  48) = (  -0.0000002   0.1443377   0.4071284  )
        49           Ga  tau(  49) = (  -0.0000002   0.1443377   0.8145982  )
        50           Ga  tau(  50) = (  -0.0000002   0.1443377   1.2220680  )
        51           Ga  tau(  51) = (  -0.1250002   0.3608440   0.4071284  )
        52           Ga  tau(  52) = (  -0.1250002   0.3608440   0.8145982  )
        53           Ga  tau(  53) = (  -0.1250002   0.3608440   1.2220680  )
        54           Ga  tau(  54) = (  -0.2500002   0.5773504   0.4071284  )
        55           Ga  tau(  55) = (  -0.2500002   0.5773504   0.8145982  )
        56           Ga  tau(  56) = (  -0.2500002   0.5773504   1.2220680  )
        57           Ga  tau(  57) = (  -0.3750001   0.7938567   0.4071284  )
        58           Ga  tau(  58) = (  -0.3750001   0.7938567   0.8145982  )
        59           Ga  tau(  59) = (  -0.3750001   0.7938567   1.2220680  )
        60           Ga  tau(  60) = (   0.2499998   0.1443377   0.4071284  )
[...]
       177           N   tau( 177) = (   0.1249998   0.7938567   0.1531425  )
       178           N   tau( 178) = (   0.1249998   0.7938567   0.5606123  )
[...]
     atom   26 type  1   force =     0.00000000    0.00000000    0.00000000
     atom   27 type  1   force =     0.00000000    0.00000000    0.00000000
     atom   28 type  1   force =     0.00000000    0.00000000    0.00000000
     atom   29 type  1   force =     0.00000000    0.00000000    0.00000000
     atom   30 type  1   force =     0.00000000    0.00000000    0.00000000
     atom   31 type  1   force =     0.00000000    0.00000000    0.00000000
     atom   32 type  1   force =     0.00000000    0.00000000    0.00000000
     atom   33 type  1   force =     0.00000000    0.00000000    0.00000000
     atom   34 type  1   force =     0.00000000    0.00000000    0.00000000
     atom   35 type  1   force =     0.00000000    0.00000000    0.00000000
     atom   36 type  1   force =     0.00000000    0.00000000    0.00000000
     atom   37 type  1   force =     0.00000000    0.00000000    0.00000000
     atom   38 type  1   force =     0.00000000    0.00000000    0.00000000
     atom   39 type  1   force =     0.00000000    0.00000000    0.00000000
     atom   40 type  1   force =     0.00000000    0.00000000    0.00000000
     atom   41 type  1   force =     0.00000000    0.00000000    0.00000000
     atom   42 type  1   force =     0.00000000    0.00000000    0.00000000
     atom   43 type  1   force =     0.00000000    0.00000000    0.00000000
     atom   44 type  1   force =     0.00000000    0.00000000    0.00000000
     atom   45 type  1   force =     0.00000000    0.00000000    0.00000000
     atom   46 type  1   force =     0.00000000    0.00000000    0.00000000
     atom   47 type  1   force =     0.00000000    0.00000000    0.00000000
     atom   48 type  1   force =     0.00000000    0.00000000    0.00000000
     atom   49 type  1   force =     0.00000000    0.00000000    0.00000000
     atom   50 type  1   force =     0.00000000    0.00000000    0.00000000
     atom   51 type  1   force =     0.00000000    0.00000000    0.00000000
     atom   52 type  1   force =     0.00000000    0.00000000    0.00000000
     atom   53 type  1   force =     0.00000000    0.00000000    0.00000000
     atom   54 type  1   force =     0.00000000    0.00000000    0.00000000
     atom   55 type  1   force =     0.00000000    0.00000000    0.00000000
     atom   56 type  1   force =     0.00000000    0.00000000    0.00000000
     atom   57 type  1   force =     0.00000000    0.00000000    0.00000000
     atom   58 type  1   force =     0.00000000    0.00000000    0.00000000
     atom   59 type  1   force =     0.00000000    0.00000000    0.00000000
     atom   60 type  1   force =     0.00000000    0.00000000    0.00000000
[...]
     atom  177 type  2   force =     0.00000000    0.00000000    0.00000000
     atom  178 type  2   force =     0.00000000    0.00000000    0.00000000
     atom  179 type  2   force =     0.00000000    0.00000000    0.00000000
     atom  180 type  2   force =     0.00000000    0.00000000    0.00000000
     atom  181 type  2   force =     0.00000000    0.00000000    0.00000000
     atom  182 type  2   force =     0.00000000    0.00000000    0.00000000
     atom  183 type  2   force =     0.00000000    0.00000000    0.00000000
     atom  184 type  2   force =     0.00000000    0.00000000    0.00000000
     atom  185 type  2   force =     0.00000000    0.00000000    0.00000000
     atom  186 type  2   force =     0.00000000    0.00000000    0.00000000
     atom  187 type  2   force =     0.00000000    0.00000000    0.00000000
     atom  188 type  2   force =     0.00000000    0.00000000    0.00000000
     atom  189 type  2   force =     0.00000000    0.00000000    0.00000000
     atom  190 type  2   force =     0.00000000    0.00000000    0.00000000
     atom  191 type  2   force =     0.00000000    0.00000000    0.00000000
     The SCF correction term to forces
     atom    1 type  1   force =    -0.00000000    0.00000000   -0.00007631
     atom    2 type  1   force =    -0.00000000    0.00000000   -0.00007818
     atom    3 type  1   force =    -0.00008693   -0.00001890    0.00014017
     atom    4 type  1   force =    -0.00003077   -0.00005725   -0.00007006
     atom    5 type  1   force =    -0.00004808   -0.00006169   -0.00007044
     atom    6 type  1   force =    -0.00017839   -0.00010299    0.00010117
     atom    7 type  1   force =    -0.00013854   -0.00007998   -0.00006049
     atom    8 type  1   force =    -0.00014251   -0.00008228   -0.00003558
     atom    9 type  1   force =    -0.00005983   -0.00006584    0.00014017
     atom   10 type  1   force =    -0.00006497    0.00000197   -0.00007006
     atom   11 type  1   force =    -0.00007747   -0.00001079   -0.00007044
     atom   12 type  1   force =     0.00002710    0.00008474    0.00014017
     atom   13 type  1   force =    -0.00003420    0.00005528   -0.00007006
     atom   14 type  1   force =    -0.00002939    0.00007248   -0.00007044
     atom   15 type  1   force =     0.00008693   -0.00001890    0.00014017
     atom   16 type  1   force =     0.00003077   -0.00005725   -0.00007006
     atom   17 type  1   force =     0.00004808   -0.00006169   -0.00007044
     atom   18 type  1   force =     0.00000000   -0.00010166    0.00011264
     atom   19 type  1   force =     0.00000000   -0.00011015   -0.00004259
     atom   20 type  1   force =     0.00000000   -0.00011315   -0.00005146
     atom   21 type  1   force =    -0.00008804    0.00005083    0.00011264
     atom   22 type  1   force =    -0.00009539    0.00005508   -0.00004259
     atom   23 type  1   force =    -0.00009799    0.00005657   -0.00005146
     atom   24 type  1   force =    -0.00000000    0.00020599    0.00010117
     atom   25 type  1   force =    -0.00000000    0.00015997   -0.00006049
     atom   26 type  1   force =    -0.00000000    0.00016456   -0.00003558
     atom   27 type  1   force =     0.00008551    0.00004937    0.00010247
     atom   28 type  1   force =     0.00006425    0.00003709   -0.00008442
     atom   29 type  1   force =     0.00005777    0.00003335   -0.00003263
     atom   30 type  1   force =     0.00017839   -0.00010299    0.00010117
     atom   31 type  1   force =     0.00013854   -0.00007998   -0.00006049
     atom   32 type  1   force =     0.00014251   -0.00008228   -0.00003558
     atom   33 type  1   force =     0.00008804    0.00005083    0.00011264
     atom   34 type  1   force =     0.00009539    0.00005508   -0.00004259
     atom   35 type  1   force =     0.00009799    0.00005657   -0.00005146
     atom   36 type  1   force =    -0.00002710    0.00008474    0.00014017
     atom   37 type  1   force =     0.00003420    0.00005528   -0.00007006
     atom   38 type  1   force =     0.00002939    0.00007248   -0.00007044
     atom   39 type  1   force =    -0.00008551    0.00004937    0.00010247
     atom   40 type  1   force =    -0.00006425    0.00003709   -0.00008442
     atom   41 type  1   force =    -0.00005777    0.00003335   -0.00003263
     atom   42 type  1   force =     0.00000000   -0.00009874    0.00010247
     atom   43 type  1   force =     0.00000000   -0.00007419   -0.00008442
     atom   44 type  1   force =     0.00000000   -0.00006671   -0.00003263
     atom   45 type  1   force =     0.00005983   -0.00006584    0.00014017
     atom   46 type  1   force =     0.00006497    0.00000197   -0.00007006
     atom   47 type  1   force =     0.00007747   -0.00001079   -0.00007044
     atom   48 type  1   force =     0.00001696   -0.00000979    0.00005524
     atom   49 type  1   force =    -0.00000773    0.00000446   -0.00009953
     atom   50 type  1   force =    -0.00004807    0.00002775   -0.00000281
     atom   51 type  1   force =    -0.00015356   -0.00004727    0.00002488
     atom   52 type  1   force =    -0.00011800   -0.00004006   -0.00011656
     atom   53 type  1   force =    -0.00016566   -0.00002176    0.00007659
     atom   54 type  1   force =    -0.00011771   -0.00010935    0.00002488
     atom   55 type  1   force =    -0.00009369   -0.00008216   -0.00011656
     atom   56 type  1   force =    -0.00010167   -0.00013259    0.00007659
     atom   57 type  1   force =     0.00000000    0.00001959    0.00005524
     atom   58 type  1   force =     0.00000000   -0.00000893   -0.00009953
     atom   59 type  1   force =    -0.00000000   -0.00005550   -0.00000281
     atom   60 type  1   force =    -0.00001696   -0.00000979    0.00005524
[...]
     atom  177 type  2   force =    -0.00000000    0.00005337    0.00005162
     atom  178 type  2   force =    -0.00000000    0.00004909   -0.00002033
     atom  179 type  2   force =    -0.00000000    0.00005102   -0.00003123
     atom  180 type  2   force =    -0.00002399    0.00007289    0.00005643
     atom  181 type  2   force =    -0.00000802    0.00005649   -0.00002656
     atom  182 type  2   force =    -0.00000668    0.00005185   -0.00002230
     atom  183 type  2   force =     0.00000000   -0.00000000    0.00005715
     atom  184 type  2   force =     0.00000000   -0.00000000   -0.00003013
     atom  185 type  2   force =     0.00000000   -0.00000000   -0.00001507
     atom  186 type  2   force =     0.00005113   -0.00005722    0.00005643
     atom  187 type  2   force =     0.00004492   -0.00003519   -0.00002656
     atom  188 type  2   force =     0.00004156   -0.00003171   -0.00002230
     atom  189 type  2   force =     0.00001969    0.00001137    0.00005962
     atom  190 type  2   force =     0.00003981    0.00002298   -0.00002115
     atom  191 type  2   force =     0.00003591    0.00002073   -0.00003591

     Total force =     0.002479     Total SCF correction =     0.001471
     SCF correction compared to forces is large: reduce conv_thr to get better values

     Computing stress (Cartesian axis) and pressure

[...]

          total   stress  (Ry/bohr**3)                   (kbar)     P=       32.23
   0.00021739  -0.00000000   0.00000000           31.98       -0.00        0.00
   0.00000000   0.00021739   0.00000000            0.00       31.98        0.00
   0.00000000   0.00000000   0.00022260            0.00        0.00       32.75

     kinetic stress (kbar)  18387.71      0.00      0.00
                                0.00  18387.71      0.00
                                0.00      0.00  18380.46

     local   stress (kbar)   4959.89     -0.07     -0.00
                               -0.07   4959.80      0.00
                               -0.00      0.00   3373.81

     nonloc. stress (kbar)     27.60     -0.00      0.00
                               -0.00     27.60      0.00
                                0.00      0.00     40.10

     hartree stress (kbar)  19597.29     -0.00     -0.00
                               -0.00  19597.29      0.00
                               -0.00      0.00  20325.51

     exc-cor stress (kbar)   5146.00      0.00     -0.00
                                0.00   5146.00      0.00
                               -0.00      0.00   5146.19

     corecor stress (kbar) -13970.21     -0.00     -0.00
                               -0.00 -13970.21      0.00
                               -0.00      0.00 -13969.68

     ewald   stress (kbar) -34277.01      0.09      0.00
                                0.09 -34276.89     -0.00
                                0.00     -0.00 -33423.52

     hubbard stress (kbar)      0.00      0.00      0.00
                                0.00      0.00      0.00
                                0.00      0.00      0.00

     DFT-D   stress (kbar)      0.00      0.00      0.00
                                0.00      0.00      0.00
                                0.00      0.00      0.00

     XDM     stress (kbar)      0.00      0.00      0.00
                                0.00      0.00      0.00
                                0.00      0.00      0.00

     dft-nl  stress (kbar)    160.69     -0.00     -0.00
                               -0.00    160.69     -0.00
                               -0.00     -0.00    159.87

     TS-vdW  stress (kbar)      0.00      0.00      0.00
                                0.00      0.00      0.00
                                0.00      0.00      0.00

     MDB     stress (kbar)      0.00      0.00      0.00
                                0.00      0.00      0.00
                                0.00      0.00      0.00

     3D-RISM stress (kbar)      0.00      0.00      0.00
                                0.00      0.00      0.00
                                0.00      0.00      0.00

[...]

     Non-local corr. energy    =      51.87771536 Ry

 BEEFens 2000 ensemble energies
             -0.420277628618337E+02
             -0.377996331349770E+03
             -0.162469163633285E+03
              0.133062064838437E+03
             -0.271667369007661E+03
             -0.349457389334458E+03
              0.179608239609146E+03
             -0.189470121645179E+02
              0.299364083674627E+03
             -0.128995958785513E+02
              0.146698838614051E+03
              0.612495607679409E+01
              0.606538561900857E+01
             -0.128406627578574E+02
              0.195896858940642E+03
             -0.142690322611199E+03
             -0.294163414805487E+03
             -0.960315118004580E+02
              0.718244753701700E+02
             -0.641376609910867E+01
              0.429042107910435E+03
              0.365256672786445E+03
             -0.209005142935350E+03
              0.757820023566630E+02
             -0.458416206787031E+03
              0.367586443371272E+03
              0.120076440048829E+03
              0.357437826010534E+03
              0.234877311774296E+03
             -0.114407235801243E+03
              0.865108217986832E+02
             -0.168990364404978E+03
              0.471284578094170E+02
              0.229652030999810E+03
              0.243618791890055E+03
             -0.879387432813412E+02
              0.541231599818048E+03
             -0.205354606877415E+03
             -0.147848051715624E+03
              0.216860780287390E+03
              0.969887680597637E+02
              0.162351964215480E+03
             -0.309409177939779E+03
             -0.872308582136338E+01
              0.303792016431607E+03
              0.394529415088207E+03
             -0.392705555328695E+03
              0.279970896817369E+02
              0.148101686043164E+03
              0.720064101780326E+02
              0.164225597766608E+03
              0.347938018060907E+03
             -0.210347875554263E+03
             -0.230562962411052E+03
             -0.299786420231907E+03
             -0.464824891266126E+02
             -0.273411472373318E+03
              0.267316607931723E+02
             -0.506835310659940E+02
             -0.213199490730672E+03
[...]
              0.266079642167058E+03
              0.146858863346822E+03
              0.186794103800944E+03
             -0.301724354342033E+03
             -0.288673475174783E+03
             -0.730998166172595E+02
             -0.283045450462686E+03
              0.453288675808689E+03
              0.388496252031150E+03
              0.185613955266971E+03
              0.502595523682830E+03
             -0.261572924790559E+03
             -0.106669878273838E+03
             -0.148274615233679E+03
              0.415644954521742E+03

 BEEF-vdW xc energy contributions
            1 :    -3810.530840146801
            2 :     3432.267179454635
            3 :    -2798.354478630702
            4 :     2094.097786340320
            5 :    -1482.736057940437
            6 :     1043.435631224134
            7 :    -762.3273767196947
            8 :     572.5342617455603
            9 :    -410.9342864143496
           10 :     254.7952364610983
           11 :    -120.7197357314840
           12 :     35.92596712543855
           13 :    -8.307672765732150
           14 :     17.43285653800103
           15 :    -29.59884222636947
           16 :     21.80214902588023
           17 :     4.981097314071576
           18 :    -32.06267787629031
           19 :     41.67666252615572
           20 :    -32.15282499884916
           21 :     18.25822647076575
           22 :    -18.06678849213722
           23 :     38.07822837624963
           24 :    -68.53783233623699
           25 :     91.80825452066301
           26 :    -96.16395558688555
           27 :     83.81247293181468
           28 :    -67.45925964054231
           29 :     59.20743428986543
           30 :    -61.24266472758836
           31 :    -326.8044130663425
           32 :    -223.9868178278034

     Writing all to output data dir ./GaN.save/

     General routines

     Parallel routines

     PAW routines

   This run was terminated on:   8:20:31  12Apr2024

   JOB DONE.