     Program PWSCF v.7.1 starts on 24Mar2024 at 19:19:58

     Reading input from espresso.pwi
Warning: card &CELL ignored
Warning: card    CELL_DYNAMICS    = 'BFGS' ignored
Warning: card / ignored

     Current dimensions of program PWSCF are:
     Max number of different atomic species (ntypx) = 10
     Max number of k-points (npk) =  40000
     Max angular momentum in pseudopotentials (lmaxx) =  4
     file Pb.pbe-dn-kjpaw_psl.1.0.0.UPF: wavefunction(s)  6S 6P 5D renormalized
     file I.pbe-dn-kjpaw_psl.1.0.0.UPF: wavefunction(s)  5S 5P renormalized

     IMPORTANT: XC functional enforced from input :
     Exchange-correlation= BEEF-VDW
                           (   1   4  43  14   2   0   0)
     Any further DFT definition will be discarded
     Please, verify this is what you really want

     K-points division:     npool     =       2
     R & G space division:  proc/nbgrp/npool/nimage =      45
     Subspace diagonalization in iterative solution of the eigenvalue problem:
     a serial algorithm will be used

     Using Slab Decomposition

     bravais-lattice index     =            4
     lattice parameter (alat)  =      26.7090  a.u.
     unit-cell volume          =   17226.5091 (a.u.)^3
     number of atoms/cell      =           54
     number of atomic types    =            2
     number of electrons       =       860.00
     number of Kohn-Sham states=          516
     kinetic-energy cutoff     =      70.0000  Ry
     charge density cutoff     =     350.0000  Ry
     scf convergence threshold =      1.0E-07
     mixing beta               =       0.7000
     number of iterations used =            8  plain     mixing
     Exchange-correlation= BEEF-VDW
                           (   1   4  43  14   2   0   0)

     celldm(1)=  26.709025  celldm(2)=   0.000000  celldm(3)=   1.043981
     celldm(4)=   0.000000  celldm(5)=   0.000000  celldm(6)=   0.000000

     crystal axes: (cart. coord. in units of alat)
               a(1) = (   1.000000   0.000000   0.000000 )
               a(2) = (  -0.500000   0.866025   0.000000 )
               a(3) = (   0.000000   0.000000   1.043981 )

     reciprocal axes: (cart. coord. in units 2 pi/alat)
               b(1) = (  1.000000  0.577350 -0.000000 )
               b(2) = (  0.000000  1.154701  0.000000 )
               b(3) = (  0.000000 -0.000000  0.957872 )

     PseudoPot. # 1 for Pb read from file:
     //group///packages/espresso/pseudo/psl_1.0.0/pslibrary.1.0.0/pbe/PSEUDOPOTENTIALS/Pb.pbe-dn-kjpaw_psl.1.0.0.UPF
     MD5 check sum: 39ab5b8a6bbd56b7735ad9f188aac93a
     Pseudo is Projector augmented-wave + core cor, Zval = 14.0
     Generated using 'atomic' code by A. Dal Corso  v.7.1
     Shape of augmentation charge: PSQ
     Using radial grid of 1281 points,  6 beta functions with:
                l(1) =   0
                l(2) =   0
                l(3) =   1
                l(4) =   1
                l(5) =   2
                l(6) =   2
     Q(r) pseudized with 0 coefficients

     PseudoPot. # 2 for I  read from file:
     //group///packages/espresso/pseudo/psl_1.0.0/pslibrary.1.0.0/pbe/PSEUDOPOTENTIALS/I.pbe-dn-kjpaw_psl.1.0.0.UPF
     MD5 check sum: bfa8781bc1224d19af3f3980e3fab11e
     Pseudo is Projector augmented-wave + core cor, Zval = 17.0
     Generated using 'atomic' code by A. Dal Corso  v.7.1
     Shape of augmentation charge: PSQ
     Using radial grid of 1247 points,  6 beta functions with:
                l(1) =   0
                l(2) =   0
                l(3) =   1
                l(4) =   1
                l(5) =   2
                l(6) =   2
     Q(r) pseudized with 0 coefficients

     atomic species   valence    mass     pseudopotential
        Pb            14.00   207.20000     Pb( 1.00)
        I             17.00   126.90447     I ( 1.00)

     No symmetry found

                                    s                        frac. trans.

      isym =  1     identity

 cryst.   s( 1) = (     1          0          0      )
                  (     0          1          0      )
                  (     0          0          1      )

 cart.    s( 1) = (  1.0000000  0.0000000  0.0000000 )
                  (  0.0000000  1.0000000  0.0000000 )
                  (  0.0000000  0.0000000  1.0000000 )

     point group C_1 (1)
     there are  1 classes
     the character table:

       E
A      1.00

     the symmetry operations in each class and the name of the first element:

     E        1
          identity

   Cartesian axes

     site n.     atom                  positions (alat units)
         1           Pb  tau(   1) = (   0.1666780   0.2886497   1.0439767  )
         2           Pb  tau(   2) = (   0.1666712   0.2886557   0.5219862  )
         3           Pb  tau(   3) = (   0.0000102   0.5773235   1.0439712  )
         4           Pb  tau(   4) = (   0.0000034   0.5773295   0.5219807  )
         5           Pb  tau(   5) = (  -0.1666576   0.8659973   1.0439657  )
         6           Pb  tau(   6) = (  -0.1666644   0.8660033   0.5219752  )
         7           Pb  tau(   7) = (   0.5000113   0.2886484   1.0439810  )
         8           Pb  tau(   8) = (   0.5000045   0.2886544   0.5219905  )
         9           Pb  tau(   9) = (   0.3333436   0.5773222   1.0439755  )
        10           Pb  tau(  10) = (   0.3333367   0.5773282   0.5219850  )
        11           Pb  tau(  11) = (   0.1666758   0.8659960   1.0439700  )
        12           Pb  tau(  12) = (   0.1666690   0.8660020   0.5219795  )
        13           Pb  tau(  13) = (   0.8333447   0.2886471   1.0439853  )
        14           Pb  tau(  14) = (   0.8333379   0.2886531   0.5219949  )
        15           Pb  tau(  15) = (   0.6666769   0.5773209   1.0439798  )
        16           Pb  tau(  16) = (   0.6666701   0.5773269   0.5219894  )
        17           Pb  tau(  17) = (   0.5000091   0.8659947   1.0439743  )
        18           Pb  tau(  18) = (   0.5000023   0.8660007   0.5219839  )
        19           I   tau(  19) = (   0.1666806   0.0962006   0.9099004  )
        20           I   tau(  20) = (   0.0000060   0.3848804   0.3879044  )
        21           I   tau(  21) = (   0.0000129   0.3848744   0.9098949  )
        22           I   tau(  22) = (  -0.1666617   0.6735542   0.3878990  )
        23           I   tau(  23) = (  -0.1666549   0.6735482   0.9098894  )
        24           I   tau(  24) = (   0.5000071   0.0962053   0.3879143  )
        25           I   tau(  25) = (   0.5000140   0.0961993   0.9099047  )
        26           I   tau(  26) = (   0.3333394   0.3848792   0.3879088  )
        27           I   tau(  27) = (   0.3333462   0.3848731   0.9098993  )
        28           I   tau(  28) = (   0.1666716   0.6735530   0.3879033  )
        29           I   tau(  29) = (   0.1666784   0.6735469   0.9098938  )
        30           I   tau(  30) = (   0.8333405   0.0962041   0.3879186  )
        31           I   tau(  31) = (   0.8333473   0.0961980   0.9099091  )
        32           I   tau(  32) = (   0.6666727   0.3848779   0.3879131  )
        33           I   tau(  33) = (   0.6666795   0.3848718   0.9099036  )
        34           I   tau(  34) = (   0.5000049   0.6735517   0.3879076  )
        35           I   tau(  35) = (   0.5000117   0.6735457   0.9098981  )
        36           I   tau(  36) = (  -0.0000023   0.1924396   0.1340740  )
        37           I   tau(  37) = (   0.0000045   0.1924336   0.6560644  )
        38           I   tau(  38) = (  -0.1666701   0.4811134   0.1340685  )
        39           I   tau(  39) = (  -0.1666632   0.4811074   0.6560589  )
        40           I   tau(  40) = (  -0.3333378   0.7697873   0.1340630  )
        41           I   tau(  41) = (  -0.3333310   0.7697812   0.6560534  )
        42           I   tau(  42) = (   0.3333311   0.1924384   0.1340783  )
        43           I   tau(  43) = (   0.3333379   0.1924323   0.6560688  )
        44           I   tau(  44) = (   0.1666633   0.4811122   0.1340728  )
        45           I   tau(  45) = (   0.1666701   0.4811061   0.6560633  )
        46           I   tau(  46) = (  -0.0000045   0.7697860   0.1340673  )
        47           I   tau(  47) = (   0.0000023   0.7697799   0.6560578  )
        48           I   tau(  48) = (   0.6666644   0.1924371   0.1340827  )
        49           I   tau(  49) = (   0.6666712   0.1924310   0.6560731  )
        50           I   tau(  50) = (   0.4999966   0.4811109   0.1340772  )
        51           I   tau(  51) = (   0.5000034   0.4811049   0.6560676  )
        52           I   tau(  52) = (   0.3333288   0.7697847   0.1340717  )
        53           I   tau(  53) = (   0.3333356   0.7697787   0.6560621  )
        54           Pb  tau(  54) = (   0.1666738   0.0962066   0.3879099  )

   Crystallographic axes

     site n.     atom                  positions (cryst. coord.)
         1           Pb  tau(   1) = (  0.3333300  0.3333039  0.9999959  )
         2           Pb  tau(   2) = (  0.3333266  0.3333109  0.4999959  )
         3           Pb  tau(   3) = (  0.3333281  0.6666357  0.9999906  )
         4           Pb  tau(   4) = (  0.3333248  0.6666427  0.4999906  )
         5           Pb  tau(   5) = (  0.3333262  0.9999675  0.9999854  )
         6           Pb  tau(   6) = (  0.3333229  0.9999745  0.4999854  )
         7           Pb  tau(   7) = (  0.6666626  0.3333025  1.0000001  )
         8           Pb  tau(   8) = (  0.6666592  0.3333094  0.5000001  )
         9           Pb  tau(   9) = (  0.6666607  0.6666343  0.9999948  )
        10           Pb  tau(  10) = (  0.6666573  0.6666412  0.4999948  )
        11           Pb  tau(  11) = (  0.6666588  0.9999661  0.9999895  )
        12           Pb  tau(  12) = (  0.6666555  0.9999730  0.4999895  )
        13           Pb  tau(  13) = (  0.9999951  0.3333010  1.0000042  )
        14           Pb  tau(  14) = (  0.9999918  0.3333079  0.5000042  )
        15           Pb  tau(  15) = (  0.9999933  0.6666328  0.9999990  )
        16           Pb  tau(  16) = (  0.9999899  0.6666397  0.4999990  )
        17           Pb  tau(  17) = (  0.9999914  0.9999646  0.9999937  )
        18           Pb  tau(  18) = (  0.9999881  0.9999715  0.4999937  )
        19           I   tau(  19) = (  0.2222221  0.1110829  0.8715680  )
        20           I   tau(  20) = (  0.2222169  0.4444217  0.3715628  )
        21           I   tau(  21) = (  0.2222202  0.4444147  0.8715628  )
        22           I   tau(  22) = (  0.2222150  0.7777534  0.3715575  )
        23           I   tau(  23) = (  0.2222183  0.7777465  0.8715575  )
        24           I   tau(  24) = (  0.5555513  0.1110884  0.3715722  )
        25           I   tau(  25) = (  0.5555547  0.1110814  0.8715722  )
        26           I   tau(  26) = (  0.5555495  0.4444202  0.3715669  )
        27           I   tau(  27) = (  0.5555528  0.4444132  0.8715669  )
        28           I   tau(  28) = (  0.5555476  0.7777520  0.3715617  )
        29           I   tau(  29) = (  0.5555509  0.7777450  0.8715617  )
        30           I   tau(  30) = (  0.8888839  0.1110869  0.3715764  )
        31           I   tau(  31) = (  0.8888873  0.1110799  0.8715764  )
[...]
     atom   38 type  2   force =     0.00042222    0.00024608    0.00560432
     atom   39 type  2   force =     0.00004551    0.00003001    0.00477716
     atom   40 type  2   force =    -0.00007996   -0.00223350    0.00258661
     atom   41 type  2   force =     0.00013683   -0.00059234    0.00510875
     atom   42 type  2   force =     0.00209006    0.00120618    0.00240368
     atom   43 type  2   force =     0.00041538    0.00023370    0.00513670
     atom   44 type  2   force =    -0.00009892   -0.00012772    0.00565868
     atom   45 type  2   force =    -0.00011789   -0.00094154    0.00482904
     atom   46 type  2   force =    -0.00016363   -0.00001780    0.00565284
     atom   47 type  2   force =    -0.00087272    0.00036708    0.00483047
     atom   48 type  2   force =    -0.00008085   -0.00060332    0.00555970
     atom   49 type  2   force =    -0.00006487   -0.00016887    0.00489399
     atom   50 type  2   force =    -0.00055512    0.00023501    0.00555771
     atom   51 type  2   force =    -0.00016649    0.00003294    0.00489529
     atom   52 type  2   force =    -0.00010225   -0.00005773    0.00568986
     atom   53 type  2   force =     0.00087816    0.00050523    0.00480795
     atom   54 type  1   force =    -0.00015653   -0.00009219   -0.00250589
     The Hubbard contrib.    to forces
     atom    1 type  1   force =     0.00000000    0.00000000    0.00000000
     atom    2 type  1   force =     0.00000000    0.00000000    0.00000000
     atom    3 type  1   force =     0.00000000    0.00000000    0.00000000
     atom    4 type  1   force =     0.00000000    0.00000000    0.00000000
     atom    5 type  1   force =     0.00000000    0.00000000    0.00000000
     atom    6 type  1   force =     0.00000000    0.00000000    0.00000000
     atom    7 type  1   force =     0.00000000    0.00000000    0.00000000
     atom    8 type  1   force =     0.00000000    0.00000000    0.00000000
     atom    9 type  1   force =     0.00000000    0.00000000    0.00000000
     atom   10 type  1   force =     0.00000000    0.00000000    0.00000000
     atom   11 type  1   force =     0.00000000    0.00000000    0.00000000
     atom   12 type  1   force =     0.00000000    0.00000000    0.00000000
     atom   13 type  1   force =     0.00000000    0.00000000    0.00000000
     atom   14 type  1   force =     0.00000000    0.00000000    0.00000000
     atom   15 type  1   force =     0.00000000    0.00000000    0.00000000
     atom   16 type  1   force =     0.00000000    0.00000000    0.00000000
     atom   17 type  1   force =     0.00000000    0.00000000    0.00000000
     atom   18 type  1   force =     0.00000000    0.00000000    0.00000000
     atom   19 type  2   force =     0.00000000    0.00000000    0.00000000
     atom   20 type  2   force =     0.00000000    0.00000000    0.00000000
     atom   21 type  2   force =     0.00000000    0.00000000    0.00000000
     atom   22 type  2   force =     0.00000000    0.00000000    0.00000000
     atom   23 type  2   force =     0.00000000    0.00000000    0.00000000
     atom   24 type  2   force =     0.00000000    0.00000000    0.00000000
     atom   25 type  2   force =     0.00000000    0.00000000    0.00000000
     atom   26 type  2   force =     0.00000000    0.00000000    0.00000000
     atom   27 type  2   force =     0.00000000    0.00000000    0.00000000
     atom   28 type  2   force =     0.00000000    0.00000000    0.00000000
     atom   29 type  2   force =     0.00000000    0.00000000    0.00000000
     atom   30 type  2   force =     0.00000000    0.00000000    0.00000000
     atom   31 type  2   force =     0.00000000    0.00000000    0.00000000
     atom   32 type  2   force =     0.00000000    0.00000000    0.00000000
     atom   33 type  2   force =     0.00000000    0.00000000    0.00000000
     atom   34 type  2   force =     0.00000000    0.00000000    0.00000000
     atom   35 type  2   force =     0.00000000    0.00000000    0.00000000
     atom   36 type  2   force =     0.00000000    0.00000000    0.00000000
     atom   37 type  2   force =     0.00000000    0.00000000    0.00000000
     atom   38 type  2   force =     0.00000000    0.00000000    0.00000000
     atom   39 type  2   force =     0.00000000    0.00000000    0.00000000
     atom   40 type  2   force =     0.00000000    0.00000000    0.00000000
     atom   41 type  2   force =     0.00000000    0.00000000    0.00000000
     atom   42 type  2   force =     0.00000000    0.00000000    0.00000000
     atom   43 type  2   force =     0.00000000    0.00000000    0.00000000
     atom   44 type  2   force =     0.00000000    0.00000000    0.00000000
     atom   45 type  2   force =     0.00000000    0.00000000    0.00000000
     atom   46 type  2   force =     0.00000000    0.00000000    0.00000000
     atom   47 type  2   force =     0.00000000    0.00000000    0.00000000
     atom   48 type  2   force =     0.00000000    0.00000000    0.00000000
     atom   49 type  2   force =     0.00000000    0.00000000    0.00000000
     atom   50 type  2   force =     0.00000000    0.00000000    0.00000000
     atom   51 type  2   force =     0.00000000    0.00000000    0.00000000
     atom   52 type  2   force =     0.00000000    0.00000000    0.00000000
     atom   53 type  2   force =     0.00000000    0.00000000    0.00000000
     atom   54 type  1   force =     0.00000000    0.00000000    0.00000000
     The SCF correction term to forces
     atom    1 type  1   force =     0.00002578    0.00001810    0.00001862
     atom    2 type  1   force =     0.00006837    0.00003766   -0.00002950
     atom    3 type  1   force =    -0.00000882   -0.00000523   -0.00002845
     atom    4 type  1   force =     0.00003113    0.00001798    0.00001505
     atom    5 type  1   force =     0.00002887    0.00001368    0.00001872
     atom    6 type  1   force =     0.00006681    0.00004053   -0.00002966
     atom    7 type  1   force =     0.00000026   -0.00000017   -0.00003325
     atom    8 type  1   force =    -0.00005644   -0.00003244   -0.00000899
     atom    9 type  1   force =    -0.00001451   -0.00004912   -0.00002412
     atom   10 type  1   force =    -0.00007222   -0.00006858   -0.00000010
     atom   11 type  1   force =    -0.00004969    0.00001240   -0.00002397
     atom   12 type  1   force =    -0.00009542   -0.00002843    0.00000000
     atom   13 type  1   force =    -0.00002554    0.00004088   -0.00003436
     atom   14 type  1   force =    -0.00000051    0.00004621   -0.00000051
     atom   15 type  1   force =     0.00002297   -0.00004285   -0.00003423
     atom   16 type  1   force =     0.00003970   -0.00002372   -0.00000070
     atom   17 type  1   force =     0.00001933    0.00001165    0.00002404
     atom   18 type  1   force =     0.00005738    0.00003328   -0.00003249
     atom   19 type  2   force =     0.00006253    0.00003659    0.00000784
     atom   20 type  2   force =     0.00007785    0.00002195   -0.00000561
     atom   21 type  2   force =    -0.00000754    0.00006211   -0.00001537
     atom   22 type  2   force =     0.00005809    0.00005640   -0.00000546
     atom   23 type  2   force =     0.00005046   -0.00003787   -0.00001561
     atom   24 type  2   force =    -0.00008577   -0.00001187    0.00001022
     atom   25 type  2   force =     0.00001059    0.00001611   -0.00001128
     atom   26 type  2   force =    -0.00005323   -0.00006849    0.00001036
     atom   27 type  2   force =     0.00001883    0.00000087   -0.00001141
     atom   28 type  2   force =    -0.00005970   -0.00003444    0.00001663
     atom   29 type  2   force =    -0.00004935   -0.00002849   -0.00002766
     atom   30 type  2   force =    -0.00003752    0.00002726   -0.00005707
     atom   31 type  2   force =    -0.00007096    0.00004143   -0.00000082
     atom   32 type  2   force =    -0.00002367   -0.00001361   -0.00001868
     atom   33 type  2   force =    -0.00001128   -0.00000712   -0.00000731
     atom   34 type  2   force =     0.00000486   -0.00004605   -0.00005695
     atom   35 type  2   force =    -0.00000001   -0.00008189   -0.00000112
     atom   36 type  2   force =     0.00005748    0.00003324    0.00002942
     atom   37 type  2   force =     0.00005831    0.00010075    0.00001808
     atom   38 type  2   force =     0.00002050    0.00001139   -0.00002862
     atom   39 type  2   force =     0.00004069    0.00002329    0.00004461
     atom   40 type  2   force =     0.00005735    0.00003345    0.00002984
     atom   41 type  2   force =     0.00011628    0.00000047    0.00001784
     atom   42 type  2   force =    -0.00000713   -0.00000428    0.00005270
     atom   43 type  2   force =     0.00001291    0.00000761   -0.00004769
     atom   44 type  2   force =    -0.00000661   -0.00002398    0.00001238
     atom   45 type  2   force =    -0.00001068   -0.00001315   -0.00001462
     atom   46 type  2   force =    -0.00002363    0.00000656    0.00001212
     atom   47 type  2   force =    -0.00001636   -0.00000295   -0.00001444
     atom   48 type  2   force =    -0.00004812    0.00001088   -0.00001646
     atom   49 type  2   force =    -0.00007325    0.00000680    0.00004566
     atom   50 type  2   force =    -0.00001448   -0.00004767   -0.00001606
     atom   51 type  2   force =    -0.00003072   -0.00006702    0.00004522
     atom   52 type  2   force =    -0.00003353   -0.00001891    0.00001266
     atom   53 type  2   force =    -0.00010394   -0.00005977    0.00004278
     atom   54 type  1   force =     0.00007954    0.00004619    0.00000229

     Total force =     0.004288     Total SCF correction =     0.000495
     SCF correction compared to forces is large: reduce conv_thr to get better values

     Computing stress (Cartesian axis) and pressure

[...]

          total   stress  (Ry/bohr**3)                   (kbar)     P=       -6.30
  -0.00004403  -0.00000042   0.00000084           -6.48       -0.06        0.12
  -0.00000042  -0.00004355   0.00000048           -0.06       -6.41        0.07
   0.00000084   0.00000048  -0.00004091            0.12        0.07       -6.02

     kinetic stress (kbar)  15116.91     -0.06      0.22
                               -0.06  15116.99      0.13
                                0.22      0.13  15131.36

     local   stress (kbar)  -7149.02      5.78     -8.10
                                5.78  -7155.63     -4.59
                               -8.10     -4.59   1116.14

     nonloc. stress (kbar)  -1269.66     -0.04      0.13
                               -0.04  -1269.61      0.07
                                0.13      0.07  -1270.72

     hartree stress (kbar)  11768.85     -2.10      3.32
                               -2.10  11771.27      1.89
                                3.32      1.89   8043.46

     exc-cor stress (kbar)   6883.52     -0.01      0.02
                               -0.01   6883.53      0.01
                                0.02      0.01   6882.73

     corecor stress (kbar) -11218.07      0.00     -0.01
                                0.00 -11218.08     -0.00
                               -0.01     -0.00 -11218.09

     ewald   stress (kbar) -14221.31     -3.62      4.54
                               -3.62 -14217.19      2.56
                                4.54      2.56 -18774.38

     hubbard stress (kbar)      0.00      0.00      0.00
                                0.00      0.00      0.00
                                0.00      0.00      0.00

     DFT-D   stress (kbar)      0.00      0.00      0.00
                                0.00      0.00      0.00
                                0.00      0.00      0.00

     XDM     stress (kbar)      0.00      0.00      0.00
                                0.00      0.00      0.00
                                0.00      0.00      0.00

     dft-nl  stress (kbar)     82.32      0.00     -0.01
                                0.00     82.31     -0.00
                               -0.01     -0.00     83.48

     TS-vdW  stress (kbar)      0.00      0.00      0.00
                                0.00      0.00      0.00
                                0.00      0.00      0.00

     MDB     stress (kbar)      0.00      0.00      0.00
                                0.00      0.00      0.00
                                0.00      0.00      0.00

     3D-RISM stress (kbar)      0.00      0.00      0.00
                                0.00      0.00      0.00
                                0.00      0.00      0.00

[...]

     Non-local corr. energy    =      25.57942902 Ry

 BEEFens 2000 ensemble energies
             -0.215774538562052E+02
             -0.217064386099730E+03
             -0.987929143845042E+02
              0.758479837119133E+02
             -0.166002714246826E+03
             -0.203184253112162E+03
              0.104322270759731E+03
              0.344728601792440E+00
              0.175676126985950E+03
             -0.111131743197952E+02
              0.900825205990289E+02
              0.911187506674736E+01
             -0.693321543706224E+01
             -0.566713567973488E+01
              0.112046588141053E+03
             -0.845620202088819E+02
             -0.165800072687193E+03
             -0.535146765860187E+02
              0.478595792347727E+02
             -0.111238957320393E+01
              0.244507469767386E+03
              0.204021976751858E+03
             -0.125679708666725E+03
              0.434233392271366E+02
             -0.261884016538089E+03
              0.214918725668264E+03
              0.735409907102051E+02
              0.194043193106646E+03
              0.130742622851285E+03
             -0.607014576304289E+02
              0.479007998707854E+02
             -0.854247055438721E+02
              0.357358673819847E+02
              0.130150197915668E+03
              0.140165850278589E+03
             -0.608035092468225E+02
              0.308873219737470E+03
             -0.124440653376441E+03
             -0.827299654301081E+02
              0.123536129189408E+03
              0.544914758588843E+02
              0.940020704978599E+02
             -0.181385927614175E+03
             -0.117977724954781E+02
              0.174005375294166E+03
              0.227472100666697E+03
             -0.231019169589109E+03
              0.147413646636767E+02
              0.800566599291007E+02
              0.517382962883389E+02
              0.902457395977289E+02
              0.198268197989284E+03
             -0.128853804921264E+03
             -0.125088876014923E+03
             -0.174085473446319E+03
             -0.251590320099729E+02
             -0.148471617768039E+03
              0.191548310899104E+02
             -0.214047157176624E+02
             -0.117853362554780E+03
[...]
              0.147158572029241E+03
              0.942062597702498E+02
              0.960456116268313E+02
             -0.177830880522157E+03
             -0.183637261605231E+03
             -0.414098905037858E+02
             -0.164139176110150E+03
              0.260604992568632E+03
              0.219446219496745E+03
              0.103549877829366E+03
              0.285367916265438E+03
             -0.142525379542745E+03
             -0.614584442497522E+02
             -0.886139189295494E+02
              0.246958114113240E+03

 BEEF-vdW xc energy contributions
            1 :    -2231.842758296786
            2 :     2044.796198095337
            3 :    -1726.028817594151
            4 :     1360.788251418772
            5 :    -1029.246762339147
            6 :     780.5153544793793
            7 :    -624.5995403421671
            8 :     540.0592965016292
            9 :    -490.2240620987704
           10 :     440.8472939518656
           11 :    -373.0819339315012
           12 :     287.3769986605553
           13 :    -197.8582839417727
           14 :     121.5705325201416
           15 :    -69.00217914807672
           16 :     40.19404278432967
           17 :    -26.75611605034146
           18 :     17.32759904534123
           19 :    -3.339490867568657
           20 :    -17.44847702928155
           21 :     40.97585352691431
           22 :    -60.17331915821069
           23 :     69.55863210567804
           24 :    -68.50841601857701
           25 :     61.49315825450367
           26 :    -55.44022362429860
           27 :     55.93037925386534
           28 :    -64.31795255754014
           29 :     77.17453762092646
           30 :    -88.22685760820877
           31 :    -192.6923691830348
           32 :    -138.6854681007826

     Writing all to output data dir ./PbI2.save/

     General routines

     Parallel routines

     PAW routines

   This run was terminated on:  19:25: 4  24Mar2024

   JOB DONE.