     Program PWSCF v.7.1 starts on 29Sep2023 at 12:35:13

     Reading input from espresso.pwi
Warning: card &CELL ignored
Warning: card    CELL_DYNAMICS    = 'BFGS' ignored
Warning: card / ignored

     Current dimensions of program PWSCF are:
     Max number of different atomic species (ntypx) = 10
     Max number of k-points (npk) =  40000
     Max angular momentum in pseudopotentials (lmaxx) =  4
     file C.pbe-n-kjpaw_psl.1.0.0.UPF: wavefunction(s)  2S 2P renormalized

     IMPORTANT: XC functional enforced from input :
     Exchange-correlation= BEEF-VDW
                           (   1   4  43  14   2   0   0)
     Any further DFT definition will be discarded
     Please, verify this is what you really want

     K-points division:     npool     =       4
     R & G space division:  proc/nbgrp/npool/nimage =      64
     Subspace diagonalization in iterative solution of the eigenvalue problem:
     a serial algorithm will be used

     Using Slab Decomposition

     bravais-lattice index     =            1
     lattice parameter (alat)  =      20.2520  a.u.
     unit-cell volume          =    8306.2556 (a.u.)^3
     number of atoms/cell      =          215
     number of atomic types    =            1
     number of electrons       =       858.00
     number of Kohn-Sham states=          515
     kinetic-energy cutoff     =      70.0000  Ry
     charge density cutoff     =     350.0000  Ry
     scf convergence threshold =      1.0E-08
     mixing beta               =       0.7000
     number of iterations used =            8  plain     mixing
     energy convergence thresh.=      1.0E-04
     force convergence thresh. =      1.0E-03
     Exchange-correlation= BEEF-VDW
                           (   1   4  43  14   2   0   0)
     nstep                     =           50

     celldm(1)=  20.252024  celldm(2)=   0.000000  celldm(3)=   0.000000
     celldm(4)=   0.000000  celldm(5)=   0.000000  celldm(6)=   0.000000

     crystal axes: (cart. coord. in units of alat)
               a(1) = (   1.000000   0.000000   0.000000 )
               a(2) = (   0.000000   1.000000   0.000000 )
               a(3) = (   0.000000   0.000000   1.000000 )

     reciprocal axes: (cart. coord. in units 2 pi/alat)
               b(1) = (  1.000000  0.000000  0.000000 )
               b(2) = (  0.000000  1.000000  0.000000 )
               b(3) = (  0.000000  0.000000  1.000000 )

     PseudoPot. # 1 for C  read from file:
     //group///packages/espresso/pseudo/psl_1.0.0/pslibrary.1.0.0/pbe/PSEUDOPOTENTIALS/C.pbe-n-kjpaw_psl.1.0.0.UPF
     MD5 check sum: 5459cf7f2c8c37df2f7cde8914797f4d
     Pseudo is Projector augmented-wave + core cor, Zval =  4.0
     Generated using 'atomic' code by A. Dal Corso  v.7.1
     Shape of augmentation charge: PSQ
     Using radial grid of 1073 points,  4 beta functions with:
                l(1) =   0
                l(2) =   0
                l(3) =   1
                l(4) =   1
     Q(r) pseudized with 0 coefficients

     atomic species   valence    mass     pseudopotential
        C              4.00    12.01100     C ( 1.00)

      6 Sym. Ops. (no inversion) found ( 4 have fractional translation)

                                    s                        frac. trans.

      isym =  1     identity

 cryst.   s( 1) = (     1          0          0      )
                  (     0          1          0      )
                  (     0          0          1      )

 cart.    s( 1) = (  1.0000000  0.0000000  0.0000000 )
                  (  0.0000000  1.0000000  0.0000000 )
                  (  0.0000000  0.0000000  1.0000000 )

      isym =  2     120 deg rotation - cart. axis [1,-1,1]

 cryst.   s( 2) = (     0          0          1      )    f =( -0.3333333 )
                  (    -1          0          0      )       ( -0.3333333 )
                  (     0         -1          0      )       (  0.0000000 )

 cart.    s( 2) = (  0.0000000 -1.0000000  0.0000000 )    f =( -0.3333333 )
                  (  0.0000000  0.0000000 -1.0000000 )       ( -0.3333333 )
                  (  1.0000000  0.0000000  0.0000000 )       (  0.0000000 )

      isym =  3     120 deg rotation - cart. axis [-1,1,-1]

[...]

      isym =  4     inv. 180 deg rotation - cart. axis [1,1,0]

[...]

 cryst.   s( 5) = (     0          0          1      )
                  (     0          1          0      )
                  (     1          0          0      )

 cart.    s( 5) = (  0.0000000  0.0000000  1.0000000 )
                  (  0.0000000  1.0000000  0.0000000 )
                  (  1.0000000  0.0000000  0.0000000 )

      isym =  6     inv. 180 deg rotation - cart. axis [0,1,1]

 cryst.   s( 6) = (     1          0          0      )    f =(  0.0000000 )
                  (     0          0         -1      )       ( -0.3333333 )
                  (     0         -1          0      )       ( -0.3333333 )

 cart.    s( 6) = (  1.0000000  0.0000000  0.0000000 )    f =(  0.0000000 )
                  (  0.0000000  0.0000000 -1.0000000 )       ( -0.3333333 )
                  (  0.0000000 -1.0000000  0.0000000 )       ( -0.3333333 )

     point group C_3v (3m)
     there are  3 classes
     the character table:

       E     2C3   3s_v
A_1    1.00  1.00  1.00
A_2    1.00  1.00 -1.00
E      2.00 -1.00  0.00

     the symmetry operations in each class and the name of the first element:

     E        1
          identity
     2C3      2    3
          120 deg rotation - cart. axis [1,-1,1]
     3s_v     4    5    6
          inv. 180 deg rotation - cart. axis [1,1,0]

   Cartesian axes

     site n.     atom                  positions (alat units)
         1           C   tau(   1) = (   0.0833353   0.2499980   0.4166687  )
         2           C   tau(   2) = (   0.0833353   0.2499980   0.7500020  )
         3           C   tau(   3) = (   0.0833353   0.5833313   0.0833353  )
         4           C   tau(   4) = (   0.0833353   0.5833313   0.4166687  )
         5           C   tau(   5) = (   0.0833353   0.5833313   0.7500020  )
         6           C   tau(   6) = (   0.0833353   0.9166647   0.0833353  )
         7           C   tau(   7) = (   0.0833353   0.9166647   0.4166687  )
         8           C   tau(   8) = (   0.0833353   0.9166647   0.7500020  )
         9           C   tau(   9) = (   0.4166687   0.2499980   0.0833353  )
        10           C   tau(  10) = (   0.4166687   0.2499980   0.4166687  )
        11           C   tau(  11) = (   0.4166687   0.2499980   0.7500020  )
        12           C   tau(  12) = (   0.4166687   0.5833313   0.0833353  )
        13           C   tau(  13) = (   0.4166687   0.5833313   0.4166687  )
        14           C   tau(  14) = (   0.4166687   0.5833313   0.7500020  )
        15           C   tau(  15) = (   0.4166687   0.9166647   0.0833353  )
        16           C   tau(  16) = (   0.4166687   0.9166647   0.4166687  )
        17           C   tau(  17) = (   0.4166687   0.9166647   0.7500020  )
        18           C   tau(  18) = (   0.7500020   0.2499980   0.0833353  )
        19           C   tau(  19) = (   0.7500020   0.2499980   0.4166687  )
        20           C   tau(  20) = (   0.7500020   0.2499980   0.7500020  )
        21           C   tau(  21) = (   0.7500020   0.5833313   0.0833353  )
        22           C   tau(  22) = (   0.7500020   0.5833313   0.4166687  )
        23           C   tau(  23) = (   0.7500020   0.5833313   0.7500020  )
        24           C   tau(  24) = (   0.7500020   0.9166647   0.0833353  )
        25           C   tau(  25) = (   0.7500020   0.9166647   0.4166687  )
        26           C   tau(  26) = (   0.7500020   0.9166647   0.7500020  )
        27           C   tau(  27) = (   0.0000000   0.0000000   0.1666667  )
        28           C   tau(  28) = (   0.0000000   0.0000000   0.5000000  )
        29           C   tau(  29) = (   0.0000000   0.0000000   0.8333333  )
        30           C   tau(  30) = (   0.0000000   0.3333333   0.1666667  )
        31           C   tau(  31) = (   0.0000000   0.3333333   0.5000000  )
        32           C   tau(  32) = (   0.0000000   0.3333333   0.8333333  )
        33           C   tau(  33) = (   0.0000000   0.6666667   0.1666667  )
        34           C   tau(  34) = (   0.0000000   0.6666667   0.5000000  )
        35           C   tau(  35) = (   0.0000000   0.6666667   0.8333333  )
        36           C   tau(  36) = (   0.3333333   0.0000000   0.1666667  )
        37           C   tau(  37) = (   0.3333333   0.0000000   0.5000000  )
        38           C   tau(  38) = (   0.3333333   0.0000000   0.8333333  )
        39           C   tau(  39) = (   0.3333333   0.3333333   0.1666667  )
        40           C   tau(  40) = (   0.3333333   0.3333333   0.5000000  )
        41           C   tau(  41) = (   0.3333333   0.3333333   0.8333333  )
        42           C   tau(  42) = (   0.3333333   0.6666667   0.1666667  )
        43           C   tau(  43) = (   0.3333333   0.6666667   0.5000000  )
        44           C   tau(  44) = (   0.3333333   0.6666667   0.8333333  )
        45           C   tau(  45) = (   0.6666667   0.0000000   0.1666667  )
        46           C   tau(  46) = (   0.6666667   0.0000000   0.5000000  )
        47           C   tau(  47) = (   0.6666667   0.0000000   0.8333333  )
        48           C   tau(  48) = (   0.6666667   0.3333333   0.1666667  )
        49           C   tau(  49) = (   0.6666667   0.3333333   0.5000000  )
        50           C   tau(  50) = (   0.6666667   0.3333333   0.8333333  )
        51           C   tau(  51) = (   0.6666667   0.6666667   0.1666667  )
        52           C   tau(  52) = (   0.6666667   0.6666667   0.5000000  )
        53           C   tau(  53) = (   0.6666667   0.6666667   0.8333333  )
        54           C   tau(  54) = (   0.0833353   0.0833353   0.2499980  )
        55           C   tau(  55) = (   0.0833353   0.0833353   0.5833313  )
        56           C   tau(  56) = (   0.0833353   0.0833353   0.9166647  )
        57           C   tau(  57) = (   0.0833353   0.4166687   0.2499980  )
        58           C   tau(  58) = (   0.0833353   0.4166687   0.5833313  )
        59           C   tau(  59) = (   0.0833353   0.4166687   0.9166647  )
        60           C   tau(  60) = (   0.0833353   0.7500020   0.2499980  )
[...]
       201           C   tau( 201) = (   0.5000000   0.5000000   0.1666667  )
       202           C   tau( 202) = (   0.5000000   0.5000000   0.5000000  )
       203           C   tau( 203) = (   0.5000000   0.5000000   0.8333333  )
       204           C   tau( 204) = (   0.5000000   0.8333333   0.1666667  )
       205           C   tau( 205) = (   0.5000000   0.8333333   0.5000000  )
       206           C   tau( 206) = (   0.5000000   0.8333333   0.8333333  )
       207           C   tau( 207) = (   0.8333333   0.1666667   0.1666667  )
       208           C   tau( 208) = (   0.8333333   0.1666667   0.5000000  )
       209           C   tau( 209) = (   0.8333333   0.1666667   0.8333333  )
       210           C   tau( 210) = (   0.8333333   0.5000000   0.1666667  )
       211           C   tau( 211) = (   0.8333333   0.5000000   0.5000000  )
[...]
     atom   44 type  1   force =     0.00000000    0.00000000    0.00000000
     atom   45 type  1   force =     0.00000000    0.00000000    0.00000000
     atom   46 type  1   force =     0.00000000    0.00000000    0.00000000
     atom   47 type  1   force =     0.00000000    0.00000000    0.00000000
     atom   48 type  1   force =     0.00000000    0.00000000    0.00000000
     atom   49 type  1   force =     0.00000000    0.00000000    0.00000000
     atom   50 type  1   force =     0.00000000    0.00000000    0.00000000
     atom   51 type  1   force =     0.00000000    0.00000000    0.00000000
     atom   52 type  1   force =     0.00000000    0.00000000    0.00000000
     atom   53 type  1   force =     0.00000000    0.00000000    0.00000000
     atom   54 type  1   force =     0.00000000    0.00000000    0.00000000
     atom   55 type  1   force =     0.00000000    0.00000000    0.00000000
     atom   56 type  1   force =     0.00000000    0.00000000    0.00000000
     atom   57 type  1   force =     0.00000000    0.00000000    0.00000000
     atom   58 type  1   force =     0.00000000    0.00000000    0.00000000
     atom   59 type  1   force =     0.00000000    0.00000000    0.00000000
     atom   60 type  1   force =     0.00000000    0.00000000    0.00000000
[...]
     atom  201 type  1   force =     0.00000000    0.00000000    0.00000000
     atom  202 type  1   force =     0.00000000    0.00000000    0.00000000
     atom  203 type  1   force =     0.00000000    0.00000000    0.00000000
     atom  204 type  1   force =     0.00000000    0.00000000    0.00000000
     atom  205 type  1   force =     0.00000000    0.00000000    0.00000000
     atom  206 type  1   force =     0.00000000    0.00000000    0.00000000
     atom  207 type  1   force =     0.00000000    0.00000000    0.00000000
     atom  208 type  1   force =     0.00000000    0.00000000    0.00000000
     atom  209 type  1   force =     0.00000000    0.00000000    0.00000000
     atom  210 type  1   force =     0.00000000    0.00000000    0.00000000
     atom  211 type  1   force =     0.00000000    0.00000000    0.00000000
     atom  212 type  1   force =     0.00000000    0.00000000    0.00000000
     atom  213 type  1   force =     0.00000000    0.00000000    0.00000000
     atom  214 type  1   force =     0.00000000    0.00000000    0.00000000
     atom  215 type  1   force =     0.00000000    0.00000000    0.00000000
     The SCF correction term to forces
     atom    1 type  1   force =     0.00000036   -0.00000036    0.00000083
     atom    2 type  1   force =     0.00000025   -0.00000025   -0.00000139
     atom    3 type  1   force =     0.00000025    0.00000139    0.00000025
     atom    4 type  1   force =     0.00000021   -0.00000059   -0.00000079
     atom    5 type  1   force =     0.00000016   -0.00000051    0.00000051
     atom    6 type  1   force =     0.00000036   -0.00000083    0.00000036
     atom    7 type  1   force =     0.00000025    0.00000095   -0.00000095
     atom    8 type  1   force =     0.00000021    0.00000079    0.00000059
     atom    9 type  1   force =     0.00000083   -0.00000036    0.00000036
     atom   10 type  1   force =    -0.00000095   -0.00000025   -0.00000095
     atom   11 type  1   force =    -0.00000079   -0.00000021    0.00000059
     atom   12 type  1   force =    -0.00000079   -0.00000059    0.00000021
     atom   13 type  1   force =     0.00000066    0.00000084    0.00000066
     atom   14 type  1   force =     0.00000055    0.00000075   -0.00000075
     atom   15 type  1   force =    -0.00000095    0.00000095    0.00000025
     atom   16 type  1   force =     0.00000048   -0.00000048    0.00000048
     atom   17 type  1   force =     0.00000066   -0.00000066   -0.00000084
     atom   18 type  1   force =    -0.00000139   -0.00000025    0.00000025
     atom   19 type  1   force =     0.00000059   -0.00000021   -0.00000079
     atom   20 type  1   force =     0.00000051   -0.00000016    0.00000051
     atom   21 type  1   force =     0.00000051   -0.00000051    0.00000016
     atom   22 type  1   force =    -0.00000075    0.00000075    0.00000055
     atom   23 type  1   force =    -0.00000086    0.00000086   -0.00000086
     atom   24 type  1   force =     0.00000059    0.00000079    0.00000021
     atom   25 type  1   force =    -0.00000084   -0.00000066    0.00000066
     atom   26 type  1   force =    -0.00000075   -0.00000055   -0.00000075
     atom   27 type  1   force =     0.00000046    0.00000016    0.00000041
     atom   28 type  1   force =    -0.00000066    0.00000144   -0.00000001
     atom   29 type  1   force =     0.00000018   -0.00000017   -0.00000004
     atom   30 type  1   force =     0.00000085   -0.00000085   -0.00000006
     atom   31 type  1   force =     0.00000060   -0.00000060    0.00000078
     atom   32 type  1   force =     0.00000001   -0.00000001   -0.00000011
     atom   33 type  1   force =     0.00000061    0.00000137   -0.00000013
     atom   34 type  1   force =    -0.00000181   -0.00000076   -0.00000116
     atom   35 type  1   force =    -0.00000074    0.00000056    0.00000139
     atom   36 type  1   force =    -0.00000034    0.00000034    0.00000023
     atom   37 type  1   force =     0.00000077   -0.00000077    0.00000006
     atom   38 type  1   force =     0.00000052   -0.00000052   -0.00000042
     atom   39 type  1   force =    -0.00000016   -0.00000046    0.00000041
     atom   40 type  1   force =    -0.00000144    0.00000066   -0.00000001
     atom   41 type  1   force =     0.00000017   -0.00000018   -0.00000004
     atom   42 type  1   force =    -0.00000139    0.00000048    0.00000106
     atom   43 type  1   force =     0.00000253    0.00000021   -0.00000014
     atom   44 type  1   force =     0.00000094    0.00000058   -0.00000083
     atom   45 type  1   force =    -0.00000048    0.00000139    0.00000106
     atom   46 type  1   force =    -0.00000021   -0.00000253   -0.00000014
     atom   47 type  1   force =    -0.00000058   -0.00000094   -0.00000083
     atom   48 type  1   force =    -0.00000137   -0.00000061   -0.00000013
     atom   49 type  1   force =     0.00000076    0.00000181   -0.00000116
     atom   50 type  1   force =    -0.00000056    0.00000074    0.00000139
     atom   51 type  1   force =     0.00000069   -0.00000069    0.00000219
     atom   52 type  1   force =    -0.00000088    0.00000088    0.00000048
     atom   53 type  1   force =    -0.00000031    0.00000031   -0.00000247
     atom   54 type  1   force =     0.00000047    0.00000059   -0.00000059
     atom   55 type  1   force =     0.00000022    0.00000118   -0.00000031
     atom   56 type  1   force =     0.00000090    0.00000005    0.00000060
     atom   57 type  1   force =     0.00000090   -0.00000060   -0.00000005
     atom   58 type  1   force =     0.00000021   -0.00000143   -0.00000032
     atom   59 type  1   force =    -0.00000036   -0.00000038    0.00000038
     atom   60 type  1   force =     0.00000022    0.00000031   -0.00000118
[...]
     atom  201 type  1   force =     0.00000001   -0.00000142    0.00000109
     atom  202 type  1   force =    -0.00000014    0.00000251   -0.00000014
     atom  203 type  1   force =     0.00000013    0.00000084   -0.00000084
     atom  204 type  1   force =    -0.00000118    0.00000118    0.00000213
     atom  205 type  1   force =     0.00000052   -0.00000052    0.00000052
     atom  206 type  1   force =    -0.00000014    0.00000014   -0.00000251
     atom  207 type  1   force =     0.00000001   -0.00000042    0.00000042
     atom  208 type  1   force =     0.00000142   -0.00000109    0.00000001
     atom  209 type  1   force =    -0.00000009   -0.00000029   -0.00000009
     atom  210 type  1   force =    -0.00000009    0.00000009    0.00000029
     atom  211 type  1   force =    -0.00000084    0.00000084    0.00000013
     atom  212 type  1   force =    -0.00000049    0.00000049   -0.00000049
     atom  213 type  1   force =     0.00000142   -0.00000001    0.00000109
     atom  214 type  1   force =    -0.00000251    0.00000014   -0.00000014
     atom  215 type  1   force =    -0.00000084   -0.00000013   -0.00000084

     Total force =     0.005098     Total SCF correction =     0.000023

     Computing stress (Cartesian axis) and pressure

     Non-local corr. energy    =       7.35958055 Ry

          total   stress  (Ry/bohr**3)                   (kbar)     P=      -43.85
  -0.00029807  -0.00000005   0.00000005          -43.85       -0.01        0.01
  -0.00000005  -0.00029807  -0.00000005           -0.01      -43.85       -0.01
   0.00000005  -0.00000005  -0.00029807            0.01       -0.01      -43.85

     kinetic stress (kbar)  18839.79     -0.00      0.00
                               -0.00  18839.79     -0.00
                                0.00     -0.00  18839.79

     local   stress (kbar)  -3600.39      0.10     -0.10
                                0.10  -3600.39      0.10
                               -0.10      0.10  -3600.39

     nonloc. stress (kbar)   4310.53     -0.00      0.00
                               -0.00   4310.53     -0.00
                                0.00     -0.00   4310.53

     hartree stress (kbar)   1311.71     -0.03      0.03
                               -0.03   1311.71     -0.03
                                0.03     -0.03   1311.71

     exc-cor stress (kbar)   -398.58     -0.00      0.00
                               -0.00   -398.58     -0.00
                                0.00     -0.00   -398.58

     corecor stress (kbar)  -4413.15      0.00     -0.00
                                0.00  -4413.15      0.00
                               -0.00      0.00  -4413.15

     ewald   stress (kbar) -16118.48     -0.08      0.08
                               -0.08 -16118.48     -0.08
                                0.08     -0.08 -16118.48

     hubbard stress (kbar)      0.00      0.00      0.00
                                0.00      0.00      0.00
                                0.00      0.00      0.00

     DFT-D   stress (kbar)      0.00      0.00      0.00
                                0.00      0.00      0.00
                                0.00      0.00      0.00

     XDM     stress (kbar)      0.00      0.00      0.00
                                0.00      0.00      0.00
                                0.00      0.00      0.00

     dft-nl  stress (kbar)     24.72      0.00     -0.00
                                0.00     24.72      0.00
                               -0.00      0.00     24.72

     TS-vdW  stress (kbar)      0.00      0.00      0.00
                                0.00      0.00      0.00
                                0.00      0.00      0.00

     MDB     stress (kbar)      0.00      0.00      0.00
                                0.00      0.00      0.00
                                0.00      0.00      0.00

     3D-RISM stress (kbar)      0.00      0.00      0.00
                                0.00      0.00      0.00
                                0.00      0.00      0.00

     Energy error            =      8.2E-05 Ry
     Gradient error          =      4.2E-04 Ry/Bohr

     bfgs converged in   7 scf cycles and   6 bfgs steps
     (criteria: energy <  1.0E-04 Ry, force <  1.0E-03 Ry/Bohr)

     End of BFGS Geometry Optimization

     Final energy             =   -4085.0002937152 Ry

     File ./diamond.bfgs deleted, as requested
Begin final coordinates

ATOMIC_POSITIONS (angstrom)
C             0.8931248011        2.6791783519        4.4655306835
C             0.8930977084        2.6792054446        8.0376347068
C             0.8930977084        6.2515778997        0.8930977084
C             0.8960965536        6.2518650452        4.4657539147
C             0.8901252572        6.2518944141        8.0373181924
C             0.8931248011        9.8236819230        0.8931248011
C             0.8900586720        9.8233783499        4.4658342566
C             0.8960965536        9.8234586918        8.0373475613
C             4.4655306835        2.6791783519        0.8931248011
C             4.4658342566        2.6822444810        4.4658342566
C             4.4657539147        2.6762065994        8.0373475613
C             4.4657539147        6.2518650452        0.8960965536
C             4.4649519159        6.2510589589        4.4649519159
C             4.4654483234        6.2515457827        8.0376668238
C             4.4658342566        9.8233783499        0.8900586720
C             4.4654123289        9.8238002776        4.4654123289
C             4.4649519159        9.8242606906        8.0381536476
C             8.0376347068        2.6792054446        0.8930977084
C             8.0373475613        2.6762065994        4.4657539147
C             8.0373181924        2.6821778958        8.0373181924
C             8.0373181924        6.2518944141        0.8901252572
C             8.0376668238        6.2515457827        4.4654483234
C             8.0381777642        6.2510348423        8.0381777642
C             8.0373475613        9.8234586918        0.8960965536
C             8.0381536476        9.8242606906        4.4649519159
C             8.0376668238        9.8237642831        8.0376668238
C             0.0049358518       -0.0014238998        1.7812924449
C             0.0003699411        0.0011735219        5.3576720728
C            -0.0133037578       -0.0114074720        8.9195367719
C            -0.0882107991        3.6605139503        1.8743119883
C            -0.0000372112        3.5723403624        5.3602571344
C             0.0049664403        3.5673367109        8.9293913845
C            -0.0000462775        7.1463827816        1.7861967746
C            -0.0021021908        7.1455649551        5.3594002562
C             0.0003918637        7.1437689223        8.9319259003
C             3.5836832394       -0.0113800882        1.7992237732
C             3.5748163227       -0.0025131715        5.3622848213
C             3.5704484600        0.0018546912        8.9325606097
C             3.5737270510        3.5673672994        1.7812924449
C             3.5711296293        3.5719332101        5.3576720728
C             3.5837106232        3.5856069090        8.9195367719
C             3.5710943633        7.1437825141        1.7857532126
C             3.5729059871        7.1441816548        5.3580019852
C             3.5748796021        7.1485495780        8.9282344089
C             7.1454300905        0.0012087879        1.7857532126
C             7.1450309498       -0.0006028359        5.3580019852
C             7.1406630266       -0.0025764509        8.9282344089
C             7.1428298230        3.5723494287        1.7861967746
C             7.1436476495        3.5744053420        5.3594002562
C             7.1454436823        3.5719112875        8.9319259003
C             7.1436281010        7.1455845036        1.7882048525
C             7.1438738085        7.1453387961        5.3591513391
C             7.1450431411        7.1441694635        8.9301456723
C             0.8880650965        0.9074234274        2.6648797256
C             0.8930979438        0.8930719802        6.2515108602
C             0.8980188426        0.9074882726        9.8383308216
C             0.8980188426        4.4508817849        2.6648148804
C             0.8931068043        4.4654631607        6.2514987521
C             0.8883790075        4.4510679270        9.8381446795
C             0.8930979438        8.0377017463        2.6792311728
[...]
C             5.3576110993        5.3572597735        1.7857419935
C             5.3580049364        5.3590888876        5.3580049364
C             5.3624591836        5.3610645989        8.9281480076
C             5.3594194902        8.9297931163        1.7882705288
C             5.3591613541        8.9300512524        5.3591613541
C             5.3580049364        8.9312076701        8.9301237189
C             8.9294233907        1.7911481736        1.7811549794
C             8.9319528330        1.7865611595        5.3576110993
C             8.9192117669        1.7726861445        8.9192117669
C             8.9192117669        5.3700008396        1.7996170085
C             8.9281480076        5.3610645989        5.3624591836
C             8.9326678064        5.3565448001        8.9326678064
C             8.9319528330        8.9316015072        1.7857419935
C             8.9301237189        8.9312076701        5.3580049364
C             8.9281480076        8.9267534229        8.9281480076
End final coordinates

     Writing all to output data dir ./diamond.save/

     General routines

     Parallel routines

     PAW routines

   This run was terminated on:  13:50:55  29Sep2023

   JOB DONE.