     Program PWSCF v.7.1 starts on 26Feb2024 at  8:22: 3

     Reading input from espresso.pwi
Warning: card &CELL ignored
Warning: card    CELL_DYNAMICS    = 'BFGS' ignored
Warning: card / ignored

     Current dimensions of program PWSCF are:
     Max number of different atomic species (ntypx) = 10
     Max number of k-points (npk) =  40000
     Max angular momentum in pseudopotentials (lmaxx) =  4
     file Pb.pbe-dn-kjpaw_psl.1.0.0.UPF: wavefunction(s)  6S 6P 5D renormalized
     file I.pbe-dn-kjpaw_psl.1.0.0.UPF: wavefunction(s)  5S 5P renormalized

     IMPORTANT: XC functional enforced from input :
     Exchange-correlation= BEEF-VDW
                           (   1   4  43  14   2   0   0)
     Any further DFT definition will be discarded
     Please, verify this is what you really want

     R & G space division:  proc/nbgrp/npool/nimage =     256
     wavefunctions fft division:  task group distribution
                                  #TG    x Z-proc =       8     32
     Subspace diagonalization in iterative solution of the eigenvalue problem:
     a serial algorithm will be used

     Using Pencil Decomposition

     bravais-lattice index     =            4
     lattice parameter (alat)  =      35.6120  a.u.
     unit-cell volume          =   45937.3577 (a.u.)^3
     number of atoms/cell      =          144
     number of atomic types    =            2
     number of electrons       =      2305.00
     number of Kohn-Sham states=         1384
     kinetic-energy cutoff     =      70.0000  Ry
     charge density cutoff     =     350.0000  Ry
     scf convergence threshold =      1.0E-07
     mixing beta               =       0.7000
     number of iterations used =            8  plain     mixing
     energy convergence thresh.=      1.0E-04
     force convergence thresh. =      1.0E-03
     Exchange-correlation= BEEF-VDW
                           (   1   4  43  14   2   0   0)
     nstep                     =           50

     celldm(1)=  35.612033  celldm(2)=   0.000000  celldm(3)=   1.174479
     celldm(4)=   0.000000  celldm(5)=   0.000000  celldm(6)=   0.000000

     crystal axes: (cart. coord. in units of alat)
               a(1) = (   1.000000   0.000000   0.000000 )
               a(2) = (  -0.500000   0.866025   0.000000 )
               a(3) = (   0.000000   0.000000   1.174479 )

     reciprocal axes: (cart. coord. in units 2 pi/alat)
               b(1) = (  1.000000  0.577350 -0.000000 )
               b(2) = (  0.000000  1.154701  0.000000 )
               b(3) = (  0.000000 -0.000000  0.851442 )

     PseudoPot. # 1 for Pb read from file:
     /trace/group/acmegroup/atimmins/packages/espresso/pseudo/psl_1.0.0/pslibrary.1.0.0/pbe/PSEUDOPOTENTIALS/Pb.pbe-dn-kjpaw_psl.1.0.0.UPF
     MD5 check sum: 39ab5b8a6bbd56b7735ad9f188aac93a
     Pseudo is Projector augmented-wave + core cor, Zval = 14.0
     Generated using 'atomic' code by A. Dal Corso  v.7.1
     Shape of augmentation charge: PSQ
     Using radial grid of 1281 points,  6 beta functions with:
                l(1) =   0
                l(2) =   0
                l(3) =   1
                l(4) =   1
                l(5) =   2
                l(6) =   2
     Q(r) pseudized with 0 coefficients

     PseudoPot. # 2 for I  read from file:
     /trace/group/acmegroup/atimmins/packages/espresso/pseudo/psl_1.0.0/pslibrary.1.0.0/pbe/PSEUDOPOTENTIALS/I.pbe-dn-kjpaw_psl.1.0.0.UPF
     MD5 check sum: bfa8781bc1224d19af3f3980e3fab11e
     Pseudo is Projector augmented-wave + core cor, Zval = 17.0
     Generated using 'atomic' code by A. Dal Corso  v.7.1
     Shape of augmentation charge: PSQ
     Using radial grid of 1247 points,  6 beta functions with:
                l(1) =   0
                l(2) =   0
                l(3) =   1
                l(4) =   1
                l(5) =   2
                l(6) =   2
     Q(r) pseudized with 0 coefficients

     atomic species   valence    mass     pseudopotential
        Pb            14.00   207.20000     Pb( 1.00)
        I             17.00   126.90447     I ( 1.00)

     No symmetry found

                                    s                        frac. trans.

      isym =  1     identity

 cryst.   s( 1) = (     1          0          0      )
                  (     0          1          0      )
                  (     0          0          1      )

 cart.    s( 1) = (  1.0000000  0.0000000  0.0000000 )
                  (  0.0000000  1.0000000  0.0000000 )
                  (  0.0000000  0.0000000  1.0000000 )

     point group C_1 (1)
     there are  1 classes
     the character table:

       E
A      1.00

     the symmetry operations in each class and the name of the first element:

     E        1
          identity

   Cartesian axes

     site n.     atom                  positions (alat units)
         1           Pb  tau(   1) = (   0.1250034   0.2164918   0.3914896  )
         2           Pb  tau(   2) = (   0.1250085   0.2164873   0.7829825  )
         3           Pb  tau(   3) = (   0.0000128   0.4329881   1.1744712  )
         4           Pb  tau(   4) = (   0.0000026   0.4329971   0.3914855  )
         5           Pb  tau(   5) = (   0.0000077   0.4329926   0.7829784  )
         6           Pb  tau(   6) = (  -0.1249881   0.6494934   1.1744671  )
         7           Pb  tau(   7) = (  -0.1249983   0.6495025   0.3914814  )
         8           Pb  tau(   8) = (  -0.1249932   0.6494980   0.7829742  )
         9           Pb  tau(   9) = (  -0.2499889   0.8659988   1.1744630  )
        10           Pb  tau(  10) = (  -0.2499991   0.8660078   0.3914773  )
        11           Pb  tau(  11) = (  -0.2499940   0.8660033   0.7829701  )
        12           Pb  tau(  12) = (   0.3750136   0.2164818   1.1744786  )
        13           Pb  tau(  13) = (   0.3750034   0.2164908   0.3914929  )
        14           Pb  tau(  14) = (   0.3750085   0.2164863   0.7829857  )
        15           Pb  tau(  15) = (   0.2500128   0.4329871   1.1744745  )
        16           Pb  tau(  16) = (   0.2500026   0.4329962   0.3914888  )
        17           Pb  tau(  17) = (   0.2500077   0.4329916   0.7829816  )
        18           Pb  tau(  18) = (   0.1250119   0.6494925   1.1744703  )
        19           Pb  tau(  19) = (   0.1250017   0.6495015   0.3914847  )
        20           Pb  tau(  20) = (   0.1250068   0.6494970   0.7829775  )
        21           Pb  tau(  21) = (   0.0000111   0.8659978   1.1744662  )
        22           Pb  tau(  22) = (   0.0000009   0.8660069   0.3914805  )
        23           Pb  tau(  23) = (   0.0000060   0.8660024   0.7829734  )
        24           Pb  tau(  24) = (   0.6250136   0.2164808   1.1744818  )
        25           Pb  tau(  25) = (   0.6250034   0.2164898   0.3914962  )
        26           Pb  tau(  26) = (   0.6250085   0.2164853   0.7829890  )
        27           Pb  tau(  27) = (   0.5000128   0.4329862   1.1744777  )
        28           Pb  tau(  28) = (   0.5000026   0.4329952   0.3914920  )
        29           Pb  tau(  29) = (   0.5000077   0.4329907   0.7829849  )
        30           Pb  tau(  30) = (   0.3750119   0.6494915   1.1744736  )
        31           Pb  tau(  31) = (   0.3750017   0.6495006   0.3914879  )
        32           Pb  tau(  32) = (   0.3750068   0.6494960   0.7829808  )
        33           Pb  tau(  33) = (   0.2500111   0.8659969   1.1744695  )
        34           Pb  tau(  34) = (   0.2500009   0.8660059   0.3914838  )
        35           Pb  tau(  35) = (   0.2500060   0.8660014   0.7829766  )
        36           Pb  tau(  36) = (   0.8750136   0.2164798   1.1744851  )
        37           Pb  tau(  37) = (   0.8750034   0.2164889   0.3914994  )
        38           Pb  tau(  38) = (   0.8750085   0.2164844   0.7829923  )
        39           Pb  tau(  39) = (   0.7500128   0.4329852   1.1744810  )
        40           Pb  tau(  40) = (   0.7500026   0.4329942   0.3914953  )
        41           Pb  tau(  41) = (   0.7500077   0.4329897   0.7829881  )
        42           Pb  tau(  42) = (   0.6250119   0.6494906   1.1744769  )
        43           Pb  tau(  43) = (   0.6250017   0.6494996   0.3914912  )
        44           Pb  tau(  44) = (   0.6250068   0.6494951   0.7829840  )
        45           Pb  tau(  45) = (   0.5000111   0.8659959   1.1744727  )
        46           Pb  tau(  46) = (   0.5000009   0.8660050   0.3914870  )
        47           Pb  tau(  47) = (   0.5000060   0.8660004   0.7829799  )
        48           I   tau(  48) = (   0.1250054   0.0721550   0.2909325  )
        49           I   tau(  49) = (   0.1250105   0.0721505   0.6824253  )
        50           I   tau(  50) = (   0.1250156   0.0721459   1.0739182  )
        51           I   tau(  51) = (   0.0000045   0.2886603   0.2909283  )
        52           I   tau(  52) = (   0.0000096   0.2886558   0.6824212  )
        53           I   tau(  53) = (   0.0000147   0.2886513   1.0739140  )
        54           I   tau(  54) = (  -0.1249963   0.5051657   0.2909242  )
        55           I   tau(  55) = (  -0.1249912   0.5051612   0.6824171  )
        56           I   tau(  56) = (  -0.1249861   0.5051566   1.0739099  )
        57           I   tau(  57) = (  -0.2499971   0.7216710   0.2909201  )
        58           I   tau(  58) = (  -0.2499920   0.7216665   0.6824129  )
        59           I   tau(  59) = (  -0.2499869   0.7216620   1.0739058  )
        60           I   tau(  60) = (   0.3750054   0.0721540   0.2909357  )
[...]
       130           I   tau( 130) = (   0.1250009   0.7938394   0.4920425  )
       131           I   tau( 131) = (   0.1250060   0.7938348   0.8835353  )
       132           I   tau( 132) = (   0.7499983   0.1443268   0.1005653  )
       133           I   tau( 133) = (   0.7500034   0.1443223   0.4920581  )
       134           I   tau( 134) = (   0.7500085   0.1443178   0.8835509  )
       135           I   tau( 135) = (   0.6249975   0.3608322   0.1005611  )
       136           I   tau( 136) = (   0.6250026   0.3608277   0.4920540  )
       137           I   tau( 137) = (   0.6250077   0.3608232   0.8835468  )
       138           I   tau( 138) = (   0.4999966   0.5773376   0.1005570  )
       139           I   tau( 139) = (   0.5000017   0.5773330   0.4920499  )
       140           I   tau( 140) = (   0.5000068   0.5773285   0.8835427  )
       141           I   tau( 141) = (   0.3749958   0.7938429   0.1005529  )
       142           I   tau( 142) = (   0.3750009   0.7938384   0.4920457  )
       143           I   tau( 143) = (   0.3750060   0.7938339   0.8835386  )
       144           I   tau( 144) = (   0.1250136   0.2164827   1.1744753  )

   Crystallographic axes

     site n.     atom                  positions (cryst. coord.)
         1           Pb  tau(   1) = (  0.2499950  0.2499832  0.3333306  )
         2           Pb  tau(   2) = (  0.2499975  0.2499780  0.6666639  )
         3           Pb  tau(   3) = (  0.2499986  0.4999716  0.9999938  )
         4           Pb  tau(   4) = (  0.2499936  0.4999820  0.3333271  )
         5           Pb  tau(   5) = (  0.2499961  0.4999768  0.6666604  )
[...]
     atom   44 type  1   force =     0.00000000    0.00000000    0.00000000
     atom   45 type  1   force =     0.00000000    0.00000000    0.00000000
     atom   46 type  1   force =     0.00000000    0.00000000    0.00000000
     atom   47 type  1   force =     0.00000000    0.00000000    0.00000000
     atom   48 type  2   force =     0.00000000    0.00000000    0.00000000
     atom   49 type  2   force =     0.00000000    0.00000000    0.00000000
     atom   50 type  2   force =     0.00000000    0.00000000    0.00000000
     atom   51 type  2   force =     0.00000000    0.00000000    0.00000000
     atom   52 type  2   force =     0.00000000    0.00000000    0.00000000
     atom   53 type  2   force =     0.00000000    0.00000000    0.00000000
     atom   54 type  2   force =     0.00000000    0.00000000    0.00000000
     atom   55 type  2   force =     0.00000000    0.00000000    0.00000000
     atom   56 type  2   force =     0.00000000    0.00000000    0.00000000
     atom   57 type  2   force =     0.00000000    0.00000000    0.00000000
     atom   58 type  2   force =     0.00000000    0.00000000    0.00000000
     atom   59 type  2   force =     0.00000000    0.00000000    0.00000000
     atom   60 type  2   force =     0.00000000    0.00000000    0.00000000
[...]
     atom  130 type  2   force =     0.00000000    0.00000000    0.00000000
     atom  131 type  2   force =     0.00000000    0.00000000    0.00000000
     atom  132 type  2   force =     0.00000000    0.00000000    0.00000000
     atom  133 type  2   force =     0.00000000    0.00000000    0.00000000
     atom  134 type  2   force =     0.00000000    0.00000000    0.00000000
     atom  135 type  2   force =     0.00000000    0.00000000    0.00000000
     atom  136 type  2   force =     0.00000000    0.00000000    0.00000000
     atom  137 type  2   force =     0.00000000    0.00000000    0.00000000
     atom  138 type  2   force =     0.00000000    0.00000000    0.00000000
     atom  139 type  2   force =     0.00000000    0.00000000    0.00000000
     atom  140 type  2   force =     0.00000000    0.00000000    0.00000000
     atom  141 type  2   force =     0.00000000    0.00000000    0.00000000
     atom  142 type  2   force =     0.00000000    0.00000000    0.00000000
     atom  143 type  2   force =     0.00000000    0.00000000    0.00000000
     atom  144 type  2   force =     0.00000000    0.00000000    0.00000000
     The SCF correction term to forces
     atom    1 type  1   force =    -0.00000286    0.00000107   -0.00000535
     atom    2 type  1   force =    -0.00000296    0.00000171    0.00000626
     atom    3 type  1   force =    -0.00000408   -0.00000756   -0.00000511
     atom    4 type  1   force =    -0.00000845    0.00000032   -0.00000354
     atom    5 type  1   force =    -0.00000456    0.00000280    0.00000549
     atom    6 type  1   force =     0.00000056   -0.00000367   -0.00000068
     atom    7 type  1   force =    -0.00000553   -0.00000471   -0.00000294
     atom    8 type  1   force =     0.00000532   -0.00000023    0.00000338
     atom    9 type  1   force =     0.00000168   -0.00000060    0.00000114
     atom   10 type  1   force =     0.00000109   -0.00000556   -0.00000241
     atom   11 type  1   force =     0.00000682   -0.00000145    0.00000201
     atom   12 type  1   force =     0.00000158   -0.00000034    0.00000023
     atom   13 type  1   force =     0.00000626    0.00000186   -0.00000239
     atom   14 type  1   force =     0.00000557   -0.00000429    0.00000256
     atom   15 type  1   force =    -0.00000314   -0.00000104   -0.00000016
     atom   16 type  1   force =     0.00000325    0.00000049   -0.00000257
     atom   17 type  1   force =    -0.00000288    0.00000283    0.00000303
     atom   18 type  1   force =    -0.00000340    0.00000161   -0.00000414
     atom   19 type  1   force =    -0.00000276    0.00000025   -0.00000412
     atom   20 type  1   force =    -0.00000387    0.00000579    0.00000367
     atom   21 type  1   force =     0.00000353   -0.00000104   -0.00000464
     atom   22 type  1   force =     0.00000011    0.00000104   -0.00000386
     atom   23 type  1   force =     0.00000515   -0.00000209    0.00000321
     atom   24 type  1   force =     0.00000375    0.00000121   -0.00000043
     atom   25 type  1   force =     0.00000191    0.00000679   -0.00000345
     atom   26 type  1   force =     0.00000257   -0.00000429    0.00000372
     atom   27 type  1   force =     0.00000585   -0.00000132    0.00000450
     atom   28 type  1   force =     0.00000882    0.00000073   -0.00000338
     atom   29 type  1   force =     0.00000387   -0.00000303    0.00000346
     atom   30 type  1   force =    -0.00000032    0.00000059    0.00000125
     atom   31 type  1   force =     0.00000558   -0.00000251   -0.00000296
     atom   32 type  1   force =    -0.00000534    0.00000278    0.00000229
     atom   33 type  1   force =    -0.00000238    0.00000346   -0.00000365
     atom   34 type  1   force =    -0.00000071    0.00000378   -0.00000477
     atom   35 type  1   force =    -0.00000702    0.00000132    0.00000373
     atom   36 type  1   force =     0.00000484    0.00000540   -0.00000352
     atom   37 type  1   force =    -0.00000545    0.00000560   -0.00000443
     atom   38 type  1   force =    -0.00000539    0.00000214    0.00000546
     atom   39 type  1   force =     0.00000153   -0.00000194    0.00000303
     atom   40 type  1   force =    -0.00000372    0.00000107   -0.00000376
     atom   41 type  1   force =     0.00000343   -0.00000287    0.00000527
     atom   42 type  1   force =     0.00000322   -0.00000492    0.00000479
     atom   43 type  1   force =     0.00000282   -0.00000798   -0.00000343
     atom   44 type  1   force =     0.00000378   -0.00000274    0.00000305
     atom   45 type  1   force =    -0.00000272    0.00000501    0.00000232
     atom   46 type  1   force =    -0.00000021   -0.00000233   -0.00000362
     atom   47 type  1   force =    -0.00000499    0.00000196    0.00000249
     atom   48 type  2   force =    -0.00000121   -0.00000027   -0.00001357
     atom   49 type  2   force =     0.00000010    0.00000001    0.00000094
     atom   50 type  2   force =    -0.00000381    0.00001012    0.00000677
     atom   51 type  2   force =    -0.00000636    0.00000132   -0.00001349
     atom   52 type  2   force =    -0.00000609    0.00000300    0.00000331
     atom   53 type  2   force =    -0.00000227    0.00000044    0.00000673
     atom   54 type  2   force =    -0.00000809   -0.00000309   -0.00000655
     atom   55 type  2   force =     0.00000114   -0.00000010    0.00000052
     atom   56 type  2   force =     0.00000166   -0.00000463    0.00000525
     atom   57 type  2   force =    -0.00000105   -0.00000760   -0.00000567
     atom   58 type  2   force =     0.00000726   -0.00000158   -0.00000248
     atom   59 type  2   force =     0.00000603   -0.00000519    0.00000610
     atom   60 type  2   force =     0.00000193   -0.00000030   -0.00000859
[...]
     atom  130 type  2   force =    -0.00000261    0.00000275    0.00000713
     atom  131 type  2   force =    -0.00000272    0.00000248    0.00000225
     atom  132 type  2   force =    -0.00000048    0.00000572   -0.00000686
     atom  133 type  2   force =    -0.00000214    0.00000763    0.00000152
     atom  134 type  2   force =    -0.00000247    0.00000042    0.00000696
     atom  135 type  2   force =     0.00000470    0.00000025   -0.00000332
     atom  136 type  2   force =     0.00000360    0.00000306   -0.00000697
     atom  137 type  2   force =     0.00000616   -0.00000513    0.00000831
     atom  138 type  2   force =     0.00000487   -0.00000315   -0.00000159
     atom  139 type  2   force =     0.00000703   -0.00000422   -0.00000622
     atom  140 type  2   force =     0.00000088   -0.00000171    0.00000853
     atom  141 type  2   force =     0.00000034    0.00000237   -0.00000567
     atom  142 type  2   force =     0.00000207   -0.00000031    0.00000203
     atom  143 type  2   force =    -0.00000809    0.00000451    0.00000673
     atom  144 type  2   force =    -0.00001344    0.00000622   -0.00000298

     Total force =     0.003036     Total SCF correction =     0.000099

     Computing stress (Cartesian axis) and pressure

     Non-local corr. energy    =      69.34431329 Ry

          total   stress  (Ry/bohr**3)                   (kbar)     P=       -3.77
  -0.00002585   0.00000007  -0.00000008           -3.80        0.01       -0.01
   0.00000007  -0.00002573   0.00000007            0.01       -3.79        0.01
  -0.00000008   0.00000007  -0.00002538           -0.01        0.01       -3.73

     kinetic stress (kbar)  14940.61      0.03     -0.04
                                0.03  14940.67      0.04
                               -0.04      0.04  14950.35

     local   stress (kbar)  -7467.54      0.67     -0.84
                                0.67  -7466.34      0.74
                               -0.84      0.74   1438.37

     nonloc. stress (kbar)  -1003.77      0.02     -0.03
                                0.02  -1003.73      0.03
                               -0.03      0.03  -1010.66

     hartree stress (kbar)  12053.06     -0.24      0.32
                               -0.24  12052.63     -0.28
                                0.32     -0.28   8037.21

     exc-cor stress (kbar)   6972.53     -0.00     -0.00
                               -0.00   6972.53      0.00
                               -0.00      0.00   6971.42

     corecor stress (kbar) -11344.42     -0.00      0.00
                               -0.00 -11344.42     -0.00
                                0.00     -0.00 -11344.32

     ewald   stress (kbar) -14237.95     -0.47      0.58
                               -0.47 -14238.79     -0.51
                                0.58     -0.51 -19131.07

     hubbard stress (kbar)      0.00      0.00      0.00
                                0.00      0.00      0.00
                                0.00      0.00      0.00

     DFT-D   stress (kbar)      0.00      0.00      0.00
                                0.00      0.00      0.00
                                0.00      0.00      0.00

     XDM     stress (kbar)      0.00      0.00      0.00
                                0.00      0.00      0.00
                                0.00      0.00      0.00

     dft-nl  stress (kbar)     83.67      0.00     -0.00
                                0.00     83.67      0.00
                               -0.00      0.00     84.97

     TS-vdW  stress (kbar)      0.00      0.00      0.00
                                0.00      0.00      0.00
                                0.00      0.00      0.00

     MDB     stress (kbar)      0.00      0.00      0.00
                                0.00      0.00      0.00
                                0.00      0.00      0.00

     3D-RISM stress (kbar)      0.00      0.00      0.00
                                0.00      0.00      0.00
                                0.00      0.00      0.00

     Energy error            =      5.3E-05 Ry
     Gradient error          =      7.4E-04 Ry/Bohr

     bfgs converged in  13 scf cycles and  12 bfgs steps
     (criteria: energy <  1.0E-04 Ry, force <  1.0E-03 Ry/Bohr)

     End of BFGS Geometry Optimization

     Final energy             =  -96801.9350695887 Ry

     File ./PbI2.bfgs deleted, as requested
Begin final coordinates

ATOMIC_POSITIONS (angstrom)
Pb            2.3557458112        4.0797124794        7.3930841110
Pb            2.3558297481        4.0796397913       14.7400815712
Pb           -0.0426235648        8.2355161794       22.1338848807
Pb           -0.0065586678        8.1565950266        7.3861029505
Pb            0.0062694454        8.1639650240       14.7469637609
Pb           -2.3554248972       12.2398836972       22.1328302068
Pb           -2.3604428087       12.2370701005        7.3808482656
Pb           -2.3504712073       12.2427218142       14.7521172605
Pb           -4.6682093503       16.2440924469       22.1319266276
Pb           -4.7172409925       16.3157967156        7.3860341866
Pb           -4.7043876347       16.3230895473       14.7469235076
Pb            7.1543103859        4.0801679713       22.1322663417
Pb            7.0675685028        4.0870314230        7.3861604955
Pb            7.0676480379        4.0722167854       14.7470432047
Pb            4.7544557202        8.2346549024       22.1331519557
Pb            4.7180117719        8.1566133699        7.3861212518
Pb            4.7053190301        8.1639732024       14.7469872737
Pb            2.3559534251       12.2597741814       22.1106494249
Pb            2.3557033147       12.2350577812        7.3703232747
Pb            2.3557668409       12.2441720878       14.7526945053
Pb            0.0173676313       16.3098846705       22.1107584529
Pb           -0.0040691941       16.3223561078        7.3703302867
Pb            0.0039180759       16.3176957476       14.7527160497
Pb           11.7782865469        4.0795374230       22.1329834254
Pb           11.7782358215        4.0853196808        7.3810495107
Pb           11.7783082563        4.0738272200       14.7523083955
Pb            9.4397731136        8.1698576704       22.1551258321
Pb            9.4263167594        8.1618759498        7.3804358750
Pb            9.4184637671        8.1572827454       14.7628139032
Pb            7.0669810017       12.2398170467       22.1328500676
Pb            7.0718612439       12.2370284961        7.3808922661
Pb            7.0620178068       12.2426876689       14.7521909628
Pb            4.6942288345       16.3096906493       22.1107350697
Pb            4.7154928131       16.3223577991        7.3703885097
Pb            4.7076159137       16.3176863079       14.7527739167
Pb           16.4024052801        4.0789317669       22.1337904320
Pb           16.4889674682        4.0870337397        7.3862105771
Pb           16.4890052029        4.0722322565       14.7470685021
Pb           14.1167652879        8.1696993072       22.1550624282
Pb           14.1301754845        8.1619063280        7.3804463176
Pb           14.1381288337        8.1573250099       14.7628083164
Pb           11.7781287117       12.2199207818       22.1550546148
Pb           11.7782616163       12.2355882853        7.3803457887
Pb           11.7783218936       12.2446812697       14.7627233892
Pb            9.3795985090       16.2449522627       22.1327188681
Pb            9.4286751591       16.3157786763        7.3860944358
Pb            9.4159638617       16.3230431713       14.7469744770
I             2.3558433804        1.3562652374        5.4949440789
I             2.3557776015        1.3578506337       12.8687176840
I             2.3559193400        1.3974031664       20.1959911128
I            -0.0029434537        5.4415202324        5.4950664222
I            -0.0014881519        5.4407084514       12.8687621269
I             0.0394486123        5.4170623446       20.1988252827
I            -2.3573851211        9.5190929771        5.4904136704
I            -2.3614694033        9.5163061306       12.8727821280
I            -2.3371158428        9.5171441071       20.2440204045
I            -4.7127557598       13.5988443883        5.4903539484
I            -4.7171659567       13.5965883622       12.8727015487
I            -4.7041208647       13.6170546434       20.2438063174
I             7.0549263037        1.3667507084        5.4584694129
[...]
I             2.3555672644       14.9600668154        9.2468705368
I             2.3556938476       14.9599302410       16.6444083901
I            14.1453089610        2.7342380660        1.8889963913
I            14.1339102364        2.7127379257        9.2604128389
I            14.1336020634        2.7176346722       16.6427098590
I            11.7782268924        6.8010284003        1.8829614114
I            11.7781940815        6.7987323962        9.2672053560
I            11.7782134207        6.7992560806       16.6488218012
I             9.4238106262       10.8791664651        1.8829606244
I             9.4216604107       10.8804453949        9.2670899384
I             9.4221698521       10.8801025261       16.6487012991
I             7.0851126635       14.9624212184        1.8887913893
I             7.0609803346       14.9635795875        9.2602648854
I             7.0650852778       14.9606838023       16.6426415623
I             2.3562162913        4.0796820285       22.1330342692
End final coordinates

     Writing all to output data dir ./PbI2.save/

     General routines

     Parallel routines

     PAW routines

   This run was terminated on:  22:43:59  27Feb2024

   JOB DONE.