     Program PWSCF v.7.1 starts on  8Oct2023 at  7:50:28

     Reading input from espresso.pwi
Warning: card &CELL ignored
Warning: card    CELL_DYNAMICS    = 'BFGS' ignored
Warning: card / ignored

     Current dimensions of program PWSCF are:
     Max number of different atomic species (ntypx) = 10
     Max number of k-points (npk) =  40000
     Max angular momentum in pseudopotentials (lmaxx) =  4
     file C.pbe-n-kjpaw_psl.1.0.0.UPF: wavefunction(s)  2S 2P renormalized

     IMPORTANT: XC functional enforced from input :
     Exchange-correlation= BEEF-VDW
                           (   1   4  43  14   2   0   0)
     Any further DFT definition will be discarded
     Please, verify this is what you really want

     K-points division:     npool     =       4
     R & G space division:  proc/nbgrp/npool/nimage =      64
     Subspace diagonalization in iterative solution of the eigenvalue problem:
     a serial algorithm will be used

     Using Slab Decomposition

     bravais-lattice index     =            1
     lattice parameter (alat)  =      20.2520  a.u.
     unit-cell volume          =    8306.2556 (a.u.)^3
     number of atoms/cell      =          215
     number of atomic types    =            1
     number of electrons       =       862.00
     number of Kohn-Sham states=          517
     kinetic-energy cutoff     =      70.0000  Ry
     charge density cutoff     =     350.0000  Ry
     scf convergence threshold =      1.0E-08
     mixing beta               =       0.7000
     number of iterations used =            8  plain     mixing
     Exchange-correlation= BEEF-VDW
                           (   1   4  43  14   2   0   0)

     celldm(1)=  20.252024  celldm(2)=   0.000000  celldm(3)=   0.000000
     celldm(4)=   0.000000  celldm(5)=   0.000000  celldm(6)=   0.000000

     crystal axes: (cart. coord. in units of alat)
               a(1) = (   1.000000   0.000000   0.000000 )
               a(2) = (   0.000000   1.000000   0.000000 )
               a(3) = (   0.000000   0.000000   1.000000 )

     reciprocal axes: (cart. coord. in units 2 pi/alat)
               b(1) = (  1.000000  0.000000  0.000000 )
               b(2) = (  0.000000  1.000000  0.000000 )
               b(3) = (  0.000000  0.000000  1.000000 )

     PseudoPot. # 1 for C  read from file:
     /trace/group/acmegroup/atimmins/packages/espresso/pseudo/psl_1.0.0/pslibrary.1.0.0/pbe/PSEUDOPOTENTIALS/C.pbe-n-kjpaw_psl.1.0.0.UPF
     MD5 check sum: 5459cf7f2c8c37df2f7cde8914797f4d
     Pseudo is Projector augmented-wave + core cor, Zval =  4.0
     Generated using 'atomic' code by A. Dal Corso  v.7.1
     Shape of augmentation charge: PSQ
     Using radial grid of 1073 points,  4 beta functions with:
                l(1) =   0
                l(2) =   0
                l(3) =   1
                l(4) =   1
     Q(r) pseudized with 0 coefficients

     atomic species   valence    mass     pseudopotential
        C              4.00    12.01100     C ( 1.00)

      6 Sym. Ops. (no inversion) found ( 4 have fractional translation)

                                    s                        frac. trans.

      isym =  1     identity

 cryst.   s( 1) = (     1          0          0      )
                  (     0          1          0      )
                  (     0          0          1      )

 cart.    s( 1) = (  1.0000000  0.0000000  0.0000000 )
                  (  0.0000000  1.0000000  0.0000000 )
                  (  0.0000000  0.0000000  1.0000000 )

      isym =  2     120 deg rotation - cart. axis [1,-1,1]

 cryst.   s( 2) = (     0          0          1      )    f =( -0.3333333 )
                  (    -1          0          0      )       ( -0.3333333 )
                  (     0         -1          0      )       (  0.0000000 )

 cart.    s( 2) = (  0.0000000 -1.0000000  0.0000000 )    f =( -0.3333333 )
                  (  0.0000000  0.0000000 -1.0000000 )       ( -0.3333333 )
                  (  1.0000000  0.0000000  0.0000000 )       (  0.0000000 )

      isym =  3     120 deg rotation - cart. axis [-1,1,-1]

[...]

      isym =  4     inv. 180 deg rotation - cart. axis [1,1,0]

[...]

 cryst.   s( 5) = (     0          0          1      )
                  (     0          1          0      )
                  (     1          0          0      )

 cart.    s( 5) = (  0.0000000  0.0000000  1.0000000 )
                  (  0.0000000  1.0000000  0.0000000 )
                  (  1.0000000  0.0000000  0.0000000 )

      isym =  6     inv. 180 deg rotation - cart. axis [0,1,1]

 cryst.   s( 6) = (     1          0          0      )    f =(  0.0000000 )
                  (     0          0         -1      )       ( -0.3333333 )
                  (     0         -1          0      )       ( -0.3333333 )

 cart.    s( 6) = (  1.0000000  0.0000000  0.0000000 )    f =(  0.0000000 )
                  (  0.0000000  0.0000000 -1.0000000 )       ( -0.3333333 )
                  (  0.0000000 -1.0000000  0.0000000 )       ( -0.3333333 )

     point group C_3v (3m)
     there are  3 classes
     the character table:

       E     2C3   3s_v
A_1    1.00  1.00  1.00
A_2    1.00  1.00 -1.00
E      2.00 -1.00  0.00

     the symmetry operations in each class and the name of the first element:

     E        1
          identity
     2C3      2    3
          120 deg rotation - cart. axis [1,-1,1]
     3s_v     4    5    6
          inv. 180 deg rotation - cart. axis [1,1,0]

   Cartesian axes

     site n.     atom                  positions (alat units)
         1           C   tau(   1) = (   0.0833353   0.2499980   0.4166687  )
         2           C   tau(   2) = (   0.0833353   0.2499980   0.7500020  )
         3           C   tau(   3) = (   0.0833353   0.5833313   0.0833353  )
         4           C   tau(   4) = (   0.0833353   0.5833313   0.4166687  )
         5           C   tau(   5) = (   0.0833353   0.5833313   0.7500020  )
         6           C   tau(   6) = (   0.0833353   0.9166647   0.0833353  )
         7           C   tau(   7) = (   0.0833353   0.9166647   0.4166687  )
         8           C   tau(   8) = (   0.0833353   0.9166647   0.7500020  )
         9           C   tau(   9) = (   0.4166687   0.2499980   0.0833353  )
        10           C   tau(  10) = (   0.4166687   0.2499980   0.4166687  )
        11           C   tau(  11) = (   0.4166687   0.2499980   0.7500020  )
        12           C   tau(  12) = (   0.4166687   0.5833313   0.0833353  )
        13           C   tau(  13) = (   0.4166687   0.5833313   0.4166687  )
        14           C   tau(  14) = (   0.4166687   0.5833313   0.7500020  )
        15           C   tau(  15) = (   0.4166687   0.9166647   0.0833353  )
        16           C   tau(  16) = (   0.4166687   0.9166647   0.4166687  )
        17           C   tau(  17) = (   0.4166687   0.9166647   0.7500020  )
        18           C   tau(  18) = (   0.7500020   0.2499980   0.0833353  )
        19           C   tau(  19) = (   0.7500020   0.2499980   0.4166687  )
        20           C   tau(  20) = (   0.7500020   0.2499980   0.7500020  )
        21           C   tau(  21) = (   0.7500020   0.5833313   0.0833353  )
        22           C   tau(  22) = (   0.7500020   0.5833313   0.4166687  )
        23           C   tau(  23) = (   0.7500020   0.5833313   0.7500020  )
        24           C   tau(  24) = (   0.7500020   0.9166647   0.0833353  )
        25           C   tau(  25) = (   0.7500020   0.9166647   0.4166687  )
        26           C   tau(  26) = (   0.7500020   0.9166647   0.7500020  )
        27           C   tau(  27) = (   0.0000000   0.0000000   0.1666667  )
        28           C   tau(  28) = (   0.0000000   0.0000000   0.5000000  )
        29           C   tau(  29) = (   0.0000000   0.0000000   0.8333333  )
        30           C   tau(  30) = (   0.0000000   0.3333333   0.1666667  )
        31           C   tau(  31) = (   0.0000000   0.3333333   0.5000000  )
        32           C   tau(  32) = (   0.0000000   0.3333333   0.8333333  )
        33           C   tau(  33) = (   0.0000000   0.6666667   0.1666667  )
        34           C   tau(  34) = (   0.0000000   0.6666667   0.5000000  )
        35           C   tau(  35) = (   0.0000000   0.6666667   0.8333333  )
        36           C   tau(  36) = (   0.3333333   0.0000000   0.1666667  )
        37           C   tau(  37) = (   0.3333333   0.0000000   0.5000000  )
        38           C   tau(  38) = (   0.3333333   0.0000000   0.8333333  )
        39           C   tau(  39) = (   0.3333333   0.3333333   0.1666667  )
        40           C   tau(  40) = (   0.3333333   0.3333333   0.5000000  )
        41           C   tau(  41) = (   0.3333333   0.3333333   0.8333333  )
        42           C   tau(  42) = (   0.3333333   0.6666667   0.1666667  )
        43           C   tau(  43) = (   0.3333333   0.6666667   0.5000000  )
        44           C   tau(  44) = (   0.3333333   0.6666667   0.8333333  )
        45           C   tau(  45) = (   0.6666667   0.0000000   0.1666667  )
        46           C   tau(  46) = (   0.6666667   0.0000000   0.5000000  )
        47           C   tau(  47) = (   0.6666667   0.0000000   0.8333333  )
        48           C   tau(  48) = (   0.6666667   0.3333333   0.1666667  )
        49           C   tau(  49) = (   0.6666667   0.3333333   0.5000000  )
        50           C   tau(  50) = (   0.6666667   0.3333333   0.8333333  )
        51           C   tau(  51) = (   0.6666667   0.6666667   0.1666667  )
        52           C   tau(  52) = (   0.6666667   0.6666667   0.5000000  )
        53           C   tau(  53) = (   0.6666667   0.6666667   0.8333333  )
        54           C   tau(  54) = (   0.0833353   0.0833353   0.2499980  )
        55           C   tau(  55) = (   0.0833353   0.0833353   0.5833313  )
        56           C   tau(  56) = (   0.0833353   0.0833353   0.9166647  )
        57           C   tau(  57) = (   0.0833353   0.4166687   0.2499980  )
        58           C   tau(  58) = (   0.0833353   0.4166687   0.5833313  )
        59           C   tau(  59) = (   0.0833353   0.4166687   0.9166647  )
        60           C   tau(  60) = (   0.0833353   0.7500020   0.2499980  )
[...]
       201           C   tau( 201) = (   0.5000000   0.5000000   0.1666667  )
       202           C   tau( 202) = (   0.5000000   0.5000000   0.5000000  )
       203           C   tau( 203) = (   0.5000000   0.5000000   0.8333333  )
       204           C   tau( 204) = (   0.5000000   0.8333333   0.1666667  )
       205           C   tau( 205) = (   0.5000000   0.8333333   0.5000000  )
       206           C   tau( 206) = (   0.5000000   0.8333333   0.8333333  )
       207           C   tau( 207) = (   0.8333333   0.1666667   0.1666667  )
       208           C   tau( 208) = (   0.8333333   0.1666667   0.5000000  )
       209           C   tau( 209) = (   0.8333333   0.1666667   0.8333333  )
       210           C   tau( 210) = (   0.8333333   0.5000000   0.1666667  )
       211           C   tau( 211) = (   0.8333333   0.5000000   0.5000000  )
       212           C   tau( 212) = (   0.8333333   0.5000000   0.8333333  )
[...]
     atom   25 type  1   force =     0.00000000    0.00000000    0.00000000
     atom   26 type  1   force =     0.00000000    0.00000000    0.00000000
     atom   27 type  1   force =     0.00000000    0.00000000    0.00000000
     atom   28 type  1   force =     0.00000000    0.00000000    0.00000000
     atom   29 type  1   force =     0.00000000    0.00000000    0.00000000
     atom   30 type  1   force =     0.00000000    0.00000000    0.00000000
     atom   31 type  1   force =     0.00000000    0.00000000    0.00000000
     atom   32 type  1   force =     0.00000000    0.00000000    0.00000000
     atom   33 type  1   force =     0.00000000    0.00000000    0.00000000
     atom   34 type  1   force =     0.00000000    0.00000000    0.00000000
     atom   35 type  1   force =     0.00000000    0.00000000    0.00000000
     atom   36 type  1   force =     0.00000000    0.00000000    0.00000000
     atom   37 type  1   force =     0.00000000    0.00000000    0.00000000
     atom   38 type  1   force =     0.00000000    0.00000000    0.00000000
     atom   39 type  1   force =     0.00000000    0.00000000    0.00000000
     atom   40 type  1   force =     0.00000000    0.00000000    0.00000000
     atom   41 type  1   force =     0.00000000    0.00000000    0.00000000
     atom   42 type  1   force =     0.00000000    0.00000000    0.00000000
     atom   43 type  1   force =     0.00000000    0.00000000    0.00000000
     atom   44 type  1   force =     0.00000000    0.00000000    0.00000000
     atom   45 type  1   force =     0.00000000    0.00000000    0.00000000
     atom   46 type  1   force =     0.00000000    0.00000000    0.00000000
     atom   47 type  1   force =     0.00000000    0.00000000    0.00000000
     atom   48 type  1   force =     0.00000000    0.00000000    0.00000000
     atom   49 type  1   force =     0.00000000    0.00000000    0.00000000
     atom   50 type  1   force =     0.00000000    0.00000000    0.00000000
     atom   51 type  1   force =     0.00000000    0.00000000    0.00000000
     atom   52 type  1   force =     0.00000000    0.00000000    0.00000000
     atom   53 type  1   force =     0.00000000    0.00000000    0.00000000
     atom   54 type  1   force =     0.00000000    0.00000000    0.00000000
     atom   55 type  1   force =     0.00000000    0.00000000    0.00000000
     atom   56 type  1   force =     0.00000000    0.00000000    0.00000000
     atom   57 type  1   force =     0.00000000    0.00000000    0.00000000
     atom   58 type  1   force =     0.00000000    0.00000000    0.00000000
     atom   59 type  1   force =     0.00000000    0.00000000    0.00000000
     atom   60 type  1   force =     0.00000000    0.00000000    0.00000000
[...]
     atom  201 type  1   force =     0.00000000    0.00000000    0.00000000
     atom  202 type  1   force =     0.00000000    0.00000000    0.00000000
     atom  203 type  1   force =     0.00000000    0.00000000    0.00000000
     atom  204 type  1   force =     0.00000000    0.00000000    0.00000000
     atom  205 type  1   force =     0.00000000    0.00000000    0.00000000
     atom  206 type  1   force =     0.00000000    0.00000000    0.00000000
     atom  207 type  1   force =     0.00000000    0.00000000    0.00000000
     atom  208 type  1   force =     0.00000000    0.00000000    0.00000000
     atom  209 type  1   force =     0.00000000    0.00000000    0.00000000
     atom  210 type  1   force =     0.00000000    0.00000000    0.00000000
     atom  211 type  1   force =     0.00000000    0.00000000    0.00000000
     atom  212 type  1   force =     0.00000000    0.00000000    0.00000000
     atom  213 type  1   force =     0.00000000    0.00000000    0.00000000
     atom  214 type  1   force =     0.00000000    0.00000000    0.00000000
     atom  215 type  1   force =     0.00000000    0.00000000    0.00000000
     The SCF correction term to forces
     atom    1 type  1   force =    -0.00000147    0.00000147   -0.00001423
     atom    2 type  1   force =    -0.00000444    0.00000444    0.00001150
     atom    3 type  1   force =    -0.00000444   -0.00001150   -0.00000444
     atom    4 type  1   force =    -0.00000567   -0.00000741   -0.00000113
     atom    5 type  1   force =    -0.00000677   -0.00000549    0.00000549
     atom    6 type  1   force =    -0.00000147    0.00001423   -0.00000147
     atom    7 type  1   force =    -0.00000316    0.00000572   -0.00000572
     atom    8 type  1   force =    -0.00000567    0.00000113    0.00000741
     atom    9 type  1   force =    -0.00001423    0.00000147   -0.00000147
     atom   10 type  1   force =    -0.00000572    0.00000316   -0.00000572
     atom   11 type  1   force =    -0.00000113    0.00000567    0.00000741
     atom   12 type  1   force =    -0.00000113   -0.00000741   -0.00000567
     atom   13 type  1   force =    -0.00000684   -0.00001290   -0.00000684
     atom   14 type  1   force =    -0.00000539   -0.00001356    0.00001356
     atom   15 type  1   force =    -0.00000572    0.00000572   -0.00000316
     atom   16 type  1   force =    -0.00001048    0.00001048   -0.00001048
     atom   17 type  1   force =    -0.00000684    0.00000684    0.00001290
     atom   18 type  1   force =     0.00001150    0.00000444   -0.00000444
     atom   19 type  1   force =     0.00000741    0.00000567   -0.00000113
     atom   20 type  1   force =     0.00000549    0.00000677    0.00000549
     atom   21 type  1   force =     0.00000549   -0.00000549   -0.00000677
     atom   22 type  1   force =     0.00001356   -0.00001356   -0.00000539
     atom   23 type  1   force =     0.00001106   -0.00001106    0.00001106
     atom   24 type  1   force =     0.00000741    0.00000113   -0.00000567
     atom   25 type  1   force =     0.00001290    0.00000684   -0.00000684
     atom   26 type  1   force =     0.00001356    0.00000539    0.00001356
     atom   27 type  1   force =     0.00001410    0.00002334   -0.00001096
     atom   28 type  1   force =     0.00000061    0.00000903    0.00000217
     atom   29 type  1   force =    -0.00000179    0.00000705    0.00000937
     atom   30 type  1   force =     0.00001665   -0.00001665   -0.00001591
     atom   31 type  1   force =    -0.00000055    0.00000055    0.00000188
     atom   32 type  1   force =     0.00000431   -0.00000431    0.00001532
     atom   33 type  1   force =    -0.00000034   -0.00000437   -0.00000800
     atom   34 type  1   force =    -0.00000329   -0.00000907    0.00000144
     atom   35 type  1   force =    -0.00000293   -0.00000233    0.00000696
     atom   36 type  1   force =    -0.00001882    0.00001882   -0.00000515
     atom   37 type  1   force =    -0.00001106    0.00001106   -0.00000334
     atom   38 type  1   force =    -0.00000719    0.00000719    0.00000857
     atom   39 type  1   force =    -0.00002334   -0.00001410   -0.00001096
     atom   40 type  1   force =    -0.00000903   -0.00000061    0.00000217
     atom   41 type  1   force =    -0.00000705    0.00000179    0.00000937
     atom   42 type  1   force =    -0.00000850   -0.00000367   -0.00000786
     atom   43 type  1   force =    -0.00001352   -0.00001075   -0.00000160
     atom   44 type  1   force =    -0.00000754   -0.00000815    0.00000944
     atom   45 type  1   force =     0.00000367    0.00000850   -0.00000786
     atom   46 type  1   force =     0.00001075    0.00001352   -0.00000160
     atom   47 type  1   force =     0.00000815    0.00000754    0.00000944
     atom   48 type  1   force =     0.00000437    0.00000034   -0.00000800
     atom   49 type  1   force =     0.00000907    0.00000329    0.00000144
     atom   50 type  1   force =     0.00000233    0.00000293    0.00000696
     atom   51 type  1   force =     0.00000844   -0.00000844   -0.00000849
     atom   52 type  1   force =     0.00001603   -0.00001603   -0.00000369
     atom   53 type  1   force =     0.00001047   -0.00001047    0.00001298
     atom   54 type  1   force =     0.00001368    0.00003289   -0.00003289
     atom   55 type  1   force =    -0.00000431    0.00000968    0.00000252
     atom   56 type  1   force =    -0.00000129    0.00002099    0.00002244
     atom   57 type  1   force =    -0.00000129   -0.00002244   -0.00002099
     atom   58 type  1   force =    -0.00000631   -0.00000429    0.00000367
     atom   59 type  1   force =    -0.00000365   -0.00001648    0.00001648
     atom   60 type  1   force =    -0.00000431   -0.00000252   -0.00000968
[...]
     atom  201 type  1   force =     0.00000400   -0.00000901   -0.00000872
     atom  202 type  1   force =    -0.00000023   -0.00001413   -0.00000023
     atom  203 type  1   force =     0.00000266   -0.00000872    0.00000872
     atom  204 type  1   force =    -0.00000127    0.00000127   -0.00000757
     atom  205 type  1   force =    -0.00000580    0.00000580   -0.00000580
     atom  206 type  1   force =    -0.00000023    0.00000023    0.00001413
     atom  207 type  1   force =     0.00001949    0.00001136   -0.00001136
     atom  208 type  1   force =     0.00000901    0.00000872    0.00000400
     atom  209 type  1   force =     0.00000815    0.00000607    0.00000815
     atom  210 type  1   force =     0.00000815   -0.00000815   -0.00000607
     atom  211 type  1   force =     0.00000872   -0.00000872    0.00000266
     atom  212 type  1   force =     0.00000401   -0.00000401    0.00000401
     atom  213 type  1   force =     0.00000901   -0.00000400   -0.00000872
     atom  214 type  1   force =     0.00001413    0.00000023   -0.00000023
     atom  215 type  1   force =     0.00000872   -0.00000266    0.00000872

     Total force =     0.005876     Total SCF correction =     0.000244

     Computing stress (Cartesian axis) and pressure

[...]

          total   stress  (Ry/bohr**3)                   (kbar)     P=       49.49
   0.00033639  -0.00000003   0.00000003           49.49       -0.00        0.00
  -0.00000003   0.00033639  -0.00000003           -0.00       49.49       -0.00
   0.00000003  -0.00000003   0.00033639            0.00       -0.00       49.49

     kinetic stress (kbar)  18957.68      0.01     -0.01
                                0.01  18957.68      0.01
                               -0.01      0.01  18957.68

     local   stress (kbar)  -3583.12      0.04     -0.04
                                0.04  -3583.12      0.04
                               -0.04      0.04  -3583.12

     nonloc. stress (kbar)   4311.39      0.00     -0.00
                                0.00   4311.39      0.00
                               -0.00      0.00   4311.39

     hartree stress (kbar)   1304.42     -0.01      0.01
                               -0.01   1304.42     -0.01
                                0.01     -0.01   1304.42

     exc-cor stress (kbar)   -421.96      0.00     -0.00
                                0.00   -421.96      0.00
                               -0.00      0.00   -421.96

     corecor stress (kbar)  -4415.58     -0.01      0.01
                               -0.01  -4415.58     -0.01
                                0.01     -0.01  -4415.58

     ewald   stress (kbar) -16128.20     -0.04      0.04
                               -0.04 -16128.20     -0.04
                                0.04     -0.04 -16128.20

     hubbard stress (kbar)      0.00      0.00      0.00
                                0.00      0.00      0.00
                                0.00      0.00      0.00

     DFT-D   stress (kbar)      0.00      0.00      0.00
                                0.00      0.00      0.00
                                0.00      0.00      0.00

     XDM     stress (kbar)      0.00      0.00      0.00
                                0.00      0.00      0.00
                                0.00      0.00      0.00

     dft-nl  stress (kbar)     24.85      0.00     -0.00
                                0.00     24.85      0.00
                               -0.00      0.00     24.85

     TS-vdW  stress (kbar)      0.00      0.00      0.00
                                0.00      0.00      0.00
                                0.00      0.00      0.00

     MDB     stress (kbar)      0.00      0.00      0.00
                                0.00      0.00      0.00
                                0.00      0.00      0.00

     3D-RISM stress (kbar)      0.00      0.00      0.00
                                0.00      0.00      0.00
                                0.00      0.00      0.00

[...]

     Non-local corr. energy    =       7.36169709 Ry

 BEEFens 2000 ensemble energies
             -0.130234511825423E+02
             -0.907938731880286E+02
             -0.322352468066059E+02
              0.356313420808669E+02
             -0.600334538450960E+02
             -0.839778929844486E+02
              0.496986745393842E+02
             -0.102679376349958E+02
              0.690372328094275E+02
             -0.114591591545553E+01
              0.280311748116341E+02
              0.143571701147876E+01
              0.388155117328193E+01
             -0.814130795466843E+01
              0.467392576032372E+02
             -0.349161430588399E+02
             -0.801572911551392E+02
             -0.222223208334991E+02
              0.181366236190029E+02
              0.197443688426654E+01
              0.959064644946083E+02
              0.869965955340430E+02
             -0.427493794631887E+02
              0.240080503060057E+02
             -0.108961477429002E+03
              0.877768695374596E+02
              0.314169537614202E+02
              0.923911950248646E+02
              0.583085904317102E+02
             -0.364106481501677E+02
              0.227247833105326E+02
             -0.473236593561668E+02
              0.142225370277750E+01
              0.464855681480025E+02
              0.599716372240381E+02
             -0.148146144326780E+02
              0.129341736028490E+03
             -0.452501041423379E+02
             -0.327615099821878E+02
              0.501287577849957E+02
              0.172768913566534E+02
              0.421473178076308E+02
             -0.737036451803507E+02
             -0.304853061070014E+01
              0.781029837195334E+02
              0.952649384828968E+02
             -0.863278003063038E+02
              0.717240161174925E+01
              0.340564434302817E+02
              0.795618281974953E+01
              0.416508549234490E+02
              0.835416589615386E+02
             -0.559526004342201E+02
             -0.588174562789894E+02
             -0.746243114494525E+02
             -0.205875373026576E+02
             -0.623112035649991E+02
              0.334619584728824E+01
             -0.165670413237852E+02
             -0.565085487946920E+02
[...]
              0.733018274258580E+02
              0.300184637779166E+02
              0.511072762147262E+02
             -0.731890679269736E+02
             -0.570574888461174E+02
             -0.232024995621579E+02
             -0.627264050719386E+02
              0.113044302912784E+03
              0.969802390731967E+02
              0.421456311226695E+02
              0.114329302000420E+03
             -0.613338781226521E+02
             -0.295001879225647E+02
             -0.304399300698170E+02
              0.902070595842574E+02

 BEEF-vdW xc energy contributions
            1 :    -881.8632194329064
            2 :     778.2723202777531
            3 :    -599.5689353268699
            4 :     391.9893036287474
            5 :    -202.7962629079088
            6 :     64.69593576647776
            7 :     12.36350066453406
            8 :    -39.49482730939098
            9 :     39.34571156340030
           10 :    -34.01909818447598
           11 :     36.12666963277843
           12 :    -46.35356519651464
           13 :     57.30503012323925
           14 :    -60.42955790764972
           15 :     51.87280591061540
           16 :    -34.41576954314746
           17 :     15.21047268515485
           18 :    -1.329237082720056
           19 :    -3.998605232026875
           20 :     2.433565830207385
           21 :     1.328423867771676
           22 :    -2.816934113481580
           23 :    0.3674813060520137
           24 :     4.377664233319592
           25 :    -8.040724805684476
           26 :     7.924890661375798
           27 :    -3.706996767263036
           28 :    -2.531586624550073
           29 :     7.757678731256419
           30 :    -9.864848211089452
           31 :    -115.3790333140159
           32 :    -83.75923274150387

     Writing all to output data dir ./diamond.save/

     General routines

     Parallel routines

     PAW routines

   This run was terminated on:   7:57: 7   8Oct2023

   JOB DONE.