     Program PWSCF v.7.1 starts on 21Feb2024 at  8:38:36

     Reading input from espresso.pwi

     Current dimensions of program PWSCF are:
     Max number of different atomic species (ntypx) = 10
     Max number of k-points (npk) =  40000
     Max angular momentum in pseudopotentials (lmaxx) =  4
     file Ga.pbe-dn-kjpaw_psl.1.0.0.UPF: wavefunction(s)  4S renormalized
     file N.pbe-n-kjpaw_psl.1.0.0.UPF: wavefunction(s)  2S renormalized

     IMPORTANT: XC functional enforced from input :
     Exchange-correlation= BEEF-VDW
                           (   1   4  43  14   2   0   0)
     Any further DFT definition will be discarded
     Please, verify this is what you really want

     Found identity + (  0.5000  0.0000  0.0000) symmetry
     This is a supercell, fractional translations are disabled

     K-points division:     npool     =       8
     R & G space division:  proc/nbgrp/npool/nimage =      16
     Subspace diagonalization in iterative solution of the eigenvalue problem:
     a serial algorithm will be used

     Using Slab Decomposition

     bravais-lattice index     =            8
     lattice parameter (alat)  =      10.9054  a.u.
     unit-cell volume          =     563.5719 (a.u.)^3
     number of atoms/cell      =            8
     number of atomic types    =            2
     number of electrons       =        72.00
     number of Kohn-Sham states=           43
     kinetic-energy cutoff     =      70.0000  Ry
     charge density cutoff     =     350.0000  Ry
     scf convergence threshold =      1.0E-07
     mixing beta               =       0.7000
     number of iterations used =            8  plain     mixing
     energy convergence thresh.=      1.0E-04
     force convergence thresh. =      1.0E-03
     press convergence thresh. =      5.0E-01
     Exchange-correlation= BEEF-VDW
                           (   1   4  43  14   2   0   0)
     nstep                     =           50

     celldm(1)=  10.905428  celldm(2)=   0.499904  celldm(3)=   0.869230
     celldm(4)=   0.000000  celldm(5)=   0.000000  celldm(6)=   0.000000

     crystal axes: (cart. coord. in units of alat)
               a(1) = (   1.000000   0.000000   0.000000 )
               a(2) = (   0.000000   0.499904   0.000000 )
               a(3) = (   0.000000   0.000000   0.869230 )

     reciprocal axes: (cart. coord. in units 2 pi/alat)
               b(1) = (  1.000000  0.000000  0.000000 )
               b(2) = (  0.000000  2.000385  0.000000 )
               b(3) = (  0.000000  0.000000  1.150443 )

     PseudoPot. # 1 for Ga read from file:
     /trace/group/acmegroup/atimmins/packages/espresso/pseudo/psl_1.0.0/pslibrary.1.0.0/pbe/PSEUDOPOTENTIALS/Ga.pbe-dn-kjpaw_psl.1.0.0.UPF
     MD5 check sum: cd2a01e492f15b435d17032472d8505c
     Pseudo is Projector augmented-wave + core cor, Zval = 13.0
     Generated using 'atomic' code by A. Dal Corso  v.7.1
     Shape of augmentation charge: PSQ
     Using radial grid of 1205 points,  6 beta functions with:
                l(1) =   0
                l(2) =   0
                l(3) =   1
                l(4) =   1
                l(5) =   2
                l(6) =   2
     Q(r) pseudized with 0 coefficients

     PseudoPot. # 2 for N  read from file:
     /trace/group/acmegroup/atimmins/packages/espresso/pseudo/psl_1.0.0/pslibrary.1.0.0/pbe/PSEUDOPOTENTIALS/N.pbe-n-kjpaw_psl.1.0.0.UPF
     MD5 check sum: f77f775694dac7e2c3fe1c82443d1a16
     Pseudo is Projector augmented-wave + core cor, Zval =  5.0
     Generated using 'atomic' code by A. Dal Corso  v.7.1
     Shape of augmentation charge: PSQ
     Using radial grid of 1085 points,  4 beta functions with:
                l(1) =   0
                l(2) =   0
                l(3) =   1
                l(4) =   1
     Q(r) pseudized with 0 coefficients

     atomic species   valence    mass     pseudopotential
        Ga            13.00    69.72300     Ga( 1.00)
        N              5.00    14.00700     N ( 1.00)

      2 Sym. Ops. (no inversion) found

                                    s                        frac. trans.

      isym =  1     identity

 cryst.   s( 1) = (     1          0          0      )
                  (     0          1          0      )
                  (     0          0          1      )

 cart.    s( 1) = (  1.0000000  0.0000000  0.0000000 )
                  (  0.0000000  1.0000000  0.0000000 )
                  (  0.0000000  0.0000000  1.0000000 )

      isym =  2     inv. 180 deg rotation - cart. axis [1,0,0]

[...]

     point group C_s (m)
     there are  2 classes
     the character table:

       E     s
A'     1.00  1.00
A''    1.00 -1.00

     the symmetry operations in each class and the name of the first element:

     E        1
          identity
     s        2
          inv. 180 deg rotation - cart. axis [1,0,0]

   Cartesian axes

     site n.     atom                  positions (alat units)
         1           Ga  tau(   1) = (   0.0000000   0.3751868   0.8652455  )
         2           Ga  tau(   2) = (   0.5000000   0.3751868   0.8652455  )
         3           Ga  tau(   3) = (   0.2500000   0.1247170   0.4306305  )
         4           Ga  tau(   4) = (   0.7500000   0.1247170   0.4306305  )
         5           N   tau(   5) = (   0.0000000   0.3747714   0.3386381  )
         6           N   tau(   6) = (   0.5000000   0.3747714   0.3386381  )
         7           N   tau(   7) = (   0.2500000   0.1251324   0.7732531  )
         8           N   tau(   8) = (   0.7500000   0.1251324   0.7732531  )

   Crystallographic axes

     site n.     atom                  positions (cryst. coord.)
         1           Ga  tau(   1) = (  0.0000000  0.7505180  0.9954160  )
         2           Ga  tau(   2) = (  0.5000000  0.7505180  0.9954160  )
         3           Ga  tau(   3) = (  0.2500000  0.2494820  0.4954160  )
         4           Ga  tau(   4) = (  0.7500000  0.2494820  0.4954160  )
         5           N   tau(   5) = (  0.0000000  0.7496870  0.3895840  )
         6           N   tau(   6) = (  0.5000000  0.7496870  0.3895840  )
         7           N   tau(   7) = (  0.2500000  0.2503130  0.8895840  )
         8           N   tau(   8) = (  0.7500000  0.2503130  0.8895840  )

     number of k points=    20  Gaussian smearing, width (Ry)=  0.0100
                       cart. coord. in units 2pi/alat
        k(    1) = (   0.0000000   0.0000000   0.0000000), wk =   0.0370370
        k(    2) = (   0.0000000   0.0000000   0.3834812), wk =   0.0740741
        k(    3) = (   0.0000000   0.3333975   0.0000000), wk =   0.0740741
        k(    4) = (   0.0000000   0.3333975   0.3834812), wk =   0.0740741
        k(    5) = (   0.0000000   0.6667949   0.0000000), wk =   0.0740741
        k(    6) = (   0.0000000   0.6667949   0.3834812), wk =   0.0740741
        k(    7) = (   0.0000000  -1.0001924   0.0000000), wk =   0.0370370
        k(    8) = (   0.0000000  -1.0001924   0.3834812), wk =   0.0740741
        k(    9) = (   0.3333333   0.0000000   0.0000000), wk =   0.0740741
        k(   10) = (   0.3333333   0.0000000   0.3834812), wk =   0.1481481
        k(   11) = (   0.3333333   0.3333975   0.0000000), wk =   0.1481481
        k(   12) = (   0.3333333   0.3333975   0.3834812), wk =   0.1481481
        k(   13) = (   0.3333333   0.6667949   0.0000000), wk =   0.1481481
        k(   14) = (   0.3333333   0.6667949   0.3834812), wk =   0.1481481
        k(   15) = (   0.3333333  -1.0001924   0.0000000), wk =   0.0740741
        k(   16) = (   0.3333333  -1.0001924   0.3834812), wk =   0.1481481
        k(   17) = (   0.0000000   0.3333975  -0.3834812), wk =   0.0740741
        k(   18) = (   0.0000000   0.6667949  -0.3834812), wk =   0.0740741
        k(   19) = (  -0.3333333   0.3333975  -0.3834812), wk =   0.1481481
        k(   20) = (  -0.3333333   0.6667949  -0.3834812), wk =   0.1481481

                       cryst. coord.
        k(    1) = (   0.0000000   0.0000000   0.0000000), wk =   0.0370370
        k(    2) = (   0.0000000   0.0000000   0.3333333), wk =   0.0740741
        k(    3) = (   0.0000000   0.1666667   0.0000000), wk =   0.0740741
        k(    4) = (   0.0000000   0.1666667   0.3333333), wk =   0.0740741
        k(    5) = (   0.0000000   0.3333333   0.0000000), wk =   0.0740741
        k(    6) = (   0.0000000   0.3333333   0.3333333), wk =   0.0740741
        k(    7) = (   0.0000000  -0.5000000   0.0000000), wk =   0.0370370
        k(    8) = (   0.0000000  -0.5000000   0.3333333), wk =   0.0740741
        k(    9) = (   0.3333333   0.0000000   0.0000000), wk =   0.0740741
        k(   10) = (   0.3333333   0.0000000   0.3333333), wk =   0.1481481
        k(   11) = (   0.3333333   0.1666667   0.0000000), wk =   0.1481481
        k(   12) = (   0.3333333   0.1666667   0.3333333), wk =   0.1481481
        k(   13) = (   0.3333333   0.3333333   0.0000000), wk =   0.1481481
        k(   14) = (   0.3333333   0.3333333   0.3333333), wk =   0.1481481
        k(   15) = (   0.3333333  -0.5000000   0.0000000), wk =   0.0740741
        k(   16) = (   0.3333333  -0.5000000   0.3333333), wk =   0.1481481
        k(   17) = (   0.0000000   0.1666667  -0.3333333), wk =   0.0740741
        k(   18) = (   0.0000000   0.3333333  -0.3333333), wk =   0.0740741
        k(   19) = (  -0.3333333   0.1666667  -0.3333333), wk =   0.1481481
        k(   20) = (  -0.3333333   0.3333333  -0.3333333), wk =   0.1481481

     Check: negative core charge=   -0.000003

     Initial potential from superposition of free atoms

     starting charge      71.9882, renormalised to      72.0000

     %%%%%%%%%%%%%%%%%%%%%%%%%%%%%%%%%%%%%%%%%%%%%%%%%%%%%%%%%%%%%%%%%%%%%%%%
     %                                                                      %
     % You are using vdW-DF, which was implemented by the Thonhauser group. %
     % Please cite the following two papers that made this development      %
     % possible and the two reviews that describe the various versions:     %
     %                                                                      %
     %   T. Thonhauser et al., PRL 115, 136402 (2015).                      %
     %   T. Thonhauser et al., PRB 76, 125112 (2007).                       %
     %   K. Berland et al., Rep. Prog. Phys. 78, 066501 (2015).             %
     %   D.C. Langreth et al., J. Phys.: Condens. Matter 21, 084203 (2009). %
     %                                                                      %
     % If you are calculating stress with vdW-DF, please also cite:         %
     %                                                                      %
     %   R. Sabatini et al., J. Phys.: Condens. Matter 24, 424209 (2012).   %
     %                                                                      %
     %%%%%%%%%%%%%%%%%%%%%%%%%%%%%%%%%%%%%%%%%%%%%%%%%%%%%%%%%%%%%%%%%%%%%%%%

     %%%%%%%%%%%%%%%%%%%%%%%%%%%%%%%%%%%%%%%%%%%%%%%%%%%%%%%%%%%%%%%%%%%%%%%%
     %                                                                      %
     %  vdW-DF NEWS:                                                        %
     %                                                                      %
[...]
     Using radial grid of 1205 points,  6 beta functions with:
                l(1) =   0
                l(2) =   0
                l(3) =   1
                l(4) =   1
                l(5) =   2
                l(6) =   2
     Q(r) pseudized with 0 coefficients

     PseudoPot. # 2 for N  read from file:
     /trace/group/acmegroup/atimmins/packages/espresso/pseudo/psl_1.0.0/pslibrary.1.0.0/pbe/PSEUDOPOTENTIALS/N.pbe-n-kjpaw_psl.1.0.0.UPF
     MD5 check sum: f77f775694dac7e2c3fe1c82443d1a16
     Pseudo is Projector augmented-wave + core cor, Zval =  5.0
     Generated using 'atomic' code by A. Dal Corso  v.7.1
     Shape of augmentation charge: PSQ
     Using radial grid of 1085 points,  4 beta functions with:
                l(1) =   0
                l(2) =   0
                l(3) =   1
                l(4) =   1
     Q(r) pseudized with 0 coefficients

     atomic species   valence    mass     pseudopotential
        Ga            13.00    69.72300     Ga( 1.00)
        N              5.00    14.00700     N ( 1.00)

      2 Sym. Ops. (no inversion) found

                                    s                        frac. trans.

      isym =  1     identity

[...]

      isym =  2     inv. 180 deg rotation - cart. axis [1,0,0]

 cryst.   s( 2) = (    -1          0          0      )
                  (     0          1          0      )
                  (     0          0          1      )

 cart.    s( 2) = ( -1.0000000  0.0000000  0.0000000 )
                  (  0.0000000  1.0000000  0.0000000 )
                  (  0.0000000  0.0000000  1.0000000 )

     point group C_s (m)
     there are  2 classes
     the character table:

       E     s
A'     1.00  1.00
A''    1.00 -1.00

     the symmetry operations in each class and the name of the first element:

     E        1
          identity
     s        2
          inv. 180 deg rotation - cart. axis [1,0,0]

   Cartesian axes

     site n.     atom                  positions (alat units)
         1           Ga  tau(   1) = (   0.0000000   0.3785006   0.8753489  )
         2           Ga  tau(   2) = (   0.5045215   0.3785008   0.8753493  )
         3           Ga  tau(   3) = (   0.2522614   0.1260219   0.4360547  )
         4           Ga  tau(   4) = (   0.7567816   0.1260219   0.4360547  )
         5           N   tau(   5) = (   0.0000000   0.3783297   0.3414951  )
         6           N   tau(   6) = (   0.5045215   0.3783299   0.3414952  )
         7           N   tau(   7) = (   0.2522606   0.1261927   0.7807886  )
         8           N   tau(   8) = (   0.7567824   0.1261927   0.7807886  )

   Crystallographic axes

     site n.     atom                  positions (cryst. coord.)
         1           Ga  tau(   1) = (  0.0000000  0.7502154  0.9963138  )
         2           Ga  tau(   2) = (  0.5000000  0.7502158  0.9963143  )
         3           Ga  tau(   3) = (  0.2500006  0.2497845  0.4963133  )
         4           Ga  tau(   4) = (  0.7499993  0.2497845  0.4963133  )
         5           N   tau(   5) = (  0.0000000  0.7498768  0.3886865  )
         6           N   tau(   6) = (  0.5000000  0.7498770  0.3886865  )
         7           N   tau(   7) = (  0.2499999  0.2501230  0.8886861  )
         8           N   tau(   8) = (  0.7500001  0.2501230  0.8886861  )

     number of k points=    20  Gaussian smearing, width (Ry)=  0.0100
                       cart. coord. in units 2pi/alat
        k(    1) = (   0.0000000   0.0000000   0.0000000), wk =   0.0370370
        k(    2) = (   0.0000000  -0.0000000   0.3793968), wk =   0.0740741
        k(    3) = (   0.0000000   0.3303453  -0.0000000), wk =   0.0740741
        k(    4) = (   0.0000000   0.3303453   0.3793968), wk =   0.0740741
        k(    5) = (   0.0000000   0.6606907  -0.0000000), wk =   0.0740741
        k(    6) = (   0.0000000   0.6606906   0.3793968), wk =   0.0740741
        k(    7) = (   0.0000000  -0.9910360   0.0000000), wk =   0.0370370
        k(    8) = (   0.0000000  -0.9910360   0.3793969), wk =   0.0740741
        k(    9) = (   0.3303460   0.0000000   0.0000000), wk =   0.0740741
        k(   10) = (   0.3303460  -0.0000000   0.3793968), wk =   0.1481481
        k(   11) = (   0.3303460   0.3303453  -0.0000000), wk =   0.1481481
        k(   12) = (   0.3303460   0.3303453   0.3793968), wk =   0.1481481
        k(   13) = (   0.3303460   0.6606907  -0.0000000), wk =   0.1481481
        k(   14) = (   0.3303460   0.6606906   0.3793968), wk =   0.1481481
        k(   15) = (   0.3303460  -0.9910360   0.0000000), wk =   0.0740741
        k(   16) = (   0.3303460  -0.9910360   0.3793969), wk =   0.1481481
        k(   17) = (   0.0000000   0.3303453  -0.3793968), wk =   0.0740741
        k(   18) = (   0.0000000   0.6606907  -0.3793969), wk =   0.0740741
        k(   19) = (  -0.3303460   0.3303453  -0.3793968), wk =   0.1481481
        k(   20) = (  -0.3303460   0.6606907  -0.3793969), wk =   0.1481481

                       cryst. coord.
        k(    1) = (   0.0000000   0.0000000   0.0000000), wk =   0.0370370
        k(    2) = (   0.0000000   0.0000000   0.3333333), wk =   0.0740741
        k(    3) = (   0.0000000   0.1666667   0.0000000), wk =   0.0740741
        k(    4) = (   0.0000000   0.1666667   0.3333333), wk =   0.0740741
        k(    5) = (   0.0000000   0.3333333   0.0000000), wk =   0.0740741
        k(    6) = (   0.0000000   0.3333333   0.3333333), wk =   0.0740741
        k(    7) = (   0.0000000  -0.5000000  -0.0000000), wk =   0.0370370
        k(    8) = (   0.0000000  -0.5000000   0.3333333), wk =   0.0740741
        k(    9) = (   0.3333333   0.0000000   0.0000000), wk =   0.0740741
        k(   10) = (   0.3333333   0.0000000   0.3333333), wk =   0.1481481
        k(   11) = (   0.3333333   0.1666667   0.0000000), wk =   0.1481481
        k(   12) = (   0.3333333   0.1666667   0.3333333), wk =   0.1481481
        k(   13) = (   0.3333333   0.3333333   0.0000000), wk =   0.1481481
        k(   14) = (   0.3333333   0.3333333   0.3333333), wk =   0.1481481
        k(   15) = (   0.3333333  -0.5000000  -0.0000000), wk =   0.0740741
        k(   16) = (   0.3333333  -0.5000000   0.3333333), wk =   0.1481481
        k(   17) = (   0.0000000   0.1666667  -0.3333333), wk =   0.0740741
        k(   18) = (   0.0000000   0.3333333  -0.3333333), wk =   0.0740741
        k(   19) = (  -0.3333333   0.1666667  -0.3333333), wk =   0.1481481
        k(   20) = (  -0.3333333   0.3333333  -0.3333333), wk =   0.1481481

     Check: negative core charge=   -0.000003

     Initial potential from superposition of free atoms

     starting charge      71.9882, renormalised to      72.0000

[...]

     Starting wfcs are   52 randomized atomic wfcs
     Checking if some PAW data can be deallocated...

     Self-consistent Calculation

[...]

     total energy              =   -1248.89757279 Ry
     estimated scf accuracy    <          2.1E-09 Ry

     iteration # 17     ecut=    70.00 Ry     beta= 0.70
     Davidson diagonalization with overlap

     ethr =  2.86E-12,  avg # of iterations =  3.9

[...]

     End of self-consistent calculation

[...]

          k = 0.0000 0.6607-0.3794 (  5726 PWs)   bands (ev):

[...]

          k =-0.3303 0.6607-0.3794 (  5729 PWs)   bands (ev):

    -4.6257  -4.6180  -4.5461  -4.5161  -3.8057  -3.7914  -3.7780  -3.7685
    -3.7583  -3.7575  -3.7493  -3.6865  -3.6669  -3.6544  -3.6441  -3.6428
    -3.6041  -3.5959  -3.5565  -3.5504  -2.7454  -1.9327  -1.8197  -1.2268
     4.4567   5.1827   5.2888   5.5149   6.3331   7.4673   7.6021   8.9211
     9.0562   9.1887   9.3409   9.8186  14.3173  14.6555  15.8632  16.4984
    17.5062  17.5806  17.8129

     occupation numbers
     1.0000   1.0000   1.0000   1.0000   1.0000   1.0000   1.0000   1.0000
     1.0000   1.0000   1.0000   1.0000   1.0000   1.0000   1.0000   1.0000
     1.0000   1.0000   1.0000   1.0000   1.0000   1.0000   1.0000   1.0000
     1.0000   1.0000   1.0000   1.0000   1.0000   1.0000   1.0000   1.0000
     1.0000   1.0000   1.0000   1.0000   0.0000   0.0000   0.0000   0.0000
     0.0000   0.0000   0.0000

     the Fermi energy is    11.2421 ev

!    total energy              =   -1248.89757279 Ry
     total all-electron energy =    -16014.751410 Ry
     estimated scf accuracy    <          3.6E-11 Ry
     smearing contrib. (-TS)   =      -0.00071312 Ry
     internal energy E=F+TS    =   -1248.89685967 Ry

     The total energy is F=E-TS. E is the sum of the following terms:
     one-electron contribution =    -322.54638383 Ry
     hartree contribution      =     241.19590030 Ry
     xc contribution           =    -182.03027426 Ry
     ewald contribution        =    -488.52278672 Ry
     one-center paw contrib.   =    -496.99331516 Ry
      -> PAW hartree energy AE =     142.35014902 Ry
      -> PAW hartree energy PS =    -140.92966993 Ry
      -> PAW xc energy AE      =    -156.79411271 Ry
      -> PAW xc energy PS      =      39.58354322 Ry
      -> total E_H with PAW    =     242.61637938 Ry
      -> total E_XC with PAW   =    -299.24084374 Ry

     convergence has been achieved in  17 iterations

[...]

     Forces acting on atoms (cartesian axes, Ry/au):

     atom    1 type  1   force =     0.00000000   -0.00009149   -0.00003802
     atom    2 type  1   force =     0.00000000   -0.00008448   -0.00004144
     atom    3 type  1   force =    -0.00000221    0.00008734   -0.00003842
     atom    4 type  1   force =     0.00000221    0.00008734   -0.00003842
     atom    5 type  2   force =     0.00000000    0.00005186    0.00003873
     atom    6 type  2   force =     0.00000000    0.00005215    0.00003847
     atom    7 type  2   force =     0.00000111   -0.00005136    0.00003955
     atom    8 type  2   force =    -0.00000111   -0.00005136    0.00003955
     The non-local contrib.  to forces
     atom    1 type  1   force =     0.00000000   -0.00030501   -0.33792992
     atom    2 type  1   force =     0.00000000   -0.00030661   -0.33792320
     atom    3 type  1   force =     0.00000859    0.00030474   -0.33793027
     atom    4 type  1   force =    -0.00000859    0.00030474   -0.33793027
     atom    5 type  2   force =     0.00000000    0.00072094   -0.15283689
     atom    6 type  2   force =     0.00000000    0.00072221   -0.15283314
     atom    7 type  2   force =     0.00000349   -0.00072213   -0.15282732
     atom    8 type  2   force =    -0.00000349   -0.00072213   -0.15282732
     The ionic contribution  to forces
     atom    1 type  1   force =    -0.00000051   -0.00316061   -0.85351553
     atom    2 type  1   force =     0.00000035   -0.00317033   -0.85355832
     atom    3 type  1   force =    -0.00019022    0.00316035   -0.85338050
     atom    4 type  1   force =     0.00019039    0.00316035   -0.85338061
     atom    5 type  2   force =    -0.00000024   -0.00458336    0.85350878
     atom    6 type  2   force =     0.00000010   -0.00459072    0.85347562
     atom    7 type  2   force =    -0.00002000    0.00459217    0.85342523
     atom    8 type  2   force =     0.00002014    0.00459217    0.85342533
     The local contribution  to forces
     atom    1 type  1   force =    -0.00000000    0.00337650    1.18451722
     atom    2 type  1   force =     0.00000476    0.00338761    1.18455171
     atom    3 type  1   force =     0.00018171   -0.00337593    1.18438411
     atom    4 type  1   force =    -0.00017220   -0.00337593    1.18438411
     atom    5 type  2   force =     0.00000000    0.00392577   -0.70342135
     atom    6 type  2   force =     0.00000037    0.00393217   -0.70339332
     atom    7 type  2   force =     0.00001764   -0.00393352   -0.70334778
     atom    8 type  2   force =    -0.00001690   -0.00393352   -0.70334778
     The core correction contribution to forces
     atom    1 type  1   force =     0.00000000    0.00000189    0.00666537
     atom    2 type  1   force =     0.00000036    0.00000188    0.00666541
     atom    3 type  1   force =     0.00000044   -0.00000187    0.00666517
     atom    4 type  1   force =     0.00000027   -0.00000187    0.00666517
     atom    5 type  2   force =     0.00000000   -0.00001180    0.00256679
     atom    6 type  2   force =    -0.00000001   -0.00001182    0.00256672
     atom    7 type  2   force =    -0.00000007    0.00001182    0.00256663
     atom    8 type  2   force =     0.00000005    0.00001182    0.00256663
     The Hubbard contrib.    to forces
     atom    1 type  1   force =     0.00000000    0.00000000    0.00000000
     atom    2 type  1   force =     0.00000000    0.00000000    0.00000000
     atom    3 type  1   force =     0.00000000    0.00000000    0.00000000
     atom    4 type  1   force =     0.00000000    0.00000000    0.00000000
     atom    5 type  2   force =     0.00000000    0.00000000    0.00000000
     atom    6 type  2   force =     0.00000000    0.00000000    0.00000000
     atom    7 type  2   force =     0.00000000    0.00000000    0.00000000
     atom    8 type  2   force =     0.00000000    0.00000000    0.00000000
     The SCF correction term to forces
     atom    1 type  1   force =    -0.00000000   -0.00000456    0.00000258
     atom    2 type  1   force =     0.00000000    0.00000266    0.00000069
     atom    3 type  1   force =     0.00000245   -0.00000025    0.00000087
     atom    4 type  1   force =    -0.00000245   -0.00000025    0.00000087
     atom    5 type  2   force =    -0.00000000    0.00000001   -0.00000085
     atom    6 type  2   force =     0.00000000    0.00000001    0.00000032
     atom    7 type  2   force =     0.00000047   -0.00000000    0.00000048
     atom    8 type  2   force =    -0.00000047   -0.00000000    0.00000048

     Total force =     0.000232     Total SCF correction =     0.000007

     Computing stress (Cartesian axis) and pressure

     Non-local corr. energy    =       2.13945979 Ry

          total   stress  (Ry/bohr**3)                   (kbar)     P=        0.64
   0.00000368   0.00000000   0.00000000            0.54        0.00        0.00
   0.00000000   0.00000363  -0.00000000            0.00        0.53       -0.00
   0.00000000  -0.00000000   0.00000567            0.00       -0.00        0.83

     kinetic stress (kbar)  20748.81      0.00      0.00
                                0.00  20748.81     -0.00
                                0.00     -0.00  20434.25

     local   stress (kbar)   6062.29     -0.00     -0.00
                               -0.00   6062.35      0.01
                               -0.00      0.01  17710.90

     nonloc. stress (kbar)     10.06      0.00      0.00
                                0.00     10.06      0.00
                                0.00      0.00    284.64

     hartree stress (kbar)  21947.27      0.00      0.00
                                0.00  21947.24     -0.00
                                0.00     -0.00  17269.24

     exc-cor stress (kbar)   5868.32      0.00     -0.00
                                0.00   5868.32     -0.00
                               -0.00     -0.00   5847.07

     corecor stress (kbar) -15823.81     -0.00     -0.00
                               -0.00 -15823.81      0.00
                               -0.00      0.00 -15822.29

     ewald   stress (kbar) -38987.58      0.00      0.00
                                0.00 -38987.62     -0.00
                                0.00     -0.00 -45907.04

     hubbard stress (kbar)      0.00      0.00      0.00
                                0.00      0.00      0.00
                                0.00      0.00      0.00

     DFT-D   stress (kbar)      0.00      0.00      0.00
                                0.00      0.00      0.00
                                0.00      0.00      0.00

     XDM     stress (kbar)      0.00      0.00      0.00
                                0.00      0.00      0.00
                                0.00      0.00      0.00

     dft-nl  stress (kbar)    175.18     -0.00     -0.00
                               -0.00    175.18      0.00
                               -0.00      0.00    184.06

     TS-vdW  stress (kbar)      0.00      0.00      0.00
                                0.00      0.00      0.00
                                0.00      0.00      0.00

     MDB     stress (kbar)      0.00      0.00      0.00
                                0.00      0.00      0.00
                                0.00      0.00      0.00

     3D-RISM stress (kbar)      0.00      0.00      0.00
                                0.00      0.00      0.00
                                0.00      0.00      0.00

     Writing all to output data dir ./PbI2.save/

     General routines

     Parallel routines

     PAW routines

   This run was terminated on:   8:39:39  21Feb2024

   JOB DONE.