     Program PWSCF v.7.1 starts on 23Mar2024 at  8:54: 8

     Reading input from espresso.pwi
Warning: card &CELL ignored
Warning: card    CELL_DYNAMICS    = 'BFGS' ignored
Warning: card / ignored

     Current dimensions of program PWSCF are:
     Max number of different atomic species (ntypx) = 10
     Max number of k-points (npk) =  40000
     Max angular momentum in pseudopotentials (lmaxx) =  4
     file Ga.pbe-dn-kjpaw_psl.1.0.0.UPF: wavefunction(s)  4S renormalized
     file N.pbe-n-kjpaw_psl.1.0.0.UPF: wavefunction(s)  2S renormalized

     IMPORTANT: XC functional enforced from input :
     Exchange-correlation= BEEF-VDW
                           (   1   4  43  14   2   0   0)
     Any further DFT definition will be discarded
     Please, verify this is what you really want

     K-points division:     npool     =       2
     R & G space division:  proc/nbgrp/npool/nimage =      30
     Subspace diagonalization in iterative solution of the eigenvalue problem:
     a serial algorithm will be used

     Using Slab Decomposition

     bravais-lattice index     =            4
     lattice parameter (alat)  =      18.3939  a.u.
     unit-cell volume          =    5856.2271 (a.u.)^3
     number of atoms/cell      =           71
     number of atomic types    =            2
     number of electrons       =       643.00
     number of Kohn-Sham states=          386
     kinetic-energy cutoff     =      70.0000  Ry
     charge density cutoff     =     350.0000  Ry
     scf convergence threshold =      1.0E-07
     mixing beta               =       0.7000
     number of iterations used =            8  plain     mixing
     energy convergence thresh.=      1.0E-04
     force convergence thresh. =      1.0E-03
     Exchange-correlation= BEEF-VDW
                           (   1   4  43  14   2   0   0)
     nstep                     =           50

     celldm(1)=  18.393924  celldm(2)=   0.000000  celldm(3)=   1.086586
     celldm(4)=   0.000000  celldm(5)=   0.000000  celldm(6)=   0.000000

     crystal axes: (cart. coord. in units of alat)
               a(1) = (   1.000000   0.000000   0.000000 )
               a(2) = (  -0.500000   0.866025   0.000000 )
               a(3) = (   0.000000   0.000000   1.086586 )

     reciprocal axes: (cart. coord. in units 2 pi/alat)
               b(1) = (  1.000000  0.577350 -0.000000 )
               b(2) = (  0.000000  1.154701  0.000000 )
               b(3) = (  0.000000 -0.000000  0.920314 )

     PseudoPot. # 1 for Ga read from file:
     //group///packages/espresso/pseudo/psl_1.0.0/pslibrary.1.0.0/pbe/PSEUDOPOTENTIALS/Ga.pbe-dn-kjpaw_psl.1.0.0.UPF
     MD5 check sum: cd2a01e492f15b435d17032472d8505c
     Pseudo is Projector augmented-wave + core cor, Zval = 13.0
     Generated using 'atomic' code by A. Dal Corso  v.7.1
     Shape of augmentation charge: PSQ
     Using radial grid of 1205 points,  6 beta functions with:
                l(1) =   0
                l(2) =   0
                l(3) =   1
                l(4) =   1
                l(5) =   2
                l(6) =   2
     Q(r) pseudized with 0 coefficients

     PseudoPot. # 2 for N  read from file:
     //group///packages/espresso/pseudo/psl_1.0.0/pslibrary.1.0.0/pbe/PSEUDOPOTENTIALS/N.pbe-n-kjpaw_psl.1.0.0.UPF
     MD5 check sum: f77f775694dac7e2c3fe1c82443d1a16
     Pseudo is Projector augmented-wave + core cor, Zval =  5.0
     Generated using 'atomic' code by A. Dal Corso  v.7.1
     Shape of augmentation charge: PSQ
     Using radial grid of 1085 points,  4 beta functions with:
                l(1) =   0
                l(2) =   0
                l(3) =   1
                l(4) =   1
     Q(r) pseudized with 0 coefficients

     atomic species   valence    mass     pseudopotential
        Ga            13.00    69.72300     Ga( 1.00)
        N              5.00    14.00700     N ( 1.00)

      6 Sym. Ops. (no inversion) found ( 4 have fractional translation)

                                    s                        frac. trans.

      isym =  1     identity

 cryst.   s( 1) = (     1          0          0      )
                  (     0          1          0      )
                  (     0          0          1      )

 cart.    s( 1) = (  1.0000000  0.0000000  0.0000000 )
                  (  0.0000000  1.0000000  0.0000000 )
                  (  0.0000000  0.0000000  1.0000000 )

      isym =  2     120 deg rotation - cryst. axis [0,0,1]

 cryst.   s( 2) = (     0          1          0      )    f =( -0.3333334 )
                  (    -1         -1          0      )       (  0.0000003 )
                  (     0          0          1      )       (  0.0000000 )

 cart.    s( 2) = ( -0.5000000 -0.8660254  0.0000000 )    f =( -0.3333335 )
                  (  0.8660254 -0.5000000  0.0000000 )       (  0.0000002 )
                  (  0.0000000  0.0000000  1.0000000 )       (  0.0000000 )

      isym =  3     120 deg rotation - cryst. axis [0,0,-1]

[...]

      isym =  4     inv. 180 deg rotation - cart. axis [1,0,0]

[...]

      isym =  5     inv. 180 deg rotation - cryst. axis [0,1,0]

 cryst.   s( 5) = (     1          1          0      )
                  (     0         -1          0      )
                  (     0          0          1      )

 cart.    s( 5) = (  0.5000000  0.8660254  0.0000000 )
                  (  0.8660254 -0.5000000  0.0000000 )
                  (  0.0000000  0.0000000  1.0000000 )

      isym =  6     inv. 180 deg rotation - cryst. axis [1,1,0]

 cryst.   s( 6) = (     0         -1          0      )    f =( -0.3333334 )
                  (    -1          0          0      )       ( -0.3333334 )
                  (     0          0          1      )       (  0.0000000 )

 cart.    s( 6) = (  0.5000000 -0.8660254  0.0000000 )    f =( -0.1666667 )
                  ( -0.8660254 -0.5000000  0.0000000 )       ( -0.2886752 )
                  (  0.0000000  0.0000000  1.0000000 )       (  0.0000000 )

     point group C_3v (3m)
     there are  3 classes
     the character table:

       E     2C3   3s_v
A_1    1.00  1.00  1.00
A_2    1.00  1.00 -1.00
E      2.00 -1.00  0.00

     the symmetry operations in each class and the name of the first element:

     E        1
          identity
     2C3      2    3
          120 deg rotation - cryst. axis [0,0,1]
     3s_v     4    5    6
          inv. 180 deg rotation - cart. axis [1,0,0]

   Cartesian axes

     site n.     atom                  positions (alat units)
         1           Ga  tau(   1) = (   0.1666668   0.0962250   0.2711914  )
         2           Ga  tau(   2) = (   0.1666668   0.0962250   0.8144844  )
         3           Ga  tau(   3) = (   0.0000001   0.3849001   0.2711914  )
         4           Ga  tau(   4) = (   0.0000001   0.3849001   0.8144844  )
         5           Ga  tau(   5) = (  -0.1666665   0.6735752   0.2711914  )
         6           Ga  tau(   6) = (  -0.1666665   0.6735752   0.8144844  )
         7           Ga  tau(   7) = (   0.5000001   0.0962250   0.2711914  )
         8           Ga  tau(   8) = (   0.5000001   0.0962250   0.8144844  )
         9           Ga  tau(   9) = (   0.3333335   0.3849001   0.2711914  )
        10           Ga  tau(  10) = (   0.3333335   0.3849001   0.8144844  )
        11           Ga  tau(  11) = (   0.1666668   0.6735752   0.2711914  )
        12           Ga  tau(  12) = (   0.1666668   0.6735752   0.8144844  )
        13           Ga  tau(  13) = (   0.8333335   0.0962250   0.2711914  )
        14           Ga  tau(  14) = (   0.8333335   0.0962250   0.8144844  )
        15           Ga  tau(  15) = (   0.6666668   0.3849001   0.2711914  )
        16           Ga  tau(  16) = (   0.6666668   0.3849001   0.8144844  )
        17           Ga  tau(  17) = (   0.5000001   0.6735752   0.2711914  )
        18           Ga  tau(  18) = (   0.5000001   0.6735752   0.8144844  )
        19           Ga  tau(  19) = (  -0.0000002   0.1924502   0.5428379  )
        20           Ga  tau(  20) = (  -0.0000002   0.1924502   1.0861309  )
        21           Ga  tau(  21) = (  -0.1666669   0.4811254   0.5428379  )
        22           Ga  tau(  22) = (  -0.1666669   0.4811254   1.0861309  )
        23           Ga  tau(  23) = (  -0.3333335   0.7698005   0.5428379  )
        24           Ga  tau(  24) = (  -0.3333335   0.7698005   1.0861309  )
        25           Ga  tau(  25) = (   0.3333331   0.1924502   0.5428379  )
        26           Ga  tau(  26) = (   0.3333331   0.1924502   1.0861309  )
        27           Ga  tau(  27) = (   0.1666665   0.4811254   0.5428379  )
        28           Ga  tau(  28) = (   0.1666665   0.4811254   1.0861309  )
        29           Ga  tau(  29) = (  -0.0000002   0.7698005   0.5428379  )
        30           Ga  tau(  30) = (  -0.0000002   0.7698005   1.0861309  )
        31           Ga  tau(  31) = (   0.6666665   0.1924502   0.5428379  )
        32           Ga  tau(  32) = (   0.6666665   0.1924502   1.0861309  )
        33           Ga  tau(  33) = (   0.4999998   0.4811254   0.5428379  )
        34           Ga  tau(  34) = (   0.4999998   0.4811254   1.0861309  )
        35           Ga  tau(  35) = (   0.3333331   0.7698005   0.5428379  )
        36           Ga  tau(  36) = (   0.3333331   0.7698005   1.0861309  )
        37           N   tau(  37) = (   0.1666668   0.0962250   1.0191295  )
        38           N   tau(  38) = (   0.0000001   0.3849001   0.4758365  )
        39           N   tau(  39) = (   0.0000001   0.3849001   1.0191295  )
        40           N   tau(  40) = (  -0.1666665   0.6735752   0.4758365  )
        41           N   tau(  41) = (  -0.1666665   0.6735752   1.0191295  )
        42           N   tau(  42) = (   0.5000001   0.0962250   0.4758365  )
        43           N   tau(  43) = (   0.5000001   0.0962250   1.0191295  )
        44           N   tau(  44) = (   0.3333335   0.3849001   0.4758365  )
        45           N   tau(  45) = (   0.3333335   0.3849001   1.0191295  )
        46           N   tau(  46) = (   0.1666668   0.6735752   0.4758365  )
        47           N   tau(  47) = (   0.1666668   0.6735752   1.0191295  )
        48           N   tau(  48) = (   0.8333335   0.0962250   0.4758365  )
        49           N   tau(  49) = (   0.8333335   0.0962250   1.0191295  )
        50           N   tau(  50) = (   0.6666668   0.3849001   0.4758365  )
        51           N   tau(  51) = (   0.6666668   0.3849001   1.0191295  )
        52           N   tau(  52) = (   0.5000001   0.6735752   0.4758365  )
        53           N   tau(  53) = (   0.5000001   0.6735752   1.0191295  )
        54           N   tau(  54) = (  -0.0000002   0.1924502   0.2041900  )
        55           N   tau(  55) = (  -0.0000002   0.1924502   0.7474830  )
        56           N   tau(  56) = (  -0.1666669   0.4811254   0.2041900  )
        57           N   tau(  57) = (  -0.1666669   0.4811254   0.7474830  )
        58           N   tau(  58) = (  -0.3333335   0.7698005   0.2041900  )
        59           N   tau(  59) = (  -0.3333335   0.7698005   0.7474830  )
        60           N   tau(  60) = (   0.3333331   0.1924502   0.2041900  )
[...]
     atom   32 type  1   force =     0.00000000    0.00000000    0.00000000
     atom   33 type  1   force =     0.00000000    0.00000000    0.00000000
     atom   34 type  1   force =     0.00000000    0.00000000    0.00000000
     atom   35 type  1   force =     0.00000000    0.00000000    0.00000000
     atom   36 type  1   force =     0.00000000    0.00000000    0.00000000
     atom   37 type  2   force =     0.00000000    0.00000000    0.00000000
     atom   38 type  2   force =     0.00000000    0.00000000    0.00000000
     atom   39 type  2   force =     0.00000000    0.00000000    0.00000000
     atom   40 type  2   force =     0.00000000    0.00000000    0.00000000
     atom   41 type  2   force =     0.00000000    0.00000000    0.00000000
     atom   42 type  2   force =     0.00000000    0.00000000    0.00000000
     atom   43 type  2   force =     0.00000000    0.00000000    0.00000000
     atom   44 type  2   force =     0.00000000    0.00000000    0.00000000
     atom   45 type  2   force =     0.00000000    0.00000000    0.00000000
     atom   46 type  2   force =     0.00000000    0.00000000    0.00000000
     atom   47 type  2   force =     0.00000000    0.00000000    0.00000000
     atom   48 type  2   force =     0.00000000    0.00000000    0.00000000
     atom   49 type  2   force =     0.00000000    0.00000000    0.00000000
     atom   50 type  2   force =     0.00000000    0.00000000    0.00000000
     atom   51 type  2   force =     0.00000000    0.00000000    0.00000000
     atom   52 type  2   force =     0.00000000    0.00000000    0.00000000
     atom   53 type  2   force =     0.00000000    0.00000000    0.00000000
     atom   54 type  2   force =     0.00000000    0.00000000    0.00000000
     atom   55 type  2   force =     0.00000000    0.00000000    0.00000000
     atom   56 type  2   force =     0.00000000    0.00000000    0.00000000
     atom   57 type  2   force =     0.00000000    0.00000000    0.00000000
     atom   58 type  2   force =     0.00000000    0.00000000    0.00000000
     atom   59 type  2   force =     0.00000000    0.00000000    0.00000000
     atom   60 type  2   force =     0.00000000    0.00000000    0.00000000
     atom   61 type  2   force =     0.00000000    0.00000000    0.00000000
     atom   62 type  2   force =     0.00000000    0.00000000    0.00000000
     atom   63 type  2   force =     0.00000000    0.00000000    0.00000000
     atom   64 type  2   force =     0.00000000    0.00000000    0.00000000
     atom   65 type  2   force =     0.00000000    0.00000000    0.00000000
     atom   66 type  2   force =     0.00000000    0.00000000    0.00000000
     atom   67 type  2   force =     0.00000000    0.00000000    0.00000000
     atom   68 type  2   force =     0.00000000    0.00000000    0.00000000
     atom   69 type  2   force =     0.00000000    0.00000000    0.00000000
     atom   70 type  2   force =     0.00000000    0.00000000    0.00000000
     atom   71 type  2   force =     0.00000000    0.00000000    0.00000000
     The SCF correction term to forces
     atom    1 type  1   force =    -0.00000000    0.00000000   -0.00000235
     atom    2 type  1   force =    -0.00000000    0.00000000    0.00001035
     atom    3 type  1   force =     0.00000468   -0.00000055   -0.00001328
     atom    4 type  1   force =     0.00000891    0.00003350    0.00002853
     atom    5 type  1   force =     0.00000186    0.00000433   -0.00001328
     atom    6 type  1   force =     0.00003347   -0.00000904    0.00002853
     atom    7 type  1   force =    -0.00000282   -0.00000378   -0.00001328
     atom    8 type  1   force =     0.00002456   -0.00002447    0.00002853
     atom    9 type  1   force =    -0.00000468   -0.00000055   -0.00001328
     atom   10 type  1   force =    -0.00000891    0.00003350    0.00002853
     atom   11 type  1   force =     0.00000000   -0.00000000   -0.00000614
     atom   12 type  1   force =     0.00000000    0.00000000   -0.00002547
     atom   13 type  1   force =     0.00000282   -0.00000378   -0.00001328
     atom   14 type  1   force =    -0.00002456   -0.00002447    0.00002853
     atom   15 type  1   force =    -0.00000000    0.00000000    0.00000530
     atom   16 type  1   force =    -0.00000000    0.00000000    0.00000299
     atom   17 type  1   force =    -0.00000186    0.00000433   -0.00001328
     atom   18 type  1   force =    -0.00003347   -0.00000904    0.00002853
     atom   19 type  1   force =    -0.00000281    0.00000162    0.00001440
     atom   20 type  1   force =     0.00001408   -0.00000813   -0.00007163
     atom   21 type  1   force =    -0.00002056   -0.00001187   -0.00001230
     atom   22 type  1   force =    -0.00002125   -0.00001227    0.00001766
     atom   23 type  1   force =    -0.00000000   -0.00000325    0.00001440
     atom   24 type  1   force =    -0.00000000    0.00001626   -0.00007163
     atom   25 type  1   force =     0.00000281    0.00000162    0.00001440
     atom   26 type  1   force =    -0.00001408   -0.00000813   -0.00007163
     atom   27 type  1   force =    -0.00000000   -0.00000395    0.00000304
     atom   28 type  1   force =    -0.00000000   -0.00000846    0.00002989
     atom   29 type  1   force =    -0.00000342    0.00000197    0.00000304
     atom   30 type  1   force =    -0.00000733    0.00000423    0.00002989
     atom   31 type  1   force =     0.00000000    0.00002374   -0.00001230
     atom   32 type  1   force =     0.00000000    0.00002454    0.00001766
     atom   33 type  1   force =     0.00002056   -0.00001187   -0.00001230
     atom   34 type  1   force =     0.00002125   -0.00001227    0.00001766
     atom   35 type  1   force =     0.00000342    0.00000197    0.00000304
     atom   36 type  1   force =     0.00000733    0.00000423    0.00002989
     atom   37 type  2   force =     0.00000000    0.00000000    0.00000057
     atom   38 type  2   force =    -0.00000137    0.00000184   -0.00000674
     atom   39 type  2   force =     0.00000071   -0.00000537    0.00000135
     atom   40 type  2   force =     0.00000091   -0.00000210   -0.00000674
     atom   41 type  2   force =    -0.00000430    0.00000329    0.00000135
     atom   42 type  2   force =     0.00000228    0.00000026   -0.00000674
     atom   43 type  2   force =    -0.00000500    0.00000207    0.00000135
     atom   44 type  2   force =     0.00000137    0.00000184   -0.00000674
     atom   45 type  2   force =    -0.00000071   -0.00000537    0.00000135
     atom   46 type  2   force =     0.00000000   -0.00000000   -0.00000210
     atom   47 type  2   force =     0.00000000   -0.00000000    0.00000167
     atom   48 type  2   force =    -0.00000228    0.00000026   -0.00000674
     atom   49 type  2   force =     0.00000500    0.00000207    0.00000135
     atom   50 type  2   force =    -0.00000000    0.00000000   -0.00000401
     atom   51 type  2   force =    -0.00000000    0.00000000    0.00000186
     atom   52 type  2   force =    -0.00000091   -0.00000210   -0.00000674
     atom   53 type  2   force =     0.00000430    0.00000329    0.00000135
     atom   54 type  2   force =     0.00000409   -0.00000236    0.00000194
     atom   55 type  2   force =     0.00000034   -0.00000020    0.00000789
     atom   56 type  2   force =    -0.00000039   -0.00000022    0.00000167
     atom   57 type  2   force =    -0.00000066   -0.00000038    0.00000084
     atom   58 type  2   force =    -0.00000000    0.00000473    0.00000194
     atom   59 type  2   force =     0.00000000    0.00000039    0.00000789
     atom   60 type  2   force =    -0.00000409   -0.00000236    0.00000194
     atom   61 type  2   force =    -0.00000034   -0.00000020    0.00000789
     atom   62 type  2   force =     0.00000000   -0.00000458    0.00000108
     atom   63 type  2   force =     0.00000000    0.00000043    0.00000156
     atom   64 type  2   force =    -0.00000397    0.00000229    0.00000108
     atom   65 type  2   force =     0.00000037   -0.00000021    0.00000156
     atom   66 type  2   force =    -0.00000000    0.00000045    0.00000167
     atom   67 type  2   force =    -0.00000000    0.00000076    0.00000084
     atom   68 type  2   force =     0.00000039   -0.00000022    0.00000167
     atom   69 type  2   force =     0.00000066   -0.00000038    0.00000084
     atom   70 type  2   force =     0.00000397    0.00000229    0.00000108
     atom   71 type  2   force =    -0.00000037   -0.00000021    0.00000156

     Total force =     0.003924     Total SCF correction =     0.000199

     Computing stress (Cartesian axis) and pressure

     Non-local corr. energy    =      19.54375628 Ry

          total   stress  (Ry/bohr**3)                   (kbar)     P=        3.91
   0.00002566   0.00000000  -0.00000000            3.77        0.00       -0.00
  -0.00000000   0.00002566  -0.00000000           -0.00        3.77       -0.00
   0.00000000  -0.00000000   0.00002844            0.00       -0.00        4.18

     kinetic stress (kbar)  18156.35      0.00      0.00
                                0.00  18156.35     -0.00
                                0.00     -0.00  18146.60

     local   stress (kbar)   5250.12     -0.07      0.00
                               -0.07   5250.03      0.01
                                0.00      0.01   3724.88

     nonloc. stress (kbar)    170.35     -0.00      0.00
                               -0.00    170.35      0.00
                                0.00      0.00    182.83

     hartree stress (kbar)  19645.15     -0.00      0.00
                               -0.00  19645.15     -0.00
                                0.00     -0.00  20346.64

     exc-cor stress (kbar)   5249.65      0.00     -0.00
                                0.00   5249.65      0.00
                               -0.00      0.00   5249.71

     corecor stress (kbar) -14093.58     -0.00     -0.00
                               -0.00 -14093.58     -0.00
                               -0.00     -0.00 -14093.00

     ewald   stress (kbar) -34535.81      0.09     -0.00
                                0.09 -34535.69      0.00
                               -0.00      0.00 -33714.25

     hubbard stress (kbar)      0.00      0.00      0.00
                                0.00      0.00      0.00
                                0.00      0.00      0.00

     DFT-D   stress (kbar)      0.00      0.00      0.00
                                0.00      0.00      0.00
                                0.00      0.00      0.00

     XDM     stress (kbar)      0.00      0.00      0.00
                                0.00      0.00      0.00
                                0.00      0.00      0.00

     dft-nl  stress (kbar)    161.53     -0.00     -0.00
                               -0.00    161.53     -0.00
                               -0.00     -0.00    160.77

     TS-vdW  stress (kbar)      0.00      0.00      0.00
                                0.00      0.00      0.00
                                0.00      0.00      0.00

     MDB     stress (kbar)      0.00      0.00      0.00
                                0.00      0.00      0.00
                                0.00      0.00      0.00

     3D-RISM stress (kbar)      0.00      0.00      0.00
                                0.00      0.00      0.00
                                0.00      0.00      0.00

     Energy error            =      2.7E-05 Ry
     Gradient error          =      9.7E-04 Ry/Bohr

     bfgs converged in   8 scf cycles and   7 bfgs steps
     (criteria: energy <  1.0E-04 Ry, force <  1.0E-03 Ry/Bohr)

     End of BFGS Geometry Optimization

     Final energy             =  -11213.2989485098 Ry

     File ./GaN.bfgs deleted, as requested
Begin final coordinates

ATOMIC_POSITIONS (angstrom)
Ga            1.6222756606        0.9366198184        2.6638665004
Ga            1.6222756606        0.9366198184        7.9346850844
Ga            0.0010997276        3.7537179946        2.6402114149
Ga            0.0025197073        3.7481542787        7.9245526838
Ga           -1.6154563461        6.5536752475        2.6402114149
Ga           -1.6195646756        6.5576868440        7.9245526838
Ga            4.8725422126        0.9320502723        2.6402114149
Ga            4.8670139035        0.9336023918        7.9245526838
Ga            3.2434515936        3.7537179946        2.6402114149
Ga            3.2420316139        3.7481542787        7.9245526838
Ga            1.6222756606        6.5563425246        2.6397954979
Ga            1.6222756606        6.5563425246        7.9313743042
Ga            8.1056543598        0.9320502723        2.6402114149
Ga            8.1111826689        0.9336023918        7.9245526838
Ga            6.4890982862        3.7464811715        2.6396856780
Ga            6.4890982862        3.7464811715        7.9341259345
Ga            4.8600076673        6.5536752475        2.6402114149
Ga            4.8641159968        6.5576868440        7.9245526838
Ga            0.0331834325        1.8540828484        5.2627438044
Ga            0.0022473609        1.8719437977       10.5710408363
Ga           -1.6272122803        4.6802539369        5.2908361013
Ga           -1.6234693883        4.6824148966       10.5708789665
Ga           -3.2445503819        7.5312843488        5.2627438044
Ga           -3.2445503819        7.4955624503       10.5710408363
Ga            3.2113610550        1.8540828484        5.2627438044
Ga            3.2422971266        1.8719437977       10.5710408363
Ga            1.6222722437        4.6861591287        5.2873509281
Ga            1.6222722437        4.6844206405       10.5714743772
Ga            0.0026440278        7.4914374882        5.2873509281
Ga            0.0011384529        7.4923067322       10.5714743772
Ga            6.4890948693        1.8789421720        5.2908361013
Ga            6.4890948693        1.8746202525       10.5708789665
Ga            4.8717567678        4.6802539369        5.2908361013
Ga            4.8680138758        4.6824148966       10.5708789665
Ga            3.2419004597        7.4914374882        5.2873509281
Ga            3.2434060346        7.4923067322       10.5714743772
N             1.6222756606        0.9366198184        9.9229958448
N             0.0052977675        3.7437060874        4.6302766314
N             0.0001719956        3.7439372082        9.9202062331
N            -1.6220278921        6.5623168103        4.6302766314
N            -1.6243906215        6.5577622013        9.9202062331
N             4.8617726267        0.9334206168        4.6302766314
N             4.8645356691        0.9377441050        9.9202062331
N             3.2392535537        3.7437060874        4.6302766314
N             3.2443793256        3.7439372082        9.9202062331
N             1.6222756606        6.5563425246        4.6308288948
N             1.6222756606        6.5563425246        9.9193379437
N             8.1164239457        0.9334206168        4.6302766314
N             8.1136609033        0.9377441050        9.9202062331
N             6.4890982862        3.7464811715        4.6310332236
N             6.4890982862        3.7464811715        9.9214732208
N             4.8665792133        6.5623168103        4.6302766314
N             4.8689419427        6.5577622013        9.9202062331
N             0.0046900106        1.8705335332        2.0050845375
N             0.0066053322        1.8694277218        7.2648033345
N            -1.6229914822        4.6826908158        1.9862728951
N            -1.6230530288        4.6826552819        7.2782181186
N            -3.2445503819        7.4983829793        2.0050845375
N            -3.2445503819        7.5005946021        7.2648033345
N             3.2398544769        1.8705335332        2.0050845375
N             3.2379391553        1.8694277218        7.2648033345
N             1.6222722437        4.6844818949        1.9850301462
N             1.6222722437        4.6855723103        7.2764786365
N             0.0011915007        7.4922761051        1.9850301462
N             0.0021358282        7.4917308973        7.2764786365
N             6.4890948693        1.8740684140        1.9862728951
N             6.4890948693        1.8741394820        7.2782181186
N             4.8675359697        4.6826908158        1.9862728951
N             4.8675975163        4.6826552819        7.2782181186
N             3.2433529868        7.4922761051        1.9850301462
N             3.2424086593        7.4917308973        7.2764786365
End final coordinates

     Writing all to output data dir ./GaN.save/

     General routines

     Parallel routines

     PAW routines

   This run was terminated on:   9:58:44  23Mar2024

   JOB DONE.