     Program PWSCF v.7.1 starts on 23Mar2024 at 13:49:35

     Reading input from espresso.pwi
Warning: card &CELL ignored
Warning: card    CELL_DYNAMICS    = 'BFGS' ignored
Warning: card / ignored

     Current dimensions of program PWSCF are:
     Max number of different atomic species (ntypx) = 10
     Max number of k-points (npk) =  40000
     Max angular momentum in pseudopotentials (lmaxx) =  4
     file Ga.pbe-dn-kjpaw_psl.1.0.0.UPF: wavefunction(s)  4S renormalized
     file N.pbe-n-kjpaw_psl.1.0.0.UPF: wavefunction(s)  2S renormalized

     IMPORTANT: XC functional enforced from input :
     Exchange-correlation= BEEF-VDW
                           (   1   4  43  14   2   0   0)
     Any further DFT definition will be discarded
     Please, verify this is what you really want

     K-points division:     npool     =       2
     R & G space division:  proc/nbgrp/npool/nimage =      30
     Subspace diagonalization in iterative solution of the eigenvalue problem:
     a serial algorithm will be used

     Using Slab Decomposition

     bravais-lattice index     =            4
     lattice parameter (alat)  =      18.3939  a.u.
     unit-cell volume          =    5856.2271 (a.u.)^3
     number of atoms/cell      =           71
     number of atomic types    =            2
     number of electrons       =       643.00
     number of Kohn-Sham states=          386
     kinetic-energy cutoff     =      70.0000  Ry
     charge density cutoff     =     350.0000  Ry
     scf convergence threshold =      1.0E-07
     mixing beta               =       0.7000
     number of iterations used =            8  plain     mixing
     Exchange-correlation= BEEF-VDW
                           (   1   4  43  14   2   0   0)

     celldm(1)=  18.393924  celldm(2)=   0.000000  celldm(3)=   1.086586
     celldm(4)=   0.000000  celldm(5)=   0.000000  celldm(6)=   0.000000

     crystal axes: (cart. coord. in units of alat)
               a(1) = (   1.000000   0.000000   0.000000 )
               a(2) = (  -0.500000   0.866025   0.000000 )
               a(3) = (   0.000000   0.000000   1.086586 )

     reciprocal axes: (cart. coord. in units 2 pi/alat)
               b(1) = (  1.000000  0.577350 -0.000000 )
               b(2) = (  0.000000  1.154701  0.000000 )
               b(3) = (  0.000000 -0.000000  0.920314 )

     PseudoPot. # 1 for Ga read from file:
     //group///packages/espresso/pseudo/psl_1.0.0/pslibrary.1.0.0/pbe/PSEUDOPOTENTIALS/Ga.pbe-dn-kjpaw_psl.1.0.0.UPF
     MD5 check sum: cd2a01e492f15b435d17032472d8505c
     Pseudo is Projector augmented-wave + core cor, Zval = 13.0
     Generated using 'atomic' code by A. Dal Corso  v.7.1
     Shape of augmentation charge: PSQ
     Using radial grid of 1205 points,  6 beta functions with:
                l(1) =   0
                l(2) =   0
                l(3) =   1
                l(4) =   1
                l(5) =   2
                l(6) =   2
     Q(r) pseudized with 0 coefficients

     PseudoPot. # 2 for N  read from file:
     //group///packages/espresso/pseudo/psl_1.0.0/pslibrary.1.0.0/pbe/PSEUDOPOTENTIALS/N.pbe-n-kjpaw_psl.1.0.0.UPF
     MD5 check sum: f77f775694dac7e2c3fe1c82443d1a16
     Pseudo is Projector augmented-wave + core cor, Zval =  5.0
     Generated using 'atomic' code by A. Dal Corso  v.7.1
     Shape of augmentation charge: PSQ
     Using radial grid of 1085 points,  4 beta functions with:
                l(1) =   0
                l(2) =   0
                l(3) =   1
                l(4) =   1
     Q(r) pseudized with 0 coefficients

     atomic species   valence    mass     pseudopotential
        Ga            13.00    69.72300     Ga( 1.00)
        N              5.00    14.00700     N ( 1.00)

      6 Sym. Ops. (no inversion) found ( 4 have fractional translation)

                                    s                        frac. trans.

      isym =  1     identity

 cryst.   s( 1) = (     1          0          0      )
                  (     0          1          0      )
                  (     0          0          1      )

 cart.    s( 1) = (  1.0000000  0.0000000  0.0000000 )
                  (  0.0000000  1.0000000  0.0000000 )
                  (  0.0000000  0.0000000  1.0000000 )

      isym =  2     120 deg rotation - cryst. axis [0,0,1]

 cryst.   s( 2) = (     0          1          0      )    f =( -0.3333334 )
                  (    -1         -1          0      )       (  0.0000003 )
                  (     0          0          1      )       (  0.0000000 )

 cart.    s( 2) = ( -0.5000000 -0.8660254  0.0000000 )    f =( -0.3333335 )
                  (  0.8660254 -0.5000000  0.0000000 )       (  0.0000002 )
                  (  0.0000000  0.0000000  1.0000000 )       (  0.0000000 )

      isym =  3     120 deg rotation - cryst. axis [0,0,-1]

[...]

      isym =  4     inv. 180 deg rotation - cart. axis [1,0,0]

[...]

      isym =  5     inv. 180 deg rotation - cryst. axis [0,1,0]

 cryst.   s( 5) = (     1          1          0      )
                  (     0         -1          0      )
                  (     0          0          1      )

 cart.    s( 5) = (  0.5000000  0.8660254  0.0000000 )
                  (  0.8660254 -0.5000000  0.0000000 )
                  (  0.0000000  0.0000000  1.0000000 )

      isym =  6     inv. 180 deg rotation - cryst. axis [1,1,0]

 cryst.   s( 6) = (     0         -1          0      )    f =( -0.3333334 )
                  (    -1          0          0      )       ( -0.3333334 )
                  (     0          0          1      )       (  0.0000000 )

 cart.    s( 6) = (  0.5000000 -0.8660254  0.0000000 )    f =( -0.1666667 )
                  ( -0.8660254 -0.5000000  0.0000000 )       ( -0.2886752 )
                  (  0.0000000  0.0000000  1.0000000 )       (  0.0000000 )

     point group C_3v (3m)
     there are  3 classes
     the character table:

       E     2C3   3s_v
A_1    1.00  1.00  1.00
A_2    1.00  1.00 -1.00
E      2.00 -1.00  0.00

     the symmetry operations in each class and the name of the first element:

     E        1
          identity
     2C3      2    3
          120 deg rotation - cryst. axis [0,0,1]
     3s_v     4    5    6
          inv. 180 deg rotation - cart. axis [1,0,0]

   Cartesian axes

     site n.     atom                  positions (alat units)
         1           Ga  tau(   1) = (   0.1666668   0.0962250   0.2711914  )
         2           Ga  tau(   2) = (   0.1666668   0.0962250   0.8144844  )
         3           Ga  tau(   3) = (   0.0000001   0.3849001   0.2711914  )
         4           Ga  tau(   4) = (   0.0000001   0.3849001   0.8144844  )
         5           Ga  tau(   5) = (  -0.1666665   0.6735752   0.2711914  )
         6           Ga  tau(   6) = (  -0.1666665   0.6735752   0.8144844  )
         7           Ga  tau(   7) = (   0.5000001   0.0962250   0.2711914  )
         8           Ga  tau(   8) = (   0.5000001   0.0962250   0.8144844  )
         9           Ga  tau(   9) = (   0.3333335   0.3849001   0.2711914  )
        10           Ga  tau(  10) = (   0.3333335   0.3849001   0.8144844  )
        11           Ga  tau(  11) = (   0.1666668   0.6735752   0.2711914  )
        12           Ga  tau(  12) = (   0.1666668   0.6735752   0.8144844  )
        13           Ga  tau(  13) = (   0.8333335   0.0962250   0.2711914  )
        14           Ga  tau(  14) = (   0.8333335   0.0962250   0.8144844  )
        15           Ga  tau(  15) = (   0.6666668   0.3849001   0.2711914  )
        16           Ga  tau(  16) = (   0.6666668   0.3849001   0.8144844  )
        17           Ga  tau(  17) = (   0.5000001   0.6735752   0.2711914  )
        18           Ga  tau(  18) = (   0.5000001   0.6735752   0.8144844  )
        19           Ga  tau(  19) = (  -0.0000002   0.1924502   0.5428379  )
        20           Ga  tau(  20) = (  -0.0000002   0.1924502   1.0861309  )
        21           Ga  tau(  21) = (  -0.1666669   0.4811254   0.5428379  )
        22           Ga  tau(  22) = (  -0.1666669   0.4811254   1.0861309  )
        23           Ga  tau(  23) = (  -0.3333335   0.7698005   0.5428379  )
        24           Ga  tau(  24) = (  -0.3333335   0.7698005   1.0861309  )
        25           Ga  tau(  25) = (   0.3333331   0.1924502   0.5428379  )
        26           Ga  tau(  26) = (   0.3333331   0.1924502   1.0861309  )
        27           Ga  tau(  27) = (   0.1666665   0.4811254   0.5428379  )
        28           Ga  tau(  28) = (   0.1666665   0.4811254   1.0861309  )
        29           Ga  tau(  29) = (  -0.0000002   0.7698005   0.5428379  )
        30           Ga  tau(  30) = (  -0.0000002   0.7698005   1.0861309  )
        31           Ga  tau(  31) = (   0.6666665   0.1924502   0.5428379  )
        32           Ga  tau(  32) = (   0.6666665   0.1924502   1.0861309  )
        33           Ga  tau(  33) = (   0.4999998   0.4811254   0.5428379  )
        34           Ga  tau(  34) = (   0.4999998   0.4811254   1.0861309  )
        35           Ga  tau(  35) = (   0.3333331   0.7698005   0.5428379  )
        36           Ga  tau(  36) = (   0.3333331   0.7698005   1.0861309  )
        37           N   tau(  37) = (   0.1666668   0.0962250   1.0191295  )
        38           N   tau(  38) = (   0.0000001   0.3849001   0.4758365  )
        39           N   tau(  39) = (   0.0000001   0.3849001   1.0191295  )
        40           N   tau(  40) = (  -0.1666665   0.6735752   0.4758365  )
        41           N   tau(  41) = (  -0.1666665   0.6735752   1.0191295  )
        42           N   tau(  42) = (   0.5000001   0.0962250   0.4758365  )
        43           N   tau(  43) = (   0.5000001   0.0962250   1.0191295  )
        44           N   tau(  44) = (   0.3333335   0.3849001   0.4758365  )
        45           N   tau(  45) = (   0.3333335   0.3849001   1.0191295  )
        46           N   tau(  46) = (   0.1666668   0.6735752   0.4758365  )
        47           N   tau(  47) = (   0.1666668   0.6735752   1.0191295  )
        48           N   tau(  48) = (   0.8333335   0.0962250   0.4758365  )
        49           N   tau(  49) = (   0.8333335   0.0962250   1.0191295  )
        50           N   tau(  50) = (   0.6666668   0.3849001   0.4758365  )
        51           N   tau(  51) = (   0.6666668   0.3849001   1.0191295  )
        52           N   tau(  52) = (   0.5000001   0.6735752   0.4758365  )
        53           N   tau(  53) = (   0.5000001   0.6735752   1.0191295  )
        54           N   tau(  54) = (  -0.0000002   0.1924502   0.2041900  )
        55           N   tau(  55) = (  -0.0000002   0.1924502   0.7474830  )
        56           N   tau(  56) = (  -0.1666669   0.4811254   0.2041900  )
        57           N   tau(  57) = (  -0.1666669   0.4811254   0.7474830  )
        58           N   tau(  58) = (  -0.3333335   0.7698005   0.2041900  )
        59           N   tau(  59) = (  -0.3333335   0.7698005   0.7474830  )
        60           N   tau(  60) = (   0.3333331   0.1924502   0.2041900  )
        61           N   tau(  61) = (   0.3333331   0.1924502   0.7474830  )
        62           N   tau(  62) = (   0.1666665   0.4811254   0.2041900  )
[...]
     atom   16 type  1   force =     0.00000000    0.00000000    0.00000000
     atom   17 type  1   force =     0.00000000    0.00000000    0.00000000
     atom   18 type  1   force =     0.00000000    0.00000000    0.00000000
     atom   19 type  1   force =     0.00000000    0.00000000    0.00000000
     atom   20 type  1   force =     0.00000000    0.00000000    0.00000000
     atom   21 type  1   force =     0.00000000    0.00000000    0.00000000
     atom   22 type  1   force =     0.00000000    0.00000000    0.00000000
     atom   23 type  1   force =     0.00000000    0.00000000    0.00000000
     atom   24 type  1   force =     0.00000000    0.00000000    0.00000000
     atom   25 type  1   force =     0.00000000    0.00000000    0.00000000
     atom   26 type  1   force =     0.00000000    0.00000000    0.00000000
     atom   27 type  1   force =     0.00000000    0.00000000    0.00000000
     atom   28 type  1   force =     0.00000000    0.00000000    0.00000000
     atom   29 type  1   force =     0.00000000    0.00000000    0.00000000
     atom   30 type  1   force =     0.00000000    0.00000000    0.00000000
     atom   31 type  1   force =     0.00000000    0.00000000    0.00000000
     atom   32 type  1   force =     0.00000000    0.00000000    0.00000000
     atom   33 type  1   force =     0.00000000    0.00000000    0.00000000
     atom   34 type  1   force =     0.00000000    0.00000000    0.00000000
     atom   35 type  1   force =     0.00000000    0.00000000    0.00000000
     atom   36 type  1   force =     0.00000000    0.00000000    0.00000000
     atom   37 type  2   force =     0.00000000    0.00000000    0.00000000
     atom   38 type  2   force =     0.00000000    0.00000000    0.00000000
     atom   39 type  2   force =     0.00000000    0.00000000    0.00000000
     atom   40 type  2   force =     0.00000000    0.00000000    0.00000000
     atom   41 type  2   force =     0.00000000    0.00000000    0.00000000
     atom   42 type  2   force =     0.00000000    0.00000000    0.00000000
     atom   43 type  2   force =     0.00000000    0.00000000    0.00000000
     atom   44 type  2   force =     0.00000000    0.00000000    0.00000000
     atom   45 type  2   force =     0.00000000    0.00000000    0.00000000
     atom   46 type  2   force =     0.00000000    0.00000000    0.00000000
     atom   47 type  2   force =     0.00000000    0.00000000    0.00000000
     atom   48 type  2   force =     0.00000000    0.00000000    0.00000000
     atom   49 type  2   force =     0.00000000    0.00000000    0.00000000
     atom   50 type  2   force =     0.00000000    0.00000000    0.00000000
     atom   51 type  2   force =     0.00000000    0.00000000    0.00000000
     atom   52 type  2   force =     0.00000000    0.00000000    0.00000000
     atom   53 type  2   force =     0.00000000    0.00000000    0.00000000
     atom   54 type  2   force =     0.00000000    0.00000000    0.00000000
     atom   55 type  2   force =     0.00000000    0.00000000    0.00000000
     atom   56 type  2   force =     0.00000000    0.00000000    0.00000000
     atom   57 type  2   force =     0.00000000    0.00000000    0.00000000
     atom   58 type  2   force =     0.00000000    0.00000000    0.00000000
     atom   59 type  2   force =     0.00000000    0.00000000    0.00000000
     atom   60 type  2   force =     0.00000000    0.00000000    0.00000000
     atom   61 type  2   force =     0.00000000    0.00000000    0.00000000
     atom   62 type  2   force =     0.00000000    0.00000000    0.00000000
     atom   63 type  2   force =     0.00000000    0.00000000    0.00000000
     atom   64 type  2   force =     0.00000000    0.00000000    0.00000000
     atom   65 type  2   force =     0.00000000    0.00000000    0.00000000
     atom   66 type  2   force =     0.00000000    0.00000000    0.00000000
     atom   67 type  2   force =     0.00000000    0.00000000    0.00000000
     atom   68 type  2   force =     0.00000000    0.00000000    0.00000000
     atom   69 type  2   force =     0.00000000    0.00000000    0.00000000
     atom   70 type  2   force =     0.00000000    0.00000000    0.00000000
     atom   71 type  2   force =     0.00000000    0.00000000    0.00000000
     The SCF correction term to forces
     atom    1 type  1   force =     0.00000000   -0.00000000    0.00000975
     atom    2 type  1   force =     0.00000000   -0.00000000   -0.00007411
     atom    3 type  1   force =    -0.00001386    0.00001234    0.00000932
     atom    4 type  1   force =    -0.00002578    0.00002822   -0.00002044
     atom    5 type  1   force =     0.00000375   -0.00001817    0.00000932
     atom    6 type  1   force =     0.00001155   -0.00003643   -0.00002044
     atom    7 type  1   force =     0.00001761    0.00000583    0.00000932
     atom    8 type  1   force =     0.00003733    0.00000822   -0.00002044
     atom    9 type  1   force =     0.00001386    0.00001234    0.00000932
     atom   10 type  1   force =     0.00002578    0.00002822   -0.00002044
     atom   11 type  1   force =    -0.00000000    0.00000000    0.00003994
     atom   12 type  1   force =    -0.00000000    0.00000000    0.00001681
     atom   13 type  1   force =    -0.00001761    0.00000583    0.00000932
     atom   14 type  1   force =    -0.00003733    0.00000822   -0.00002044
     atom   15 type  1   force =    -0.00000000    0.00000000   -0.00001924
     atom   16 type  1   force =     0.00000000   -0.00000000   -0.00004255
     atom   17 type  1   force =    -0.00000375   -0.00001817    0.00000932
     atom   18 type  1   force =    -0.00001155   -0.00003643   -0.00002044
     atom   19 type  1   force =     0.00002495   -0.00001441    0.00003676
     atom   20 type  1   force =    -0.00003025    0.00001747   -0.00002426
     atom   21 type  1   force =     0.00001628    0.00000940    0.00004647
     atom   22 type  1   force =     0.00001568    0.00000905   -0.00000465
     atom   23 type  1   force =     0.00000000    0.00002881    0.00003676
     atom   24 type  1   force =     0.00000000   -0.00003493   -0.00002426
     atom   25 type  1   force =    -0.00002495   -0.00001441    0.00003676
     atom   26 type  1   force =     0.00003025    0.00001747   -0.00002426
     atom   27 type  1   force =     0.00000000    0.00002584   -0.00000130
     atom   28 type  1   force =     0.00000000    0.00005468   -0.00002181
     atom   29 type  1   force =     0.00002238   -0.00001292   -0.00000130
     atom   30 type  1   force =     0.00004735   -0.00002734   -0.00002181
     atom   31 type  1   force =    -0.00000000   -0.00001880    0.00004647
     atom   32 type  1   force =     0.00000000   -0.00001810   -0.00000465
     atom   33 type  1   force =    -0.00001628    0.00000940    0.00004647
     atom   34 type  1   force =    -0.00001568    0.00000905   -0.00000465
     atom   35 type  1   force =    -0.00002238   -0.00001292   -0.00000130
     atom   36 type  1   force =    -0.00004735   -0.00002734   -0.00002181
     atom   37 type  2   force =     0.00000000   -0.00000000   -0.00000892
     atom   38 type  2   force =     0.00000424   -0.00000149    0.00001812
     atom   39 type  2   force =    -0.00000366    0.00001571   -0.00000813
     atom   40 type  2   force =     0.00000082    0.00000442    0.00001812
     atom   41 type  2   force =     0.00001177   -0.00001103   -0.00000813
     atom   42 type  2   force =    -0.00000341   -0.00000292    0.00001812
     atom   43 type  2   force =     0.00001544   -0.00000468   -0.00000813
     atom   44 type  2   force =    -0.00000424   -0.00000149    0.00001812
     atom   45 type  2   force =     0.00000366    0.00001571   -0.00000813
     atom   46 type  2   force =    -0.00000000    0.00000000    0.00000790
     atom   47 type  2   force =    -0.00000000    0.00000000   -0.00000595
     atom   48 type  2   force =     0.00000341   -0.00000292    0.00001812
     atom   49 type  2   force =    -0.00001544   -0.00000468   -0.00000813
     atom   50 type  2   force =     0.00000000   -0.00000000    0.00001519
     atom   51 type  2   force =     0.00000000   -0.00000000   -0.00001020
     atom   52 type  2   force =    -0.00000082    0.00000442    0.00001812
     atom   53 type  2   force =    -0.00001177   -0.00001103   -0.00000813
     atom   54 type  2   force =    -0.00001199    0.00000693    0.00000399
     atom   55 type  2   force =    -0.00000303    0.00000175   -0.00002271
     atom   56 type  2   force =     0.00000201    0.00000116   -0.00000046
     atom   57 type  2   force =     0.00000021    0.00000012   -0.00000602
     atom   58 type  2   force =     0.00000000   -0.00001385    0.00000399
     atom   59 type  2   force =    -0.00000000   -0.00000350   -0.00002271
     atom   60 type  2   force =     0.00001199    0.00000693    0.00000399
     atom   61 type  2   force =     0.00000303    0.00000175   -0.00002271
     atom   62 type  2   force =    -0.00000000    0.00001309    0.00000256
     atom   63 type  2   force =    -0.00000000    0.00000222   -0.00000798
     atom   64 type  2   force =     0.00001133   -0.00000654    0.00000256
     atom   65 type  2   force =     0.00000192   -0.00000111   -0.00000798
     atom   66 type  2   force =     0.00000000   -0.00000232   -0.00000046
     atom   67 type  2   force =     0.00000000   -0.00000025   -0.00000602
     atom   68 type  2   force =    -0.00000201    0.00000116   -0.00000046
     atom   69 type  2   force =    -0.00000021    0.00000012   -0.00000602
     atom   70 type  2   force =    -0.00001134   -0.00000654    0.00000256
     atom   71 type  2   force =    -0.00000192   -0.00000111   -0.00000798

     Total force =     0.003936     Total SCF correction =     0.000253

     Computing stress (Cartesian axis) and pressure

[...]

          total   stress  (Ry/bohr**3)                   (kbar)     P=        3.91
   0.00002567  -0.00000000   0.00000000            3.78       -0.00        0.00
   0.00000000   0.00002567   0.00000000            0.00        3.78        0.00
   0.00000000   0.00000000   0.00002844            0.00        0.00        4.18

     kinetic stress (kbar)  18156.35      0.00      0.00
                                0.00  18156.35     -0.00
                                0.00     -0.00  18146.60

     local   stress (kbar)   5250.12     -0.07      0.00
                               -0.07   5250.03      0.01
                                0.00      0.01   3724.88

     nonloc. stress (kbar)    170.36      0.00      0.00
                                0.00    170.36      0.00
                                0.00      0.00    182.84

     hartree stress (kbar)  19645.15     -0.00      0.00
                               -0.00  19645.15     -0.00
                                0.00     -0.00  20346.64

     exc-cor stress (kbar)   5249.65      0.00     -0.00
                                0.00   5249.65      0.00
                               -0.00      0.00   5249.71

     corecor stress (kbar) -14093.58     -0.00     -0.00
                               -0.00 -14093.58     -0.00
                               -0.00     -0.00 -14093.00

     ewald   stress (kbar) -34535.81      0.09     -0.00
                                0.09 -34535.69      0.00
                               -0.00      0.00 -33714.25

     hubbard stress (kbar)      0.00      0.00      0.00
                                0.00      0.00      0.00
                                0.00      0.00      0.00

     DFT-D   stress (kbar)      0.00      0.00      0.00
                                0.00      0.00      0.00
                                0.00      0.00      0.00

     XDM     stress (kbar)      0.00      0.00      0.00
                                0.00      0.00      0.00
                                0.00      0.00      0.00

     dft-nl  stress (kbar)    161.53     -0.00     -0.00
                               -0.00    161.53     -0.00
                               -0.00     -0.00    160.77

     TS-vdW  stress (kbar)      0.00      0.00      0.00
                                0.00      0.00      0.00
                                0.00      0.00      0.00

     MDB     stress (kbar)      0.00      0.00      0.00
                                0.00      0.00      0.00
                                0.00      0.00      0.00

     3D-RISM stress (kbar)      0.00      0.00      0.00
                                0.00      0.00      0.00
                                0.00      0.00      0.00

[...]

     Non-local corr. energy    =      19.54375626 Ry

 BEEFens 2000 ensemble energies
             -0.157841852553228E+02
             -0.142358487174750E+03
             -0.612855489622181E+02
              0.500912323589667E+02
             -0.102458304009462E+03
             -0.131708050879881E+03
              0.676585404453399E+02
             -0.710482685009902E+01
              0.112793838691774E+03
             -0.488616033501023E+01
              0.554351657183656E+02
              0.230506218388555E+01
              0.219702079902157E+01
             -0.484436440934860E+01
              0.738163103332467E+02
             -0.537493150908733E+02
             -0.110690887608414E+03
             -0.361932841416804E+02
              0.270484150943608E+02
             -0.244659755373482E+01
              0.161755086905987E+03
              0.137577874899508E+03
             -0.788517138211300E+02
              0.284664380749173E+02
             -0.172741780761648E+03
              0.138503177348785E+03
              0.452279097202151E+02
              0.134575236543979E+03
              0.884148113393951E+02
             -0.429976010862143E+02
              0.325978972119048E+02
             -0.634963707095835E+02
              0.178826400512612E+02
              0.866071445336447E+02
              0.918056690352731E+02
             -0.331726704150343E+02
              0.203888752243724E+03
             -0.774678230231334E+02
             -0.556912021088485E+02
              0.817326445946348E+02
              0.365618979302529E+02
              0.611990876407492E+02
             -0.116607322790105E+03
             -0.326696187455104E+01
              0.114411030633870E+03
              0.148669329427012E+03
             -0.148054610996420E+03
              0.105006040739130E+02
              0.557529316888555E+02
              0.272689686618396E+02
              0.618520521460910E+02
              0.131059461478542E+03
             -0.792514309006266E+02
             -0.869025798067394E+02
             -0.112965358790366E+03
             -0.174021839783023E+02
             -0.103011423794799E+03
              0.101187661623921E+02
             -0.189922784865263E+02
             -0.802557485329372E+02
[...]
              0.100112938525189E+03
              0.553914681873440E+02
              0.702628688096574E+02
             -0.113675488381483E+03
             -0.108950534719091E+03
             -0.275081631171596E+02
             -0.106702631461532E+03
              0.170740711115456E+03
              0.146302878580808E+03
              0.699185311661785E+02
              0.189415394243445E+03
             -0.985416197529195E+02
             -0.401280943312180E+02
             -0.559343615208202E+02
              0.156731128705332E+03

 BEEF-vdW xc energy contributions
            1 :    -1435.597467125029
            2 :     1293.125855505233
            3 :    -1054.480303610189
            4 :     789.5918603789444
            5 :    -559.9756442232660
            6 :     395.3077294578306
            7 :    -290.0975765759233
            8 :     218.9099363686466
            9 :    -157.8911895788294
           10 :     98.60786945855398
           11 :    -47.54966782201927
           12 :     15.14749875946859
           13 :    -4.392979593433665
           14 :     7.481157398911364
           15 :    -11.61381506684620
           16 :     8.144501690918560
           17 :     2.415019573440077
           18 :    -12.86277645925247
           19 :     16.45290025686154
           20 :    -12.65547722826386
           21 :     7.214393594974808
           22 :    -7.073802335642540
           23 :     14.68626856451669
           24 :    -26.26435893674511
           25 :     35.02923696438484
           26 :    -36.50405701678005
           27 :     31.56401324977696
           28 :    -25.09339214850911
           29 :     21.73145653660731
           30 :    -22.33184654400611
           31 :    -122.8167957732592
           32 :    -84.16052207711232

     Writing all to output data dir ./GaN.save/

     General routines

     Parallel routines

     PAW routines

   This run was terminated on:  13:51:27  23Mar2024

   JOB DONE.