     Program PWSCF v.7.1 starts on 28Mar2024 at  6:44:33

     Reading input from espresso.pwi
Warning: card &CELL ignored
Warning: card    CELL_DYNAMICS    = 'BFGS' ignored
Warning: card / ignored

     Current dimensions of program PWSCF are:
     Max number of different atomic species (ntypx) = 10
     Max number of k-points (npk) =  40000
     Max angular momentum in pseudopotentials (lmaxx) =  4
     file Pb.pbe-dn-kjpaw_psl.1.0.0.UPF: wavefunction(s)  6S 6P 5D renormalized
     file I.pbe-dn-kjpaw_psl.1.0.0.UPF: wavefunction(s)  5S 5P renormalized

     IMPORTANT: XC functional enforced from input :
     Exchange-correlation= BEEF-VDW
                           (   1   4  43  14   2   0   0)
     Any further DFT definition will be discarded
     Please, verify this is what you really want

     R & G space division:  proc/nbgrp/npool/nimage =      20
     Subspace diagonalization in iterative solution of the eigenvalue problem:
     a serial algorithm will be used

     Using Slab Decomposition

     bravais-lattice index     =            4
     lattice parameter (alat)  =      17.8060  a.u.
     unit-cell volume          =    7656.2263 (a.u.)^3
     number of atoms/cell      =           23
     number of atomic types    =            2
     number of electrons       =       368.00
     number of Kohn-Sham states=          221
     kinetic-energy cutoff     =      70.0000  Ry
     charge density cutoff     =     350.0000  Ry
     scf convergence threshold =      1.0E-07
     mixing beta               =       0.7000
     number of iterations used =            8  plain     mixing
     Exchange-correlation= BEEF-VDW
                           (   1   4  43  14   2   0   0)

     celldm(1)=  17.806016  celldm(2)=   0.000000  celldm(3)=   1.565971
     celldm(4)=   0.000000  celldm(5)=   0.000000  celldm(6)=   0.000000

     crystal axes: (cart. coord. in units of alat)
               a(1) = (   1.000000   0.000000   0.000000 )
               a(2) = (  -0.500000   0.866025   0.000000 )
               a(3) = (   0.000000   0.000000   1.565971 )

     reciprocal axes: (cart. coord. in units 2 pi/alat)
               b(1) = (  1.000000  0.577350 -0.000000 )
               b(2) = (  0.000000  1.154701  0.000000 )
               b(3) = (  0.000000 -0.000000  0.638581 )

     PseudoPot. # 1 for Pb read from file:
     /trace/group/acmegroup/atimmins/packages/espresso/pseudo/psl_1.0.0/pslibrary.1.0.0/pbe/PSEUDOPOTENTIALS/Pb.pbe-dn-kjpaw_psl.1.0.0.UPF
     MD5 check sum: 39ab5b8a6bbd56b7735ad9f188aac93a
     Pseudo is Projector augmented-wave + core cor, Zval = 14.0
     Generated using 'atomic' code by A. Dal Corso  v.7.1
     Shape of augmentation charge: PSQ
     Using radial grid of 1281 points,  6 beta functions with:
                l(1) =   0
                l(2) =   0
                l(3) =   1
                l(4) =   1
                l(5) =   2
                l(6) =   2
     Q(r) pseudized with 0 coefficients

     PseudoPot. # 2 for I  read from file:
     /trace/group/acmegroup/atimmins/packages/espresso/pseudo/psl_1.0.0/pslibrary.1.0.0/pbe/PSEUDOPOTENTIALS/I.pbe-dn-kjpaw_psl.1.0.0.UPF
     MD5 check sum: bfa8781bc1224d19af3f3980e3fab11e
     Pseudo is Projector augmented-wave + core cor, Zval = 17.0
     Generated using 'atomic' code by A. Dal Corso  v.7.1
     Shape of augmentation charge: PSQ
     Using radial grid of 1247 points,  6 beta functions with:
                l(1) =   0
                l(2) =   0
                l(3) =   1
                l(4) =   1
                l(5) =   2
                l(6) =   2
     Q(r) pseudized with 0 coefficients

     atomic species   valence    mass     pseudopotential
        Pb            14.00   207.20000     Pb( 1.00)
        I             17.00   126.90447     I ( 1.00)

     No symmetry found

                                    s                        frac. trans.

      isym =  1     identity

 cryst.   s( 1) = (     1          0          0      )
                  (     0          1          0      )
                  (     0          0          1      )

 cart.    s( 1) = (  1.0000000  0.0000000  0.0000000 )
                  (  0.0000000  1.0000000  0.0000000 )
                  (  0.0000000  0.0000000  1.0000000 )

     point group C_1 (1)
     there are  1 classes
     the character table:

       E
A      1.00

     the symmetry operations in each class and the name of the first element:

     E        1
          identity

   Cartesian axes

     site n.     atom                  positions (alat units)
         1           Pb  tau(   1) = (   0.2500170   0.4329745   1.5659650  )
         2           Pb  tau(   2) = (   0.2500068   0.4329836   0.7829793  )
         3           Pb  tau(   3) = (   0.0000153   0.8659852   1.5659567  )
         4           Pb  tau(   4) = (   0.0000051   0.8659943   0.7829710  )
         5           Pb  tau(   5) = (   0.7500170   0.4329726   1.5659715  )
         6           Pb  tau(   6) = (   0.7500068   0.4329816   0.7829858  )
         7           Pb  tau(   7) = (   0.5000153   0.8659833   1.5659633  )
         8           Pb  tau(   8) = (   0.5000051   0.8659923   0.7829776  )
         9           I   tau(   9) = (   0.2500209   0.1443009   1.3648506  )
        10           I   tau(  10) = (   0.0000091   0.5773207   0.5818567  )
        11           I   tau(  11) = (   0.0000193   0.5773116   1.3648424  )
        12           I   tau(  12) = (   0.7500107   0.1443080   0.5818714  )
        13           I   tau(  13) = (   0.7500209   0.1442990   1.3648571  )
        14           I   tau(  14) = (   0.5000091   0.5773187   0.5818632  )
        15           I   tau(  15) = (   0.5000193   0.5773097   1.3648489  )
        16           I   tau(  16) = (  -0.0000034   0.2886595   0.2011110  )
        17           I   tau(  17) = (   0.0000068   0.2886504   0.9840967  )
        18           I   tau(  18) = (  -0.2500051   0.7216702   0.2011027  )
        19           I   tau(  19) = (  -0.2499949   0.7216611   0.9840884  )
        20           I   tau(  20) = (   0.4999966   0.2886575   0.2011175  )
        21           I   tau(  21) = (   0.5000068   0.2886485   0.9841032  )
        22           I   tau(  22) = (   0.2499949   0.7216682   0.2011092  )
        23           I   tau(  23) = (   0.2500051   0.7216592   0.9840949  )

   Crystallographic axes

     site n.     atom                  positions (cryst. coord.)
         1           Pb  tau(   1) = (  0.4999949  0.4999559  0.9999959  )
         2           Pb  tau(   2) = (  0.4999900  0.4999663  0.4999959  )
         3           Pb  tau(   3) = (  0.4999921  0.9999536  0.9999906  )
         4           Pb  tau(   4) = (  0.4999871  0.9999640  0.4999906  )
         5           Pb  tau(   5) = (  0.9999938  0.4999537  1.0000001  )
         6           Pb  tau(   6) = (  0.9999888  0.4999641  0.5000001  )
         7           Pb  tau(   7) = (  0.9999910  0.9999514  0.9999948  )
         8           Pb  tau(   8) = (  0.9999860  0.9999618  0.4999948  )
         9           I   tau(   9) = (  0.3333331  0.1666243  0.8715680  )
        10           I   tau(  10) = (  0.3333253  0.6666325  0.3715628  )
        11           I   tau(  11) = (  0.3333303  0.6666220  0.8715628  )
        12           I   tau(  12) = (  0.8333270  0.1666326  0.3715722  )
        13           I   tau(  13) = (  0.8333320  0.1666221  0.8715722  )
        14           I   tau(  14) = (  0.8333242  0.6666303  0.3715669  )
        15           I   tau(  15) = (  0.8333292  0.6666198  0.8715669  )
        16           I   tau(  16) = (  0.1666542  0.3333152  0.1284257  )
        17           I   tau(  17) = (  0.1666592  0.3333048  0.6284257  )
        18           I   tau(  18) = (  0.1666514  0.8333129  0.1284204  )
        19           I   tau(  19) = (  0.1666564  0.8333025  0.6284204  )
        20           I   tau(  20) = (  0.6666531  0.3333130  0.1284299  )
        21           I   tau(  21) = (  0.6666581  0.3333026  0.6284299  )
        22           I   tau(  22) = (  0.6666503  0.8333107  0.1284246  )
        23           I   tau(  23) = (  0.6666553  0.8333003  0.6284246  )

     number of k points=     4  Gaussian smearing, width (Ry)=  0.0100
                       cart. coord. in units 2pi/alat
        k(    1) = (   0.0000000   0.0000000   0.0000000), wk =   0.5000000
        k(    2) = (   0.0000000  -0.5773503   0.0000000), wk =   0.5000000
        k(    3) = (   0.5000000  -0.2886751   0.0000000), wk =   0.5000000
        k(    4) = (  -0.5000000  -0.2886751   0.0000000), wk =   0.5000000

                       cryst. coord.
        k(    1) = (   0.0000000   0.0000000   0.0000000), wk =   0.5000000
        k(    2) = (   0.0000000  -0.5000000   0.0000000), wk =   0.5000000
        k(    3) = (   0.5000000  -0.5000000   0.0000000), wk =   0.5000000
        k(    4) = (  -0.5000000  -0.0000000   0.0000000), wk =   0.5000000

     Atomic positions and unit cell read from directory:
     ./PbI2.save/
     Atomic positions from file used, from input discarded

     Check: negative core charge=   -0.000001

     The initial density is read from file :
     ./PbI2.save/charge-density

     %%%%%%%%%%%%%%%%%%%%%%%%%%%%%%%%%%%%%%%%%%%%%%%%%%%%%%%%%%%%%%%%%%%%%%%%
     %                                                                      %
     % You are using vdW-DF, which was implemented by the Thonhauser group. %
     % Please cite the following two papers that made this development      %
     % possible and the two reviews that describe the various versions:     %
     %                                                                      %
     %   T. Thonhauser et al., PRL 115, 136402 (2015).                      %
     %   T. Thonhauser et al., PRB 76, 125112 (2007).                       %
     %   K. Berland et al., Rep. Prog. Phys. 78, 066501 (2015).             %
     %   D.C. Langreth et al., J. Phys.: Condens. Matter 21, 084203 (2009). %
     %                                                                      %
     % If you are calculating stress with vdW-DF, please also cite:         %
     %                                                                      %
     %   R. Sabatini et al., J. Phys.: Condens. Matter 24, 424209 (2012).   %
     %                                                                      %
     %%%%%%%%%%%%%%%%%%%%%%%%%%%%%%%%%%%%%%%%%%%%%%%%%%%%%%%%%%%%%%%%%%%%%%%%

     %%%%%%%%%%%%%%%%%%%%%%%%%%%%%%%%%%%%%%%%%%%%%%%%%%%%%%%%%%%%%%%%%%%%%%%%
     %                                                                      %
     %  vdW-DF NEWS:                                                        %
     %                                                                      %
     %  * vdW-DF3 is now available. DOI: 10.1021/acs.jctc.0c00471           %
     %    use with input_dft = 'vdW-DF3-opt1' or 'vdW-DF3-opt2'             %
     %                                                                      %
     %  * Unscreened and range-separated vdW-DF hybrid functionals          %
     %    DOI: 10.1063/1.4986522 and 10.1088/1361-648X/ac2ad2               %
[...]
     atom   15 type  2   force =     0.00536962   -0.00309866    0.25473970
     atom   16 type  2   force =     0.00751176   -0.00433358   -0.24324615
     atom   17 type  2   force =     0.04075761   -0.02353020   -0.22009610
     atom   18 type  2   force =     0.00000575    0.00868160   -0.24324927
     atom   19 type  2   force =     0.00001330    0.04705102   -0.22010490
     atom   20 type  2   force =    -0.00751484   -0.00434117   -0.24324572
     atom   21 type  2   force =    -0.04075339   -0.02354133   -0.22011484
     atom   22 type  2   force =    -0.00001246    0.00001363   -0.24563369
     atom   23 type  2   force =    -0.00005389    0.00007592   -0.07926269
     The ionic contribution  to forces
     atom    1 type  1   force =    -0.00004858   -0.02543818    2.30048563
     atom    2 type  1   force =     0.00010515   -2.23650999   -9.31475019
     atom    3 type  1   force =    -0.02328284    0.01344534    2.30084078
     atom    4 type  1   force =    -1.94045642    1.11935031   -9.31383328
     atom    5 type  1   force =     0.00010822    0.00008225    2.54734188
     atom    6 type  1   force =     0.00038437   -0.00024393   -0.53172716
     atom    7 type  1   force =     0.02268556    0.01313872    2.30054609
     atom    8 type  1   force =     1.93902602    1.11831891   -9.31436714
     atom    9 type  2   force =     0.00025386   -0.00026954  -14.23540931
     atom   10 type  2   force =     3.53760339    2.04122346  -12.64984788
     atom   11 type  2   force =     0.65602438    0.37832554  -15.34946489
     atom   12 type  2   force =     0.00071004   -4.08315165  -12.65073551
     atom   13 type  2   force =     0.00001436   -0.75727215  -15.34904334
     atom   14 type  2   force =    -3.53816568    2.04241311  -12.64947602
     atom   15 type  2   force =    -0.65607617    0.37838337  -15.34965660
     atom   16 type  2   force =     1.93103616   -1.11470948   20.99132381
     atom   17 type  2   force =    -1.52803795    0.88379121    9.25287167
     atom   18 type  2   force =    -0.00002411    2.22998332   20.99063113
     atom   19 type  2   force =    -0.00069243   -1.76500373    9.25248927
     atom   20 type  2   force =    -1.93118285   -1.11479145   20.99073201
     atom   21 type  2   force =     1.52761636    0.88429910    9.25294484
     atom   22 type  2   force =     0.00021207   -0.00075653   19.49733434
     atom   23 type  2   force =     0.00218709   -0.00460799    7.03076989
     The local contribution  to forces
     atom    1 type  1   force =     0.00004431    0.02837700   -2.30302856
     atom    2 type  1   force =    -0.00013785    2.28597697    9.24158740
     atom    3 type  1   force =     0.02578013   -0.01487946   -2.30339470
     atom    4 type  1   force =     1.98312220   -1.14400174    9.24064118
     atom    5 type  1   force =    -0.00010881   -0.00007461   -2.52789024
     atom    6 type  1   force =    -0.00035383    0.00021130    0.64480036
     atom    7 type  1   force =    -0.02520757   -0.01458346   -2.30309469
     atom    8 type  1   force =    -1.98180696   -1.14300255    9.24118524
     atom    9 type  2   force =    -0.00026077    0.00026336   13.98971661
     atom   10 type  2   force =    -3.47381022   -2.00448982   12.46653408
     atom   11 type  2   force =    -0.65084648   -0.37535547   15.10035007
     atom   12 type  2   force =    -0.00061993    4.00955049   12.46741639
     atom   13 type  2   force =     0.00000046    0.75129393   15.09992473
     atom   14 type  2   force =     3.47436112   -2.00556749   12.46619397
     atom   15 type  2   force =     0.65090548   -0.37539963   15.10053306
     atom   16 type  2   force =    -1.93830204    1.11890117  -20.75329009
     atom   17 type  2   force =     1.48818692   -0.86078867   -9.03733528
     atom   18 type  2   force =     0.00000837   -2.23838141  -20.75260688
     atom   19 type  2   force =     0.00062567    1.71896687   -9.03690663
     atom   20 type  2   force =     1.93844915    1.11900071  -20.75271119
     atom   21 type  2   force =    -1.48776449   -0.86122087   -9.03734803
     atom   22 type  2   force =    -0.00019020    0.00073721  -19.25649716
     atom   23 type  2   force =    -0.00207636    0.00450749   -6.95394654
     The core correction contribution to forces
     atom    1 type  1   force =    -0.00000009    0.00007508   -0.00007635
     atom    2 type  1   force =    -0.00000026   -0.00084646   -0.00142798
     atom    3 type  1   force =     0.00006443   -0.00003723   -0.00007634
     atom    4 type  1   force =    -0.00073707    0.00042527   -0.00142988
     atom    5 type  1   force =     0.00000009    0.00000008    0.00029512
     atom    6 type  1   force =     0.00000031   -0.00000049    0.00213661
     atom    7 type  1   force =    -0.00006475   -0.00003730   -0.00007638
     atom    8 type  1   force =     0.00073467    0.00042416   -0.00142887
     atom    9 type  2   force =    -0.00000094    0.00000240   -0.00529927
     atom   10 type  2   force =     0.00140254    0.00080755   -0.00400846
     atom   11 type  2   force =     0.00022758    0.00013400   -0.00534561
     atom   12 type  2   force =     0.00000055   -0.00161906   -0.00400872
     atom   13 type  2   force =    -0.00000079   -0.00026266   -0.00534554
     atom   14 type  2   force =    -0.00140257    0.00080825   -0.00400807
     atom   15 type  2   force =    -0.00022873    0.00013374   -0.00534574
     atom   16 type  2   force =    -0.00025848    0.00014980    0.00538165
     atom   17 type  2   force =    -0.00108604    0.00062720    0.00479665
     atom   18 type  2   force =    -0.00000041   -0.00030183    0.00538247
     atom   19 type  2   force =    -0.00000020   -0.00125661    0.00479659
     atom   20 type  2   force =     0.00025950    0.00015086    0.00538187
     atom   21 type  2   force =     0.00108619    0.00062750    0.00479694
     atom   22 type  2   force =    -0.00000072    0.00000209    0.00517907
     atom   23 type  2   force =     0.00000194   -0.00000105    0.00171374
     The Hubbard contrib.    to forces
     atom    1 type  1   force =     0.00000000    0.00000000    0.00000000
     atom    2 type  1   force =     0.00000000    0.00000000    0.00000000
     atom    3 type  1   force =     0.00000000    0.00000000    0.00000000
     atom    4 type  1   force =     0.00000000    0.00000000    0.00000000
     atom    5 type  1   force =     0.00000000    0.00000000    0.00000000
     atom    6 type  1   force =     0.00000000    0.00000000    0.00000000
     atom    7 type  1   force =     0.00000000    0.00000000    0.00000000
     atom    8 type  1   force =     0.00000000    0.00000000    0.00000000
     atom    9 type  2   force =     0.00000000    0.00000000    0.00000000
     atom   10 type  2   force =     0.00000000    0.00000000    0.00000000
     atom   11 type  2   force =     0.00000000    0.00000000    0.00000000
     atom   12 type  2   force =     0.00000000    0.00000000    0.00000000
     atom   13 type  2   force =     0.00000000    0.00000000    0.00000000
     atom   14 type  2   force =     0.00000000    0.00000000    0.00000000
     atom   15 type  2   force =     0.00000000    0.00000000    0.00000000
     atom   16 type  2   force =     0.00000000    0.00000000    0.00000000
     atom   17 type  2   force =     0.00000000    0.00000000    0.00000000
     atom   18 type  2   force =     0.00000000    0.00000000    0.00000000
     atom   19 type  2   force =     0.00000000    0.00000000    0.00000000
     atom   20 type  2   force =     0.00000000    0.00000000    0.00000000
     atom   21 type  2   force =     0.00000000    0.00000000    0.00000000
     atom   22 type  2   force =     0.00000000    0.00000000    0.00000000
     atom   23 type  2   force =     0.00000000    0.00000000    0.00000000
     The SCF correction term to forces
     atom    1 type  1   force =     0.00000066    0.00000002   -0.00000687
     atom    2 type  1   force =     0.00003126   -0.00002525    0.00000094
     atom    3 type  1   force =    -0.00000014    0.00000009   -0.00000705
     atom    4 type  1   force =     0.00001318   -0.00000387    0.00001186
     atom    5 type  1   force =    -0.00000074    0.00000059   -0.00001876
     atom    6 type  1   force =    -0.00001266    0.00000560    0.00002217
     atom    7 type  1   force =     0.00000029   -0.00000066   -0.00000687
     atom    8 type  1   force =     0.00003906   -0.00000949   -0.00000025
     atom    9 type  2   force =     0.00001712   -0.00000791   -0.00000742
     atom   10 type  2   force =    -0.00003085    0.00007830    0.00000738
     atom   11 type  2   force =    -0.00000664    0.00001468   -0.00001728
     atom   12 type  2   force =    -0.00009344   -0.00000789    0.00000479
     atom   13 type  2   force =    -0.00001773   -0.00000089   -0.00001532
     atom   14 type  2   force =     0.00003168   -0.00002889   -0.00002853
     atom   15 type  2   force =     0.00000633   -0.00000559   -0.00000021
     atom   16 type  2   force =     0.00000631   -0.00000184   -0.00001347
     atom   17 type  2   force =    -0.00003771    0.00003088    0.00005681
     atom   18 type  2   force =     0.00001626    0.00001311    0.00000307
     atom   19 type  2   force =     0.00008420    0.00000142   -0.00000289
     atom   20 type  2   force =    -0.00000500   -0.00001996    0.00000547
     atom   21 type  2   force =     0.00003238   -0.00006936   -0.00000957
     atom   22 type  2   force =    -0.00001621    0.00000751   -0.00000557
     atom   23 type  2   force =    -0.00009485    0.00004451    0.00001751

     Total force =     0.002663     Total SCF correction =     0.000237

     Computing stress (Cartesian axis) and pressure

[...]

          total   stress  (Ry/bohr**3)                   (kbar)     P=       13.02
   0.00008436  -0.00000000  -0.00000000           12.41       -0.00       -0.00
  -0.00000000   0.00008435   0.00000001           -0.00       12.41        0.00
  -0.00000000   0.00000001   0.00009691           -0.00        0.00       14.26

     kinetic stress (kbar)  14469.55      0.00     -0.00
                                0.00  14469.55      0.00
                               -0.00      0.00  14481.63

     local   stress (kbar)  -8782.25      0.02     -0.00
                                0.02  -8782.16      0.07
                               -0.00      0.07   2213.69

     nonloc. stress (kbar)  -1168.15      0.00     -0.00
                                0.00  -1168.14      0.00
                               -0.00      0.00  -1170.94

     hartree stress (kbar)  12199.84     -0.00     -0.00
                               -0.00  12199.81     -0.03
                               -0.00     -0.03   7199.17

     exc-cor stress (kbar)   6605.78      0.00      0.00
                                0.00   6605.78     -0.00
                                0.00     -0.00   6604.07

     corecor stress (kbar) -10770.09     -0.00      0.00
                               -0.00 -10770.09     -0.00
                                0.00     -0.00 -10770.04

     ewald   stress (kbar) -12621.30     -0.02      0.01
                               -0.02 -12621.38     -0.05
                                0.01     -0.05 -18624.04

     hubbard stress (kbar)      0.00      0.00      0.00
                                0.00      0.00      0.00
                                0.00      0.00      0.00

     DFT-D   stress (kbar)      0.00      0.00      0.00
                                0.00      0.00      0.00
                                0.00      0.00      0.00

     XDM     stress (kbar)      0.00      0.00      0.00
                                0.00      0.00      0.00
                                0.00      0.00      0.00

     dft-nl  stress (kbar)     79.04     -0.00     -0.00
                               -0.00     79.04      0.00
                               -0.00      0.00     80.71

     TS-vdW  stress (kbar)      0.00      0.00      0.00
                                0.00      0.00      0.00
                                0.00      0.00      0.00

     MDB     stress (kbar)      0.00      0.00      0.00
                                0.00      0.00      0.00
                                0.00      0.00      0.00

     3D-RISM stress (kbar)      0.00      0.00      0.00
                                0.00      0.00      0.00
                                0.00      0.00      0.00

[...]

     Non-local corr. energy    =      10.94106816 Ry

 BEEFens 2000 ensemble energies
             -0.922133765854159E+01
             -0.926983901570990E+02
             -0.421680596491452E+02
              0.324013233728660E+02
             -0.708749455237268E+02
             -0.867576334777856E+02
              0.445570720757210E+02
              0.152182516565745E+00
              0.750237490083846E+02
             -0.473921503069312E+01
              0.384233183744798E+02
              0.390902060663120E+01
             -0.296393468982879E+01
             -0.242040830864141E+01
              0.478495137933479E+02
             -0.361085982203772E+02
             -0.708322436943026E+02
             -0.228382238466903E+02
              0.204583656791819E+02
             -0.457155845851162E+00
              0.104371954703988E+03
              0.871148628075737E+02
             -0.536513381616218E+02
              0.185633989043266E+02
             -0.111818265182122E+03
              0.917802750370593E+02
              0.314134121937691E+02
              0.828747445130059E+02
              0.558479450273207E+02
             -0.259503680374386E+02
              0.204559171073104E+02
             -0.365056567281147E+02
              0.152288179095272E+02
              0.555451616122438E+02
              0.598450648043660E+02
             -0.259523894664933E+02
              0.131899824568046E+03
             -0.531208322872002E+02
             -0.353166472525629E+02
              0.527383807197361E+02
              0.232550313071676E+02
              0.401369778285485E+02
             -0.774561933703282E+02
             -0.504911453435636E+01
              0.743223570389027E+02
              0.971277653022447E+02
             -0.986202160136719E+02
              0.630617014149703E+01
              0.341826934587887E+02
              0.220690799927999E+02
              0.385369590791809E+02
              0.846700351618530E+02
             -0.550399981313885E+02
             -0.534088482367347E+02
             -0.743465318634757E+02
             -0.107803628906078E+02
             -0.633837562811988E+02
              0.817671111633422E+01
             -0.914976001415766E+01
             -0.503415718394975E+02
[...]
              0.628656406958418E+02
              0.402203713067431E+02
              0.410349340986992E+02
             -0.759481252027284E+02
             -0.783945274697273E+02
             -0.176955659704214E+02
             -0.700721114979269E+02
              0.111298181458796E+03
              0.937275102815983E+02
              0.442056755831811E+02
              0.121838282658456E+03
             -0.608540112809622E+02
             -0.262617771843576E+02
             -0.378222605146677E+02
              0.105427673662745E+03

 BEEF-vdW xc energy contributions
            1 :    -953.0443981273456
            2 :     873.2229262555344
            3 :    -737.1316909820257
            4 :     581.0720028880347
            5 :    -439.2435677689828
            6 :     332.7160858920117
            7 :    -265.9424568859345
            8 :     229.8866481857303
            9 :    -208.8532462996211
           10 :     188.0625282208323
           11 :    -159.3072104132814
           12 :     122.7152954196551
           13 :    -84.37647274351707
           14 :     51.69435203226340
           15 :    -29.24414178571692
           16 :     17.04580501522173
           17 :    -11.44206065689150
           18 :     7.501773780524672
           19 :    -1.535302221238453
           20 :    -7.393295281601695
           21 :     17.50562240062061
           22 :    -25.73867220243801
           23 :     29.72276065947995
           24 :    -29.19040861991311
           25 :     26.07806659880077
           26 :    -23.38434366463525
           27 :     23.52413594856489
           28 :    -27.08880436022037
           29 :     32.61209255333313
           30 :    -37.40245165865963
           31 :    -82.28816465370028
           32 :    -59.22511419928787

     Writing all to output data dir ./PbI2.save/

     General routines

     Parallel routines

     PAW routines

   This run was terminated on:   6:46:29  28Mar2024

   JOB DONE.