     Program PWSCF v.7.1 starts on 11Mar2024 at  8:52:39

     Reading input from espresso.pwi
Warning: card &CELL ignored
Warning: card    CELL_DYNAMICS    = 'BFGS' ignored
Warning: card / ignored

     Current dimensions of program PWSCF are:
     Max number of different atomic species (ntypx) = 10
     Max number of k-points (npk) =  40000
     Max angular momentum in pseudopotentials (lmaxx) =  4
     file Ga.pbe-dn-kjpaw_psl.1.0.0.UPF: wavefunction(s)  4S renormalized
     file N.pbe-n-kjpaw_psl.1.0.0.UPF: wavefunction(s)  2S renormalized

     IMPORTANT: XC functional enforced from input :
     Exchange-correlation= BEEF-VDW
                           (   1   4  43  14   2   0   0)
     Any further DFT definition will be discarded
     Please, verify this is what you really want

     K-points division:     npool     =       4
     R & G space division:  proc/nbgrp/npool/nimage =      64
     Subspace diagonalization in iterative solution of the eigenvalue problem:
     a serial algorithm will be used

     Using Slab Decomposition

     bravais-lattice index     =            4
     lattice parameter (alat)  =      24.5252  a.u.
     unit-cell volume          =   15616.6055 (a.u.)^3
     number of atoms/cell      =          191
     number of atomic types    =            2
     number of electrons       =      1722.00
     number of Kohn-Sham states=         1033
     kinetic-energy cutoff     =      70.0000  Ry
     charge density cutoff     =     350.0000  Ry
     scf convergence threshold =      1.0E-07
     mixing beta               =       0.7000
     number of iterations used =            8  plain     mixing
     Exchange-correlation= BEEF-VDW
                           (   1   4  43  14   2   0   0)

     celldm(1)=  24.525232  celldm(2)=   0.000000  celldm(3)=   1.222409
     celldm(4)=   0.000000  celldm(5)=   0.000000  celldm(6)=   0.000000

     crystal axes: (cart. coord. in units of alat)
               a(1) = (   1.000000   0.000000   0.000000 )
               a(2) = (  -0.500000   0.866025   0.000000 )
               a(3) = (   0.000000   0.000000   1.222409 )

     reciprocal axes: (cart. coord. in units 2 pi/alat)
               b(1) = (  1.000000  0.577350 -0.000000 )
               b(2) = (  0.000000  1.154701  0.000000 )
               b(3) = (  0.000000 -0.000000  0.818057 )

     PseudoPot. # 1 for Ga read from file:
     //group///packages/espresso/pseudo/psl_1.0.0/pslibrary.1.0.0/pbe/PSEUDOPOTENTIALS/Ga.pbe-dn-kjpaw_psl.1.0.0.UPF
     MD5 check sum: cd2a01e492f15b435d17032472d8505c
     Pseudo is Projector augmented-wave + core cor, Zval = 13.0
     Generated using 'atomic' code by A. Dal Corso  v.7.1
     Shape of augmentation charge: PSQ
     Using radial grid of 1205 points,  6 beta functions with:
                l(1) =   0
                l(2) =   0
                l(3) =   1
                l(4) =   1
                l(5) =   2
                l(6) =   2
     Q(r) pseudized with 0 coefficients

     PseudoPot. # 2 for N  read from file:
     //group///packages/espresso/pseudo/psl_1.0.0/pslibrary.1.0.0/pbe/PSEUDOPOTENTIALS/N.pbe-n-kjpaw_psl.1.0.0.UPF
     MD5 check sum: f77f775694dac7e2c3fe1c82443d1a16
     Pseudo is Projector augmented-wave + core cor, Zval =  5.0
     Generated using 'atomic' code by A. Dal Corso  v.7.1
     Shape of augmentation charge: PSQ
     Using radial grid of 1085 points,  4 beta functions with:
                l(1) =   0
                l(2) =   0
                l(3) =   1
                l(4) =   1
     Q(r) pseudized with 0 coefficients

     atomic species   valence    mass     pseudopotential
        Ga            13.00    69.72300     Ga( 1.00)
        N              5.00    14.00700     N ( 1.00)

      6 Sym. Ops. (no inversion) found ( 4 have fractional translation)

                                    s                        frac. trans.

      isym =  1     identity

 cryst.   s( 1) = (     1          0          0      )
                  (     0          1          0      )
                  (     0          0          1      )

 cart.    s( 1) = (  1.0000000  0.0000000  0.0000000 )
                  (  0.0000000  1.0000000  0.0000000 )
                  (  0.0000000  0.0000000  1.0000000 )

      isym =  2     120 deg rotation - cryst. axis [0,0,1]

 cryst.   s( 2) = (     0          1          0      )    f =( -0.2500000 )
                  (    -1         -1          0      )       (  0.0000002 )
                  (     0          0          1      )       (  0.0000000 )

 cart.    s( 2) = ( -0.5000000 -0.8660254  0.0000000 )    f =( -0.2500001 )
                  (  0.8660254 -0.5000000  0.0000000 )       (  0.0000002 )
                  (  0.0000000  0.0000000  1.0000000 )       (  0.0000000 )

      isym =  3     120 deg rotation - cryst. axis [0,0,-1]

[...]

      isym =  4     inv. 180 deg rotation - cart. axis [1,0,0]

[...]

      isym =  5     inv. 180 deg rotation - cryst. axis [0,1,0]

 cryst.   s( 5) = (     1          1          0      )
                  (     0         -1          0      )
                  (     0          0          1      )

 cart.    s( 5) = (  0.5000000  0.8660254  0.0000000 )
                  (  0.8660254 -0.5000000  0.0000000 )
                  (  0.0000000  0.0000000  1.0000000 )

      isym =  6     inv. 180 deg rotation - cryst. axis [1,1,0]

 cryst.   s( 6) = (     0         -1          0      )    f =( -0.2500000 )
                  (    -1          0          0      )       ( -0.2500000 )
                  (     0          0          1      )       (  0.0000000 )

 cart.    s( 6) = (  0.5000000 -0.8660254  0.0000000 )    f =( -0.1250000 )
                  ( -0.8660254 -0.5000000  0.0000000 )       ( -0.2165064 )
                  (  0.0000000  0.0000000  1.0000000 )       (  0.0000000 )

     point group C_3v (3m)
     there are  3 classes
     the character table:

       E     2C3   3s_v
A_1    1.00  1.00  1.00
A_2    1.00  1.00 -1.00
E      2.00 -1.00  0.00

     the symmetry operations in each class and the name of the first element:

     E        1
          identity
     2C3      2    3
          120 deg rotation - cryst. axis [0,0,1]
     3s_v     4    5    6
          inv. 180 deg rotation - cart. axis [1,0,0]

   Cartesian axes

     site n.     atom                  positions (alat units)
         1           Ga  tau(   1) = (   0.1250001   0.0721687   0.2033935  )
         2           Ga  tau(   2) = (   0.1250001   0.0721687   0.6108633  )
         3           Ga  tau(   3) = (   0.1250001   0.0721687   1.0183331  )
         4           Ga  tau(   4) = (   0.0000001   0.2886751   0.2033935  )
         5           Ga  tau(   5) = (   0.0000001   0.2886751   0.6108633  )
         6           Ga  tau(   6) = (   0.0000001   0.2886751   1.0183331  )
         7           Ga  tau(   7) = (  -0.1249999   0.5051814   0.2033935  )
         8           Ga  tau(   8) = (  -0.1249999   0.5051814   0.6108633  )
         9           Ga  tau(   9) = (  -0.1249999   0.5051814   1.0183331  )
        10           Ga  tau(  10) = (  -0.2499999   0.7216878   0.2033935  )
        11           Ga  tau(  11) = (  -0.2499999   0.7216878   0.6108633  )
        12           Ga  tau(  12) = (  -0.2499999   0.7216878   1.0183331  )
        13           Ga  tau(  13) = (   0.3750001   0.0721687   0.2033935  )
        14           Ga  tau(  14) = (   0.3750001   0.0721687   0.6108633  )
        15           Ga  tau(  15) = (   0.3750001   0.0721687   1.0183331  )
        16           Ga  tau(  16) = (   0.2500001   0.2886751   0.2033935  )
        17           Ga  tau(  17) = (   0.2500001   0.2886751   0.6108633  )
        18           Ga  tau(  18) = (   0.2500001   0.2886751   1.0183331  )
        19           Ga  tau(  19) = (   0.1250001   0.5051814   0.2033935  )
        20           Ga  tau(  20) = (   0.1250001   0.5051814   0.6108633  )
        21           Ga  tau(  21) = (   0.1250001   0.5051814   1.0183331  )
        22           Ga  tau(  22) = (   0.0000001   0.7216878   0.2033935  )
        23           Ga  tau(  23) = (   0.0000001   0.7216878   0.6108633  )
        24           Ga  tau(  24) = (   0.0000001   0.7216878   1.0183331  )
        25           Ga  tau(  25) = (   0.6250001   0.0721687   0.2033935  )
        26           Ga  tau(  26) = (   0.6250001   0.0721687   0.6108633  )
        27           Ga  tau(  27) = (   0.6250001   0.0721687   1.0183331  )
        28           Ga  tau(  28) = (   0.5000001   0.2886751   0.2033935  )
        29           Ga  tau(  29) = (   0.5000001   0.2886751   0.6108633  )
        30           Ga  tau(  30) = (   0.5000001   0.2886751   1.0183331  )
        31           Ga  tau(  31) = (   0.3750001   0.5051814   0.2033935  )
        32           Ga  tau(  32) = (   0.3750001   0.5051814   0.6108633  )
        33           Ga  tau(  33) = (   0.3750001   0.5051814   1.0183331  )
        34           Ga  tau(  34) = (   0.2500001   0.7216878   0.2033935  )
        35           Ga  tau(  35) = (   0.2500001   0.7216878   0.6108633  )
        36           Ga  tau(  36) = (   0.2500001   0.7216878   1.0183331  )
        37           Ga  tau(  37) = (   0.8750001   0.0721687   0.2033935  )
        38           Ga  tau(  38) = (   0.8750001   0.0721687   0.6108633  )
        39           Ga  tau(  39) = (   0.8750001   0.0721687   1.0183331  )
        40           Ga  tau(  40) = (   0.7500001   0.2886751   0.2033935  )
        41           Ga  tau(  41) = (   0.7500001   0.2886751   0.6108633  )
        42           Ga  tau(  42) = (   0.7500001   0.2886751   1.0183331  )
        43           Ga  tau(  43) = (   0.6250001   0.5051814   0.2033935  )
        44           Ga  tau(  44) = (   0.6250001   0.5051814   0.6108633  )
        45           Ga  tau(  45) = (   0.6250001   0.5051814   1.0183331  )
        46           Ga  tau(  46) = (   0.5000001   0.7216878   0.2033935  )
        47           Ga  tau(  47) = (   0.5000001   0.7216878   0.6108633  )
        48           Ga  tau(  48) = (   0.5000001   0.7216878   1.0183331  )
        49           Ga  tau(  49) = (  -0.0000002   0.1443377   0.4071284  )
        50           Ga  tau(  50) = (  -0.0000002   0.1443377   0.8145982  )
        51           Ga  tau(  51) = (  -0.0000002   0.1443377   1.2220680  )
        52           Ga  tau(  52) = (  -0.1250002   0.3608440   0.4071284  )
        53           Ga  tau(  53) = (  -0.1250002   0.3608440   0.8145982  )
        54           Ga  tau(  54) = (  -0.1250002   0.3608440   1.2220680  )
        55           Ga  tau(  55) = (  -0.2500002   0.5773504   0.4071284  )
        56           Ga  tau(  56) = (  -0.2500002   0.5773504   0.8145982  )
        57           Ga  tau(  57) = (  -0.2500002   0.5773504   1.2220680  )
        58           Ga  tau(  58) = (  -0.3750001   0.7938567   0.4071284  )
        59           Ga  tau(  59) = (  -0.3750001   0.7938567   0.8145982  )
        60           Ga  tau(  60) = (  -0.3750001   0.7938567   1.2220680  )
[...]
       177           N   tau( 177) = (   0.1249998   0.7938567   0.1531425  )
       178           N   tau( 178) = (   0.1249998   0.7938567   0.5606123  )
[...]
     atom   26 type  1   force =     0.00000000    0.00000000    0.00000000
     atom   27 type  1   force =     0.00000000    0.00000000    0.00000000
     atom   28 type  1   force =     0.00000000    0.00000000    0.00000000
     atom   29 type  1   force =     0.00000000    0.00000000    0.00000000
     atom   30 type  1   force =     0.00000000    0.00000000    0.00000000
     atom   31 type  1   force =     0.00000000    0.00000000    0.00000000
     atom   32 type  1   force =     0.00000000    0.00000000    0.00000000
     atom   33 type  1   force =     0.00000000    0.00000000    0.00000000
     atom   34 type  1   force =     0.00000000    0.00000000    0.00000000
     atom   35 type  1   force =     0.00000000    0.00000000    0.00000000
     atom   36 type  1   force =     0.00000000    0.00000000    0.00000000
     atom   37 type  1   force =     0.00000000    0.00000000    0.00000000
     atom   38 type  1   force =     0.00000000    0.00000000    0.00000000
     atom   39 type  1   force =     0.00000000    0.00000000    0.00000000
     atom   40 type  1   force =     0.00000000    0.00000000    0.00000000
     atom   41 type  1   force =     0.00000000    0.00000000    0.00000000
     atom   42 type  1   force =     0.00000000    0.00000000    0.00000000
     atom   43 type  1   force =     0.00000000    0.00000000    0.00000000
     atom   44 type  1   force =     0.00000000    0.00000000    0.00000000
     atom   45 type  1   force =     0.00000000    0.00000000    0.00000000
     atom   46 type  1   force =     0.00000000    0.00000000    0.00000000
     atom   47 type  1   force =     0.00000000    0.00000000    0.00000000
     atom   48 type  1   force =     0.00000000    0.00000000    0.00000000
     atom   49 type  1   force =     0.00000000    0.00000000    0.00000000
     atom   50 type  1   force =     0.00000000    0.00000000    0.00000000
     atom   51 type  1   force =     0.00000000    0.00000000    0.00000000
     atom   52 type  1   force =     0.00000000    0.00000000    0.00000000
     atom   53 type  1   force =     0.00000000    0.00000000    0.00000000
     atom   54 type  1   force =     0.00000000    0.00000000    0.00000000
     atom   55 type  1   force =     0.00000000    0.00000000    0.00000000
     atom   56 type  1   force =     0.00000000    0.00000000    0.00000000
     atom   57 type  1   force =     0.00000000    0.00000000    0.00000000
     atom   58 type  1   force =     0.00000000    0.00000000    0.00000000
     atom   59 type  1   force =     0.00000000    0.00000000    0.00000000
     atom   60 type  1   force =     0.00000000    0.00000000    0.00000000
[...]
     atom  177 type  2   force =     0.00000000    0.00000000    0.00000000
     atom  178 type  2   force =     0.00000000    0.00000000    0.00000000
     atom  179 type  2   force =     0.00000000    0.00000000    0.00000000
     atom  180 type  2   force =     0.00000000    0.00000000    0.00000000
     atom  181 type  2   force =     0.00000000    0.00000000    0.00000000
     atom  182 type  2   force =     0.00000000    0.00000000    0.00000000
     atom  183 type  2   force =     0.00000000    0.00000000    0.00000000
     atom  184 type  2   force =     0.00000000    0.00000000    0.00000000
     atom  185 type  2   force =     0.00000000    0.00000000    0.00000000
     atom  186 type  2   force =     0.00000000    0.00000000    0.00000000
     atom  187 type  2   force =     0.00000000    0.00000000    0.00000000
     atom  188 type  2   force =     0.00000000    0.00000000    0.00000000
     atom  189 type  2   force =     0.00000000    0.00000000    0.00000000
     atom  190 type  2   force =     0.00000000    0.00000000    0.00000000
     atom  191 type  2   force =     0.00000000    0.00000000    0.00000000
     The SCF correction term to forces
     atom    1 type  1   force =     0.00000000   -0.00000000   -0.00007180
     atom    2 type  1   force =     0.00000000   -0.00000000    0.00010375
     atom    3 type  1   force =    -0.00000000    0.00000000   -0.00003723
     atom    4 type  1   force =     0.00001080   -0.00001109   -0.00005538
     atom    5 type  1   force =     0.00001493   -0.00001335    0.00003444
     atom    6 type  1   force =     0.00003585   -0.00005149   -0.00000661
     atom    7 type  1   force =    -0.00000325   -0.00000188   -0.00005921
     atom    8 type  1   force =    -0.00000090   -0.00000052    0.00001781
     atom    9 type  1   force =    -0.00000600   -0.00000347    0.00002458
     atom   10 type  1   force =    -0.00000421    0.00001490   -0.00005538
     atom   11 type  1   force =    -0.00000410    0.00001960    0.00003444
     atom   12 type  1   force =    -0.00002667    0.00005679   -0.00000661
     atom   13 type  1   force =    -0.00001501   -0.00000381   -0.00005538
     atom   14 type  1   force =    -0.00001902   -0.00000625    0.00003444
     atom   15 type  1   force =    -0.00006252   -0.00000530   -0.00000661
     atom   16 type  1   force =    -0.00001080   -0.00001109   -0.00005538
     atom   17 type  1   force =    -0.00001493   -0.00001335    0.00003444
     atom   18 type  1   force =    -0.00003585   -0.00005149   -0.00000661
     atom   19 type  1   force =     0.00000000   -0.00001609   -0.00003098
     atom   20 type  1   force =     0.00000000   -0.00001709   -0.00000644
     atom   21 type  1   force =    -0.00000000   -0.00004593    0.00002473
     atom   22 type  1   force =    -0.00001393    0.00000804   -0.00003098
     atom   23 type  1   force =    -0.00001480    0.00000855   -0.00000644
     atom   24 type  1   force =    -0.00003977    0.00002296    0.00002473
     atom   25 type  1   force =    -0.00000000    0.00000375   -0.00005921
     atom   26 type  1   force =    -0.00000000    0.00000104    0.00001781
     atom   27 type  1   force =     0.00000000    0.00000693    0.00002458
     atom   28 type  1   force =    -0.00000964   -0.00000557   -0.00003403
     atom   29 type  1   force =     0.00000378    0.00000218    0.00001109
     atom   30 type  1   force =    -0.00002108   -0.00001217    0.00002210
     atom   31 type  1   force =     0.00000325   -0.00000188   -0.00005921
     atom   32 type  1   force =     0.00000090   -0.00000052    0.00001781
     atom   33 type  1   force =     0.00000600   -0.00000347    0.00002458
     atom   34 type  1   force =     0.00001393    0.00000804   -0.00003098
     atom   35 type  1   force =     0.00001480    0.00000855   -0.00000644
     atom   36 type  1   force =     0.00003977    0.00002296    0.00002473
     atom   37 type  1   force =     0.00001501   -0.00000381   -0.00005538
     atom   38 type  1   force =     0.00001902   -0.00000625    0.00003444
     atom   39 type  1   force =     0.00006252   -0.00000530   -0.00000661
     atom   40 type  1   force =     0.00000964   -0.00000557   -0.00003403
     atom   41 type  1   force =    -0.00000378    0.00000218    0.00001109
     atom   42 type  1   force =     0.00002108   -0.00001217    0.00002210
     atom   43 type  1   force =    -0.00000000    0.00001113   -0.00003403
     atom   44 type  1   force =     0.00000000   -0.00000437    0.00001109
     atom   45 type  1   force =    -0.00000000    0.00002434    0.00002210
     atom   46 type  1   force =     0.00000421    0.00001490   -0.00005538
     atom   47 type  1   force =     0.00000410    0.00001960    0.00003444
     atom   48 type  1   force =     0.00002666    0.00005679   -0.00000661
     atom   49 type  1   force =    -0.00002285    0.00001319   -0.00004027
     atom   50 type  1   force =     0.00005843   -0.00003373    0.00007083
     atom   51 type  1   force =     0.00001755   -0.00001013   -0.00002141
     atom   52 type  1   force =    -0.00000689   -0.00002941   -0.00002180
     atom   53 type  1   force =     0.00001020   -0.00002770    0.00004371
     atom   54 type  1   force =    -0.00000110   -0.00001361   -0.00000871
     atom   55 type  1   force =    -0.00002892    0.00000873   -0.00002180
     atom   56 type  1   force =    -0.00001889    0.00002268    0.00004371
     atom   57 type  1   force =    -0.00001233    0.00000585   -0.00000871
     atom   58 type  1   force =    -0.00000000   -0.00002638   -0.00004027
     atom   59 type  1   force =     0.00000000    0.00006747    0.00007083
     atom   60 type  1   force =     0.00000000    0.00002027   -0.00002141
[...]
     atom  177 type  2   force =    -0.00000000    0.00000162   -0.00001506
     atom  178 type  2   force =    -0.00000000   -0.00000296   -0.00000094
     atom  179 type  2   force =    -0.00000000    0.00001157    0.00001054
     atom  180 type  2   force =     0.00000685    0.00000121   -0.00001831
     atom  181 type  2   force =     0.00000451    0.00000405    0.00000522
     atom  182 type  2   force =     0.00001556   -0.00000006    0.00000906
     atom  183 type  2   force =    -0.00000000    0.00000000   -0.00001490
     atom  184 type  2   force =     0.00000000   -0.00000000    0.00000019
     atom  185 type  2   force =    -0.00000000    0.00000000    0.00001126
     atom  186 type  2   force =     0.00000448    0.00000533   -0.00001831
     atom  187 type  2   force =     0.00000576    0.00000188    0.00000522
     atom  188 type  2   force =     0.00000773    0.00001350    0.00000906
     atom  189 type  2   force =     0.00000834    0.00000481   -0.00001994
     atom  190 type  2   force =     0.00000184    0.00000106    0.00000936
     atom  191 type  2   force =     0.00002645    0.00001527    0.00000778

     Total force =     0.004443     Total SCF correction =     0.000494
     SCF correction compared to forces is large: reduce conv_thr to get better values

     Computing stress (Cartesian axis) and pressure

[...]

          total   stress  (Ry/bohr**3)                   (kbar)     P=       -9.57
  -0.00006898   0.00000000   0.00000000          -10.15        0.00        0.00
  -0.00000000  -0.00006898   0.00000000           -0.00      -10.15        0.00
   0.00000000   0.00000000  -0.00005719            0.00        0.00       -8.41

     kinetic stress (kbar)  18332.63      0.00      0.00
                                0.00  18332.63     -0.00
                                0.00     -0.00  18327.48

     local   stress (kbar)   5342.03     -0.07      0.00
                               -0.07   5341.94     -0.00
                                0.00     -0.00   3740.49

     nonloc. stress (kbar)     97.20      0.00      0.00
                                0.00     97.20      0.00
                                0.00      0.00    108.31

     hartree stress (kbar)  19629.68     -0.00      0.00
                               -0.00  19629.68     -0.00
                                0.00     -0.00  20361.42

     exc-cor stress (kbar)   5232.10      0.00     -0.00
                                0.00   5232.10      0.00
                               -0.00      0.00   5232.36

     corecor stress (kbar) -14103.68     -0.00     -0.00
                               -0.00 -14103.68      0.00
                               -0.00      0.00 -14103.15

     ewald   stress (kbar) -34702.02      0.09     -0.00
                                0.09 -34701.90      0.00
                               -0.00      0.00 -33836.37

     hubbard stress (kbar)      0.00      0.00      0.00
                                0.00      0.00      0.00
                                0.00      0.00      0.00

     DFT-D   stress (kbar)      0.00      0.00      0.00
                                0.00      0.00      0.00
                                0.00      0.00      0.00

     XDM     stress (kbar)      0.00      0.00      0.00
                                0.00      0.00      0.00
                                0.00      0.00      0.00

     dft-nl  stress (kbar)    161.90     -0.00     -0.00
                               -0.00    161.90     -0.00
                               -0.00     -0.00    161.06

     TS-vdW  stress (kbar)      0.00      0.00      0.00
                                0.00      0.00      0.00
                                0.00      0.00      0.00

     MDB     stress (kbar)      0.00      0.00      0.00
                                0.00      0.00      0.00
                                0.00      0.00      0.00

     3D-RISM stress (kbar)      0.00      0.00      0.00
                                0.00      0.00      0.00
                                0.00      0.00      0.00

[...]

     Non-local corr. energy    =      52.25630004 Ry

 BEEFens 2000 ensemble energies
             -0.422288491580389E+02
             -0.380548461389147E+03
             -0.163775364828175E+03
              0.133895615025633E+03
             -0.273715615489954E+03
             -0.351965498189562E+03
              0.180836270175622E+03
             -0.190358027131495E+02
              0.301459424031228E+03
             -0.130490257407353E+02
              0.148022048571023E+03
              0.612392106566415E+01
              0.601979855014940E+01
             -0.129247685719390E+02
              0.197314607416115E+03
             -0.143659678345866E+03
             -0.295969106932446E+03
             -0.967823990288980E+02
              0.722803079647930E+02
             -0.651757659588611E+01
              0.432271275959845E+03
              0.367804369029459E+03
             -0.210626235008713E+03
              0.761747907728966E+02
             -0.461666950541818E+03
              0.370167013872725E+03
              0.120882917254213E+03
              0.359805655299713E+03
              0.236394074743892E+03
             -0.115004613130156E+03
              0.871265023780788E+02
             -0.169920627156089E+03
              0.476879578102636E+02
              0.231431393195630E+03
              0.245359890131444E+03
             -0.886651970989574E+02
              0.544964793813466E+03
             -0.206920363582484E+03
             -0.148903412256527E+03
              0.218442210812264E+03
              0.976995314084406E+02
              0.163508622237876E+03
             -0.311618113776761E+03
             -0.871426161163527E+01
              0.305841260332794E+03
              0.397342953500709E+03
             -0.395618504879671E+03
              0.281329771989757E+02
              0.149096266485968E+03
              0.727183155900243E+02
              0.165380633664958E+03
              0.350301394984841E+03
             -0.211755021422909E+03
             -0.232167293025346E+03
             -0.301858493478654E+03
             -0.466190368898019E+02
             -0.275345625392668E+03
              0.269922468619977E+02
             -0.508878434609005E+02
             -0.214518747786869E+03
[...]
              0.267688386880443E+03
              0.148000443117406E+03
              0.187879740711458E+03
             -0.303786555543223E+03
             -0.290989321805770E+03
             -0.735432684809950E+02
             -0.285112751236800E+03
              0.456350370226698E+03
              0.391093989708362E+03
              0.186921341418071E+03
              0.506208054716175E+03
             -0.263435602697068E+03
             -0.107293097385377E+03
             -0.149405447708802E+03
              0.418790930808149E+03

 BEEF-vdW xc energy contributions
            1 :    -3836.850197711314
            2 :     3455.834807125289
            3 :    -2817.653575558056
            4 :     2109.320346339612
            5 :    -1495.247040634657
            6 :     1054.651881690086
            7 :    -772.8006963248017
            8 :     581.8272697405569
            9 :    -418.2636905316112
           10 :     259.8557201276662
           11 :    -124.0203527174890
           12 :     38.41555887776758
           13 :    -10.65837525199368
           14 :     19.60318890704184
           15 :    -31.02174205452411
           16 :     21.99891144473895
           17 :     5.902596813321907
           18 :    -33.43554924895125
           19 :     42.77486923817105
           20 :    -32.72277887483779
           21 :     18.64533204751115
           22 :    -18.86203052561177
           23 :     39.60461472055567
           24 :    -70.59706515570542
           25 :     93.85482131368281
           26 :    -97.70533132636501
           27 :     84.67001540479350
           28 :    -67.69250259002001
           29 :     58.83923263620272
           30 :    -60.11567153940632
           31 :    -328.5137212956388
           32 :    -225.0812076463999

     Writing all to output data dir ./GaN.save/

     General routines

     Parallel routines

     PAW routines

   This run was terminated on:   9: 3:18  11Mar2024

   JOB DONE.