     Program PWSCF v.7.1 starts on 17Feb2024 at 18:25:28

     Reading input from espresso.pwi
Warning: card &CELL ignored
Warning: card    CELL_DYNAMICS    = 'BFGS' ignored
Warning: card / ignored

     Current dimensions of program PWSCF are:
     Max number of different atomic species (ntypx) = 10
     Max number of k-points (npk) =  40000
     Max angular momentum in pseudopotentials (lmaxx) =  4
     file Ga.pbe-dn-kjpaw_psl.1.0.0.UPF: wavefunction(s)  4S renormalized
     file N.pbe-n-kjpaw_psl.1.0.0.UPF: wavefunction(s)  2S renormalized

     IMPORTANT: XC functional enforced from input :
     Exchange-correlation= BEEF-VDW
                           (   1   4  43  14   2   0   0)
     Any further DFT definition will be discarded
     Please, verify this is what you really want

     K-points division:     npool     =       4
     R & G space division:  proc/nbgrp/npool/nimage =      64
     Subspace diagonalization in iterative solution of the eigenvalue problem:
     a serial algorithm will be used

     Using Slab Decomposition

     bravais-lattice index     =            4
     lattice parameter (alat)  =      24.5252  a.u.
     unit-cell volume          =   15616.6055 (a.u.)^3
     number of atoms/cell      =          192
     number of atomic types    =            2
     number of electrons       =      1736.00
     number of Kohn-Sham states=         1042
     kinetic-energy cutoff     =      70.0000  Ry
     charge density cutoff     =     350.0000  Ry
     scf convergence threshold =      1.0E-07
     mixing beta               =       0.7000
     number of iterations used =            8  plain     mixing
     energy convergence thresh.=      1.0E-04
     force convergence thresh. =      1.0E-03
     Exchange-correlation= BEEF-VDW
                           (   1   4  43  14   2   0   0)
     nstep                     =           50

     celldm(1)=  24.525232  celldm(2)=   0.000000  celldm(3)=   1.222409
     celldm(4)=   0.000000  celldm(5)=   0.000000  celldm(6)=   0.000000

     crystal axes: (cart. coord. in units of alat)
               a(1) = (   1.000000   0.000000   0.000000 )
               a(2) = (  -0.500000   0.866025   0.000000 )
               a(3) = (   0.000000   0.000000   1.222409 )

     reciprocal axes: (cart. coord. in units 2 pi/alat)
               b(1) = (  1.000000  0.577350 -0.000000 )
               b(2) = (  0.000000  1.154701  0.000000 )
               b(3) = (  0.000000 -0.000000  0.818057 )

     PseudoPot. # 1 for Ga read from file:
     /trace/group/acmegroup/atimmins/packages/espresso/pseudo/psl_1.0.0/pslibrary.1.0.0/pbe/PSEUDOPOTENTIALS/Ga.pbe-dn-kjpaw_psl.1.0.0.UPF
     MD5 check sum: cd2a01e492f15b435d17032472d8505c
     Pseudo is Projector augmented-wave + core cor, Zval = 13.0
     Generated using 'atomic' code by A. Dal Corso  v.7.1
     Shape of augmentation charge: PSQ
     Using radial grid of 1205 points,  6 beta functions with:
                l(1) =   0
                l(2) =   0
                l(3) =   1
                l(4) =   1
                l(5) =   2
                l(6) =   2
     Q(r) pseudized with 0 coefficients

     PseudoPot. # 2 for N  read from file:
     /trace/group/acmegroup/atimmins/packages/espresso/pseudo/psl_1.0.0/pslibrary.1.0.0/pbe/PSEUDOPOTENTIALS/N.pbe-n-kjpaw_psl.1.0.0.UPF
     MD5 check sum: f77f775694dac7e2c3fe1c82443d1a16
     Pseudo is Projector augmented-wave + core cor, Zval =  5.0
     Generated using 'atomic' code by A. Dal Corso  v.7.1
     Shape of augmentation charge: PSQ
     Using radial grid of 1085 points,  4 beta functions with:
                l(1) =   0
                l(2) =   0
                l(3) =   1
                l(4) =   1
     Q(r) pseudized with 0 coefficients

     atomic species   valence    mass     pseudopotential
        Ga            13.00    69.72300     Ga( 1.00)
        N              5.00    14.00700     N ( 1.00)

      6 Sym. Ops. (no inversion) found ( 4 have fractional translation)

                                    s                        frac. trans.

      isym =  1     identity

 cryst.   s( 1) = (     1          0          0      )
                  (     0          1          0      )
                  (     0          0          1      )

 cart.    s( 1) = (  1.0000000  0.0000000  0.0000000 )
                  (  0.0000000  1.0000000  0.0000000 )
                  (  0.0000000  0.0000000  1.0000000 )

      isym =  2     120 deg rotation - cryst. axis [0,0,1]

 cryst.   s( 2) = (     0          1          0      )    f =( -0.2500000 )
                  (    -1         -1          0      )       (  0.0000002 )
                  (     0          0          1      )       (  0.0000000 )

 cart.    s( 2) = ( -0.5000000 -0.8660254  0.0000000 )    f =( -0.2500001 )
                  (  0.8660254 -0.5000000  0.0000000 )       (  0.0000002 )
                  (  0.0000000  0.0000000  1.0000000 )       (  0.0000000 )

      isym =  3     120 deg rotation - cryst. axis [0,0,-1]

[...]

      isym =  4     inv. 180 deg rotation - cart. axis [1,0,0]

[...]

      isym =  5     inv. 180 deg rotation - cryst. axis [0,1,0]

 cryst.   s( 5) = (     1          1          0      )
                  (     0         -1          0      )
                  (     0          0          1      )

 cart.    s( 5) = (  0.5000000  0.8660254  0.0000000 )
                  (  0.8660254 -0.5000000  0.0000000 )
                  (  0.0000000  0.0000000  1.0000000 )

      isym =  6     inv. 180 deg rotation - cryst. axis [1,1,0]

 cryst.   s( 6) = (     0         -1          0      )    f =( -0.2500000 )
                  (    -1          0          0      )       ( -0.2500000 )
                  (     0          0          1      )       (  0.0000000 )

 cart.    s( 6) = (  0.5000000 -0.8660254  0.0000000 )    f =( -0.1250000 )
                  ( -0.8660254 -0.5000000  0.0000000 )       ( -0.2165064 )
                  (  0.0000000  0.0000000  1.0000000 )       (  0.0000000 )

     point group C_3v (3m)
     there are  3 classes
     the character table:

       E     2C3   3s_v
A_1    1.00  1.00  1.00
A_2    1.00  1.00 -1.00
E      2.00 -1.00  0.00

     the symmetry operations in each class and the name of the first element:

     E        1
          identity
     2C3      2    3
          120 deg rotation - cryst. axis [0,0,1]
     3s_v     4    5    6
          inv. 180 deg rotation - cart. axis [1,0,0]

   Cartesian axes

     site n.     atom                  positions (alat units)
         1           Ga  tau(   1) = (   0.1250001   0.0721687   0.2033935  )
         2           Ga  tau(   2) = (   0.1250001   0.0721687   0.6108633  )
         3           Ga  tau(   3) = (   0.1250001   0.0721687   1.0183331  )
         4           Ga  tau(   4) = (   0.0000001   0.2886751   0.2033935  )
         5           Ga  tau(   5) = (   0.0000001   0.2886751   0.6108633  )
         6           Ga  tau(   6) = (   0.0000001   0.2886751   1.0183331  )
         7           Ga  tau(   7) = (  -0.1249999   0.5051814   0.2033935  )
         8           Ga  tau(   8) = (  -0.1249999   0.5051814   0.6108633  )
         9           Ga  tau(   9) = (  -0.1249999   0.5051814   1.0183331  )
        10           Ga  tau(  10) = (  -0.2499999   0.7216878   0.2033935  )
        11           Ga  tau(  11) = (  -0.2499999   0.7216878   0.6108633  )
        12           Ga  tau(  12) = (  -0.2499999   0.7216878   1.0183331  )
        13           Ga  tau(  13) = (   0.3750001   0.0721687   0.2033935  )
        14           Ga  tau(  14) = (   0.3750001   0.0721687   0.6108633  )
        15           Ga  tau(  15) = (   0.3750001   0.0721687   1.0183331  )
        16           Ga  tau(  16) = (   0.2500001   0.2886751   0.2033935  )
        17           Ga  tau(  17) = (   0.2500001   0.2886751   0.6108633  )
        18           Ga  tau(  18) = (   0.2500001   0.2886751   1.0183331  )
        19           Ga  tau(  19) = (   0.1250001   0.5051814   0.2033935  )
        20           Ga  tau(  20) = (   0.1250001   0.5051814   0.6108633  )
        21           Ga  tau(  21) = (   0.1250001   0.5051814   1.0183331  )
        22           Ga  tau(  22) = (   0.0000001   0.7216878   0.2033935  )
        23           Ga  tau(  23) = (   0.0000001   0.7216878   0.6108633  )
        24           Ga  tau(  24) = (   0.0000001   0.7216878   1.0183331  )
        25           Ga  tau(  25) = (   0.6250001   0.0721687   0.2033935  )
        26           Ga  tau(  26) = (   0.6250001   0.0721687   0.6108633  )
        27           Ga  tau(  27) = (   0.6250001   0.0721687   1.0183331  )
        28           Ga  tau(  28) = (   0.5000001   0.2886751   0.2033935  )
        29           Ga  tau(  29) = (   0.5000001   0.2886751   0.6108633  )
        30           Ga  tau(  30) = (   0.5000001   0.2886751   1.0183331  )
        31           Ga  tau(  31) = (   0.3750001   0.5051814   0.2033935  )
        32           Ga  tau(  32) = (   0.3750001   0.5051814   0.6108633  )
        33           Ga  tau(  33) = (   0.3750001   0.5051814   1.0183331  )
        34           Ga  tau(  34) = (   0.2500001   0.7216878   0.2033935  )
        35           Ga  tau(  35) = (   0.2500001   0.7216878   0.6108633  )
        36           Ga  tau(  36) = (   0.2500001   0.7216878   1.0183331  )
        37           Ga  tau(  37) = (   0.8750001   0.0721687   0.2033935  )
        38           Ga  tau(  38) = (   0.8750001   0.0721687   0.6108633  )
        39           Ga  tau(  39) = (   0.8750001   0.0721687   1.0183331  )
        40           Ga  tau(  40) = (   0.7500001   0.2886751   0.2033935  )
        41           Ga  tau(  41) = (   0.7500001   0.2886751   0.6108633  )
        42           Ga  tau(  42) = (   0.7500001   0.2886751   1.0183331  )
        43           Ga  tau(  43) = (   0.6250001   0.5051814   0.2033935  )
        44           Ga  tau(  44) = (   0.6250001   0.5051814   0.6108633  )
        45           Ga  tau(  45) = (   0.6250001   0.5051814   1.0183331  )
        46           Ga  tau(  46) = (   0.5000001   0.7216878   0.2033935  )
        47           Ga  tau(  47) = (   0.5000001   0.7216878   0.6108633  )
        48           Ga  tau(  48) = (   0.5000001   0.7216878   1.0183331  )
        49           Ga  tau(  49) = (  -0.0000002   0.1443377   0.4071284  )
        50           Ga  tau(  50) = (  -0.0000002   0.1443377   0.8145982  )
        51           Ga  tau(  51) = (  -0.0000002   0.1443377   1.2220680  )
        52           Ga  tau(  52) = (  -0.1250002   0.3608440   0.4071284  )
        53           Ga  tau(  53) = (  -0.1250002   0.3608440   0.8145982  )
        54           Ga  tau(  54) = (  -0.1250002   0.3608440   1.2220680  )
        55           Ga  tau(  55) = (  -0.2500002   0.5773504   0.4071284  )
        56           Ga  tau(  56) = (  -0.2500002   0.5773504   0.8145982  )
        57           Ga  tau(  57) = (  -0.2500002   0.5773504   1.2220680  )
        58           Ga  tau(  58) = (  -0.3750001   0.7938567   0.4071284  )
        59           Ga  tau(  59) = (  -0.3750001   0.7938567   0.8145982  )
[...]
     atom   44 type  1   force =     0.00000000    0.00000000    0.00000000
     atom   45 type  1   force =     0.00000000    0.00000000    0.00000000
     atom   46 type  1   force =     0.00000000    0.00000000    0.00000000
     atom   47 type  1   force =     0.00000000    0.00000000    0.00000000
     atom   48 type  1   force =     0.00000000    0.00000000    0.00000000
     atom   49 type  1   force =     0.00000000    0.00000000    0.00000000
     atom   50 type  1   force =     0.00000000    0.00000000    0.00000000
     atom   51 type  1   force =     0.00000000    0.00000000    0.00000000
     atom   52 type  1   force =     0.00000000    0.00000000    0.00000000
     atom   53 type  1   force =     0.00000000    0.00000000    0.00000000
     atom   54 type  1   force =     0.00000000    0.00000000    0.00000000
     atom   55 type  1   force =     0.00000000    0.00000000    0.00000000
     atom   56 type  1   force =     0.00000000    0.00000000    0.00000000
     atom   57 type  1   force =     0.00000000    0.00000000    0.00000000
     atom   58 type  1   force =     0.00000000    0.00000000    0.00000000
     atom   59 type  1   force =     0.00000000    0.00000000    0.00000000
     atom   60 type  1   force =     0.00000000    0.00000000    0.00000000
[...]
     atom  178 type  2   force =     0.00000000    0.00000000    0.00000000
     atom  179 type  2   force =     0.00000000    0.00000000    0.00000000
     atom  180 type  2   force =     0.00000000    0.00000000    0.00000000
     atom  181 type  2   force =     0.00000000    0.00000000    0.00000000
     atom  182 type  2   force =     0.00000000    0.00000000    0.00000000
     atom  183 type  2   force =     0.00000000    0.00000000    0.00000000
     atom  184 type  2   force =     0.00000000    0.00000000    0.00000000
     atom  185 type  2   force =     0.00000000    0.00000000    0.00000000
     atom  186 type  2   force =     0.00000000    0.00000000    0.00000000
     atom  187 type  2   force =     0.00000000    0.00000000    0.00000000
     atom  188 type  2   force =     0.00000000    0.00000000    0.00000000
     atom  189 type  2   force =     0.00000000    0.00000000    0.00000000
     atom  190 type  2   force =     0.00000000    0.00000000    0.00000000
     atom  191 type  2   force =     0.00000000    0.00000000    0.00000000
     atom  192 type  1   force =     0.00000000    0.00000000    0.00000000
     The SCF correction term to forces
     atom    1 type  1   force =    -0.00000000    0.00000000    0.00000049
     atom    2 type  1   force =    -0.00000000    0.00000000    0.00000137
     atom    3 type  1   force =    -0.00000000    0.00000000    0.00000525
     atom    4 type  1   force =     0.00000058    0.00000035   -0.00000077
     atom    5 type  1   force =     0.00000775   -0.00000766   -0.00000235
     atom    6 type  1   force =     0.00000104   -0.00000093    0.00000800
     atom    7 type  1   force =     0.00000315    0.00000182   -0.00000576
     atom    8 type  1   force =     0.00000659    0.00000381   -0.00000105
     atom    9 type  1   force =     0.00000081    0.00000047    0.00001066
     atom   10 type  1   force =     0.00000059    0.00000032   -0.00000077
     atom   11 type  1   force =    -0.00000276    0.00001054   -0.00000235
     atom   12 type  1   force =    -0.00000028    0.00000137    0.00000800
     atom   13 type  1   force =     0.00000002   -0.00000068   -0.00000077
     atom   14 type  1   force =    -0.00001051   -0.00000288   -0.00000235
     atom   15 type  1   force =    -0.00000133   -0.00000044    0.00000800
     atom   16 type  1   force =    -0.00000058    0.00000035   -0.00000077
     atom   17 type  1   force =    -0.00000775   -0.00000766   -0.00000235
     atom   18 type  1   force =    -0.00000104   -0.00000093    0.00000800
     atom   19 type  1   force =    -0.00000000   -0.00000118   -0.00000459
     atom   20 type  1   force =    -0.00000000   -0.00000241   -0.00000273
     atom   21 type  1   force =    -0.00000000    0.00000299    0.00000915
     atom   22 type  1   force =    -0.00000102    0.00000059   -0.00000459
     atom   23 type  1   force =    -0.00000209    0.00000121   -0.00000273
     atom   24 type  1   force =     0.00000259   -0.00000149    0.00000915
     atom   25 type  1   force =    -0.00000000   -0.00000364   -0.00000576
     atom   26 type  1   force =    -0.00000000   -0.00000761   -0.00000105
     atom   27 type  1   force =    -0.00000000   -0.00000093    0.00001066
     atom   28 type  1   force =    -0.00000578   -0.00000333   -0.00000793
     atom   29 type  1   force =    -0.00000645   -0.00000372   -0.00000291
     atom   30 type  1   force =     0.00000076    0.00000044    0.00001174
     atom   31 type  1   force =    -0.00000315    0.00000182   -0.00000576
     atom   32 type  1   force =    -0.00000659    0.00000381   -0.00000105
     atom   33 type  1   force =    -0.00000081    0.00000047    0.00001066
     atom   34 type  1   force =     0.00000102    0.00000059   -0.00000459
     atom   35 type  1   force =     0.00000209    0.00000121   -0.00000273
     atom   36 type  1   force =    -0.00000259   -0.00000149    0.00000915
     atom   37 type  1   force =    -0.00000002   -0.00000068   -0.00000077
     atom   38 type  1   force =     0.00001051   -0.00000288   -0.00000235
     atom   39 type  1   force =     0.00000133   -0.00000044    0.00000800
     atom   40 type  1   force =     0.00000578   -0.00000333   -0.00000793
     atom   41 type  1   force =     0.00000645   -0.00000372   -0.00000291
     atom   42 type  1   force =    -0.00000076    0.00000044    0.00001174
     atom   43 type  1   force =    -0.00000000    0.00000667   -0.00000793
     atom   44 type  1   force =    -0.00000000    0.00000744   -0.00000291
     atom   45 type  1   force =    -0.00000000   -0.00000088    0.00001174
     atom   46 type  1   force =    -0.00000059    0.00000032   -0.00000077
     atom   47 type  1   force =     0.00000276    0.00001054   -0.00000235
     atom   48 type  1   force =     0.00000028    0.00000137    0.00000800
     atom   49 type  1   force =     0.00000984   -0.00000568   -0.00000547
     atom   50 type  1   force =     0.00000545   -0.00000315   -0.00000362
     atom   51 type  1   force =    -0.00000018    0.00000010    0.00000384
     atom   52 type  1   force =     0.00001065   -0.00000586   -0.00000741
     atom   53 type  1   force =     0.00000443   -0.00000189    0.00000593
     atom   54 type  1   force =    -0.00000017   -0.00000149    0.00000414
     atom   55 type  1   force =     0.00000025    0.00001215   -0.00000741
     atom   56 type  1   force =     0.00000058    0.00000478    0.00000593
     atom   57 type  1   force =    -0.00000138    0.00000059    0.00000414
     atom   58 type  1   force =     0.00000000    0.00001136   -0.00000547
     atom   59 type  1   force =     0.00000000    0.00000629   -0.00000362
     atom   60 type  1   force =     0.00000000   -0.00000021    0.00000384
[...]
     atom  178 type  2   force =    -0.00000000   -0.00000037   -0.00000234
     atom  179 type  2   force =     0.00000000   -0.00000069    0.00000367
     atom  180 type  2   force =     0.00000123   -0.00000119   -0.00000334
     atom  181 type  2   force =     0.00000361   -0.00000270   -0.00000211
     atom  182 type  2   force =     0.00000063   -0.00000052    0.00000309
     atom  183 type  2   force =    -0.00000000    0.00000000   -0.00000501
     atom  184 type  2   force =    -0.00000000    0.00000000   -0.00000189
     atom  185 type  2   force =     0.00000000   -0.00000000    0.00000491
     atom  186 type  2   force =    -0.00000041    0.00000166   -0.00000334
     atom  187 type  2   force =    -0.00000054    0.00000447   -0.00000211
     atom  188 type  2   force =    -0.00000013    0.00000080    0.00000309
     atom  189 type  2   force =     0.00000025    0.00000015   -0.00000197
     atom  190 type  2   force =     0.00000334    0.00000193   -0.00000216
     atom  191 type  2   force =     0.00000090    0.00000052    0.00000245
     atom  192 type  1   force =     0.00000000   -0.00000000    0.00000332

     Total force =     0.002956     Total SCF correction =     0.000087

     Computing stress (Cartesian axis) and pressure

     Non-local corr. energy    =      52.69198893 Ry

          total   stress  (Ry/bohr**3)                   (kbar)     P=       15.82
   0.00008912  -0.00000000   0.00000000           13.11       -0.00        0.00
   0.00000000   0.00008912   0.00000000            0.00       13.11        0.00
   0.00000000   0.00000000   0.00014444            0.00        0.00       21.25

     kinetic stress (kbar)  18479.06     -0.00      0.00
                               -0.00  18479.06     -0.00
                                0.00     -0.00  18490.47

     local   stress (kbar)   5699.47     -0.07     -0.00
                               -0.07   5699.38      0.00
                               -0.00      0.00   3712.36

     nonloc. stress (kbar)     89.64     -0.00      0.00
                               -0.00     89.64     -0.00
                                0.00      0.00     94.92

     hartree stress (kbar)  19714.31     -0.00     -0.00
                               -0.00  19714.31      0.00
                               -0.00      0.00  20596.30

     exc-cor stress (kbar)   5292.31      0.00     -0.00
                                0.00   5292.31      0.00
                               -0.00      0.00   5293.51

     corecor stress (kbar) -14244.58     -0.00     -0.00
                               -0.00 -14244.58      0.00
                               -0.00      0.00 -14244.39

     ewald   stress (kbar) -35180.57      0.10      0.00
                                0.10 -35180.45     -0.00
                                0.00     -0.00 -34084.23

     hubbard stress (kbar)      0.00      0.00      0.00
                                0.00      0.00      0.00
                                0.00      0.00      0.00

     DFT-D   stress (kbar)      0.00      0.00      0.00
                                0.00      0.00      0.00
                                0.00      0.00      0.00

     XDM     stress (kbar)      0.00      0.00      0.00
                                0.00      0.00      0.00
                                0.00      0.00      0.00

     dft-nl  stress (kbar)    163.45     -0.00     -0.00
                               -0.00    163.45     -0.00
                               -0.00     -0.00    162.32

     TS-vdW  stress (kbar)      0.00      0.00      0.00
                                0.00      0.00      0.00
                                0.00      0.00      0.00

     MDB     stress (kbar)      0.00      0.00      0.00
                                0.00      0.00      0.00
                                0.00      0.00      0.00

     3D-RISM stress (kbar)      0.00      0.00      0.00
                                0.00      0.00      0.00
                                0.00      0.00      0.00

     BFGS Geometry Optimization
     Energy error            =      0.0E+00 Ry
     Gradient error          =      8.7E-04 Ry/Bohr

     bfgs converged in   1 scf cycles and   0 bfgs steps
     (criteria: energy <  1.0E-04 Ry, force <  1.0E-03 Ry/Bohr)

     End of BFGS Geometry Optimization

     Final energy             =  -30233.8144219818 Ry
Begin final coordinates

ATOMIC_POSITIONS (angstrom)
Ga            1.6222756606        0.9366198184        2.3080760548
Ga            1.6222756606        0.9366198184        7.8949950733
Ga            1.6222756606        0.9366198184       13.1863951882
Ga           -0.0041809207        3.7287716003        2.6183446703
Ga           -0.0062781510        3.7844727267        7.9817868286
Ga           -0.0010804001        3.7568020665       13.1911566399
Ga           -1.6235364779        6.5556129147        2.6282264032
Ga           -1.6198952935        6.5577151535        7.9422010919
Ga           -1.6201532138        6.5575662432       13.2254530505
Ga           -3.2619750900        9.3714366221        2.6183446703
Ga           -3.2147851146        9.3417698041        7.9817868286
Ga           -3.2361497339        9.3601065186       13.1911566399
Ga            4.8535783255        0.9490966451        2.6183446703
Ga            4.9028655312        0.9230623366        7.9817868286
Ga            4.8763031610        0.9323962824       13.1911566399
Ga            3.2487322419        3.7287716003        2.6183446703
Ga            3.2508294722        3.7844727267        7.9817868286
Ga            3.2456317213        3.7568020665       13.1911566399
Ga            1.6222756606        6.5487525933        2.6409560815
Ga            1.6222756606        6.5635402559        7.9284779502
Ga            1.6222756606        6.5608894964       13.2291207641
Ga           -0.0065716212        9.3699988433        2.6409560815
Ga            0.0062348703        9.3626050119        7.9284779502
Ga            0.0039392452        9.3639303917       13.2291207641
Ga            8.1113724947        0.9380790382        2.6282264032
Ga            8.1113724947        0.9338745606        7.9422010919
Ga            8.1113724947        0.9341723813       13.2254530505
Ga            6.4873973614        3.7454991421        2.6319321934
Ga            6.4918586452        3.7480748655        7.9407584384
Ga            6.4914079844        3.7478146764       13.2233206368
Ga            4.8680877991        6.5556129147        2.6282264032
Ga            4.8644466147        6.5577151535        7.9422010919
Ga            4.8647045350        6.5575662432       13.2254530505
Ga            3.2511229424        9.3699988433        2.6409560815
Ga            3.2383164509        9.3626050119        7.9284779502
Ga            3.2406120760        9.3639303917       13.2291207641
Ga           11.3691666640        0.9490966451        2.6183446703
Ga           11.3198794583        0.9230623366        7.9817868286
Ga           11.3464418285        0.9323962824       13.1911566399
Ga            9.7353476281        3.7454991421        2.6319321934
Ga            9.7308863443        3.7480748655        7.9407584384
Ga            9.7313370051        3.7478146764       13.2233206368
Ga            8.1113724947        6.5583065834        2.6319321934
Ga            8.1113724947        6.5531551365        7.9407584384
Ga            8.1113724947        6.5536755148       13.2233206368
Ga            6.5065264112        9.3714366221        2.6183446703
Ga            6.4593364358        9.3417698041        7.9817868286
Ga            6.4807010551        9.3601065186       13.1911566399
Ga           -0.2227630866        2.0018536402        5.4386361401
Ga            0.0008459444        1.8727529059       10.5611041089
Ga           -0.0325682565        1.8920446038       15.7619014600
Ga           -1.6490659394        4.7164594769        5.2917830214
Ga           -1.6307145732        4.6895039078       10.5890466478
Ga           -1.6216006876        4.6844862079       15.8546505495
Ga           -3.2290584011        7.4530866960        5.2917830214
Ga           -3.2432269255        7.4824572299       10.5890466478
Ga           -3.2430154383        7.4928589363       15.8546505495
Ga           -4.8668245904       10.0456041184        5.4386361401
Ga           -4.8668245904       10.3038055869       10.5611041089
Ga           -4.8668245904       10.2652221912       15.7619014600
[...]
N             1.6222722437       10.3048618660        7.2743901216
N             1.6222722437       10.3016548455       12.5695505156
N             9.7299485165        1.8734667937        1.9803929955
N             9.7242015271        1.8750412205        7.2850225907
N             9.7244853673        1.8781324588       12.5677597990
N             8.1113690779        4.6831037996        1.9886273460
N             8.1113690779        4.6831037996        7.2796840374
N             8.1113690779        4.6831037996       12.5689305893
N             6.4874417747        7.4896532145        1.9803929955
N             6.4859317736        7.4838889623        7.2850225907
N             6.4887507846        7.4825891560       12.5677597990
N             4.8736073070       10.3067447777        1.9831232539
N             4.8670088568       10.3029351607        7.2891442242
N             4.8555858822       10.2963401033       12.5638906584
Ga            1.6222756606        0.9366198184        4.5458907540
End final coordinates

     Writing all to output data dir ./GaN.save/

     General routines

     Parallel routines

     PAW routines

   This run was terminated on:  18:49: 1  17Feb2024

   JOB DONE.