     Program PWSCF v.7.1 starts on 28Mar2024 at  6:25:43

     Reading input from espresso.pwi
Warning: card &CELL ignored
Warning: card    CELL_DYNAMICS    = 'BFGS' ignored
Warning: card / ignored

     Current dimensions of program PWSCF are:
     Max number of different atomic species (ntypx) = 10
     Max number of k-points (npk) =  40000
     Max angular momentum in pseudopotentials (lmaxx) =  4
     file Ga.pbe-dn-kjpaw_psl.1.0.0.UPF: wavefunction(s)  4S renormalized
     file N.pbe-n-kjpaw_psl.1.0.0.UPF: wavefunction(s)  2S renormalized

     IMPORTANT: XC functional enforced from input :
     Exchange-correlation= BEEF-VDW
                           (   1   4  43  14   2   0   0)
     Any further DFT definition will be discarded
     Please, verify this is what you really want

     R & G space division:  proc/nbgrp/npool/nimage =      27
     Subspace diagonalization in iterative solution of the eigenvalue problem:
     a serial algorithm will be used

     Using Slab Decomposition

     bravais-lattice index     =            4
     lattice parameter (alat)  =      12.2626  a.u.
     unit-cell volume          =    2602.7676 (a.u.)^3
     number of atoms/cell      =           31
     number of atomic types    =            2
     number of electrons       =       281.00
     number of Kohn-Sham states=          169
     kinetic-energy cutoff     =      70.0000  Ry
     charge density cutoff     =     350.0000  Ry
     scf convergence threshold =      1.0E-07
     mixing beta               =       0.7000
     number of iterations used =            8  plain     mixing
     Exchange-correlation= BEEF-VDW
                           (   1   4  43  14   2   0   0)

     celldm(1)=  12.262616  celldm(2)=   0.000000  celldm(3)=   1.629879
     celldm(4)=   0.000000  celldm(5)=   0.000000  celldm(6)=   0.000000

     crystal axes: (cart. coord. in units of alat)
               a(1) = (   1.000000   0.000000   0.000000 )
               a(2) = (  -0.500000   0.866025   0.000000 )
               a(3) = (   0.000000   0.000000   1.629879 )

     reciprocal axes: (cart. coord. in units 2 pi/alat)
               b(1) = (  1.000000  0.577350 -0.000000 )
               b(2) = (  0.000000  1.154701  0.000000 )
               b(3) = (  0.000000 -0.000000  0.613542 )

     PseudoPot. # 1 for Ga read from file:
     /trace/group/acmegroup/atimmins/packages/espresso/pseudo/psl_1.0.0/pslibrary.1.0.0/pbe/PSEUDOPOTENTIALS/Ga.pbe-dn-kjpaw_psl.1.0.0.UPF
     MD5 check sum: cd2a01e492f15b435d17032472d8505c
     Pseudo is Projector augmented-wave + core cor, Zval = 13.0
     Generated using 'atomic' code by A. Dal Corso  v.7.1
     Shape of augmentation charge: PSQ
     Using radial grid of 1205 points,  6 beta functions with:
                l(1) =   0
                l(2) =   0
                l(3) =   1
                l(4) =   1
                l(5) =   2
                l(6) =   2
     Q(r) pseudized with 0 coefficients

     PseudoPot. # 2 for N  read from file:
     /trace/group/acmegroup/atimmins/packages/espresso/pseudo/psl_1.0.0/pslibrary.1.0.0/pbe/PSEUDOPOTENTIALS/N.pbe-n-kjpaw_psl.1.0.0.UPF
     MD5 check sum: f77f775694dac7e2c3fe1c82443d1a16
     Pseudo is Projector augmented-wave + core cor, Zval =  5.0
     Generated using 'atomic' code by A. Dal Corso  v.7.1
     Shape of augmentation charge: PSQ
     Using radial grid of 1085 points,  4 beta functions with:
                l(1) =   0
                l(2) =   0
                l(3) =   1
                l(4) =   1
     Q(r) pseudized with 0 coefficients

     atomic species   valence    mass     pseudopotential
        Ga            13.00    69.72300     Ga( 1.00)
        N              5.00    14.00700     N ( 1.00)

      6 Sym. Ops. (no inversion) found ( 4 have fractional translation)

                                    s                        frac. trans.

      isym =  1     identity

 cryst.   s( 1) = (     1          0          0      )
                  (     0          1          0      )
                  (     0          0          1      )

 cart.    s( 1) = (  1.0000000  0.0000000  0.0000000 )
                  (  0.0000000  1.0000000  0.0000000 )
                  (  0.0000000  0.0000000  1.0000000 )

      isym =  2     120 deg rotation - cryst. axis [0,0,1]

 cryst.   s( 2) = (     0          1          0      )    f =(  0.4999999 )
                  (    -1         -1          0      )       (  0.0000004 )
                  (     0          0          1      )       (  0.0000000 )

 cart.    s( 2) = ( -0.5000000 -0.8660254  0.0000000 )    f =(  0.4999998 )
                  (  0.8660254 -0.5000000  0.0000000 )       (  0.0000003 )
                  (  0.0000000  0.0000000  1.0000000 )       (  0.0000000 )

      isym =  3     120 deg rotation - cryst. axis [0,0,-1]

[...]

      isym =  4     inv. 180 deg rotation - cart. axis [1,0,0]

[...]

      isym =  5     inv. 180 deg rotation - cryst. axis [0,1,0]

 cryst.   s( 5) = (     1          1          0      )
                  (     0         -1          0      )
                  (     0          0          1      )

 cart.    s( 5) = (  0.5000000  0.8660254  0.0000000 )
                  (  0.8660254 -0.5000000  0.0000000 )
                  (  0.0000000  0.0000000  1.0000000 )

      isym =  6     inv. 180 deg rotation - cryst. axis [1,1,0]

 cryst.   s( 6) = (     0         -1          0      )    f =(  0.4999999 )
                  (    -1          0          0      )       (  0.4999999 )
                  (     0          0          1      )       (  0.0000000 )

 cart.    s( 6) = (  0.5000000 -0.8660254  0.0000000 )    f =(  0.2500000 )
                  ( -0.8660254 -0.5000000  0.0000000 )       (  0.4330127 )
                  (  0.0000000  0.0000000  1.0000000 )       (  0.0000000 )

     point group C_3v (3m)
     there are  3 classes
     the character table:

       E     2C3   3s_v
A_1    1.00  1.00  1.00
A_2    1.00  1.00 -1.00
E      2.00 -1.00  0.00

     the symmetry operations in each class and the name of the first element:

     E        1
          identity
     2C3      2    3
          120 deg rotation - cryst. axis [0,0,1]
     3s_v     4    5    6
          inv. 180 deg rotation - cart. axis [1,0,0]

   Cartesian axes

     site n.     atom                  positions (alat units)
         1           Ga  tau(   1) = (   0.2500002   0.1443375   0.4067871  )
         2           Ga  tau(   2) = (   0.2500002   0.1443375   1.2217266  )
         3           Ga  tau(   3) = (   0.0000002   0.5773502   0.4067871  )
         4           Ga  tau(   4) = (   0.0000002   0.5773502   1.2217266  )
         5           Ga  tau(   5) = (   0.7500002   0.1443375   0.4067871  )
         6           Ga  tau(   6) = (   0.7500002   0.1443375   1.2217266  )
         7           Ga  tau(   7) = (   0.5000002   0.5773502   0.4067871  )
         8           Ga  tau(   8) = (   0.5000002   0.5773502   1.2217266  )
         9           Ga  tau(   9) = (  -0.0000003   0.2886754   0.8142568  )
        10           Ga  tau(  10) = (  -0.0000003   0.2886754   1.6291964  )
        11           Ga  tau(  11) = (  -0.2500003   0.7216881   0.8142568  )
        12           Ga  tau(  12) = (  -0.2500003   0.7216881   1.6291964  )
        13           Ga  tau(  13) = (   0.4999997   0.2886754   0.8142568  )
        14           Ga  tau(  14) = (   0.4999997   0.2886754   1.6291964  )
        15           Ga  tau(  15) = (   0.2499997   0.7216881   0.8142568  )
        16           Ga  tau(  16) = (   0.2499997   0.7216881   1.6291964  )
        17           N   tau(  17) = (   0.2500002   0.1443375   1.5286943  )
        18           N   tau(  18) = (   0.0000002   0.5773502   0.7137548  )
        19           N   tau(  19) = (   0.0000002   0.5773502   1.5286943  )
        20           N   tau(  20) = (   0.7500002   0.1443375   0.7137548  )
        21           N   tau(  21) = (   0.7500002   0.1443375   1.5286943  )
        22           N   tau(  22) = (   0.5000002   0.5773502   0.7137548  )
        23           N   tau(  23) = (   0.5000002   0.5773502   1.5286943  )
        24           N   tau(  24) = (  -0.0000003   0.2886754   0.3062850  )
        25           N   tau(  25) = (  -0.0000003   0.2886754   1.1212245  )
        26           N   tau(  26) = (  -0.2500003   0.7216881   0.3062850  )
        27           N   tau(  27) = (  -0.2500003   0.7216881   1.1212245  )
        28           N   tau(  28) = (   0.4999997   0.2886754   0.3062850  )
        29           N   tau(  29) = (   0.4999997   0.2886754   1.1212245  )
        30           N   tau(  30) = (   0.2499997   0.7216881   0.3062850  )
        31           N   tau(  31) = (   0.2499997   0.7216881   1.1212245  )

   Crystallographic axes

     site n.     atom                  positions (cryst. coord.)
         1           Ga  tau(   1) = (  0.3333335  0.1666666  0.2495811  )
         2           Ga  tau(   2) = (  0.3333335  0.1666666  0.7495811  )
         3           Ga  tau(   3) = (  0.3333335  0.6666666  0.2495811  )
         4           Ga  tau(   4) = (  0.3333335  0.6666666  0.7495811  )
         5           Ga  tau(   5) = (  0.8333335  0.1666666  0.2495811  )
         6           Ga  tau(   6) = (  0.8333335  0.1666666  0.7495811  )
         7           Ga  tau(   7) = (  0.8333335  0.6666666  0.2495811  )
         8           Ga  tau(   8) = (  0.8333335  0.6666666  0.7495811  )
         9           Ga  tau(   9) = (  0.1666665  0.3333336  0.4995811  )
        10           Ga  tau(  10) = (  0.1666665  0.3333336  0.9995811  )
        11           Ga  tau(  11) = (  0.1666665  0.8333336  0.4995811  )
        12           Ga  tau(  12) = (  0.1666665  0.8333336  0.9995811  )
        13           Ga  tau(  13) = (  0.6666665  0.3333336  0.4995811  )
        14           Ga  tau(  14) = (  0.6666665  0.3333336  0.9995811  )
        15           Ga  tau(  15) = (  0.6666665  0.8333336  0.4995811  )
        16           Ga  tau(  16) = (  0.6666665  0.8333336  0.9995811  )
        17           N   tau(  17) = (  0.3333335  0.1666666  0.9379189  )
        18           N   tau(  18) = (  0.3333335  0.6666666  0.4379189  )
        19           N   tau(  19) = (  0.3333335  0.6666666  0.9379189  )
        20           N   tau(  20) = (  0.8333335  0.1666666  0.4379189  )
        21           N   tau(  21) = (  0.8333335  0.1666666  0.9379189  )
        22           N   tau(  22) = (  0.8333335  0.6666666  0.4379189  )
        23           N   tau(  23) = (  0.8333335  0.6666666  0.9379189  )
        24           N   tau(  24) = (  0.1666665  0.3333336  0.1879189  )
        25           N   tau(  25) = (  0.1666665  0.3333336  0.6879189  )
        26           N   tau(  26) = (  0.1666665  0.8333336  0.1879189  )
        27           N   tau(  27) = (  0.1666665  0.8333336  0.6879189  )
        28           N   tau(  28) = (  0.6666665  0.3333336  0.1879189  )
        29           N   tau(  29) = (  0.6666665  0.3333336  0.6879189  )
        30           N   tau(  30) = (  0.6666665  0.8333336  0.1879189  )
        31           N   tau(  31) = (  0.6666665  0.8333336  0.6879189  )

[...]
     The local contribution  to forces
     atom    1 type  1   force =    -0.00007678    0.00022852  -15.34013382
     atom    2 type  1   force =    -0.00007730    0.00024562    6.20024585
     atom    3 type  1   force =     0.27852936    0.16108505   -5.98667747
     atom    4 type  1   force =     0.20446103    0.11834444    3.57735429
     atom    5 type  1   force =    -0.00007874   -0.32145685   -5.98667796
     atom    6 type  1   force =    -0.00007135   -0.23593941    3.57735421
     atom    7 type  1   force =    -0.27867663    0.16110923   -5.98667705
     atom    8 type  1   force =    -0.20461584    0.11834398    3.57735422
     atom    9 type  1   force =    -9.70288822    5.60208149    6.85275611
     atom   10 type  1   force =     0.22594045   -0.13031622   -2.09939136
     atom   11 type  1   force =     0.00108065  -11.20576778    6.85278603
     atom   12 type  1   force =     0.00108739    0.25914067   -2.09938617
     atom   13 type  1   force =     9.70512300    5.60214979    6.85279484
     atom   14 type  1   force =    -0.22375491   -0.13031551   -2.09938512
     atom   15 type  1   force =     0.00110762   -0.00050046    3.73896005
     atom   16 type  1   force =     0.00109569   -0.00049518   -2.09909765
     atom   17 type  2   force =    -0.00001081    0.00002245    0.12616849
     atom   18 type  2   force =    -0.70319328   -0.40597104    1.29448240
     atom   19 type  2   force =    -0.11106642   -0.06409524   -0.24887476
     atom   20 type  2   force =    -0.00001300    0.81199016    1.29448081
     atom   21 type  2   force =    -0.00001036    0.12825857   -0.24887550
     atom   22 type  2   force =     0.70317809   -0.40595584    1.29448374
     atom   23 type  2   force =     0.11104468   -0.06409481   -0.24887427
     atom   24 type  2   force =     0.10486211   -0.06053213   -2.86260672
     atom   25 type  2   force =    -0.90357534    0.52169020    1.91797430
     atom   26 type  2   force =     0.00007929    0.12095140   -2.86261975
     atom   27 type  2   force =     0.00008500   -1.04349777    1.91798418
     atom   28 type  2   force =    -0.10470256   -0.06052606   -2.86262033
     atom   29 type  2   force =     0.90374896    0.52169139    1.91798577
     atom   30 type  2   force =     0.00008266   -0.00003737   -1.81474826
     atom   31 type  2   force =     0.00008705   -0.00003851    1.90361786
     The core correction contribution to forces
     atom    1 type  1   force =    -0.00000625    0.00001694   -0.00196159
     atom    2 type  1   force =    -0.00000627    0.00001825    0.00178472
     atom    3 type  1   force =     0.00088791    0.00053241   -0.00166448
     atom    4 type  1   force =     0.00086075    0.00051931    0.00173144
     atom    5 type  1   force =    -0.00000648   -0.00101339   -0.00166446
     atom    6 type  1   force =    -0.00000580   -0.00098326    0.00173143
     atom    7 type  1   force =    -0.00089972    0.00053511   -0.00166442
     atom    8 type  1   force =    -0.00087333    0.00051924    0.00173144
     atom    9 type  1   force =    -0.00188263    0.00109451    0.00250427
     atom   10 type  1   force =    -0.00019828    0.00012386   -0.00166943
     atom   11 type  1   force =     0.00008146   -0.00230554    0.00250415
     atom   12 type  1   force =     0.00008020   -0.00035850   -0.00166940
     atom   13 type  1   force =     0.00204282    0.00109744    0.00250433
     atom   14 type  1   force =     0.00035948    0.00012387   -0.00166939
     atom   15 type  1   force =     0.00008033   -0.00003677    0.00287132
     atom   16 type  1   force =     0.00008062   -0.00003669   -0.00001269
     atom   17 type  2   force =     0.00000024   -0.00000033    0.00049534
     atom   18 type  2   force =     0.00178727    0.00103134   -0.00250684
     atom   19 type  2   force =     0.00046348    0.00026711    0.00047881
     atom   20 type  2   force =     0.00000017   -0.00206380   -0.00250682
     atom   21 type  2   force =     0.00000024   -0.00053523    0.00047880
     atom   22 type  2   force =    -0.00178679    0.00103148   -0.00250685
     atom   23 type  2   force =    -0.00046300    0.00026711    0.00047882
     atom   24 type  2   force =    -0.00217173    0.00125371   -0.00050573
     atom   25 type  2   force =    -0.00000986    0.00000566    0.00213732
     atom   26 type  2   force =    -0.00000250   -0.00250399   -0.00050619
     atom   27 type  2   force =    -0.00000245   -0.00000733    0.00213745
     atom   28 type  2   force =     0.00216713    0.00125425   -0.00050598
     atom   29 type  2   force =     0.00000507    0.00000572    0.00213745
     atom   30 type  2   force =    -0.00000235    0.00000146   -0.00087960
     atom   31 type  2   force =    -0.00000235    0.00000131    0.00036681
     The Hubbard contrib.    to forces
     atom    1 type  1   force =     0.00000000    0.00000000    0.00000000
     atom    2 type  1   force =     0.00000000    0.00000000    0.00000000
     atom    3 type  1   force =     0.00000000    0.00000000    0.00000000
     atom    4 type  1   force =     0.00000000    0.00000000    0.00000000
     atom    5 type  1   force =     0.00000000    0.00000000    0.00000000
     atom    6 type  1   force =     0.00000000    0.00000000    0.00000000
     atom    7 type  1   force =     0.00000000    0.00000000    0.00000000
     atom    8 type  1   force =     0.00000000    0.00000000    0.00000000
     atom    9 type  1   force =     0.00000000    0.00000000    0.00000000
     atom   10 type  1   force =     0.00000000    0.00000000    0.00000000
     atom   11 type  1   force =     0.00000000    0.00000000    0.00000000
     atom   12 type  1   force =     0.00000000    0.00000000    0.00000000
     atom   13 type  1   force =     0.00000000    0.00000000    0.00000000
     atom   14 type  1   force =     0.00000000    0.00000000    0.00000000
     atom   15 type  1   force =     0.00000000    0.00000000    0.00000000
     atom   16 type  1   force =     0.00000000    0.00000000    0.00000000
     atom   17 type  2   force =     0.00000000    0.00000000    0.00000000
     atom   18 type  2   force =     0.00000000    0.00000000    0.00000000
     atom   19 type  2   force =     0.00000000    0.00000000    0.00000000
     atom   20 type  2   force =     0.00000000    0.00000000    0.00000000
     atom   21 type  2   force =     0.00000000    0.00000000    0.00000000
     atom   22 type  2   force =     0.00000000    0.00000000    0.00000000
     atom   23 type  2   force =     0.00000000    0.00000000    0.00000000
     atom   24 type  2   force =     0.00000000    0.00000000    0.00000000
     atom   25 type  2   force =     0.00000000    0.00000000    0.00000000
     atom   26 type  2   force =     0.00000000    0.00000000    0.00000000
     atom   27 type  2   force =     0.00000000    0.00000000    0.00000000
     atom   28 type  2   force =     0.00000000    0.00000000    0.00000000
     atom   29 type  2   force =     0.00000000    0.00000000    0.00000000
     atom   30 type  2   force =     0.00000000    0.00000000    0.00000000
     atom   31 type  2   force =     0.00000000    0.00000000    0.00000000
     The SCF correction term to forces
     atom    1 type  1   force =     0.00000000   -0.00000000   -0.00003171
     atom    2 type  1   force =     0.00000000   -0.00000000    0.00003027
     atom    3 type  1   force =    -0.00001172   -0.00000677   -0.00002036
     atom    4 type  1   force =    -0.00001634   -0.00000943    0.00003563
     atom    5 type  1   force =    -0.00000000    0.00001353   -0.00002036
     atom    6 type  1   force =    -0.00000000    0.00001886    0.00003563
     atom    7 type  1   force =     0.00001172   -0.00000677   -0.00002036
     atom    8 type  1   force =     0.00001634   -0.00000943    0.00003563
     atom    9 type  1   force =    -0.00001091    0.00000630   -0.00007751
     atom   10 type  1   force =    -0.00001915    0.00001106    0.00007281
     atom   11 type  1   force =     0.00000000   -0.00001260   -0.00007751
     atom   12 type  1   force =     0.00000000   -0.00002212    0.00007281
     atom   13 type  1   force =     0.00001091    0.00000630   -0.00007751
     atom   14 type  1   force =     0.00001915    0.00001106    0.00007281
     atom   15 type  1   force =     0.00000000   -0.00000000   -0.00009081
     atom   16 type  1   force =     0.00000000   -0.00000000    0.00006945
     atom   17 type  2   force =     0.00000000   -0.00000000    0.00003475
     atom   18 type  2   force =    -0.00000030   -0.00000017   -0.00003780
     atom   19 type  2   force =    -0.00000474   -0.00000274    0.00003765
     atom   20 type  2   force =    -0.00000000    0.00000034   -0.00003780
     atom   21 type  2   force =    -0.00000000    0.00000548    0.00003765
     atom   22 type  2   force =     0.00000030   -0.00000017   -0.00003780
     atom   23 type  2   force =     0.00000474   -0.00000274    0.00003765
     atom   24 type  2   force =    -0.00001080    0.00000623   -0.00000313
     atom   25 type  2   force =    -0.00000668    0.00000385    0.00000590
     atom   26 type  2   force =     0.00000000   -0.00001247   -0.00000313
     atom   27 type  2   force =    -0.00000000   -0.00000771    0.00000590
     atom   28 type  2   force =     0.00001080    0.00000623   -0.00000313
     atom   29 type  2   force =     0.00000668    0.00000385    0.00000590
     atom   30 type  2   force =     0.00000000   -0.00000000    0.00000002
     atom   31 type  2   force =    -0.00000000    0.00000000   -0.00000014

     Total force =     0.001974     Total SCF correction =     0.000261
     SCF correction compared to forces is large: reduce conv_thr to get better values

     Computing stress (Cartesian axis) and pressure

[...]

          total   stress  (Ry/bohr**3)                   (kbar)     P=      -97.36
  -0.00066922  -0.00000000   0.00000000          -98.45       -0.00        0.00
   0.00000000  -0.00066922   0.00000000            0.00      -98.45        0.00
   0.00000000   0.00000000  -0.00064707            0.00        0.00      -95.19

     kinetic stress (kbar)  17765.39      0.00      0.00
                                0.00  17765.39     -0.00
                                0.00     -0.00  17746.96

     local   stress (kbar)   3599.13     -0.07      0.00
                               -0.07   3599.04     -0.00
                                0.00     -0.00   4187.49

     nonloc. stress (kbar)    226.35     -0.00      0.00
                               -0.00    226.35      0.00
                                0.00      0.00    246.57

     hartree stress (kbar)  20380.60     -0.00     -0.00
                               -0.00  20380.60      0.00
                               -0.00      0.00  20073.93

     exc-cor stress (kbar)   5313.52      0.00     -0.00
                                0.00   5313.52      0.00
                               -0.00      0.00   5312.26

     corecor stress (kbar) -14069.84     -0.00     -0.00
                               -0.00 -14069.84     -0.00
                               -0.00     -0.00 -14069.10

     ewald   stress (kbar) -33474.52      0.09     -0.00
                                0.09 -33474.40      0.00
                               -0.00      0.00 -33753.86

     hubbard stress (kbar)      0.00      0.00      0.00
                                0.00      0.00      0.00
                                0.00      0.00      0.00

     DFT-D   stress (kbar)      0.00      0.00      0.00
                                0.00      0.00      0.00
                                0.00      0.00      0.00

     XDM     stress (kbar)      0.00      0.00      0.00
                                0.00      0.00      0.00
                                0.00      0.00      0.00

     dft-nl  stress (kbar)    160.91     -0.00      0.00
                               -0.00    160.91     -0.00
                                0.00     -0.00    160.54

     TS-vdW  stress (kbar)      0.00      0.00      0.00
                                0.00      0.00      0.00
                                0.00      0.00      0.00

     MDB     stress (kbar)      0.00      0.00      0.00
                                0.00      0.00      0.00
                                0.00      0.00      0.00

     3D-RISM stress (kbar)      0.00      0.00      0.00
                                0.00      0.00      0.00
                                0.00      0.00      0.00

[...]

     Non-local corr. energy    =       8.65868858 Ry

 BEEFens 2000 ensemble energies
             -0.693504141781122E+01
             -0.628132337001546E+02
             -0.271421858214004E+02
              0.220851736356487E+02
             -0.452785559526353E+02
             -0.581861609351076E+02
              0.298501515004878E+02
             -0.315503286451730E+01
              0.497940522618268E+02
             -0.217825482025526E+01
              0.245989442315940E+02
              0.990331597492201E+00
              0.950924567786359E+00
             -0.215636004018228E+01
              0.325865842601212E+02
             -0.237342205377986E+02
             -0.487783360472151E+02
             -0.160080511476666E+02
              0.119170208216412E+02
             -0.111361477100365E+01
              0.715167794377304E+02
              0.607340357326143E+02
             -0.348485346983915E+02
              0.125356626142456E+02
             -0.762724954990628E+02
              0.611537273061525E+02
              0.199699344071016E+02
              0.593541321369537E+02
              0.389782060321015E+02
             -0.188864930554831E+02
              0.143931152833559E+02
             -0.279824501550118E+02
              0.796075021371028E+01
              0.383151018651125E+02
              0.405589748184719E+02
             -0.147038610257088E+02
              0.899846741082085E+02
             -0.342338818413621E+02
             -0.246071143951932E+02
              0.361178717461833E+02
              0.161416302547955E+02
              0.270018465296648E+02
             -0.515006281910161E+02
             -0.140729440234099E+01
              0.504995789412380E+02
              0.657061315066060E+02
             -0.654419393202708E+02
              0.463245852097766E+01
              0.246172184680826E+02
              0.121223620494085E+02
              0.273367493028427E+02
              0.578402528564696E+02
             -0.349325221232047E+02
             -0.383528557934161E+02
             -0.498509478668699E+02
             -0.762097212242878E+01
             -0.455156183068367E+02
              0.448033201680107E+01
             -0.834541112941031E+01
             -0.353602878439876E+02
[...]
              0.441532410958008E+02
              0.245005269522005E+02
              0.309287373270330E+02
             -0.501525082971827E+02
             -0.481862340283351E+02
             -0.120948748035354E+02
             -0.471336399202915E+02
              0.753324607701806E+02
              0.645720366439242E+02
              0.309060659418124E+02
              0.836774165047241E+02
             -0.435431689362324E+02
             -0.176756442470423E+02
             -0.247090663201890E+02
              0.693027801448123E+02

 BEEF-vdW xc energy contributions
            1 :    -633.6710049394123
            2 :     570.6193032747168
            3 :    -465.2079337999151
            4 :     348.5811861203474
            5 :    -247.9180510307076
            6 :     176.0200277682920
            7 :    -130.0370812370983
            8 :     98.49754236178296
            9 :    -70.98863157047344
           10 :     44.17069105578207
           11 :    -21.27060884627986
           12 :     6.984339068447412
           13 :    -2.430441838618208
           14 :     3.870302898321142
           15 :    -5.515734122737513
           16 :     3.653437820183171
           17 :     1.270540800816889
           18 :    -5.950579489472830
           19 :     7.479652498750283
           20 :    -5.802277703937079
           21 :     3.547021740349237
           22 :    -3.672692185234837
           23 :     7.032341233581519
           24 :    -11.81068985795935
           25 :     15.12047261740918
           26 :    -15.30713894847531
           27 :     13.08052160189550
           28 :    -10.68751345752617
           29 :     9.960694849421543
           30 :    -10.89570276465827
           31 :    -54.01245283578010
           32 :    -36.95354625124287

     Writing all to output data dir ./GaN.save/

     General routines

     Parallel routines

     PAW routines

   This run was terminated on:   6:26:26  28Mar2024

   JOB DONE.