     Program PWSCF v.7.1 starts on 29Mar2024 at  5:36:38

     Reading input from espresso.pwi
Warning: card &CELL ignored
Warning: card    CELL_DYNAMICS    = 'BFGS' ignored
Warning: card / ignored

     Current dimensions of program PWSCF are:
     Max number of different atomic species (ntypx) = 10
     Max number of k-points (npk) =  40000
     Max angular momentum in pseudopotentials (lmaxx) =  4
     file Pb.pbe-dn-kjpaw_psl.1.0.0.UPF: wavefunction(s)  6S 6P 5D renormalized
     file I.pbe-dn-kjpaw_psl.1.0.0.UPF: wavefunction(s)  5S 5P renormalized

     IMPORTANT: XC functional enforced from input :
     Exchange-correlation= BEEF-VDW
                           (   1   4  43  14   2   0   0)
     Any further DFT definition will be discarded
     Please, verify this is what you really want

     R & G space division:  proc/nbgrp/npool/nimage =     128
     Subspace diagonalization in iterative solution of the eigenvalue problem:
     a serial algorithm will be used

     Using Slab Decomposition

     bravais-lattice index     =            4
     lattice parameter (alat)  =      35.6120  a.u.
     unit-cell volume          =   45937.3577 (a.u.)^3
     number of atoms/cell      =          144
     number of atomic types    =            2
     number of electrons       =      2304.00
     number of Kohn-Sham states=         1382
     kinetic-energy cutoff     =      70.0000  Ry
     charge density cutoff     =     350.0000  Ry
     scf convergence threshold =      1.0E-07
     mixing beta               =       0.7000
     number of iterations used =            8  plain     mixing
     energy convergence thresh.=      1.0E-04
     force convergence thresh. =      1.0E-03
     Exchange-correlation= BEEF-VDW
                           (   1   4  43  14   2   0   0)
     nstep                     =           50

     celldm(1)=  35.612033  celldm(2)=   0.000000  celldm(3)=   1.174479
     celldm(4)=   0.000000  celldm(5)=   0.000000  celldm(6)=   0.000000

     crystal axes: (cart. coord. in units of alat)
               a(1) = (   1.000000   0.000000   0.000000 )
               a(2) = (  -0.500000   0.866025   0.000000 )
               a(3) = (   0.000000   0.000000   1.174479 )

     reciprocal axes: (cart. coord. in units 2 pi/alat)
               b(1) = (  1.000000  0.577350 -0.000000 )
               b(2) = (  0.000000  1.154701  0.000000 )
               b(3) = (  0.000000 -0.000000  0.851442 )

     PseudoPot. # 1 for Pb read from file:
     /trace/group/acmegroup/atimmins/packages/espresso/pseudo/psl_1.0.0/pslibrary.1.0.0/pbe/PSEUDOPOTENTIALS/Pb.pbe-dn-kjpaw_psl.1.0.0.UPF
     MD5 check sum: 39ab5b8a6bbd56b7735ad9f188aac93a
     Pseudo is Projector augmented-wave + core cor, Zval = 14.0
     Generated using 'atomic' code by A. Dal Corso  v.7.1
     Shape of augmentation charge: PSQ
     Using radial grid of 1281 points,  6 beta functions with:
                l(1) =   0
                l(2) =   0
                l(3) =   1
                l(4) =   1
                l(5) =   2
                l(6) =   2
     Q(r) pseudized with 0 coefficients

     PseudoPot. # 2 for I  read from file:
     /trace/group/acmegroup/atimmins/packages/espresso/pseudo/psl_1.0.0/pslibrary.1.0.0/pbe/PSEUDOPOTENTIALS/I.pbe-dn-kjpaw_psl.1.0.0.UPF
     MD5 check sum: bfa8781bc1224d19af3f3980e3fab11e
     Pseudo is Projector augmented-wave + core cor, Zval = 17.0
     Generated using 'atomic' code by A. Dal Corso  v.7.1
     Shape of augmentation charge: PSQ
     Using radial grid of 1247 points,  6 beta functions with:
                l(1) =   0
                l(2) =   0
                l(3) =   1
                l(4) =   1
                l(5) =   2
                l(6) =   2
     Q(r) pseudized with 0 coefficients

     atomic species   valence    mass     pseudopotential
        Pb            14.00   207.20000     Pb( 1.00)
        I             17.00   126.90447     I ( 1.00)

     No symmetry found

                                    s                        frac. trans.

      isym =  1     identity

 cryst.   s( 1) = (     1          0          0      )
                  (     0          1          0      )
                  (     0          0          1      )

 cart.    s( 1) = (  1.0000000  0.0000000  0.0000000 )
                  (  0.0000000  1.0000000  0.0000000 )
                  (  0.0000000  0.0000000  1.0000000 )

     point group C_1 (1)
     there are  1 classes
     the character table:

       E
A      1.00

     the symmetry operations in each class and the name of the first element:

     E        1
          identity

   Cartesian axes

     site n.     atom                  positions (alat units)
         1           Pb  tau(   1) = (   0.1250034   0.2164918   0.3914896  )
         2           Pb  tau(   2) = (   0.1250085   0.2164873   0.7829825  )
         3           Pb  tau(   3) = (   0.0000128   0.4329881   1.1744712  )
         4           Pb  tau(   4) = (   0.0000026   0.4329971   0.3914855  )
         5           Pb  tau(   5) = (   0.0000077   0.4329926   0.7829784  )
         6           Pb  tau(   6) = (  -0.1249881   0.6494934   1.1744671  )
         7           Pb  tau(   7) = (  -0.1249983   0.6495025   0.3914814  )
         8           Pb  tau(   8) = (  -0.1249932   0.6494980   0.7829742  )
         9           Pb  tau(   9) = (  -0.2499889   0.8659988   1.1744630  )
        10           Pb  tau(  10) = (  -0.2499991   0.8660078   0.3914773  )
        11           Pb  tau(  11) = (  -0.2499940   0.8660033   0.7829701  )
        12           Pb  tau(  12) = (   0.3750136   0.2164818   1.1744786  )
        13           Pb  tau(  13) = (   0.3750034   0.2164908   0.3914929  )
        14           Pb  tau(  14) = (   0.3750085   0.2164863   0.7829857  )
        15           Pb  tau(  15) = (   0.2500128   0.4329871   1.1744745  )
        16           Pb  tau(  16) = (   0.2500026   0.4329962   0.3914888  )
        17           Pb  tau(  17) = (   0.2500077   0.4329916   0.7829816  )
        18           Pb  tau(  18) = (   0.1250119   0.6494925   1.1744703  )
        19           Pb  tau(  19) = (   0.1250017   0.6495015   0.3914847  )
        20           Pb  tau(  20) = (   0.1250068   0.6494970   0.7829775  )
        21           Pb  tau(  21) = (   0.0000111   0.8659978   1.1744662  )
        22           Pb  tau(  22) = (   0.0000009   0.8660069   0.3914805  )
        23           Pb  tau(  23) = (   0.0000060   0.8660024   0.7829734  )
        24           Pb  tau(  24) = (   0.6250136   0.2164808   1.1744818  )
        25           Pb  tau(  25) = (   0.6250034   0.2164898   0.3914962  )
        26           Pb  tau(  26) = (   0.6250085   0.2164853   0.7829890  )
        27           Pb  tau(  27) = (   0.5000128   0.4329862   1.1744777  )
        28           Pb  tau(  28) = (   0.5000026   0.4329952   0.3914920  )
        29           Pb  tau(  29) = (   0.5000077   0.4329907   0.7829849  )
        30           Pb  tau(  30) = (   0.3750119   0.6494915   1.1744736  )
        31           Pb  tau(  31) = (   0.3750017   0.6495006   0.3914879  )
        32           Pb  tau(  32) = (   0.3750068   0.6494960   0.7829808  )
        33           Pb  tau(  33) = (   0.2500111   0.8659969   1.1744695  )
        34           Pb  tau(  34) = (   0.2500009   0.8660059   0.3914838  )
        35           Pb  tau(  35) = (   0.2500060   0.8660014   0.7829766  )
        36           Pb  tau(  36) = (   0.8750136   0.2164798   1.1744851  )
        37           Pb  tau(  37) = (   0.8750034   0.2164889   0.3914994  )
        38           Pb  tau(  38) = (   0.8750085   0.2164844   0.7829923  )
        39           Pb  tau(  39) = (   0.7500128   0.4329852   1.1744810  )
        40           Pb  tau(  40) = (   0.7500026   0.4329942   0.3914953  )
        41           Pb  tau(  41) = (   0.7500077   0.4329897   0.7829881  )
        42           Pb  tau(  42) = (   0.6250119   0.6494906   1.1744769  )
        43           Pb  tau(  43) = (   0.6250017   0.6494996   0.3914912  )
        44           Pb  tau(  44) = (   0.6250068   0.6494951   0.7829840  )
        45           Pb  tau(  45) = (   0.5000111   0.8659959   1.1744727  )
        46           Pb  tau(  46) = (   0.5000009   0.8660050   0.3914870  )
        47           Pb  tau(  47) = (   0.5000060   0.8660004   0.7829799  )
        48           I   tau(  48) = (   0.1250054   0.0721550   0.2909325  )
        49           I   tau(  49) = (   0.1250105   0.0721505   0.6824253  )
        50           I   tau(  50) = (   0.1250156   0.0721459   1.0739182  )
        51           I   tau(  51) = (   0.0000045   0.2886603   0.2909283  )
        52           I   tau(  52) = (   0.0000096   0.2886558   0.6824212  )
        53           I   tau(  53) = (   0.0000147   0.2886513   1.0739140  )
        54           I   tau(  54) = (  -0.1249963   0.5051657   0.2909242  )
        55           I   tau(  55) = (  -0.1249912   0.5051612   0.6824171  )
        56           I   tau(  56) = (  -0.1249861   0.5051566   1.0739099  )
        57           I   tau(  57) = (  -0.2499971   0.7216710   0.2909201  )
        58           I   tau(  58) = (  -0.2499920   0.7216665   0.6824129  )
        59           I   tau(  59) = (  -0.2499869   0.7216620   1.0739058  )
        60           I   tau(  60) = (   0.3750054   0.0721540   0.2909357  )
[...]
       130           I   tau( 130) = (   0.1250009   0.7938394   0.4920425  )
       131           I   tau( 131) = (   0.1250060   0.7938348   0.8835353  )
       132           I   tau( 132) = (   0.7499983   0.1443268   0.1005653  )
       133           I   tau( 133) = (   0.7500034   0.1443223   0.4920581  )
       134           I   tau( 134) = (   0.7500085   0.1443178   0.8835509  )
       135           I   tau( 135) = (   0.6249975   0.3608322   0.1005611  )
       136           I   tau( 136) = (   0.6250026   0.3608277   0.4920540  )
       137           I   tau( 137) = (   0.6250077   0.3608232   0.8835468  )
       138           I   tau( 138) = (   0.4999966   0.5773376   0.1005570  )
       139           I   tau( 139) = (   0.5000017   0.5773330   0.4920499  )
       140           I   tau( 140) = (   0.5000068   0.5773285   0.8835427  )
       141           I   tau( 141) = (   0.3749958   0.7938429   0.1005529  )
       142           I   tau( 142) = (   0.3750009   0.7938384   0.4920457  )
       143           I   tau( 143) = (   0.3750060   0.7938339   0.8835386  )
       144           I   tau( 144) = (   0.1250136   0.2164827   1.1744753  )

   Crystallographic axes

     site n.     atom                  positions (cryst. coord.)
         1           Pb  tau(   1) = (  0.2499950  0.2499832  0.3333306  )
         2           Pb  tau(   2) = (  0.2499975  0.2499780  0.6666639  )
         3           Pb  tau(   3) = (  0.2499986  0.4999716  0.9999938  )
         4           Pb  tau(   4) = (  0.2499936  0.4999820  0.3333271  )
         5           Pb  tau(   5) = (  0.2499961  0.4999768  0.6666604  )
         6           Pb  tau(   6) = (  0.2499972  0.7499704  0.9999902  )
         7           Pb  tau(   7) = (  0.2499922  0.7499809  0.3333236  )
[...]
     atom   55 type  2   force =     0.00000000    0.00000000    0.00000000
     atom   56 type  2   force =     0.00000000    0.00000000    0.00000000
     atom   57 type  2   force =     0.00000000    0.00000000    0.00000000
     atom   58 type  2   force =     0.00000000    0.00000000    0.00000000
     atom   59 type  2   force =     0.00000000    0.00000000    0.00000000
     atom   60 type  2   force =     0.00000000    0.00000000    0.00000000
[...]
     atom  130 type  2   force =     0.00000000    0.00000000    0.00000000
     atom  131 type  2   force =     0.00000000    0.00000000    0.00000000
     atom  132 type  2   force =     0.00000000    0.00000000    0.00000000
     atom  133 type  2   force =     0.00000000    0.00000000    0.00000000
     atom  134 type  2   force =     0.00000000    0.00000000    0.00000000
     atom  135 type  2   force =     0.00000000    0.00000000    0.00000000
     atom  136 type  2   force =     0.00000000    0.00000000    0.00000000
     atom  137 type  2   force =     0.00000000    0.00000000    0.00000000
     atom  138 type  2   force =     0.00000000    0.00000000    0.00000000
     atom  139 type  2   force =     0.00000000    0.00000000    0.00000000
     atom  140 type  2   force =     0.00000000    0.00000000    0.00000000
     atom  141 type  2   force =     0.00000000    0.00000000    0.00000000
     atom  142 type  2   force =     0.00000000    0.00000000    0.00000000
     atom  143 type  2   force =     0.00000000    0.00000000    0.00000000
     atom  144 type  2   force =     0.00000000    0.00000000    0.00000000
     The SCF correction term to forces
     atom    1 type  1   force =    -0.00000044    0.00000602    0.00000255
     atom    2 type  1   force =     0.00000980    0.00000630   -0.00000075
     atom    3 type  1   force =    -0.00000945    0.00001630   -0.00000437
     atom    4 type  1   force =    -0.00000124    0.00000894    0.00000446
     atom    5 type  1   force =    -0.00000576    0.00001057   -0.00000532
     atom    6 type  1   force =     0.00000191   -0.00000179   -0.00000041
     atom    7 type  1   force =     0.00000529    0.00000135    0.00000508
     atom    8 type  1   force =    -0.00000029   -0.00000494   -0.00000455
     atom    9 type  1   force =     0.00002193   -0.00001539    0.00000598
     atom   10 type  1   force =     0.00001154   -0.00000758    0.00000729
     atom   11 type  1   force =     0.00001072   -0.00000390   -0.00000689
     atom   12 type  1   force =     0.00001193    0.00000666   -0.00001329
     atom   13 type  1   force =     0.00000248   -0.00000459    0.00000616
     atom   14 type  1   force =     0.00000498    0.00000726    0.00000251
     atom   15 type  1   force =     0.00001172    0.00000821   -0.00001434
     atom   16 type  1   force =    -0.00000542    0.00000588    0.00000612
     atom   17 type  1   force =     0.00001046    0.00000207   -0.00000014
     atom   18 type  1   force =    -0.00000478    0.00000593    0.00000440
     atom   19 type  1   force =    -0.00000468    0.00000196   -0.00000041
     atom   20 type  1   force =    -0.00000488   -0.00000689   -0.00000580
     atom   21 type  1   force =     0.00000706   -0.00000502    0.00000061
     atom   22 type  1   force =     0.00000177   -0.00000656    0.00000172
     atom   23 type  1   force =    -0.00000819   -0.00000106   -0.00000436
     atom   24 type  1   force =    -0.00000413    0.00000289   -0.00000420
     atom   25 type  1   force =     0.00000083   -0.00000873    0.00000741
     atom   26 type  1   force =    -0.00000978    0.00001499   -0.00000269
     atom   27 type  1   force =     0.00000546   -0.00000081   -0.00001010
     atom   28 type  1   force =    -0.00000135    0.00000088    0.00000939
     atom   29 type  1   force =     0.00000193   -0.00000071    0.00000083
     atom   30 type  1   force =    -0.00000214   -0.00000683   -0.00000268
     atom   31 type  1   force =    -0.00000717    0.00000284    0.00000694
     atom   32 type  1   force =     0.00000237   -0.00001656   -0.00000487
     atom   33 type  1   force =    -0.00001352   -0.00000376    0.00000285
     atom   34 type  1   force =    -0.00000848   -0.00000475    0.00000232
     atom   35 type  1   force =    -0.00000539   -0.00000377   -0.00000552
     atom   36 type  1   force =    -0.00001825    0.00000782    0.00000140
     atom   37 type  1   force =    -0.00000224    0.00000426    0.00000248
     atom   38 type  1   force =    -0.00000527    0.00001221   -0.00000373
     atom   39 type  1   force =    -0.00000766    0.00000568   -0.00000547
     atom   40 type  1   force =     0.00000866    0.00000413    0.00000748
     atom   41 type  1   force =    -0.00000645    0.00000547   -0.00000010
     atom   42 type  1   force =     0.00000480   -0.00001591   -0.00000597
     atom   43 type  1   force =     0.00000634   -0.00000003    0.00000851
     atom   44 type  1   force =     0.00000291   -0.00001434   -0.00000029
     atom   45 type  1   force =    -0.00001439   -0.00001814    0.00000934
     atom   46 type  1   force =    -0.00000473   -0.00000435    0.00000552
     atom   47 type  1   force =     0.00000236   -0.00000672   -0.00000810
     atom   48 type  2   force =     0.00000417    0.00000447    0.00001853
     atom   49 type  2   force =     0.00000666    0.00000400   -0.00000115
     atom   50 type  2   force =     0.00001077   -0.00000981   -0.00002482
     atom   51 type  2   force =     0.00000063    0.00001874    0.00002229
     atom   52 type  2   force =     0.00000288    0.00000836   -0.00000440
     atom   53 type  2   force =    -0.00001807    0.00003386   -0.00002827
     atom   54 type  2   force =     0.00001548    0.00000361    0.00001263
     atom   55 type  2   force =     0.00000006    0.00000067    0.00000316
     atom   56 type  2   force =    -0.00000290    0.00000239   -0.00000831
     atom   57 type  2   force =     0.00001811   -0.00000897    0.00001594
     atom   58 type  2   force =     0.00000755   -0.00000522    0.00000249
     atom   59 type  2   force =     0.00000934   -0.00002110   -0.00001167
     atom   60 type  2   force =     0.00001602   -0.00000289    0.00001692
[...]
     atom  130 type  2   force =    -0.00000706   -0.00000593   -0.00001039
     atom  131 type  2   force =    -0.00000545   -0.00000054   -0.00000163
     atom  132 type  2   force =    -0.00001541   -0.00000055    0.00000617
     atom  133 type  2   force =    -0.00001252   -0.00000215    0.00000431
     atom  134 type  2   force =    -0.00000979    0.00000887   -0.00000852
     atom  135 type  2   force =    -0.00000376    0.00000147   -0.00000255
     atom  136 type  2   force =    -0.00000185   -0.00000644    0.00001997
     atom  137 type  2   force =    -0.00000733    0.00000512   -0.00001119
     atom  138 type  2   force =     0.00000082   -0.00001364    0.00000262
     atom  139 type  2   force =    -0.00000724   -0.00000498    0.00001211
     atom  140 type  2   force =     0.00000299   -0.00001778   -0.00001084
     atom  141 type  2   force =    -0.00001554   -0.00000687    0.00000755
     atom  142 type  2   force =    -0.00001279   -0.00000550    0.00000075
     atom  143 type  2   force =    -0.00000541   -0.00000795   -0.00001354
     atom  144 type  2   force =     0.00001415    0.00002297   -0.00000563

     Total force =     0.033177     Total SCF correction =     0.000212

     Computing stress (Cartesian axis) and pressure

[...]

          total   stress  (Ry/bohr**3)                   (kbar)     P=       -6.97
  -0.00004909  -0.00000039   0.00000096           -7.22       -0.06        0.14
  -0.00000039  -0.00004459   0.00000222           -0.06       -6.56        0.33
   0.00000096   0.00000222  -0.00004842            0.14        0.33       -7.12

     kinetic stress (kbar)  14938.33      0.23     -0.24
                                0.23  14941.55      1.94
                               -0.24      1.94  14948.38

     local   stress (kbar)  -7369.69     30.65    -51.88
                               30.65  -7241.20     76.79
                              -51.88     76.79   1187.23

     nonloc. stress (kbar)  -1006.89      0.33     -0.54
                                0.33  -1004.34      1.84
                               -0.54      1.84  -1013.24

     hartree stress (kbar)  12002.21    -10.75     19.69
                              -10.75  11954.53    -30.05
                               19.69    -30.05   8146.95

     exc-cor stress (kbar)   6973.29     -0.05      0.06
                               -0.05   6973.20     -0.02
                                0.06     -0.02   6972.26

     corecor stress (kbar) -11344.36     -0.01      0.01
                               -0.01 -11344.42     -0.05
                                0.01     -0.05 -11344.25

     ewald   stress (kbar) -14283.78    -20.48     33.06
                              -20.48 -14369.59    -50.14
                               33.06    -50.14 -18989.37

     hubbard stress (kbar)      0.00      0.00      0.00
                                0.00      0.00      0.00
                                0.00      0.00      0.00

     DFT-D   stress (kbar)      0.00      0.00      0.00
                                0.00      0.00      0.00
                                0.00      0.00      0.00

     XDM     stress (kbar)      0.00      0.00      0.00
                                0.00      0.00      0.00
                                0.00      0.00      0.00

     dft-nl  stress (kbar)     83.67      0.02     -0.02
                                0.02     83.71      0.01
                               -0.02      0.01     84.91

     TS-vdW  stress (kbar)      0.00      0.00      0.00
                                0.00      0.00      0.00
                                0.00      0.00      0.00

     MDB     stress (kbar)      0.00      0.00      0.00
                                0.00      0.00      0.00
                                0.00      0.00      0.00

     3D-RISM stress (kbar)      0.00      0.00      0.00
                                0.00      0.00      0.00
                                0.00      0.00      0.00

     Energy error            =      3.2E-03 Ry
     Gradient error          =      7.2E-03 Ry/Bohr

     number of scf cycles    =  27
     number of bfgs steps    =  26

     energy             old  =  -96802.2157370083 Ry
     energy             new  =  -96802.2188881678 Ry

     CASE: energy            _new < energy            _old

     new trust radius        =       0.1377172883 bohr
     new conv_thr            =       0.0000000072 Ry

ATOMIC_POSITIONS (angstrom)
Pb            2.3565303646        4.0788223499        7.4335347375
Pb            2.3535189014        4.0805317652       14.6997934801
Pb            0.0422289370        8.2446512721       22.2360507075
Pb           -0.0147169715        8.1565243863        7.3924340622
Pb            0.0015471774        8.1650346058       14.7468009069
Pb           -2.3550315124       12.2381944015       22.1321930142
Pb           -2.3667979136       12.2335022483        7.3786998562
Pb           -2.3445112613       12.2456597043       14.7553166487
Pb           -4.7530958115       16.2342109117       22.0303721353
Pb           -4.7134369481       16.3141795034        7.3868947829
Pb           -4.6970202174       16.3227494362       14.7416463343
Pb            7.1784236202        4.1100958332       22.0927818180
Pb            7.0696392673        4.0840751169        7.3871113206
Pb            7.0698805873        4.0667342661       14.7428514659
Pb            4.6844319441        8.2082003525       22.1925551866
Pb            4.7292616838        8.1550140486        7.3950556745
Pb            4.6983254992        8.1722772258       14.7402705581
Pb            2.3688110830       12.2831804324       22.1216320665
Pb            2.3544726115       12.2179942612        7.2803097397
Pb            2.3552049871       12.2500556541       14.7333563103
Pb            0.0152196612       16.2913484366       22.1372156944
Pb           -0.0259691974       16.3352787310        7.2727707507
Pb            0.0114005149       16.3135143842       14.7334199945
Pb           11.7789398173        4.0797432591       22.1322635481
Pb           11.7786175362        4.0916432127        7.3799779772
Pb           11.7787422797        4.0677111685       14.7538986375
Pb            9.4443042198        8.2078700015       22.1395993862
Pb            9.4322013932        8.1645470041        7.4014775409
Pb            9.4076792384        8.1489695099       14.8546898536
Pb            7.0672554961       12.2394371295       22.1318140451
Pb            7.0797237714       12.2329585534        7.3776308121
Pb            7.0543460454       12.2473884225       14.7557216270
Pb            4.6900539517       16.2719404487       22.1242612623
Pb            4.7271141936       16.3308522698        7.2791922035
Pb            4.7023484269       16.3155548116       14.7323833039
Pb           16.3786100617        4.0493923009       22.1723323479
Pb           16.4863244024        4.0924794719        7.3909817277
Pb           16.4869170299        4.0752692581       14.7464557492
Pb           14.1199547739        8.1878723763       22.1270049699
Pb           14.1230729447        8.1659415894        7.4000090468
Pb           14.1606404904        8.1437886768       14.8618238791
Pb           11.7645668562       12.1954771407       22.1431348930
Pb           11.7787474092       12.2297267776        7.4004808467
Pb           11.7796330048       12.2611776990       14.8536879792
Pb            9.4498555623       16.2695320822       22.0704350728
Pb            9.4346280002       16.3075179402        7.3931016741
Pb            9.4042819744       16.3251505624       14.7388799332
I             2.3601316741        1.3543438513        5.5126574563
I             2.3532597724        1.3494848392       12.8418184314
I             2.3601948472        1.0459944700       20.0252301261
I            -0.0068075004        5.4391723337        5.5174710407
I            -0.0114546124        5.4466703683       12.8408687609
I             0.3112988688        5.2630000440       20.2812921245
I            -2.3694265165        9.5130342022        5.5105159705
I            -2.3913622017        9.5002010417       12.8911095085
I            -2.3304416616        9.5175438526       20.2753383998
I            -4.7221638427       13.5910527700        5.5115934665
I            -4.7410913421       13.5759737501       12.8843735291
I            -4.6963668457       13.6288232643       20.2395808010
I             6.9910358140        1.4032209295        5.4242972737
[...]
I             2.3608488929       14.9621742229        9.1382339508
I             2.3550319749       14.9604815289       16.6158258485
I            14.1728751092        2.7562525043        1.8932437734
I            14.1293728545        2.6804851482        9.2484131543
I            14.1317038671        2.7078114263       16.6217997555
I            11.7733822547        6.7966012071        1.8876071532
I            11.7792612032        6.7961005285        9.3162394267
I            11.7763942581        6.7666915027       16.6827680299
I             9.4274004138       10.8772238295        1.9058599993
I             9.4210796763       10.8809639122        9.3123369620
I             9.4035839584       10.8922860574       16.6757769070
I             7.0889170907       14.9611768519        1.8635086394
I             7.0335839723       14.9798430823        9.2413712839
I             7.0523109862       14.9679105830       16.6248825157
I             2.3497657788        4.0834278833       22.1309283523

     Writing config-only to output data dir ./PbI2.save/
     NEW-OLD atomic charge density approx. for the potential

     Check: negative core charge=   -0.000001

[...]

     Self-consistent Calculation

[...]

     c_bands:  1 eigenvalues not converged
     ethr =  1.36E-10,  avg # of iterations = 20.0

[...]

     ethr =  1.38E-12,  avg # of iterations = 17.0

     Non-local corr. energy    =      69.34721976 Ry

     total energy              =  -96802.22231352 Ry
     estimated scf accuracy    <       0.00000010 Ry

     iteration # 25     ecut=    70.00 Ry     beta= 0.70
     Davidson diagonalization with overlap

     c_bands:  1 eigenvalues not converged

     Program stopped by user request
     Calculation stopped in k-point loop, point #     1
     Calculation stopped in scf loop at iteration #    24

     Writing config to output data dir ./PbI2.save/
     Message from routine punch:
     wavefunctions written to file

     General routines

     Parallel routines

     PAW routines

   This run was terminated on:  15:45:14  29Mar2024

   JOB DONE.