     Program PWSCF v.7.1 starts on 27Mar2024 at  9:49:37

     Reading input from espresso.pwi
Warning: card &CELL ignored
Warning: card    CELL_DYNAMICS    = 'BFGS' ignored
Warning: card / ignored

     Current dimensions of program PWSCF are:
     Max number of different atomic species (ntypx) = 10
     Max number of k-points (npk) =  40000
     Max angular momentum in pseudopotentials (lmaxx) =  4
     file Pb.pbe-dn-kjpaw_psl.1.0.0.UPF: wavefunction(s)  6S 6P 5D renormalized
     file I.pbe-dn-kjpaw_psl.1.0.0.UPF: wavefunction(s)  5S 5P renormalized

     IMPORTANT: XC functional enforced from input :
     Exchange-correlation= BEEF-VDW
                           (   1   4  43  14   2   0   0)
     Any further DFT definition will be discarded
     Please, verify this is what you really want

     R & G space division:  proc/nbgrp/npool/nimage =     128
     Subspace diagonalization in iterative solution of the eigenvalue problem:
     a serial algorithm will be used

     Using Slab Decomposition

     bravais-lattice index     =            4
     lattice parameter (alat)  =      35.6120  a.u.
     unit-cell volume          =   45937.3577 (a.u.)^3
     number of atoms/cell      =          144
     number of atomic types    =            2
     number of electrons       =      2304.00
     number of Kohn-Sham states=         1382
     kinetic-energy cutoff     =      70.0000  Ry
     charge density cutoff     =     350.0000  Ry
     scf convergence threshold =      1.0E-07
     mixing beta               =       0.7000
     number of iterations used =            8  plain     mixing
     energy convergence thresh.=      1.0E-04
     force convergence thresh. =      1.0E-03
     Exchange-correlation= BEEF-VDW
                           (   1   4  43  14   2   0   0)
     nstep                     =           50

     celldm(1)=  35.612033  celldm(2)=   0.000000  celldm(3)=   1.174479
     celldm(4)=   0.000000  celldm(5)=   0.000000  celldm(6)=   0.000000

     crystal axes: (cart. coord. in units of alat)
               a(1) = (   1.000000   0.000000   0.000000 )
               a(2) = (  -0.500000   0.866025   0.000000 )
               a(3) = (   0.000000   0.000000   1.174479 )

     reciprocal axes: (cart. coord. in units 2 pi/alat)
               b(1) = (  1.000000  0.577350 -0.000000 )
               b(2) = (  0.000000  1.154701  0.000000 )
               b(3) = (  0.000000 -0.000000  0.851442 )

     PseudoPot. # 1 for Pb read from file:
     /trace/group/acmegroup/atimmins/packages/espresso/pseudo/psl_1.0.0/pslibrary.1.0.0/pbe/PSEUDOPOTENTIALS/Pb.pbe-dn-kjpaw_psl.1.0.0.UPF
     MD5 check sum: 39ab5b8a6bbd56b7735ad9f188aac93a
     Pseudo is Projector augmented-wave + core cor, Zval = 14.0
     Generated using 'atomic' code by A. Dal Corso  v.7.1
     Shape of augmentation charge: PSQ
     Using radial grid of 1281 points,  6 beta functions with:
                l(1) =   0
                l(2) =   0
                l(3) =   1
                l(4) =   1
                l(5) =   2
                l(6) =   2
     Q(r) pseudized with 0 coefficients

     PseudoPot. # 2 for I  read from file:
     /trace/group/acmegroup/atimmins/packages/espresso/pseudo/psl_1.0.0/pslibrary.1.0.0/pbe/PSEUDOPOTENTIALS/I.pbe-dn-kjpaw_psl.1.0.0.UPF
     MD5 check sum: bfa8781bc1224d19af3f3980e3fab11e
     Pseudo is Projector augmented-wave + core cor, Zval = 17.0
     Generated using 'atomic' code by A. Dal Corso  v.7.1
     Shape of augmentation charge: PSQ
     Using radial grid of 1247 points,  6 beta functions with:
                l(1) =   0
                l(2) =   0
                l(3) =   1
                l(4) =   1
                l(5) =   2
                l(6) =   2
     Q(r) pseudized with 0 coefficients

     atomic species   valence    mass     pseudopotential
        Pb            14.00   207.20000     Pb( 1.00)
        I             17.00   126.90447     I ( 1.00)

     No symmetry found

                                    s                        frac. trans.

      isym =  1     identity

 cryst.   s( 1) = (     1          0          0      )
                  (     0          1          0      )
                  (     0          0          1      )

 cart.    s( 1) = (  1.0000000  0.0000000  0.0000000 )
                  (  0.0000000  1.0000000  0.0000000 )
                  (  0.0000000  0.0000000  1.0000000 )

     point group C_1 (1)
     there are  1 classes
     the character table:

       E
A      1.00

     the symmetry operations in each class and the name of the first element:

     E        1
          identity

   Cartesian axes

     site n.     atom                  positions (alat units)
         1           Pb  tau(   1) = (   0.1250034   0.2164918   0.3914896  )
         2           Pb  tau(   2) = (   0.1250085   0.2164873   0.7829825  )
         3           Pb  tau(   3) = (   0.0000128   0.4329881   1.1744712  )
         4           Pb  tau(   4) = (   0.0000026   0.4329971   0.3914855  )
         5           Pb  tau(   5) = (   0.0000077   0.4329926   0.7829784  )
         6           Pb  tau(   6) = (  -0.1249881   0.6494934   1.1744671  )
         7           Pb  tau(   7) = (  -0.1249983   0.6495025   0.3914814  )
         8           Pb  tau(   8) = (  -0.1249932   0.6494980   0.7829742  )
         9           Pb  tau(   9) = (  -0.2499889   0.8659988   1.1744630  )
        10           Pb  tau(  10) = (  -0.2499991   0.8660078   0.3914773  )
        11           Pb  tau(  11) = (  -0.2499940   0.8660033   0.7829701  )
        12           Pb  tau(  12) = (   0.3750136   0.2164818   1.1744786  )
        13           Pb  tau(  13) = (   0.3750034   0.2164908   0.3914929  )
        14           Pb  tau(  14) = (   0.3750085   0.2164863   0.7829857  )
        15           Pb  tau(  15) = (   0.2500128   0.4329871   1.1744745  )
        16           Pb  tau(  16) = (   0.2500026   0.4329962   0.3914888  )
        17           Pb  tau(  17) = (   0.2500077   0.4329916   0.7829816  )
        18           Pb  tau(  18) = (   0.1250119   0.6494925   1.1744703  )
        19           Pb  tau(  19) = (   0.1250017   0.6495015   0.3914847  )
        20           Pb  tau(  20) = (   0.1250068   0.6494970   0.7829775  )
        21           Pb  tau(  21) = (   0.0000111   0.8659978   1.1744662  )
        22           Pb  tau(  22) = (   0.0000009   0.8660069   0.3914805  )
        23           Pb  tau(  23) = (   0.0000060   0.8660024   0.7829734  )
        24           Pb  tau(  24) = (   0.6250136   0.2164808   1.1744818  )
        25           Pb  tau(  25) = (   0.6250034   0.2164898   0.3914962  )
        26           Pb  tau(  26) = (   0.6250085   0.2164853   0.7829890  )
        27           Pb  tau(  27) = (   0.5000128   0.4329862   1.1744777  )
        28           Pb  tau(  28) = (   0.5000026   0.4329952   0.3914920  )
        29           Pb  tau(  29) = (   0.5000077   0.4329907   0.7829849  )
        30           Pb  tau(  30) = (   0.3750119   0.6494915   1.1744736  )
        31           Pb  tau(  31) = (   0.3750017   0.6495006   0.3914879  )
        32           Pb  tau(  32) = (   0.3750068   0.6494960   0.7829808  )
        33           Pb  tau(  33) = (   0.2500111   0.8659969   1.1744695  )
        34           Pb  tau(  34) = (   0.2500009   0.8660059   0.3914838  )
        35           Pb  tau(  35) = (   0.2500060   0.8660014   0.7829766  )
        36           Pb  tau(  36) = (   0.8750136   0.2164798   1.1744851  )
        37           Pb  tau(  37) = (   0.8750034   0.2164889   0.3914994  )
        38           Pb  tau(  38) = (   0.8750085   0.2164844   0.7829923  )
        39           Pb  tau(  39) = (   0.7500128   0.4329852   1.1744810  )
        40           Pb  tau(  40) = (   0.7500026   0.4329942   0.3914953  )
        41           Pb  tau(  41) = (   0.7500077   0.4329897   0.7829881  )
        42           Pb  tau(  42) = (   0.6250119   0.6494906   1.1744769  )
        43           Pb  tau(  43) = (   0.6250017   0.6494996   0.3914912  )
        44           Pb  tau(  44) = (   0.6250068   0.6494951   0.7829840  )
        45           Pb  tau(  45) = (   0.5000111   0.8659959   1.1744727  )
        46           Pb  tau(  46) = (   0.5000009   0.8660050   0.3914870  )
        47           Pb  tau(  47) = (   0.5000060   0.8660004   0.7829799  )
        48           I   tau(  48) = (   0.1250054   0.0721550   0.2909325  )
        49           I   tau(  49) = (   0.1250105   0.0721505   0.6824253  )
        50           I   tau(  50) = (   0.1250156   0.0721459   1.0739182  )
        51           I   tau(  51) = (   0.0000045   0.2886603   0.2909283  )
        52           I   tau(  52) = (   0.0000096   0.2886558   0.6824212  )
        53           I   tau(  53) = (   0.0000147   0.2886513   1.0739140  )
        54           I   tau(  54) = (  -0.1249963   0.5051657   0.2909242  )
        55           I   tau(  55) = (  -0.1249912   0.5051612   0.6824171  )
        56           I   tau(  56) = (  -0.1249861   0.5051566   1.0739099  )
        57           I   tau(  57) = (  -0.2499971   0.7216710   0.2909201  )
        58           I   tau(  58) = (  -0.2499920   0.7216665   0.6824129  )
        59           I   tau(  59) = (  -0.2499869   0.7216620   1.0739058  )
        60           I   tau(  60) = (   0.3750054   0.0721540   0.2909357  )
[...]
       130           I   tau( 130) = (   0.1250009   0.7938394   0.4920425  )
       131           I   tau( 131) = (   0.1250060   0.7938348   0.8835353  )
       132           I   tau( 132) = (   0.7499983   0.1443268   0.1005653  )
       133           I   tau( 133) = (   0.7500034   0.1443223   0.4920581  )
       134           I   tau( 134) = (   0.7500085   0.1443178   0.8835509  )
       135           I   tau( 135) = (   0.6249975   0.3608322   0.1005611  )
       136           I   tau( 136) = (   0.6250026   0.3608277   0.4920540  )
       137           I   tau( 137) = (   0.6250077   0.3608232   0.8835468  )
       138           I   tau( 138) = (   0.4999966   0.5773376   0.1005570  )
       139           I   tau( 139) = (   0.5000017   0.5773330   0.4920499  )
       140           I   tau( 140) = (   0.5000068   0.5773285   0.8835427  )
       141           I   tau( 141) = (   0.3749958   0.7938429   0.1005529  )
       142           I   tau( 142) = (   0.3750009   0.7938384   0.4920457  )
       143           I   tau( 143) = (   0.3750060   0.7938339   0.8835386  )
       144           I   tau( 144) = (   0.1250136   0.2164827   1.1744753  )

   Crystallographic axes

     site n.     atom                  positions (cryst. coord.)
         1           Pb  tau(   1) = (  0.2499950  0.2499832  0.3333306  )
         2           Pb  tau(   2) = (  0.2499975  0.2499780  0.6666639  )
         3           Pb  tau(   3) = (  0.2499986  0.4999716  0.9999938  )
         4           Pb  tau(   4) = (  0.2499936  0.4999820  0.3333271  )
         5           Pb  tau(   5) = (  0.2499961  0.4999768  0.6666604  )
         6           Pb  tau(   6) = (  0.2499972  0.7499704  0.9999902  )
         7           Pb  tau(   7) = (  0.2499922  0.7499809  0.3333236  )
[...]
     atom   54 type  2   force =     0.00000000    0.00000000    0.00000000
     atom   55 type  2   force =     0.00000000    0.00000000    0.00000000
     atom   56 type  2   force =     0.00000000    0.00000000    0.00000000
     atom   57 type  2   force =     0.00000000    0.00000000    0.00000000
     atom   58 type  2   force =     0.00000000    0.00000000    0.00000000
     atom   59 type  2   force =     0.00000000    0.00000000    0.00000000
     atom   60 type  2   force =     0.00000000    0.00000000    0.00000000
[...]
     atom  130 type  2   force =     0.00000000    0.00000000    0.00000000
     atom  131 type  2   force =     0.00000000    0.00000000    0.00000000
     atom  132 type  2   force =     0.00000000    0.00000000    0.00000000
     atom  133 type  2   force =     0.00000000    0.00000000    0.00000000
     atom  134 type  2   force =     0.00000000    0.00000000    0.00000000
     atom  135 type  2   force =     0.00000000    0.00000000    0.00000000
     atom  136 type  2   force =     0.00000000    0.00000000    0.00000000
     atom  137 type  2   force =     0.00000000    0.00000000    0.00000000
     atom  138 type  2   force =     0.00000000    0.00000000    0.00000000
     atom  139 type  2   force =     0.00000000    0.00000000    0.00000000
     atom  140 type  2   force =     0.00000000    0.00000000    0.00000000
     atom  141 type  2   force =     0.00000000    0.00000000    0.00000000
     atom  142 type  2   force =     0.00000000    0.00000000    0.00000000
     atom  143 type  2   force =     0.00000000    0.00000000    0.00000000
     atom  144 type  2   force =     0.00000000    0.00000000    0.00000000
     The SCF correction term to forces
     atom    1 type  1   force =    -0.00001637   -0.00001866    0.00000654
     atom    2 type  1   force =    -0.00000400   -0.00003127   -0.00001310
     atom    3 type  1   force =    -0.00003380    0.00001618    0.00000689
     atom    4 type  1   force =    -0.00001806   -0.00000482    0.00000288
     atom    5 type  1   force =    -0.00001803    0.00000219   -0.00000940
     atom    6 type  1   force =    -0.00001521    0.00000948    0.00000038
     atom    7 type  1   force =    -0.00000773    0.00000376    0.00000199
     atom    8 type  1   force =    -0.00003087    0.00001055    0.00000002
     atom    9 type  1   force =    -0.00001911   -0.00001763   -0.00001075
     atom   10 type  1   force =    -0.00000685   -0.00000984    0.00000564
     atom   11 type  1   force =    -0.00001925   -0.00002221    0.00000460
     atom   12 type  1   force =     0.00003103   -0.00002518    0.00001561
     atom   13 type  1   force =     0.00000726   -0.00001097    0.00000145
     atom   14 type  1   force =     0.00000153   -0.00001686   -0.00001074
     atom   15 type  1   force =     0.00002036    0.00003670    0.00001160
     atom   16 type  1   force =     0.00000496    0.00000297    0.00000495
     atom   17 type  1   force =     0.00000794    0.00000338   -0.00001378
     atom   18 type  1   force =    -0.00000139    0.00002364    0.00000989
     atom   19 type  1   force =     0.00000106    0.00002086   -0.00000565
     atom   20 type  1   force =    -0.00000331    0.00001248   -0.00000490
     atom   21 type  1   force =     0.00000119   -0.00000469    0.00001062
     atom   22 type  1   force =     0.00000720   -0.00000015   -0.00000431
     atom   23 type  1   force =    -0.00001363   -0.00000167   -0.00000302
     atom   24 type  1   force =     0.00000958   -0.00000524    0.00001332
     atom   25 type  1   force =     0.00001481   -0.00000917   -0.00000729
     atom   26 type  1   force =     0.00000390    0.00000282   -0.00000920
     atom   27 type  1   force =     0.00002028    0.00001291    0.00000301
     atom   28 type  1   force =     0.00001306    0.00000554   -0.00000042
     atom   29 type  1   force =     0.00002370    0.00002017   -0.00000481
     atom   30 type  1   force =     0.00001464    0.00002071    0.00000623
     atom   31 type  1   force =     0.00000783    0.00002140   -0.00000009
     atom   32 type  1   force =     0.00002932    0.00001521   -0.00000419
     atom   33 type  1   force =     0.00000950    0.00000192    0.00001885
     atom   34 type  1   force =     0.00000814    0.00000795   -0.00000834
     atom   35 type  1   force =     0.00001375    0.00000253   -0.00000575
     atom   36 type  1   force =    -0.00001027   -0.00002055    0.00002112
     atom   37 type  1   force =    -0.00000709   -0.00001605   -0.00000601
     atom   38 type  1   force =    -0.00000187   -0.00001137   -0.00001083
     atom   39 type  1   force =    -0.00000709    0.00000758    0.00000230
     atom   40 type  1   force =     0.00000036   -0.00000296   -0.00000024
     atom   41 type  1   force =    -0.00001261    0.00001868   -0.00000440
     atom   42 type  1   force =     0.00000169    0.00001314   -0.00000958
     atom   43 type  1   force =    -0.00000070    0.00000829    0.00000520
     atom   44 type  1   force =     0.00000472    0.00001517    0.00000477
     atom   45 type  1   force =     0.00000803   -0.00000443    0.00000094
     atom   46 type  1   force =    -0.00000968    0.00000064   -0.00000237
     atom   47 type  1   force =     0.00001887   -0.00001689    0.00000250
     atom   48 type  2   force =    -0.00002897   -0.00001268    0.00000171
     atom   49 type  2   force =    -0.00000712   -0.00002854    0.00001366
     atom   50 type  2   force =    -0.00001266   -0.00006241   -0.00000972
     atom   51 type  2   force =    -0.00002819   -0.00003504    0.00000858
     atom   52 type  2   force =    -0.00001075   -0.00002167   -0.00000786
     atom   53 type  2   force =    -0.00005068   -0.00002817   -0.00001810
     atom   54 type  2   force =    -0.00001777   -0.00000565    0.00000023
     atom   55 type  2   force =    -0.00002612    0.00001452   -0.00000236
     atom   56 type  2   force =    -0.00002581    0.00001138   -0.00000266
     atom   57 type  2   force =    -0.00001373    0.00000344    0.00000619
     atom   58 type  2   force =    -0.00001815   -0.00000002    0.00001338
     atom   59 type  2   force =    -0.00002991    0.00001886   -0.00001253
     atom   60 type  2   force =     0.00000281   -0.00000726    0.00000309
[...]
     atom  130 type  2   force =     0.00000864    0.00001403   -0.00001395
     atom  131 type  2   force =     0.00000199    0.00001028   -0.00000055
     atom  132 type  2   force =     0.00002071   -0.00001294    0.00002199
     atom  133 type  2   force =     0.00000940   -0.00000441   -0.00002531
     atom  134 type  2   force =     0.00000991   -0.00000760   -0.00000239
     atom  135 type  2   force =     0.00001253   -0.00000362    0.00001404
     atom  136 type  2   force =     0.00001074   -0.00000039    0.00000150
     atom  137 type  2   force =     0.00000478    0.00001571   -0.00000325
     atom  138 type  2   force =     0.00001410    0.00001918    0.00000848
     atom  139 type  2   force =     0.00001184    0.00001539    0.00000776
     atom  140 type  2   force =     0.00002784    0.00002526   -0.00000275
     atom  141 type  2   force =     0.00001368    0.00003176    0.00001019
     atom  142 type  2   force =     0.00001547    0.00001181   -0.00001636
     atom  143 type  2   force =     0.00003299    0.00000921   -0.00000117
     atom  144 type  2   force =    -0.00003917   -0.00008291    0.00001444

     Total force =     0.035241     Total SCF correction =     0.000333

     Computing stress (Cartesian axis) and pressure

[...]

          total   stress  (Ry/bohr**3)                   (kbar)     P=       -7.09
  -0.00004939  -0.00000028   0.00000069           -7.27       -0.04        0.10
  -0.00000028  -0.00004581   0.00000200           -0.04       -6.74        0.29
   0.00000069   0.00000200  -0.00004934            0.10        0.29       -7.26

     kinetic stress (kbar)  14938.84      0.28     -0.33
                                0.28  14941.35      1.61
                               -0.33      1.61  14948.42

     local   stress (kbar)  -7331.12     27.43    -48.44
                               27.43  -7244.60     61.53
                              -48.44     61.53   1162.14

     nonloc. stress (kbar)  -1006.89      0.38     -0.59
                                0.38  -1004.83      1.53
                               -0.59      1.53  -1013.58

     hartree stress (kbar)  11985.46     -9.35     18.16
                               -9.35  11954.86    -23.45
                               18.16    -23.45   8158.34

     exc-cor stress (kbar)   6973.31     -0.04      0.05
                               -0.04   6973.23     -0.03
                                0.05     -0.03   6972.28

     corecor stress (kbar) -11344.36     -0.01      0.01
                               -0.01 -11344.41     -0.04
                                0.01     -0.04 -11344.24

     ewald   stress (kbar) -14306.17    -18.74     31.27
                              -18.74 -14366.04    -40.87
                               31.27    -40.87 -18975.53

     hubbard stress (kbar)      0.00      0.00      0.00
                                0.00      0.00      0.00
                                0.00      0.00      0.00

     DFT-D   stress (kbar)      0.00      0.00      0.00
                                0.00      0.00      0.00
                                0.00      0.00      0.00

     XDM     stress (kbar)      0.00      0.00      0.00
                                0.00      0.00      0.00
                                0.00      0.00      0.00

     dft-nl  stress (kbar)     83.67      0.01     -0.02
                                0.01     83.70      0.01
                               -0.02      0.01     84.91

     TS-vdW  stress (kbar)      0.00      0.00      0.00
                                0.00      0.00      0.00
                                0.00      0.00      0.00

     MDB     stress (kbar)      0.00      0.00      0.00
                                0.00      0.00      0.00
                                0.00      0.00      0.00

     3D-RISM stress (kbar)      0.00      0.00      0.00
                                0.00      0.00      0.00
                                0.00      0.00      0.00

     Energy error            =      1.8E-03 Ry
     Gradient error          =      1.2E-02 Ry/Bohr

     number of scf cycles    =  25
     number of bfgs steps    =  24

     energy             old  =  -96802.2115209452 Ry
     energy             new  =  -96802.2133102204 Ry

     CASE: energy            _new < energy            _old

     new trust radius        =       0.1628805323 bohr
     new conv_thr            =       0.0000000120 Ry

ATOMIC_POSITIONS (angstrom)
Pb            2.3566867984        4.0789392225        7.4259321478
Pb            2.3542848533        4.0798398904       14.7075991745
Pb            0.0317658000        8.2348042625       22.2171672786
Pb           -0.0112629232        8.1445028307        7.3886007010
Pb            0.0083572344        8.1556959016       14.7517515936
Pb           -2.3555327883       12.2389851808       22.1324283577
Pb           -2.3741916546       12.2302669133        7.3780716937
Pb           -2.3372932274       12.2499092996       14.7558895278
Pb           -4.7415818727       16.2429120249       22.0496721181
Pb           -4.7200526660       16.3238007858        7.3819695237
Pb           -4.7002210513       16.3350837163       14.7456839383
Pb            7.1603821800        4.1108393370       22.0921121510
Pb            7.0580891476        4.0854025205        7.3819294878
Pb            7.0580761324        4.0625242567       14.7461896520
Pb            4.6919327339        8.1919956130       22.1741318270
Pb            4.7250658881        8.1438346519        7.3908268308
Pb            4.6911270952        8.1633127705       14.7435098981
Pb            2.3692283569       12.2718845769       22.1072168764
Pb            2.3544595900       12.2074786217        7.2835914970
Pb            2.3554624252       12.2529213968       14.7360131909
Pb            0.0098810278       16.3012887420       22.1209875189
Pb           -0.0365917972       16.3414071341        7.2766940958
Pb            0.0125686929       16.3129615779       14.7360076200
Pb           11.7784790149        4.0796101579       22.1326739182
Pb           11.7776703727        4.1000075385        7.3789534177
Pb           11.7788152267        4.0590394401       14.7546426799
Pb            9.4377964393        8.1973871088       22.1552427541
Pb            9.4340756087        8.1657697667        7.3982328995
Pb            9.3975281835        8.1434845974       14.8502772739
Pb            7.0674209498       12.2396714324       22.1319702700
Pb            7.0872289823       12.2286355095        7.3777229715
Pb            7.0471625952       12.2516372774       14.7552379085
Pb            4.6966910034       16.2825382108       22.1089158848
Pb            4.7368390309       16.3364168940        7.2833432744
Pb            4.7001287391       16.3140978225       14.7351768249
Pb           16.3976369864        4.0478949173       22.1735671014
Pb           16.4980906320        4.0963626889        7.3876782567
Pb           16.4984406638        4.0737087836       14.7517474403
Pb           14.1243907851        8.1785425774       22.1438918257
Pb           14.1214450890        8.1668040168        7.3972017092
Pb           14.1706872752        8.1381113083       14.8577654331
Pb           11.7644625377       12.2073681374       22.1575893385
Pb           11.7785569222       12.2273725918        7.3973575803
Pb           11.7794566446       12.2722183077       14.8504219689
Pb            9.4418044877       16.2863254195       22.0906274892
Pb            9.4424738339       16.3163154843        7.3895648584
Pb            9.4090371731       16.3360246929       14.7430527111
I             2.3588866842        1.3490922192        5.5113904420
I             2.3532142478        1.3446308181       12.8361668977
I             2.3608851878        1.1822513367       20.0706002564
I            -0.0118360016        5.4408725917        5.5153785926
I            -0.0160338051        5.4493368440       12.8366968863
I             0.3310312792        5.2542282016       20.2863546797
I            -2.3672628628        9.5181806854        5.5004101342
I            -2.3930895107        9.5026969216       12.8801975583
I            -2.3354045049        9.5263687653       20.2598575043
I            -4.7179771052       13.5904905662        5.5027884023
I            -4.7412858051       13.5725852941       12.8739216742
I            -4.6933443486       13.6217239842       20.2308635824
I             7.0006724155        1.3975921507        5.4246986772
[...]
I             2.3606241534       14.9607409911        9.1624917274
I             2.3555550302       14.9600581197       16.6233976785
I            14.1590203402        2.7520366320        1.9013124319
I            14.1268280406        2.6791035226        9.2585882313
I            14.1286584845        2.7113169855       16.6303843982
I            11.7736681874        6.7954504551        1.8908076642
I            11.7791938476        6.7953081630        9.3237789157
I            11.7762329615        6.7764290287       16.6834350668
I             9.4258285521       10.8781650265        1.9042466372
I             9.4210162677       10.8811953967        9.3203412924
I             9.4106611687       10.8866954013       16.6794474475
I             7.0819721209       14.9525178583        1.8790845279
I             7.0303696543       14.9780341769        9.2532547161
I             7.0543757356       14.9631376168       16.6341783129
I             2.3482562979        4.0832949979       22.1323639519

     Writing config-only to output data dir ./PbI2.save/
     NEW-OLD atomic charge density approx. for the potential

     Check: negative core charge=   -0.000001

[...]

     Self-consistent Calculation

[...]

     ethr =  8.90E-06,  avg # of iterations = 18.0

     Non-local corr. energy    =      69.32722948 Ry

     total energy              =  -96802.21067720 Ry
     estimated scf accuracy    <       0.06057662 Ry

     iteration #  6     ecut=    70.00 Ry     beta= 0.70
     Davidson diagonalization with overlap

     max_seconds     =  154800.00
     Calculation stopped in k-point loop, point #     1
     Calculation stopped in scf loop at iteration #     5

     Writing config to output data dir ./PbI2.save/
     Message from routine punch:
     wavefunctions written to file

     General routines

     Parallel routines

     PAW routines

   This run was terminated on:   4:50: 2  29Mar2024

   JOB DONE.