     Program PWSCF v.7.1 starts on 15Apr2024 at 10:42:20

     Reading input from espresso.pwi
Warning: card &CELL ignored
Warning: card    CELL_DYNAMICS    = 'BFGS' ignored
Warning: card / ignored

     Current dimensions of program PWSCF are:
     Max number of different atomic species (ntypx) = 10
     Max number of k-points (npk) =  40000
     Max angular momentum in pseudopotentials (lmaxx) =  4
     file Pb.pbe-dn-kjpaw_psl.1.0.0.UPF: wavefunction(s)  6S 6P 5D renormalized
     file I.pbe-dn-kjpaw_psl.1.0.0.UPF: wavefunction(s)  5S 5P renormalized

     IMPORTANT: XC functional enforced from input :
     Exchange-correlation= BEEF-VDW
                           (   1   4  43  14   2   0   0)
     Any further DFT definition will be discarded
     Please, verify this is what you really want

     R & G space division:  proc/nbgrp/npool/nimage =     128
     Subspace diagonalization in iterative solution of the eigenvalue problem:
     a serial algorithm will be used

     Using Slab Decomposition

     bravais-lattice index     =            4
     lattice parameter (alat)  =      35.6120  a.u.
     unit-cell volume          =   45937.3577 (a.u.)^3
     number of atoms/cell      =          144
     number of atomic types    =            2
     number of electrons       =      2304.00
     number of Kohn-Sham states=         1382
     kinetic-energy cutoff     =      70.0000  Ry
     charge density cutoff     =     350.0000  Ry
     scf convergence threshold =      1.0E-07
     mixing beta               =       0.7000
     number of iterations used =            8  plain     mixing
     Exchange-correlation= BEEF-VDW
                           (   1   4  43  14   2   0   0)

     celldm(1)=  35.612033  celldm(2)=   0.000000  celldm(3)=   1.174479
     celldm(4)=   0.000000  celldm(5)=   0.000000  celldm(6)=   0.000000

     crystal axes: (cart. coord. in units of alat)
               a(1) = (   1.000000   0.000000   0.000000 )
               a(2) = (  -0.500000   0.866025   0.000000 )
               a(3) = (   0.000000   0.000000   1.174479 )

     reciprocal axes: (cart. coord. in units 2 pi/alat)
               b(1) = (  1.000000  0.577350 -0.000000 )
               b(2) = (  0.000000  1.154701  0.000000 )
               b(3) = (  0.000000 -0.000000  0.851442 )

     PseudoPot. # 1 for Pb read from file:
     //group///packages/espresso/pseudo/psl_1.0.0/pslibrary.1.0.0/pbe/PSEUDOPOTENTIALS/Pb.pbe-dn-kjpaw_psl.1.0.0.UPF
     MD5 check sum: 39ab5b8a6bbd56b7735ad9f188aac93a
     Pseudo is Projector augmented-wave + core cor, Zval = 14.0
     Generated using 'atomic' code by A. Dal Corso  v.7.1
     Shape of augmentation charge: PSQ
     Using radial grid of 1281 points,  6 beta functions with:
                l(1) =   0
                l(2) =   0
                l(3) =   1
                l(4) =   1
                l(5) =   2
                l(6) =   2
     Q(r) pseudized with 0 coefficients

     PseudoPot. # 2 for I  read from file:
     //group///packages/espresso/pseudo/psl_1.0.0/pslibrary.1.0.0/pbe/PSEUDOPOTENTIALS/I.pbe-dn-kjpaw_psl.1.0.0.UPF
     MD5 check sum: bfa8781bc1224d19af3f3980e3fab11e
     Pseudo is Projector augmented-wave + core cor, Zval = 17.0
     Generated using 'atomic' code by A. Dal Corso  v.7.1
     Shape of augmentation charge: PSQ
     Using radial grid of 1247 points,  6 beta functions with:
                l(1) =   0
                l(2) =   0
                l(3) =   1
                l(4) =   1
                l(5) =   2
                l(6) =   2
     Q(r) pseudized with 0 coefficients

     atomic species   valence    mass     pseudopotential
        Pb            14.00   207.20000     Pb( 1.00)
        I             17.00   126.90447     I ( 1.00)

     No symmetry found

                                    s                        frac. trans.

      isym =  1     identity

 cryst.   s( 1) = (     1          0          0      )
                  (     0          1          0      )
                  (     0          0          1      )

 cart.    s( 1) = (  1.0000000  0.0000000  0.0000000 )
                  (  0.0000000  1.0000000  0.0000000 )
                  (  0.0000000  0.0000000  1.0000000 )

     point group C_1 (1)
     there are  1 classes
     the character table:

       E
A      1.00

     the symmetry operations in each class and the name of the first element:

     E        1
          identity

   Cartesian axes

     site n.     atom                  positions (alat units)
         1           Pb  tau(   1) = (   0.1250034   0.2164918   0.3914896  )
         2           Pb  tau(   2) = (   0.1250085   0.2164873   0.7829825  )
         3           Pb  tau(   3) = (   0.0000128   0.4329881   1.1744712  )
         4           Pb  tau(   4) = (   0.0000026   0.4329971   0.3914855  )
         5           Pb  tau(   5) = (   0.0000077   0.4329926   0.7829784  )
         6           Pb  tau(   6) = (  -0.1249881   0.6494934   1.1744671  )
         7           Pb  tau(   7) = (  -0.1249983   0.6495025   0.3914814  )
         8           Pb  tau(   8) = (  -0.1249932   0.6494980   0.7829742  )
         9           Pb  tau(   9) = (  -0.2499889   0.8659988   1.1744630  )
        10           Pb  tau(  10) = (  -0.2499991   0.8660078   0.3914773  )
        11           Pb  tau(  11) = (  -0.2499940   0.8660033   0.7829701  )
        12           Pb  tau(  12) = (   0.3750136   0.2164818   1.1744786  )
        13           Pb  tau(  13) = (   0.3750034   0.2164908   0.3914929  )
        14           Pb  tau(  14) = (   0.3750085   0.2164863   0.7829857  )
        15           Pb  tau(  15) = (   0.2500128   0.4329871   1.1744745  )
        16           Pb  tau(  16) = (   0.2500026   0.4329962   0.3914888  )
        17           Pb  tau(  17) = (   0.2500077   0.4329916   0.7829816  )
        18           Pb  tau(  18) = (   0.1250119   0.6494925   1.1744703  )
        19           Pb  tau(  19) = (   0.1250017   0.6495015   0.3914847  )
        20           Pb  tau(  20) = (   0.1250068   0.6494970   0.7829775  )
        21           Pb  tau(  21) = (   0.0000111   0.8659978   1.1744662  )
        22           Pb  tau(  22) = (   0.0000009   0.8660069   0.3914805  )
        23           Pb  tau(  23) = (   0.0000060   0.8660024   0.7829734  )
        24           Pb  tau(  24) = (   0.6250136   0.2164808   1.1744818  )
        25           Pb  tau(  25) = (   0.6250034   0.2164898   0.3914962  )
        26           Pb  tau(  26) = (   0.6250085   0.2164853   0.7829890  )
        27           Pb  tau(  27) = (   0.5000128   0.4329862   1.1744777  )
        28           Pb  tau(  28) = (   0.5000026   0.4329952   0.3914920  )
        29           Pb  tau(  29) = (   0.5000077   0.4329907   0.7829849  )
        30           Pb  tau(  30) = (   0.3750119   0.6494915   1.1744736  )
        31           Pb  tau(  31) = (   0.3750017   0.6495006   0.3914879  )
        32           Pb  tau(  32) = (   0.3750068   0.6494960   0.7829808  )
        33           Pb  tau(  33) = (   0.2500111   0.8659969   1.1744695  )
        34           Pb  tau(  34) = (   0.2500009   0.8660059   0.3914838  )
        35           Pb  tau(  35) = (   0.2500060   0.8660014   0.7829766  )
        36           Pb  tau(  36) = (   0.8750136   0.2164798   1.1744851  )
        37           Pb  tau(  37) = (   0.8750034   0.2164889   0.3914994  )
        38           Pb  tau(  38) = (   0.8750085   0.2164844   0.7829923  )
        39           Pb  tau(  39) = (   0.7500128   0.4329852   1.1744810  )
        40           Pb  tau(  40) = (   0.7500026   0.4329942   0.3914953  )
        41           Pb  tau(  41) = (   0.7500077   0.4329897   0.7829881  )
        42           Pb  tau(  42) = (   0.6250119   0.6494906   1.1744769  )
        43           Pb  tau(  43) = (   0.6250017   0.6494996   0.3914912  )
        44           Pb  tau(  44) = (   0.6250068   0.6494951   0.7829840  )
        45           Pb  tau(  45) = (   0.5000111   0.8659959   1.1744727  )
        46           Pb  tau(  46) = (   0.5000009   0.8660050   0.3914870  )
        47           Pb  tau(  47) = (   0.5000060   0.8660004   0.7829799  )
        48           I   tau(  48) = (   0.1250054   0.0721550   0.2909325  )
        49           I   tau(  49) = (   0.1250105   0.0721505   0.6824253  )
        50           I   tau(  50) = (   0.1250156   0.0721459   1.0739182  )
        51           I   tau(  51) = (   0.0000045   0.2886603   0.2909283  )
        52           I   tau(  52) = (   0.0000096   0.2886558   0.6824212  )
        53           I   tau(  53) = (   0.0000147   0.2886513   1.0739140  )
        54           I   tau(  54) = (  -0.1249963   0.5051657   0.2909242  )
        55           I   tau(  55) = (  -0.1249912   0.5051612   0.6824171  )
        56           I   tau(  56) = (  -0.1249861   0.5051566   1.0739099  )
        57           I   tau(  57) = (  -0.2499971   0.7216710   0.2909201  )
        58           I   tau(  58) = (  -0.2499920   0.7216665   0.6824129  )
        59           I   tau(  59) = (  -0.2499869   0.7216620   1.0739058  )
        60           I   tau(  60) = (   0.3750054   0.0721540   0.2909357  )
[...]
       130           I   tau( 130) = (   0.1250009   0.7938394   0.4920425  )
       131           I   tau( 131) = (   0.1250060   0.7938348   0.8835353  )
       132           I   tau( 132) = (   0.7499983   0.1443268   0.1005653  )
       133           I   tau( 133) = (   0.7500034   0.1443223   0.4920581  )
       134           I   tau( 134) = (   0.7500085   0.1443178   0.8835509  )
       135           I   tau( 135) = (   0.6249975   0.3608322   0.1005611  )
       136           I   tau( 136) = (   0.6250026   0.3608277   0.4920540  )
       137           I   tau( 137) = (   0.6250077   0.3608232   0.8835468  )
       138           I   tau( 138) = (   0.4999966   0.5773376   0.1005570  )
       139           I   tau( 139) = (   0.5000017   0.5773330   0.4920499  )
       140           I   tau( 140) = (   0.5000068   0.5773285   0.8835427  )
       141           I   tau( 141) = (   0.3749958   0.7938429   0.1005529  )
       142           I   tau( 142) = (   0.3750009   0.7938384   0.4920457  )
       143           I   tau( 143) = (   0.3750060   0.7938339   0.8835386  )
       144           I   tau( 144) = (   0.1250136   0.2164827   1.1744753  )

   Crystallographic axes

     site n.     atom                  positions (cryst. coord.)
         1           Pb  tau(   1) = (  0.2499950  0.2499832  0.3333306  )
         2           Pb  tau(   2) = (  0.2499975  0.2499780  0.6666639  )
         3           Pb  tau(   3) = (  0.2499986  0.4999716  0.9999938  )
         4           Pb  tau(   4) = (  0.2499936  0.4999820  0.3333271  )
         5           Pb  tau(   5) = (  0.2499961  0.4999768  0.6666604  )
         6           Pb  tau(   6) = (  0.2499972  0.7499704  0.9999902  )
         7           Pb  tau(   7) = (  0.2499922  0.7499809  0.3333236  )
         8           Pb  tau(   8) = (  0.2499947  0.7499757  0.6666569  )
         9           Pb  tau(   9) = (  0.2499957  0.9999693  0.9999867  )
[...]
     atom   26 type  1   force =     0.00000000    0.00000000    0.00000000
     atom   27 type  1   force =     0.00000000    0.00000000    0.00000000
     atom   28 type  1   force =     0.00000000    0.00000000    0.00000000
     atom   29 type  1   force =     0.00000000    0.00000000    0.00000000
     atom   30 type  1   force =     0.00000000    0.00000000    0.00000000
     atom   31 type  1   force =     0.00000000    0.00000000    0.00000000
     atom   32 type  1   force =     0.00000000    0.00000000    0.00000000
     atom   33 type  1   force =     0.00000000    0.00000000    0.00000000
     atom   34 type  1   force =     0.00000000    0.00000000    0.00000000
     atom   35 type  1   force =     0.00000000    0.00000000    0.00000000
     atom   36 type  1   force =     0.00000000    0.00000000    0.00000000
     atom   37 type  1   force =     0.00000000    0.00000000    0.00000000
     atom   38 type  1   force =     0.00000000    0.00000000    0.00000000
     atom   39 type  1   force =     0.00000000    0.00000000    0.00000000
     atom   40 type  1   force =     0.00000000    0.00000000    0.00000000
     atom   41 type  1   force =     0.00000000    0.00000000    0.00000000
     atom   42 type  1   force =     0.00000000    0.00000000    0.00000000
     atom   43 type  1   force =     0.00000000    0.00000000    0.00000000
     atom   44 type  1   force =     0.00000000    0.00000000    0.00000000
     atom   45 type  1   force =     0.00000000    0.00000000    0.00000000
     atom   46 type  1   force =     0.00000000    0.00000000    0.00000000
     atom   47 type  1   force =     0.00000000    0.00000000    0.00000000
     atom   48 type  2   force =     0.00000000    0.00000000    0.00000000
     atom   49 type  2   force =     0.00000000    0.00000000    0.00000000
     atom   50 type  2   force =     0.00000000    0.00000000    0.00000000
     atom   51 type  2   force =     0.00000000    0.00000000    0.00000000
     atom   52 type  2   force =     0.00000000    0.00000000    0.00000000
     atom   53 type  2   force =     0.00000000    0.00000000    0.00000000
     atom   54 type  2   force =     0.00000000    0.00000000    0.00000000
     atom   55 type  2   force =     0.00000000    0.00000000    0.00000000
     atom   56 type  2   force =     0.00000000    0.00000000    0.00000000
     atom   57 type  2   force =     0.00000000    0.00000000    0.00000000
     atom   58 type  2   force =     0.00000000    0.00000000    0.00000000
     atom   59 type  2   force =     0.00000000    0.00000000    0.00000000
     atom   60 type  2   force =     0.00000000    0.00000000    0.00000000
[...]
     atom  130 type  2   force =     0.00000000    0.00000000    0.00000000
     atom  131 type  2   force =     0.00000000    0.00000000    0.00000000
     atom  132 type  2   force =     0.00000000    0.00000000    0.00000000
     atom  133 type  2   force =     0.00000000    0.00000000    0.00000000
     atom  134 type  2   force =     0.00000000    0.00000000    0.00000000
     atom  135 type  2   force =     0.00000000    0.00000000    0.00000000
     atom  136 type  2   force =     0.00000000    0.00000000    0.00000000
     atom  137 type  2   force =     0.00000000    0.00000000    0.00000000
     atom  138 type  2   force =     0.00000000    0.00000000    0.00000000
     atom  139 type  2   force =     0.00000000    0.00000000    0.00000000
     atom  140 type  2   force =     0.00000000    0.00000000    0.00000000
     atom  141 type  2   force =     0.00000000    0.00000000    0.00000000
     atom  142 type  2   force =     0.00000000    0.00000000    0.00000000
     atom  143 type  2   force =     0.00000000    0.00000000    0.00000000
     atom  144 type  2   force =     0.00000000    0.00000000    0.00000000
     The SCF correction term to forces
     atom    1 type  1   force =    -0.00001041    0.00002637    0.00007867
     atom    2 type  1   force =    -0.00001005    0.00000317   -0.00004214
     atom    3 type  1   force =     0.00000869   -0.00001003   -0.00002605
     atom    4 type  1   force =     0.00006274   -0.00005670    0.00005984
     atom    5 type  1   force =     0.00002312   -0.00007484   -0.00003619
     atom    6 type  1   force =     0.00000972   -0.00000824   -0.00003844
     atom    7 type  1   force =     0.00005533    0.00000168    0.00004549
     atom    8 type  1   force =    -0.00002367   -0.00002226   -0.00000663
     atom    9 type  1   force =     0.00000489    0.00001700   -0.00004486
     atom   10 type  1   force =    -0.00002061    0.00007855    0.00006784
     atom   11 type  1   force =    -0.00005125    0.00005798   -0.00001835
     atom   12 type  1   force =    -0.00001233    0.00000898   -0.00004265
     atom   13 type  1   force =    -0.00008484   -0.00000442    0.00005639
     atom   14 type  1   force =    -0.00007845    0.00001697   -0.00001615
     atom   15 type  1   force =    -0.00000930   -0.00001855   -0.00002833
     atom   16 type  1   force =    -0.00007338   -0.00005219    0.00005628
     atom   17 type  1   force =    -0.00003154   -0.00007125   -0.00003037
     atom   18 type  1   force =    -0.00000097   -0.00000102   -0.00001204
     atom   19 type  1   force =    -0.00000083   -0.00003736    0.00002090
     atom   20 type  1   force =    -0.00000230   -0.00006395   -0.00002809
     atom   21 type  1   force =     0.00001190    0.00000356   -0.00002131
     atom   22 type  1   force =    -0.00000640   -0.00000170    0.00001949
     atom   23 type  1   force =    -0.00004961    0.00002444   -0.00001612
     atom   24 type  1   force =     0.00000145    0.00000028   -0.00004297
     atom   25 type  1   force =     0.00000976   -0.00004307    0.00003611
     atom   26 type  1   force =     0.00001131    0.00003307    0.00000744
     atom   27 type  1   force =     0.00000138   -0.00000859   -0.00006199
     atom   28 type  1   force =    -0.00006781   -0.00003245    0.00005460
     atom   29 type  1   force =    -0.00002113   -0.00001044    0.00002470
     atom   30 type  1   force =    -0.00000800   -0.00000720   -0.00003992
     atom   31 type  1   force =    -0.00005613    0.00001447    0.00004313
     atom   32 type  1   force =     0.00002636   -0.00001303   -0.00000275
     atom   33 type  1   force =    -0.00001308    0.00000505   -0.00002175
     atom   34 type  1   force =     0.00001767    0.00000546    0.00002331
     atom   35 type  1   force =     0.00005957    0.00003417   -0.00001902
     atom   36 type  1   force =     0.00000216    0.00000667   -0.00004004
     atom   37 type  1   force =     0.00008529   -0.00000694    0.00006648
     atom   38 type  1   force =     0.00007729    0.00001346   -0.00002666
     atom   39 type  1   force =    -0.00000156   -0.00000774   -0.00005907
     atom   40 type  1   force =     0.00007843   -0.00003593    0.00005883
     atom   41 type  1   force =     0.00002934   -0.00001668    0.00001856
     atom   42 type  1   force =    -0.00000076   -0.00001442   -0.00006581
     atom   43 type  1   force =     0.00000167    0.00005763    0.00006438
     atom   44 type  1   force =    -0.00000049    0.00002267    0.00002122
     atom   45 type  1   force =    -0.00000262    0.00001345   -0.00004806
     atom   46 type  1   force =     0.00000908    0.00008648    0.00007386
     atom   47 type  1   force =     0.00004154    0.00006588   -0.00002281
     atom   48 type  2   force =    -0.00000491    0.00008795    0.00008384
     atom   49 type  2   force =    -0.00001351    0.00008116    0.00002749
     atom   50 type  2   force =     0.00000127    0.00003104   -0.00009336
     atom   51 type  2   force =     0.00005919   -0.00000806    0.00009333
     atom   52 type  2   force =     0.00005822   -0.00003245    0.00001410
     atom   53 type  2   force =     0.00001394   -0.00000137   -0.00008586
     atom   54 type  2   force =     0.00009457   -0.00003607    0.00002445
     atom   55 type  2   force =     0.00004529   -0.00005651    0.00002370
     atom   56 type  2   force =    -0.00001028   -0.00001293   -0.00004994
     atom   57 type  2   force =     0.00002852    0.00005901    0.00001993
     atom   58 type  2   force =    -0.00002090    0.00004762    0.00003480
     atom   59 type  2   force =    -0.00000461   -0.00001199   -0.00006296
     atom   60 type  2   force =    -0.00003058    0.00002946    0.00004183
[...]
     atom  130 type  2   force =     0.00000542   -0.00001674    0.00001763
     atom  131 type  2   force =     0.00000358    0.00000155    0.00000957
     atom  132 type  2   force =    -0.00000790   -0.00000720   -0.00002526
     atom  133 type  2   force =     0.00007401   -0.00000246    0.00005053
     atom  134 type  2   force =     0.00005921    0.00004535   -0.00001906
     atom  135 type  2   force =     0.00000196   -0.00002184   -0.00008383
     atom  136 type  2   force =     0.00001123   -0.00003858    0.00009434
     atom  137 type  2   force =     0.00000543    0.00001453   -0.00000090
     atom  138 type  2   force =    -0.00001980   -0.00000960   -0.00007527
     atom  139 type  2   force =    -0.00004678    0.00001788    0.00009521
     atom  140 type  2   force =     0.00001583   -0.00000875   -0.00001055
     atom  141 type  2   force =    -0.00003084    0.00000562   -0.00002140
     atom  142 type  2   force =     0.00001622    0.00005512    0.00005215
     atom  143 type  2   force =     0.00006196    0.00003154   -0.00002624
     atom  144 type  2   force =     0.00001312    0.00002631   -0.00005359

     Total force =     0.005898     Total SCF correction =     0.000862
     SCF correction compared to forces is large: reduce conv_thr to get better values

     Computing stress (Cartesian axis) and pressure

[...]

          total   stress  (Ry/bohr**3)                   (kbar)     P=       -6.02
  -0.00004309   0.00000014  -0.00000017           -6.34        0.02       -0.02
   0.00000014  -0.00003863   0.00000132            0.02       -5.68        0.19
  -0.00000017   0.00000132  -0.00004096           -0.02        0.19       -6.03

     kinetic stress (kbar)  14938.52      0.01     -0.02
                                0.01  14943.26      2.58
                               -0.02      2.58  14950.52

     local   stress (kbar)  -7629.34     -3.01      1.17
                               -3.01  -7375.83    134.97
                                1.17    134.97   1395.69

     nonloc. stress (kbar)  -1007.90     -0.01     -0.01
                               -0.01  -1004.06      2.66
                               -0.01      2.66  -1012.97

     hartree stress (kbar)  12118.26      1.20     -0.34
                                1.20  12021.86    -53.70
                               -0.34    -53.70   8055.76

     exc-cor stress (kbar)   6973.16      0.00     -0.00
                                0.00   6972.97     -0.04
                               -0.00     -0.04   6972.00

     corecor stress (kbar) -11344.34      0.00      0.00
                                0.00 -11344.44     -0.06
                                0.00     -0.06 -11344.27

     ewald   stress (kbar) -14138.33      1.84     -0.83
                                1.84 -14303.16    -86.24
                               -0.83    -86.24 -19107.71

     hubbard stress (kbar)      0.00      0.00      0.00
                                0.00      0.00      0.00
                                0.00      0.00      0.00

     DFT-D   stress (kbar)      0.00      0.00      0.00
                                0.00      0.00      0.00
                                0.00      0.00      0.00

     XDM     stress (kbar)      0.00      0.00      0.00
                                0.00      0.00      0.00
                                0.00      0.00      0.00

     dft-nl  stress (kbar)     83.63     -0.00      0.00
                               -0.00     83.72      0.03
                                0.00      0.03     84.97

     TS-vdW  stress (kbar)      0.00      0.00      0.00
                                0.00      0.00      0.00
                                0.00      0.00      0.00

     MDB     stress (kbar)      0.00      0.00      0.00
                                0.00      0.00      0.00
                                0.00      0.00      0.00

     3D-RISM stress (kbar)      0.00      0.00      0.00
                                0.00      0.00      0.00
                                0.00      0.00      0.00

[...]

     Non-local corr. energy    =      69.34406469 Ry

 BEEFens 2000 ensemble energies
             -0.581524931343156E+02
             -0.585478278926044E+03
             -0.266486453795722E+03
              0.204435325114080E+03
             -0.447522644525081E+03
             -0.547944884324902E+03
              0.281209743741118E+03
              0.122830994253400E+01
              0.473936052439301E+03
             -0.300438217847227E+02
              0.242744618485776E+03
              0.248052021413574E+02
             -0.186296932299138E+02
             -0.150528925541262E+02
              0.302528874515130E+03
             -0.227737153509709E+03
             -0.447071231207538E+03
             -0.144328079978512E+03
              0.129330699075755E+03
             -0.275487166398671E+01
              0.659400746230985E+03
              0.550341840701702E+03
             -0.339069078411006E+03
              0.117114902238680E+03
             -0.706293308150226E+03
              0.579756126388013E+03
              0.198211896386387E+03
              0.523486617099446E+03
              0.352814260633218E+03
             -0.163760846904538E+03
              0.129111963851730E+03
             -0.230823883432633E+03
              0.964565728130858E+02
              0.351088958488361E+03
              0.377640693821137E+03
             -0.164205344167648E+03
              0.833241798355504E+03
             -0.335320337530232E+03
             -0.223394718172719E+03
              0.333270506441619E+03
              0.146944526770456E+03
              0.253192720713844E+03
             -0.489063785427798E+03
             -0.317283360976544E+02
              0.469247066581147E+03
              0.613358442487095E+03
             -0.622767336264466E+03
              0.399669304754327E+02
              0.215988943844694E+03
              0.139531562079528E+03
              0.243480224557531E+03
              0.534677768815660E+03
             -0.347197563006455E+03
             -0.337013391265810E+03
             -0.469537600128369E+03
             -0.680752448834705E+02
             -0.400652492067428E+03
              0.517429626516737E+02
             -0.577253631530753E+02
             -0.317687690693232E+03
[...]
              0.396683428687847E+03
              0.254198963681052E+03
              0.259103250331767E+03
             -0.479522516422850E+03
             -0.495338693825635E+03
             -0.111606290666868E+03
             -0.442711319869857E+03
              0.702828345830738E+03
              0.592032117575952E+03
              0.279247518833819E+03
              0.769815392484016E+03
             -0.384764380462464E+03
             -0.165631901524672E+03
             -0.238809413223960E+03
              0.665994870635249E+03

 BEEF-vdW xc energy contributions
            1 :    -6019.418827097692
            2 :     5515.674553822199
            3 :    -4656.907551900835
            4 :     3672.149532185774
            5 :    -2776.838763497703
            6 :     2103.455218141322
            7 :    -1680.068176527129
            8 :     1450.326866990950
            9 :    -1316.115425634673
           10 :     1184.636628814165
           11 :    -1003.823521408523
           12 :     773.7537144509515
           13 :    -532.1536888374158
           14 :     325.4487430910431
           15 :    -182.8154021296887
           16 :     105.1619101422839
           17 :    -70.16637747429559
           18 :     46.87251590755932
           19 :    -11.42934848325240
           20 :    -42.93628367820020
           21 :     105.5885066501169
           22 :    -157.2475476518885
           23 :     182.6082181782849
           24 :    -179.5159570441774
           25 :     159.8378980256457
           26 :    -142.3864202754694
           27 :     142.5508127670219
           28 :    -164.3593229835460
           29 :     198.8183687190103
           30 :    -229.0576454810043
           31 :    -517.4556380470112
           32 :    -372.1852485807249

     Writing all to output data dir ./PbI2.save/

     General routines

     Parallel routines

     PAW routines

   This run was terminated on:  11: 0:36  15Apr2024

   JOB DONE.