     Program PWSCF v.7.1 starts on 10Apr2024 at 11:53: 4

     Reading input from espresso.pwi
Warning: card &CELL ignored
Warning: card    CELL_DYNAMICS    = 'BFGS' ignored
Warning: card / ignored

     Current dimensions of program PWSCF are:
     Max number of different atomic species (ntypx) = 10
     Max number of k-points (npk) =  40000
     Max angular momentum in pseudopotentials (lmaxx) =  4
     file Pb.pbe-dn-kjpaw_psl.1.0.0.UPF: wavefunction(s)  6S 6P 5D renormalized
     file I.pbe-dn-kjpaw_psl.1.0.0.UPF: wavefunction(s)  5S 5P renormalized

     IMPORTANT: XC functional enforced from input :
     Exchange-correlation= BEEF-VDW
                           (   1   4  43  14   2   0   0)
     Any further DFT definition will be discarded
     Please, verify this is what you really want

     R & G space division:  proc/nbgrp/npool/nimage =     128
     Subspace diagonalization in iterative solution of the eigenvalue problem:
     a serial algorithm will be used

     Using Slab Decomposition

     bravais-lattice index     =            4
     lattice parameter (alat)  =      35.6120  a.u.
     unit-cell volume          =   45937.3577 (a.u.)^3
     number of atoms/cell      =          144
     number of atomic types    =            2
     number of electrons       =      2304.00
     number of Kohn-Sham states=         1382
     kinetic-energy cutoff     =      70.0000  Ry
     charge density cutoff     =     350.0000  Ry
     scf convergence threshold =      1.0E-07
     mixing beta               =       0.7000
     number of iterations used =            8  plain     mixing
     energy convergence thresh.=      1.0E-04
     force convergence thresh. =      1.0E-03
     Exchange-correlation= BEEF-VDW
                           (   1   4  43  14   2   0   0)
     nstep                     =           50

     celldm(1)=  35.612033  celldm(2)=   0.000000  celldm(3)=   1.174479
     celldm(4)=   0.000000  celldm(5)=   0.000000  celldm(6)=   0.000000

     crystal axes: (cart. coord. in units of alat)
               a(1) = (   1.000000   0.000000   0.000000 )
               a(2) = (  -0.500000   0.866025   0.000000 )
               a(3) = (   0.000000   0.000000   1.174479 )

     reciprocal axes: (cart. coord. in units 2 pi/alat)
               b(1) = (  1.000000  0.577350 -0.000000 )
               b(2) = (  0.000000  1.154701  0.000000 )
               b(3) = (  0.000000 -0.000000  0.851442 )

     PseudoPot. # 1 for Pb read from file:
     //group///packages/espresso/pseudo/psl_1.0.0/pslibrary.1.0.0/pbe/PSEUDOPOTENTIALS/Pb.pbe-dn-kjpaw_psl.1.0.0.UPF
     MD5 check sum: 39ab5b8a6bbd56b7735ad9f188aac93a
     Pseudo is Projector augmented-wave + core cor, Zval = 14.0
     Generated using 'atomic' code by A. Dal Corso  v.7.1
     Shape of augmentation charge: PSQ
     Using radial grid of 1281 points,  6 beta functions with:
                l(1) =   0
                l(2) =   0
                l(3) =   1
                l(4) =   1
                l(5) =   2
                l(6) =   2
     Q(r) pseudized with 0 coefficients

     PseudoPot. # 2 for I  read from file:
     //group///packages/espresso/pseudo/psl_1.0.0/pslibrary.1.0.0/pbe/PSEUDOPOTENTIALS/I.pbe-dn-kjpaw_psl.1.0.0.UPF
     MD5 check sum: bfa8781bc1224d19af3f3980e3fab11e
     Pseudo is Projector augmented-wave + core cor, Zval = 17.0
     Generated using 'atomic' code by A. Dal Corso  v.7.1
     Shape of augmentation charge: PSQ
     Using radial grid of 1247 points,  6 beta functions with:
                l(1) =   0
                l(2) =   0
                l(3) =   1
                l(4) =   1
                l(5) =   2
                l(6) =   2
     Q(r) pseudized with 0 coefficients

     atomic species   valence    mass     pseudopotential
        Pb            14.00   207.20000     Pb( 1.00)
        I             17.00   126.90447     I ( 1.00)

     No symmetry found

                                    s                        frac. trans.

      isym =  1     identity

 cryst.   s( 1) = (     1          0          0      )
                  (     0          1          0      )
                  (     0          0          1      )

 cart.    s( 1) = (  1.0000000  0.0000000  0.0000000 )
                  (  0.0000000  1.0000000  0.0000000 )
                  (  0.0000000  0.0000000  1.0000000 )

     point group C_1 (1)
     there are  1 classes
     the character table:

       E
A      1.00

     the symmetry operations in each class and the name of the first element:

     E        1
          identity

   Cartesian axes

     site n.     atom                  positions (alat units)
         1           Pb  tau(   1) = (   0.1250034   0.2164918   0.3914896  )
         2           Pb  tau(   2) = (   0.1250085   0.2164873   0.7829825  )
         3           Pb  tau(   3) = (   0.0000128   0.4329881   1.1744712  )
         4           Pb  tau(   4) = (   0.0000026   0.4329971   0.3914855  )
         5           Pb  tau(   5) = (   0.0000077   0.4329926   0.7829784  )
         6           Pb  tau(   6) = (  -0.1249881   0.6494934   1.1744671  )
         7           Pb  tau(   7) = (  -0.1249983   0.6495025   0.3914814  )
         8           Pb  tau(   8) = (  -0.1249932   0.6494980   0.7829742  )
         9           Pb  tau(   9) = (  -0.2499889   0.8659988   1.1744630  )
        10           Pb  tau(  10) = (  -0.2499991   0.8660078   0.3914773  )
        11           Pb  tau(  11) = (  -0.2499940   0.8660033   0.7829701  )
        12           Pb  tau(  12) = (   0.3750136   0.2164818   1.1744786  )
        13           Pb  tau(  13) = (   0.3750034   0.2164908   0.3914929  )
        14           Pb  tau(  14) = (   0.3750085   0.2164863   0.7829857  )
        15           Pb  tau(  15) = (   0.2500128   0.4329871   1.1744745  )
        16           Pb  tau(  16) = (   0.2500026   0.4329962   0.3914888  )
        17           Pb  tau(  17) = (   0.2500077   0.4329916   0.7829816  )
        18           Pb  tau(  18) = (   0.1250119   0.6494925   1.1744703  )
        19           Pb  tau(  19) = (   0.1250017   0.6495015   0.3914847  )
        20           Pb  tau(  20) = (   0.1250068   0.6494970   0.7829775  )
        21           Pb  tau(  21) = (   0.0000111   0.8659978   1.1744662  )
        22           Pb  tau(  22) = (   0.0000009   0.8660069   0.3914805  )
        23           Pb  tau(  23) = (   0.0000060   0.8660024   0.7829734  )
        24           Pb  tau(  24) = (   0.6250136   0.2164808   1.1744818  )
        25           Pb  tau(  25) = (   0.6250034   0.2164898   0.3914962  )
        26           Pb  tau(  26) = (   0.6250085   0.2164853   0.7829890  )
        27           Pb  tau(  27) = (   0.5000128   0.4329862   1.1744777  )
        28           Pb  tau(  28) = (   0.5000026   0.4329952   0.3914920  )
        29           Pb  tau(  29) = (   0.5000077   0.4329907   0.7829849  )
        30           Pb  tau(  30) = (   0.3750119   0.6494915   1.1744736  )
        31           Pb  tau(  31) = (   0.3750017   0.6495006   0.3914879  )
        32           Pb  tau(  32) = (   0.3750068   0.6494960   0.7829808  )
        33           Pb  tau(  33) = (   0.2500111   0.8659969   1.1744695  )
        34           Pb  tau(  34) = (   0.2500009   0.8660059   0.3914838  )
        35           Pb  tau(  35) = (   0.2500060   0.8660014   0.7829766  )
        36           Pb  tau(  36) = (   0.8750136   0.2164798   1.1744851  )
        37           Pb  tau(  37) = (   0.8750034   0.2164889   0.3914994  )
        38           Pb  tau(  38) = (   0.8750085   0.2164844   0.7829923  )
        39           Pb  tau(  39) = (   0.7500128   0.4329852   1.1744810  )
        40           Pb  tau(  40) = (   0.7500026   0.4329942   0.3914953  )
        41           Pb  tau(  41) = (   0.7500077   0.4329897   0.7829881  )
        42           Pb  tau(  42) = (   0.6250119   0.6494906   1.1744769  )
        43           Pb  tau(  43) = (   0.6250017   0.6494996   0.3914912  )
        44           Pb  tau(  44) = (   0.6250068   0.6494951   0.7829840  )
        45           Pb  tau(  45) = (   0.5000111   0.8659959   1.1744727  )
        46           Pb  tau(  46) = (   0.5000009   0.8660050   0.3914870  )
        47           Pb  tau(  47) = (   0.5000060   0.8660004   0.7829799  )
        48           I   tau(  48) = (   0.1250054   0.0721550   0.2909325  )
        49           I   tau(  49) = (   0.1250105   0.0721505   0.6824253  )
        50           I   tau(  50) = (   0.1250156   0.0721459   1.0739182  )
        51           I   tau(  51) = (   0.0000045   0.2886603   0.2909283  )
        52           I   tau(  52) = (   0.0000096   0.2886558   0.6824212  )
        53           I   tau(  53) = (   0.0000147   0.2886513   1.0739140  )
        54           I   tau(  54) = (  -0.1249963   0.5051657   0.2909242  )
        55           I   tau(  55) = (  -0.1249912   0.5051612   0.6824171  )
        56           I   tau(  56) = (  -0.1249861   0.5051566   1.0739099  )
        57           I   tau(  57) = (  -0.2499971   0.7216710   0.2909201  )
        58           I   tau(  58) = (  -0.2499920   0.7216665   0.6824129  )
        59           I   tau(  59) = (  -0.2499869   0.7216620   1.0739058  )
        60           I   tau(  60) = (   0.3750054   0.0721540   0.2909357  )
[...]
       130           I   tau( 130) = (   0.1250009   0.7938394   0.4920425  )
       131           I   tau( 131) = (   0.1250060   0.7938348   0.8835353  )
       132           I   tau( 132) = (   0.7499983   0.1443268   0.1005653  )
       133           I   tau( 133) = (   0.7500034   0.1443223   0.4920581  )
       134           I   tau( 134) = (   0.7500085   0.1443178   0.8835509  )
       135           I   tau( 135) = (   0.6249975   0.3608322   0.1005611  )
       136           I   tau( 136) = (   0.6250026   0.3608277   0.4920540  )
       137           I   tau( 137) = (   0.6250077   0.3608232   0.8835468  )
       138           I   tau( 138) = (   0.4999966   0.5773376   0.1005570  )
       139           I   tau( 139) = (   0.5000017   0.5773330   0.4920499  )
       140           I   tau( 140) = (   0.5000068   0.5773285   0.8835427  )
       141           I   tau( 141) = (   0.3749958   0.7938429   0.1005529  )
       142           I   tau( 142) = (   0.3750009   0.7938384   0.4920457  )
       143           I   tau( 143) = (   0.3750060   0.7938339   0.8835386  )
       144           I   tau( 144) = (   0.1250136   0.2164827   1.1744753  )

   Crystallographic axes

     site n.     atom                  positions (cryst. coord.)
         1           Pb  tau(   1) = (  0.2499950  0.2499832  0.3333306  )
         2           Pb  tau(   2) = (  0.2499975  0.2499780  0.6666639  )
         3           Pb  tau(   3) = (  0.2499986  0.4999716  0.9999938  )
         4           Pb  tau(   4) = (  0.2499936  0.4999820  0.3333271  )
         5           Pb  tau(   5) = (  0.2499961  0.4999768  0.6666604  )
         6           Pb  tau(   6) = (  0.2499972  0.7499704  0.9999902  )
         7           Pb  tau(   7) = (  0.2499922  0.7499809  0.3333236  )
         8           Pb  tau(   8) = (  0.2499947  0.7499757  0.6666569  )
[...]
     atom   55 type  2   force =     0.00000000    0.00000000    0.00000000
     atom   56 type  2   force =     0.00000000    0.00000000    0.00000000
     atom   57 type  2   force =     0.00000000    0.00000000    0.00000000
     atom   58 type  2   force =     0.00000000    0.00000000    0.00000000
     atom   59 type  2   force =     0.00000000    0.00000000    0.00000000
     atom   60 type  2   force =     0.00000000    0.00000000    0.00000000
[...]
     atom  130 type  2   force =     0.00000000    0.00000000    0.00000000
     atom  131 type  2   force =     0.00000000    0.00000000    0.00000000
     atom  132 type  2   force =     0.00000000    0.00000000    0.00000000
     atom  133 type  2   force =     0.00000000    0.00000000    0.00000000
     atom  134 type  2   force =     0.00000000    0.00000000    0.00000000
     atom  135 type  2   force =     0.00000000    0.00000000    0.00000000
     atom  136 type  2   force =     0.00000000    0.00000000    0.00000000
     atom  137 type  2   force =     0.00000000    0.00000000    0.00000000
     atom  138 type  2   force =     0.00000000    0.00000000    0.00000000
     atom  139 type  2   force =     0.00000000    0.00000000    0.00000000
     atom  140 type  2   force =     0.00000000    0.00000000    0.00000000
     atom  141 type  2   force =     0.00000000    0.00000000    0.00000000
     atom  142 type  2   force =     0.00000000    0.00000000    0.00000000
     atom  143 type  2   force =     0.00000000    0.00000000    0.00000000
     atom  144 type  2   force =     0.00000000    0.00000000    0.00000000
     The SCF correction term to forces
     atom    1 type  1   force =     0.00000266   -0.00001697    0.00001028
     atom    2 type  1   force =     0.00000662   -0.00001562    0.00000538
     atom    3 type  1   force =    -0.00001120   -0.00000020   -0.00002101
     atom    4 type  1   force =    -0.00003266    0.00001604    0.00001602
     atom    5 type  1   force =    -0.00001077    0.00002768   -0.00000312
     atom    6 type  1   force =    -0.00001389    0.00001003   -0.00001155
     atom    7 type  1   force =    -0.00002979    0.00000335    0.00001579
     atom    8 type  1   force =    -0.00000605    0.00001237   -0.00000446
     atom    9 type  1   force =    -0.00001462    0.00000281   -0.00001493
     atom   10 type  1   force =     0.00000311   -0.00003512    0.00001497
     atom   11 type  1   force =     0.00000648   -0.00002671    0.00000353
     atom   12 type  1   force =     0.00000005   -0.00001126   -0.00000401
     atom   13 type  1   force =     0.00003254   -0.00000041    0.00001381
     atom   14 type  1   force =     0.00002269   -0.00001150   -0.00000128
     atom   15 type  1   force =     0.00001648    0.00000599   -0.00001651
     atom   16 type  1   force =     0.00003576    0.00001617    0.00002030
     atom   17 type  1   force =     0.00001732    0.00002577   -0.00000387
     atom   18 type  1   force =    -0.00000026    0.00002965    0.00000142
     atom   19 type  1   force =    -0.00000005    0.00002359    0.00002707
     atom   20 type  1   force =     0.00000171    0.00002068    0.00000470
     atom   21 type  1   force =     0.00001201   -0.00000714    0.00000304
     atom   22 type  1   force =     0.00000068    0.00000059    0.00002392
     atom   23 type  1   force =     0.00000476   -0.00000865    0.00000557
     atom   24 type  1   force =    -0.00000175    0.00000021   -0.00000586
     atom   25 type  1   force =    -0.00000417    0.00001510    0.00000974
     atom   26 type  1   force =    -0.00000492   -0.00000676   -0.00000483
     atom   27 type  1   force =     0.00002421    0.00001323   -0.00002413
     atom   28 type  1   force =     0.00002543    0.00001553    0.00000764
     atom   29 type  1   force =     0.00001311    0.00001464   -0.00001770
     atom   30 type  1   force =     0.00001418    0.00000739   -0.00001296
     atom   31 type  1   force =     0.00003061   -0.00000117    0.00001676
     atom   32 type  1   force =     0.00000550    0.00000716   -0.00000428
     atom   33 type  1   force =    -0.00001277   -0.00000724    0.00000662
     atom   34 type  1   force =    -0.00000396   -0.00000171    0.00001984
     atom   35 type  1   force =    -0.00000921   -0.00001313    0.00000458
     atom   36 type  1   force =    -0.00000245   -0.00000615   -0.00001386
     atom   37 type  1   force =    -0.00003119    0.00000084    0.00000871
     atom   38 type  1   force =    -0.00002426   -0.00001145   -0.00000284
     atom   39 type  1   force =    -0.00002904    0.00001567   -0.00002010
     atom   40 type  1   force =    -0.00002896    0.00001696    0.00000450
     atom   41 type  1   force =    -0.00001961    0.00001721   -0.00001967
     atom   42 type  1   force =    -0.00000007   -0.00000990   -0.00002786
     atom   43 type  1   force =    -0.00000075   -0.00001461    0.00000938
     atom   44 type  1   force =    -0.00000111   -0.00000116   -0.00001687
     atom   45 type  1   force =     0.00001512   -0.00000852   -0.00002085
     atom   46 type  1   force =     0.00000027   -0.00003763    0.00001427
     atom   47 type  1   force =    -0.00000235   -0.00003292    0.00000158
     atom   48 type  2   force =     0.00000613   -0.00003631   -0.00000724
     atom   49 type  2   force =     0.00000491   -0.00004138    0.00000977
     atom   50 type  2   force =    -0.00000092   -0.00002023    0.00000107
     atom   51 type  2   force =    -0.00002760   -0.00000367   -0.00000289
     atom   52 type  2   force =    -0.00001861    0.00000241    0.00000362
     atom   53 type  2   force =     0.00000029   -0.00001680   -0.00001337
     atom   54 type  2   force =    -0.00004665    0.00001495    0.00001376
     atom   55 type  2   force =    -0.00002563    0.00002495   -0.00000165
     atom   56 type  2   force =    -0.00002667    0.00001810   -0.00001866
     atom   57 type  2   force =    -0.00001420   -0.00002197    0.00001970
     atom   58 type  2   force =    -0.00000671   -0.00001336    0.00000276
     atom   59 type  2   force =    -0.00001402   -0.00000482   -0.00001908
     atom   60 type  2   force =     0.00000757   -0.00001151   -0.00000202
[...]
     atom  130 type  2   force =    -0.00000346    0.00000953    0.00002925
     atom  131 type  2   force =    -0.00000194    0.00000157   -0.00001841
     atom  132 type  2   force =    -0.00002164   -0.00000985    0.00000017
     atom  133 type  2   force =    -0.00002041    0.00000179    0.00001415
     atom  134 type  2   force =    -0.00001913   -0.00001656   -0.00001024
     atom  135 type  2   force =    -0.00000063    0.00000688    0.00000141
     atom  136 type  2   force =    -0.00000470    0.00001978    0.00000150
     atom  137 type  2   force =    -0.00000505    0.00000750    0.00000017
     atom  138 type  2   force =     0.00001626    0.00000465   -0.00000025
     atom  139 type  2   force =     0.00002298    0.00000158    0.00000430
     atom  140 type  2   force =     0.00000884    0.00001309   -0.00000530
     atom  141 type  2   force =     0.00000135   -0.00000418   -0.00000797
     atom  142 type  2   force =     0.00001031   -0.00001849    0.00001805
     atom  143 type  2   force =    -0.00000195   -0.00001340   -0.00001270
     atom  144 type  2   force =     0.00000496   -0.00003738   -0.00002209

     Total force =     0.019376     Total SCF correction =     0.000327

     Computing stress (Cartesian axis) and pressure

[...]

          total   stress  (Ry/bohr**3)                   (kbar)     P=       -5.63
  -0.00004103  -0.00000033   0.00000063           -6.04       -0.05        0.09
  -0.00000033  -0.00003598   0.00000162           -0.05       -5.29        0.24
   0.00000063   0.00000162  -0.00003787            0.09        0.24       -5.57

     kinetic stress (kbar)  14938.47     -0.04      0.07
                               -0.04  14943.26      2.60
                                0.07      2.60  14951.15

     local   stress (kbar)  -7738.17      3.02     -8.42
                                3.02  -7486.91    131.60
                               -8.42    131.60   1543.76

     nonloc. stress (kbar)  -1007.70     -0.01     -0.02
                               -0.01  -1003.86      2.63
                               -0.02      2.63  -1012.52

     hartree stress (kbar)  12168.32     -0.88      3.19
                               -0.88  12072.46    -52.45
                                3.19    -52.45   7990.76

     exc-cor stress (kbar)   6973.11     -0.01      0.01
                               -0.01   6972.93     -0.04
                                0.01     -0.04   6971.89

     corecor stress (kbar) -11344.35      0.00     -0.00
                                0.00 -11344.45     -0.06
                               -0.00     -0.06 -11344.31

     ewald   stress (kbar) -14079.33     -2.14      5.26
                               -2.14 -14242.42    -84.07
                                5.26    -84.07 -19191.30

     hubbard stress (kbar)      0.00      0.00      0.00
                                0.00      0.00      0.00
                                0.00      0.00      0.00

     DFT-D   stress (kbar)      0.00      0.00      0.00
                                0.00      0.00      0.00
                                0.00      0.00      0.00

     XDM     stress (kbar)      0.00      0.00      0.00
                                0.00      0.00      0.00
                                0.00      0.00      0.00

     dft-nl  stress (kbar)     83.61      0.00     -0.00
                                0.00     83.70      0.03
                               -0.00      0.03     85.00

     TS-vdW  stress (kbar)      0.00      0.00      0.00
                                0.00      0.00      0.00
                                0.00      0.00      0.00

     MDB     stress (kbar)      0.00      0.00      0.00
                                0.00      0.00      0.00
                                0.00      0.00      0.00

     3D-RISM stress (kbar)      0.00      0.00      0.00
                                0.00      0.00      0.00
                                0.00      0.00      0.00

     Energy error            =      8.9E-04 Ry
     Gradient error          =      4.1E-03 Ry/Bohr

     number of scf cycles    =  39
     number of bfgs steps    =  38

     energy             old  =  -96802.2363850687 Ry
     energy             new  =  -96802.2372753474 Ry

     CASE: energy            _new < energy            _old

     new trust radius        =       0.0381330449 bohr
     new conv_thr            =       0.0000000041 Ry

ATOMIC_POSITIONS (angstrom)
Pb            2.3566742574        4.0807778930        7.4039820142
Pb            2.3547630115        4.0784805508       14.7292802824
Pb            0.0522832639        8.2642032458       22.2577855996
Pb           -0.0082334915        8.1591460997        7.3907640914
Pb            0.0016736948        8.1627861919       14.7493879517
Pb           -2.3554912438       12.2406635189       22.1329211992
Pb           -2.3568743064       12.2379200561        7.3782170845
Pb           -2.3541636966       12.2414253882       14.7551614514
Pb           -4.7637476175       16.2186410799       22.0106255887
Pb           -4.7123486222       16.3167758588        7.3839135834
Pb           -4.7031297445       16.3200808076       14.7422118046
Pb            7.2085215200        4.0780421179       22.1367386016
Pb            7.0647488478        4.0810458413        7.3830252390
Pb            7.0630969593        4.0792075446       14.7532430738
Pb            4.6704631883        8.2752747509       22.2557878334
Pb            4.7210409623        8.1579561649        7.3891507957
Pb            4.7082866012        8.1619582538       14.7543123244
Pb            2.3529011175       12.2683710156       22.1117482129
Pb            2.3547672766       12.2378024347        7.3227985038
Pb            2.3549050749       12.2401047175       14.7335048234
Pb           -0.0101960993       16.2869663964       22.1203438040
Pb           -0.0042764475       16.3223849165        7.2990824116
Pb            0.0010903911       16.3182315398       14.7306437197
Pb           11.7789697927        4.0793263516       22.1322912590
Pb           11.7788466772        4.0804629876        7.3793403222
Pb           11.7777009700        4.0788162798       14.7543601838
Pb            9.4179182215        8.1929074151       22.1476219053
Pb            9.4241870085        8.1609501911        7.4007538617
Pb            9.4191472860        8.1562651707       14.8314003634
Pb            7.0667946457       12.2398002928       22.1326784027
Pb            7.0687828261       12.2381419535        7.3755965832
Pb            7.0649721002       12.2413526251       14.7580939112
Pb            4.7168899698       16.2862631937       22.1170704338
Pb            4.7149186434       16.3232657768        7.3020568783
Pb            4.7094530870       16.3187167185       14.7326452545
Pb           16.3507459176        4.0810510702       22.1288577401
Pb           16.4933457233        4.0801310224        7.3793857604
Pb           16.4922672389        4.0776802273       14.7508523172
Pb           14.1441885146        8.1914624350       22.1447789861
Pb           14.1325685204        8.1614278746        7.4024257855
Pb           14.1382195992        8.1570203200       14.8344375998
Pb           11.7814785041       12.2108807686       22.1533912887
Pb           11.7788471334       12.2395650529        7.3997610506
Pb           11.7790614279       12.2415065248       14.8106169927
Pb            9.4643667586       16.2040139497       22.0089584094
Pb            9.4260226599       16.3176210008        7.3790434588
Pb            9.4131629769       16.3216777080       14.7450884387
I             2.3601381089        1.3668479511        5.5120854930
I             2.3553242963        1.3564388432       12.8612853243
I             2.3505706107        0.8899513182       19.9953929032
I             0.0103564831        5.4382061240        5.5153318038
I            -0.0020030246        5.4413093800       12.8569110451
I             0.2684003318        5.2709040285       20.3024181453
I            -2.3642114781        9.5080133653        5.5088058897
I            -2.3829657135        9.5056375671       12.8952865518
I            -2.3299183892        9.5034857051       20.2674261186
I            -4.7225157149       13.5981091682        5.5077975578
I            -4.7263166950       13.5881287126       12.8855216523
I            -4.6938141597       13.5815927308       20.2331325419
I             7.0058255544        1.3960353063        5.4538594337
[...]
I             2.3561951998       14.9789148687        9.1766832836
I             2.3554198281       14.9609843946       16.6119782991
I            14.1745340071        2.7465207902        1.8922597898
I            14.1351480676        2.6953799239        9.2394129692
I            14.1385799578        2.7079433204       16.6223917532
I            11.7778311421        6.7973263122        1.8648149909
I            11.7772200048        6.7920021496        9.2853682712
I            11.7758484821        6.7535822882       16.6887526541
I             9.4274823520       10.8781745269        1.8837240796
I             9.4170013752       10.8834097005        9.2840077709
I             9.3925611718       10.9058925012       16.6738785048
I             7.0899285372       14.9696500411        1.8670063715
I             7.0470259409       14.9734247278        9.2350150828
I             7.0588326377       14.9718133181       16.6262543454
I             2.3559562852        4.0820556871       22.1321010514

     Writing config-only to output data dir ./PbI2.save/
     NEW-OLD atomic charge density approx. for the potential

     Check: negative core charge=   -0.000001

[...]

     Self-consistent Calculation

[...]

     Threshold (ethr) on eigenvalues was too large:
     Diagonalizing with lowered threshold

     Davidson diagonalization with overlap

[...]

     ethr =  6.47E-08,  avg # of iterations = 18.0

     Non-local corr. energy    =      69.33845192 Ry

     total energy              =  -96802.23815894 Ry
     estimated scf accuracy    <       0.00063202 Ry

     iteration #  5     ecut=    70.00 Ry     beta= 0.70
     Davidson diagonalization with overlap

     max_seconds     =  154800.00
     Calculation stopped in k-point loop, point #     1
     Calculation stopped in scf loop at iteration #     4

     Writing config to output data dir ./PbI2.save/
     Message from routine punch:
     wavefunctions written to file

     General routines

     Parallel routines

     PAW routines

   This run was terminated on:   6:56:15  12Apr2024

   JOB DONE.