     Program PWSCF v.7.1 starts on 24Mar2024 at 21:31:13

     Reading input from espresso.pwi
Warning: card &CELL ignored
Warning: card    CELL_DYNAMICS    = 'BFGS' ignored
Warning: card / ignored

     Current dimensions of program PWSCF are:
     Max number of different atomic species (ntypx) = 10
     Max number of k-points (npk) =  40000
     Max angular momentum in pseudopotentials (lmaxx) =  4
     file Pb.pbe-dn-kjpaw_psl.1.0.0.UPF: wavefunction(s)  6S 6P 5D renormalized
     file I.pbe-dn-kjpaw_psl.1.0.0.UPF: wavefunction(s)  5S 5P renormalized

     IMPORTANT: XC functional enforced from input :
     Exchange-correlation= BEEF-VDW
                           (   1   4  43  14   2   0   0)
     Any further DFT definition will be discarded
     Please, verify this is what you really want

     R & G space division:  proc/nbgrp/npool/nimage =     128
     Subspace diagonalization in iterative solution of the eigenvalue problem:
     a serial algorithm will be used

     Using Slab Decomposition

     bravais-lattice index     =            4
     lattice parameter (alat)  =      35.6120  a.u.
     unit-cell volume          =   45937.3577 (a.u.)^3
     number of atoms/cell      =          144
     number of atomic types    =            2
     number of electrons       =      2304.00
     number of Kohn-Sham states=         1382
     kinetic-energy cutoff     =      70.0000  Ry
     charge density cutoff     =     350.0000  Ry
     scf convergence threshold =      1.0E-07
     mixing beta               =       0.7000
     number of iterations used =            8  plain     mixing
     energy convergence thresh.=      1.0E-04
     force convergence thresh. =      1.0E-03
     Exchange-correlation= BEEF-VDW
                           (   1   4  43  14   2   0   0)
     nstep                     =           50

     celldm(1)=  35.612033  celldm(2)=   0.000000  celldm(3)=   1.174479
     celldm(4)=   0.000000  celldm(5)=   0.000000  celldm(6)=   0.000000

     crystal axes: (cart. coord. in units of alat)
               a(1) = (   1.000000   0.000000   0.000000 )
               a(2) = (  -0.500000   0.866025   0.000000 )
               a(3) = (   0.000000   0.000000   1.174479 )

     reciprocal axes: (cart. coord. in units 2 pi/alat)
               b(1) = (  1.000000  0.577350 -0.000000 )
               b(2) = (  0.000000  1.154701  0.000000 )
               b(3) = (  0.000000 -0.000000  0.851442 )

     PseudoPot. # 1 for Pb read from file:
     /trace/group/acmegroup/atimmins/packages/espresso/pseudo/psl_1.0.0/pslibrary.1.0.0/pbe/PSEUDOPOTENTIALS/Pb.pbe-dn-kjpaw_psl.1.0.0.UPF
     MD5 check sum: 39ab5b8a6bbd56b7735ad9f188aac93a
     Pseudo is Projector augmented-wave + core cor, Zval = 14.0
     Generated using 'atomic' code by A. Dal Corso  v.7.1
     Shape of augmentation charge: PSQ
     Using radial grid of 1281 points,  6 beta functions with:
                l(1) =   0
                l(2) =   0
                l(3) =   1
                l(4) =   1
                l(5) =   2
                l(6) =   2
     Q(r) pseudized with 0 coefficients

     PseudoPot. # 2 for I  read from file:
     /trace/group/acmegroup/atimmins/packages/espresso/pseudo/psl_1.0.0/pslibrary.1.0.0/pbe/PSEUDOPOTENTIALS/I.pbe-dn-kjpaw_psl.1.0.0.UPF
     MD5 check sum: bfa8781bc1224d19af3f3980e3fab11e
     Pseudo is Projector augmented-wave + core cor, Zval = 17.0
     Generated using 'atomic' code by A. Dal Corso  v.7.1
     Shape of augmentation charge: PSQ
     Using radial grid of 1247 points,  6 beta functions with:
                l(1) =   0
                l(2) =   0
                l(3) =   1
                l(4) =   1
                l(5) =   2
                l(6) =   2
     Q(r) pseudized with 0 coefficients

     atomic species   valence    mass     pseudopotential
        Pb            14.00   207.20000     Pb( 1.00)
        I             17.00   126.90447     I ( 1.00)

     No symmetry found

                                    s                        frac. trans.

      isym =  1     identity

 cryst.   s( 1) = (     1          0          0      )
                  (     0          1          0      )
                  (     0          0          1      )

 cart.    s( 1) = (  1.0000000  0.0000000  0.0000000 )
                  (  0.0000000  1.0000000  0.0000000 )
                  (  0.0000000  0.0000000  1.0000000 )

     point group C_1 (1)
     there are  1 classes
     the character table:

       E
A      1.00

     the symmetry operations in each class and the name of the first element:

     E        1
          identity

   Cartesian axes

     site n.     atom                  positions (alat units)
         1           Pb  tau(   1) = (   0.1250034   0.2164918   0.3914896  )
         2           Pb  tau(   2) = (   0.1250085   0.2164873   0.7829825  )
         3           Pb  tau(   3) = (   0.0000128   0.4329881   1.1744712  )
         4           Pb  tau(   4) = (   0.0000026   0.4329971   0.3914855  )
         5           Pb  tau(   5) = (   0.0000077   0.4329926   0.7829784  )
         6           Pb  tau(   6) = (  -0.1249881   0.6494934   1.1744671  )
         7           Pb  tau(   7) = (  -0.1249983   0.6495025   0.3914814  )
         8           Pb  tau(   8) = (  -0.1249932   0.6494980   0.7829742  )
         9           Pb  tau(   9) = (  -0.2499889   0.8659988   1.1744630  )
        10           Pb  tau(  10) = (  -0.2499991   0.8660078   0.3914773  )
        11           Pb  tau(  11) = (  -0.2499940   0.8660033   0.7829701  )
        12           Pb  tau(  12) = (   0.3750136   0.2164818   1.1744786  )
        13           Pb  tau(  13) = (   0.3750034   0.2164908   0.3914929  )
        14           Pb  tau(  14) = (   0.3750085   0.2164863   0.7829857  )
        15           Pb  tau(  15) = (   0.2500128   0.4329871   1.1744745  )
        16           Pb  tau(  16) = (   0.2500026   0.4329962   0.3914888  )
        17           Pb  tau(  17) = (   0.2500077   0.4329916   0.7829816  )
        18           Pb  tau(  18) = (   0.1250119   0.6494925   1.1744703  )
        19           Pb  tau(  19) = (   0.1250017   0.6495015   0.3914847  )
        20           Pb  tau(  20) = (   0.1250068   0.6494970   0.7829775  )
        21           Pb  tau(  21) = (   0.0000111   0.8659978   1.1744662  )
        22           Pb  tau(  22) = (   0.0000009   0.8660069   0.3914805  )
        23           Pb  tau(  23) = (   0.0000060   0.8660024   0.7829734  )
        24           Pb  tau(  24) = (   0.6250136   0.2164808   1.1744818  )
        25           Pb  tau(  25) = (   0.6250034   0.2164898   0.3914962  )
        26           Pb  tau(  26) = (   0.6250085   0.2164853   0.7829890  )
        27           Pb  tau(  27) = (   0.5000128   0.4329862   1.1744777  )
        28           Pb  tau(  28) = (   0.5000026   0.4329952   0.3914920  )
        29           Pb  tau(  29) = (   0.5000077   0.4329907   0.7829849  )
        30           Pb  tau(  30) = (   0.3750119   0.6494915   1.1744736  )
        31           Pb  tau(  31) = (   0.3750017   0.6495006   0.3914879  )
        32           Pb  tau(  32) = (   0.3750068   0.6494960   0.7829808  )
        33           Pb  tau(  33) = (   0.2500111   0.8659969   1.1744695  )
        34           Pb  tau(  34) = (   0.2500009   0.8660059   0.3914838  )
        35           Pb  tau(  35) = (   0.2500060   0.8660014   0.7829766  )
        36           Pb  tau(  36) = (   0.8750136   0.2164798   1.1744851  )
        37           Pb  tau(  37) = (   0.8750034   0.2164889   0.3914994  )
        38           Pb  tau(  38) = (   0.8750085   0.2164844   0.7829923  )
        39           Pb  tau(  39) = (   0.7500128   0.4329852   1.1744810  )
        40           Pb  tau(  40) = (   0.7500026   0.4329942   0.3914953  )
        41           Pb  tau(  41) = (   0.7500077   0.4329897   0.7829881  )
        42           Pb  tau(  42) = (   0.6250119   0.6494906   1.1744769  )
        43           Pb  tau(  43) = (   0.6250017   0.6494996   0.3914912  )
        44           Pb  tau(  44) = (   0.6250068   0.6494951   0.7829840  )
        45           Pb  tau(  45) = (   0.5000111   0.8659959   1.1744727  )
        46           Pb  tau(  46) = (   0.5000009   0.8660050   0.3914870  )
        47           Pb  tau(  47) = (   0.5000060   0.8660004   0.7829799  )
        48           I   tau(  48) = (   0.1250054   0.0721550   0.2909325  )
        49           I   tau(  49) = (   0.1250105   0.0721505   0.6824253  )
        50           I   tau(  50) = (   0.1250156   0.0721459   1.0739182  )
        51           I   tau(  51) = (   0.0000045   0.2886603   0.2909283  )
        52           I   tau(  52) = (   0.0000096   0.2886558   0.6824212  )
        53           I   tau(  53) = (   0.0000147   0.2886513   1.0739140  )
        54           I   tau(  54) = (  -0.1249963   0.5051657   0.2909242  )
        55           I   tau(  55) = (  -0.1249912   0.5051612   0.6824171  )
        56           I   tau(  56) = (  -0.1249861   0.5051566   1.0739099  )
        57           I   tau(  57) = (  -0.2499971   0.7216710   0.2909201  )
        58           I   tau(  58) = (  -0.2499920   0.7216665   0.6824129  )
        59           I   tau(  59) = (  -0.2499869   0.7216620   1.0739058  )
        60           I   tau(  60) = (   0.3750054   0.0721540   0.2909357  )
[...]
       130           I   tau( 130) = (   0.1250009   0.7938394   0.4920425  )
       131           I   tau( 131) = (   0.1250060   0.7938348   0.8835353  )
       132           I   tau( 132) = (   0.7499983   0.1443268   0.1005653  )
       133           I   tau( 133) = (   0.7500034   0.1443223   0.4920581  )
       134           I   tau( 134) = (   0.7500085   0.1443178   0.8835509  )
       135           I   tau( 135) = (   0.6249975   0.3608322   0.1005611  )
       136           I   tau( 136) = (   0.6250026   0.3608277   0.4920540  )
       137           I   tau( 137) = (   0.6250077   0.3608232   0.8835468  )
       138           I   tau( 138) = (   0.4999966   0.5773376   0.1005570  )
       139           I   tau( 139) = (   0.5000017   0.5773330   0.4920499  )
       140           I   tau( 140) = (   0.5000068   0.5773285   0.8835427  )
       141           I   tau( 141) = (   0.3749958   0.7938429   0.1005529  )
       142           I   tau( 142) = (   0.3750009   0.7938384   0.4920457  )
       143           I   tau( 143) = (   0.3750060   0.7938339   0.8835386  )
       144           I   tau( 144) = (   0.1250136   0.2164827   1.1744753  )

   Crystallographic axes

     site n.     atom                  positions (cryst. coord.)
         1           Pb  tau(   1) = (  0.2499950  0.2499832  0.3333306  )
         2           Pb  tau(   2) = (  0.2499975  0.2499780  0.6666639  )
         3           Pb  tau(   3) = (  0.2499986  0.4999716  0.9999938  )
         4           Pb  tau(   4) = (  0.2499936  0.4999820  0.3333271  )
         5           Pb  tau(   5) = (  0.2499961  0.4999768  0.6666604  )
         6           Pb  tau(   6) = (  0.2499972  0.7499704  0.9999902  )
         7           Pb  tau(   7) = (  0.2499922  0.7499809  0.3333236  )
[...]
     atom   56 type  2   force =     0.00000000    0.00000000    0.00000000
     atom   57 type  2   force =     0.00000000    0.00000000    0.00000000
     atom   58 type  2   force =     0.00000000    0.00000000    0.00000000
     atom   59 type  2   force =     0.00000000    0.00000000    0.00000000
     atom   60 type  2   force =     0.00000000    0.00000000    0.00000000
[...]
     atom  130 type  2   force =     0.00000000    0.00000000    0.00000000
     atom  131 type  2   force =     0.00000000    0.00000000    0.00000000
     atom  132 type  2   force =     0.00000000    0.00000000    0.00000000
     atom  133 type  2   force =     0.00000000    0.00000000    0.00000000
     atom  134 type  2   force =     0.00000000    0.00000000    0.00000000
     atom  135 type  2   force =     0.00000000    0.00000000    0.00000000
     atom  136 type  2   force =     0.00000000    0.00000000    0.00000000
     atom  137 type  2   force =     0.00000000    0.00000000    0.00000000
     atom  138 type  2   force =     0.00000000    0.00000000    0.00000000
     atom  139 type  2   force =     0.00000000    0.00000000    0.00000000
     atom  140 type  2   force =     0.00000000    0.00000000    0.00000000
     atom  141 type  2   force =     0.00000000    0.00000000    0.00000000
     atom  142 type  2   force =     0.00000000    0.00000000    0.00000000
     atom  143 type  2   force =     0.00000000    0.00000000    0.00000000
     atom  144 type  2   force =     0.00000000    0.00000000    0.00000000
     The SCF correction term to forces
     atom    1 type  1   force =     0.00000082    0.00000103   -0.00001332
     atom    2 type  1   force =    -0.00000085   -0.00000248    0.00002219
     atom    3 type  1   force =     0.00001012   -0.00002034   -0.00000508
     atom    4 type  1   force =     0.00000265   -0.00000158   -0.00000669
     atom    5 type  1   force =     0.00000043   -0.00000202    0.00001539
     atom    6 type  1   force =    -0.00000033    0.00000056   -0.00000790
     atom    7 type  1   force =     0.00000145    0.00000186   -0.00000033
     atom    8 type  1   force =    -0.00000071   -0.00000019    0.00000783
     atom    9 type  1   force =    -0.00001245    0.00001961   -0.00001425
     atom   10 type  1   force =     0.00000014    0.00000136   -0.00000735
     atom   11 type  1   force =    -0.00000325    0.00000226    0.00001494
     atom   12 type  1   force =    -0.00001959   -0.00000301   -0.00000768
     atom   13 type  1   force =    -0.00000312   -0.00000023   -0.00000985
     atom   14 type  1   force =    -0.00000510   -0.00000157    0.00001398
     atom   15 type  1   force =    -0.00001484   -0.00002227   -0.00000341
     atom   16 type  1   force =     0.00000038    0.00000164   -0.00000251
     atom   17 type  1   force =    -0.00000017    0.00000172    0.00000759
     atom   18 type  1   force =    -0.00000391   -0.00000948   -0.00000816
     atom   19 type  1   force =     0.00000415    0.00000080    0.00000520
     atom   20 type  1   force =     0.00000318   -0.00000233    0.00000109
     atom   21 type  1   force =    -0.00001133    0.00000630   -0.00000798
     atom   22 type  1   force =    -0.00000025   -0.00000122   -0.00000356
     atom   23 type  1   force =    -0.00000317   -0.00000032    0.00000695
     atom   24 type  1   force =    -0.00000001   -0.00000029   -0.00000746
     atom   25 type  1   force =    -0.00000144   -0.00000232   -0.00000304
     atom   26 type  1   force =     0.00000147    0.00000022    0.00001025
     atom   27 type  1   force =    -0.00000632   -0.00000786   -0.00000428
     atom   28 type  1   force =    -0.00000564    0.00000218    0.00000360
     atom   29 type  1   force =    -0.00000132    0.00000585    0.00000202
     atom   30 type  1   force =     0.00000057    0.00000047   -0.00000763
     atom   31 type  1   force =    -0.00000237    0.00000090    0.00001178
     atom   32 type  1   force =     0.00000163    0.00000080   -0.00000467
     atom   33 type  1   force =     0.00000625    0.00000779   -0.00001057
     atom   34 type  1   force =     0.00000080   -0.00000586    0.00000531
     atom   35 type  1   force =     0.00000586   -0.00000232    0.00000317
     atom   36 type  1   force =     0.00001978    0.00000283   -0.00001004
     atom   37 type  1   force =     0.00000405    0.00000012   -0.00000595
     atom   38 type  1   force =     0.00000432   -0.00000126    0.00001779
     atom   39 type  1   force =     0.00001127   -0.00000645   -0.00000733
     atom   40 type  1   force =     0.00000298    0.00000012   -0.00000007
     atom   41 type  1   force =     0.00000120    0.00000106    0.00001115
     atom   42 type  1   force =     0.00000362    0.00001136   -0.00000712
     atom   43 type  1   force =    -0.00000334    0.00000354    0.00000567
     atom   44 type  1   force =    -0.00000421    0.00000151    0.00000249
     atom   45 type  1   force =     0.00001731    0.00002168   -0.00001557
     atom   46 type  1   force =    -0.00000068   -0.00000228    0.00000044
     atom   47 type  1   force =     0.00000022   -0.00000066    0.00001074
     atom   48 type  2   force =     0.00000169    0.00000797   -0.00001569
     atom   49 type  2   force =    -0.00000143   -0.00000721    0.00001980
     atom   50 type  2   force =     0.00000237    0.00003142    0.00001632
     atom   51 type  2   force =     0.00000745    0.00000142   -0.00001898
     atom   52 type  2   force =    -0.00000026   -0.00000046    0.00001763
     atom   53 type  2   force =     0.00002955   -0.00001973    0.00002227
     atom   54 type  2   force =     0.00000610   -0.00000484   -0.00000552
     atom   55 type  2   force =    -0.00000228    0.00000236    0.00001290
     atom   56 type  2   force =     0.00000781   -0.00001078   -0.00000283
     atom   57 type  2   force =     0.00000192    0.00000603   -0.00000493
     atom   58 type  2   force =    -0.00000505   -0.00000103    0.00001356
     atom   59 type  2   force =    -0.00000120    0.00001780   -0.00000565
     atom   60 type  2   force =    -0.00000363    0.00000229   -0.00001077
[...]
     atom  130 type  2   force =     0.00000604   -0.00000528    0.00000182
     atom  131 type  2   force =    -0.00000055    0.00000074    0.00000046
     atom  132 type  2   force =     0.00000779    0.00000825   -0.00001033
     atom  133 type  2   force =     0.00000092   -0.00000751   -0.00000012
     atom  134 type  2   force =     0.00000807    0.00000201    0.00000779
     atom  135 type  2   force =     0.00000271   -0.00000657   -0.00000651
     atom  136 type  2   force =    -0.00000139    0.00000443    0.00000558
     atom  137 type  2   force =     0.00000277   -0.00000007    0.00000311
     atom  138 type  2   force =    -0.00000226    0.00000074   -0.00000310
     atom  139 type  2   force =    -0.00000781    0.00000537    0.00001313
     atom  140 type  2   force =    -0.00000122    0.00000465   -0.00000700
     atom  141 type  2   force =     0.00000896    0.00000746   -0.00000706
     atom  142 type  2   force =    -0.00000385   -0.00000854    0.00000631
     atom  143 type  2   force =     0.00000763    0.00000419   -0.00000152
     atom  144 type  2   force =    -0.00000030   -0.00000248   -0.00001627

     Total force =     0.016718     Total SCF correction =     0.000195

     Computing stress (Cartesian axis) and pressure

[...]

          total   stress  (Ry/bohr**3)                   (kbar)     P=       -6.00
  -0.00004168   0.00000088  -0.00000122           -6.13        0.13       -0.18
   0.00000088  -0.00004016   0.00000104            0.13       -5.91        0.15
  -0.00000122   0.00000104  -0.00004054           -0.18        0.15       -5.96

     kinetic stress (kbar)  14939.92      0.39     -0.55
                                0.39  14940.60      0.48
                               -0.55      0.48  14949.95

     local   stress (kbar)  -7561.61      7.59    -12.34
                                7.59  -7548.39     10.61
                              -12.34     10.61   1516.35

     nonloc. stress (kbar)  -1005.58      0.29     -0.44
                                0.29  -1005.08      0.39
                               -0.44      0.39  -1012.63

     hartree stress (kbar)  12094.83     -2.56      4.59
                               -2.56  12090.35     -3.96
                                4.59     -3.96   8002.74

     exc-cor stress (kbar)   6973.16     -0.00      0.00
                               -0.00   6973.16     -0.00
                                0.00     -0.00   6971.99

     corecor stress (kbar) -11344.39     -0.01      0.01
                               -0.01 -11344.40     -0.01
                                0.01     -0.01 -11344.28

     ewald   stress (kbar) -14186.11     -5.57      8.55
                               -5.57 -14195.80     -7.35
                                8.55     -7.35 -19175.08

     hubbard stress (kbar)      0.00      0.00      0.00
                                0.00      0.00      0.00
                                0.00      0.00      0.00

     DFT-D   stress (kbar)      0.00      0.00      0.00
                                0.00      0.00      0.00
                                0.00      0.00      0.00

     XDM     stress (kbar)      0.00      0.00      0.00
                                0.00      0.00      0.00
                                0.00      0.00      0.00

     dft-nl  stress (kbar)     83.65      0.00     -0.00
                                0.00     83.65      0.00
                               -0.00      0.00     84.99

     TS-vdW  stress (kbar)      0.00      0.00      0.00
                                0.00      0.00      0.00
                                0.00      0.00      0.00

     MDB     stress (kbar)      0.00      0.00      0.00
                                0.00      0.00      0.00
                                0.00      0.00      0.00

     3D-RISM stress (kbar)      0.00      0.00      0.00
                                0.00      0.00      0.00
                                0.00      0.00      0.00

     Energy error            =      4.8E-04 Ry
     Gradient error          =      5.4E-03 Ry/Bohr

     number of scf cycles    =  13
     number of bfgs steps    =  12

     energy             old  =  -96802.2028615692 Ry
     energy             new  =  -96802.2033433087 Ry

     CASE: energy            _new < energy            _old

     WARNING: bfgs curvature condition failed, Theta= 0.754
     new trust radius        =       0.1195861283 bohr
     new conv_thr            =       0.0000000048 Ry

ATOMIC_POSITIONS (angstrom)
Pb            2.3554027751        4.0800827163        7.4060281174
Pb            2.3561521076        4.0793249721       14.7270741092
Pb           -0.0541436272        8.2788958436       22.1486704302
Pb           -0.0063173541        8.1617021339        7.3895246542
Pb            0.0016171504        8.1665515212       14.7428848493
Pb           -2.3555888203       12.2398012516       22.1331004694
Pb           -2.3593904420       12.2375704199        7.3868145248
Pb           -2.3519540395       12.2422366679       14.7461056376
Pb           -4.6568656251       16.2004088800       22.1173998245
Pb           -4.7126743548       16.3132275596        7.3900214537
Pb           -4.7048300222       16.3180952320       14.7434134004
Pb            7.2006343634        4.0896818335       22.1207795756
Pb            7.0718032659        4.0844925275        7.3899446386
Pb            7.0715382046        4.0750121946       14.7434270489
Pb            4.7687347256        8.2637486268       22.1360988251
Pb            4.7180320227        8.1624678760        7.3899951039
Pb            4.7104799090        8.1669021907       14.7428768016
Pb            2.3590559870       12.2741622049       22.1066748207
Pb            2.3558230428       12.2337251962        7.3535812355
Pb            2.3559280252       12.2431302988       14.7408055921
Pb            0.0291307957       16.3020807643       22.1072081122
Pb           -0.0042606163       16.3224004067        7.3538899087
Pb            0.0028086309       16.3182735778       14.7407950940
Pb           11.7782349146        4.0797567825       22.1331688200
Pb           11.7782714032        4.0842159905        7.3870116396
Pb           11.7780631439        4.0754479479       14.7460818156
Pb            9.4502699188        8.1805233514       22.1593675422
Pb            9.4253867562        8.1616912490        7.3921445807
Pb            9.4174899125        8.1570619144       14.7792134008
Pb            7.0671867934       12.2397243704       22.1329675653
Pb            7.0709634040       12.2375407050        7.3864738908
Pb            7.0633224610       12.2420675933       14.7464087512
Pb            4.6837652029       16.2990560424       22.1067627610
Pb            4.7164505737       16.3227197857        7.3537464347
Pb            4.7086805178       16.3180750894       14.7408462236
Pb           16.3560911693        4.0696052017       22.1455499800
Pb           16.4848673206        4.0844905677        7.3896208156
Pb           16.4847384032        4.0749717454       14.7430789900
Pb           14.1048105556        8.1775927702       22.1589594686
Pb           14.1309308878        8.1615966250        7.3922953222
Pb           14.1379874584        8.1575287940       14.7789412873
Pb           11.7750204675       12.2054376596       22.1593905445
Pb           11.7780758016       12.2365221642        7.3920998308
Pb           11.7781404530       12.2460338239       14.7792811288
Pb            9.3657305563       16.2154579716       22.1296317695
Pb            9.4236963491       16.3127466866        7.3901536871
Pb            9.4161367971       16.3171842023       14.7430349998
I             2.3562471987        1.3594898445        5.5035863532
I             2.3557689330        1.3567082162       12.8639407665
I             2.3570099198        1.4908776494       20.2028667576
I            -0.0003798659        5.4397119256        5.5045026355
I            -0.0023654412        5.4411730167       12.8637440376
I             0.2315192540        5.3054548886       20.2582783827
I            -2.3600156513        9.5161087109        5.4989600211
I            -2.3632663613        9.5152381689       12.8785495541
I            -2.3254857444        9.5071444301       20.2464633504
I            -4.7168291941       13.5980096757        5.4991015083
I            -4.7190115671       13.5959769425       12.8781236587
I            -4.7062016626       13.6339193301       20.2446760975
I             7.0288237535        1.3817394627        5.4530572671
[...]
I             2.3551330219       14.9604141748        9.2063795261
I             2.3557474075       14.9600113708       16.6330757883
I            14.1615086137        2.7415328296        1.8879399670
I            14.1339782437        2.7110235674        9.2549245226
I            14.1349340823        2.7138632478       16.6338507302
I            11.7783325231        6.7989409980        1.8803055977
I            11.7781656525        6.7996500733        9.2746382178
I            11.7775894532        6.7862493045       16.6550034216
I             9.4231173503       10.8796450992        1.8810527159
I             9.4225927080       10.8799891646        9.2745909575
I             9.4111204377       10.8868344120       16.6542155104
I             7.0947659551       14.9711122584        1.8862597256
I             7.0600305864       14.9647397591        9.2545741326
I             7.0631070718       14.9638412996       16.6340955099
I             2.3563756255        4.0788106527       22.1329150316

     Writing config-only to output data dir ./PbI2.save/
     NEW-OLD atomic charge density approx. for the potential

     Check: negative core charge=   -0.000001

[...]

     Self-consistent Calculation

[...]

     ethr =  3.74E-06,  avg # of iterations = 14.0

[...]

     c_bands:  1 eigenvalues not converged
     ethr =  3.74E-06,  avg # of iterations = 20.0

     Non-local corr. energy    =      69.32608500 Ry

     total energy              =  -96802.19758765 Ry
     estimated scf accuracy    <       0.05654278 Ry

     iteration #  5     ecut=    70.00 Ry     beta= 0.70
     Davidson diagonalization with overlap

     c_bands:  1 eigenvalues not converged

     max_seconds     =  154800.00
     Calculation stopped in k-point loop, point #     1
     Calculation stopped in scf loop at iteration #     4

     Writing config to output data dir ./PbI2.save/
     Message from routine punch:
     wavefunctions written to file

     General routines

     Parallel routines

     PAW routines

   This run was terminated on:  16:34:56  26Mar2024

   JOB DONE.