     Program PWSCF v.7.1 starts on 13Apr2024 at  7:37:49

     Reading input from espresso.pwi
Warning: card &CELL ignored
Warning: card    CELL_DYNAMICS    = 'BFGS' ignored
Warning: card / ignored

     Current dimensions of program PWSCF are:
     Max number of different atomic species (ntypx) = 10
     Max number of k-points (npk) =  40000
     Max angular momentum in pseudopotentials (lmaxx) =  4
     file Pb.pbe-dn-kjpaw_psl.1.0.0.UPF: wavefunction(s)  6S 6P 5D renormalized
     file I.pbe-dn-kjpaw_psl.1.0.0.UPF: wavefunction(s)  5S 5P renormalized

     IMPORTANT: XC functional enforced from input :
     Exchange-correlation= BEEF-VDW
                           (   1   4  43  14   2   0   0)
     Any further DFT definition will be discarded
     Please, verify this is what you really want

     R & G space division:  proc/nbgrp/npool/nimage =     128
     Subspace diagonalization in iterative solution of the eigenvalue problem:
     a serial algorithm will be used

     Using Slab Decomposition

     bravais-lattice index     =            4
     lattice parameter (alat)  =      35.6120  a.u.
     unit-cell volume          =   45937.3577 (a.u.)^3
     number of atoms/cell      =          144
     number of atomic types    =            2
     number of electrons       =      2304.00
     number of Kohn-Sham states=         1382
     kinetic-energy cutoff     =      70.0000  Ry
     charge density cutoff     =     350.0000  Ry
     scf convergence threshold =      1.0E-07
     mixing beta               =       0.7000
     number of iterations used =            8  plain     mixing
     energy convergence thresh.=      1.0E-04
     force convergence thresh. =      1.0E-03
     Exchange-correlation= BEEF-VDW
                           (   1   4  43  14   2   0   0)
     nstep                     =           50

     celldm(1)=  35.612033  celldm(2)=   0.000000  celldm(3)=   1.174479
     celldm(4)=   0.000000  celldm(5)=   0.000000  celldm(6)=   0.000000

     crystal axes: (cart. coord. in units of alat)
               a(1) = (   1.000000   0.000000   0.000000 )
               a(2) = (  -0.500000   0.866025   0.000000 )
               a(3) = (   0.000000   0.000000   1.174479 )

     reciprocal axes: (cart. coord. in units 2 pi/alat)
               b(1) = (  1.000000  0.577350 -0.000000 )
               b(2) = (  0.000000  1.154701  0.000000 )
               b(3) = (  0.000000 -0.000000  0.851442 )

     PseudoPot. # 1 for Pb read from file:
     //group///packages/espresso/pseudo/psl_1.0.0/pslibrary.1.0.0/pbe/PSEUDOPOTENTIALS/Pb.pbe-dn-kjpaw_psl.1.0.0.UPF
     MD5 check sum: 39ab5b8a6bbd56b7735ad9f188aac93a
     Pseudo is Projector augmented-wave + core cor, Zval = 14.0
     Generated using 'atomic' code by A. Dal Corso  v.7.1
     Shape of augmentation charge: PSQ
     Using radial grid of 1281 points,  6 beta functions with:
                l(1) =   0
                l(2) =   0
                l(3) =   1
                l(4) =   1
                l(5) =   2
                l(6) =   2
     Q(r) pseudized with 0 coefficients

     PseudoPot. # 2 for I  read from file:
     //group///packages/espresso/pseudo/psl_1.0.0/pslibrary.1.0.0/pbe/PSEUDOPOTENTIALS/I.pbe-dn-kjpaw_psl.1.0.0.UPF
     MD5 check sum: bfa8781bc1224d19af3f3980e3fab11e
     Pseudo is Projector augmented-wave + core cor, Zval = 17.0
     Generated using 'atomic' code by A. Dal Corso  v.7.1
     Shape of augmentation charge: PSQ
     Using radial grid of 1247 points,  6 beta functions with:
                l(1) =   0
                l(2) =   0
                l(3) =   1
                l(4) =   1
                l(5) =   2
                l(6) =   2
     Q(r) pseudized with 0 coefficients

     atomic species   valence    mass     pseudopotential
        Pb            14.00   207.20000     Pb( 1.00)
        I             17.00   126.90447     I ( 1.00)

     No symmetry found

                                    s                        frac. trans.

      isym =  1     identity

 cryst.   s( 1) = (     1          0          0      )
                  (     0          1          0      )
                  (     0          0          1      )

 cart.    s( 1) = (  1.0000000  0.0000000  0.0000000 )
                  (  0.0000000  1.0000000  0.0000000 )
                  (  0.0000000  0.0000000  1.0000000 )

     point group C_1 (1)
     there are  1 classes
     the character table:

       E
A      1.00

     the symmetry operations in each class and the name of the first element:

     E        1
          identity

   Cartesian axes

     site n.     atom                  positions (alat units)
         1           Pb  tau(   1) = (   0.1250034   0.2164918   0.3914896  )
         2           Pb  tau(   2) = (   0.1250085   0.2164873   0.7829825  )
         3           Pb  tau(   3) = (   0.0000128   0.4329881   1.1744712  )
         4           Pb  tau(   4) = (   0.0000026   0.4329971   0.3914855  )
         5           Pb  tau(   5) = (   0.0000077   0.4329926   0.7829784  )
         6           Pb  tau(   6) = (  -0.1249881   0.6494934   1.1744671  )
         7           Pb  tau(   7) = (  -0.1249983   0.6495025   0.3914814  )
         8           Pb  tau(   8) = (  -0.1249932   0.6494980   0.7829742  )
         9           Pb  tau(   9) = (  -0.2499889   0.8659988   1.1744630  )
        10           Pb  tau(  10) = (  -0.2499991   0.8660078   0.3914773  )
        11           Pb  tau(  11) = (  -0.2499940   0.8660033   0.7829701  )
        12           Pb  tau(  12) = (   0.3750136   0.2164818   1.1744786  )
        13           Pb  tau(  13) = (   0.3750034   0.2164908   0.3914929  )
        14           Pb  tau(  14) = (   0.3750085   0.2164863   0.7829857  )
        15           Pb  tau(  15) = (   0.2500128   0.4329871   1.1744745  )
        16           Pb  tau(  16) = (   0.2500026   0.4329962   0.3914888  )
        17           Pb  tau(  17) = (   0.2500077   0.4329916   0.7829816  )
        18           Pb  tau(  18) = (   0.1250119   0.6494925   1.1744703  )
        19           Pb  tau(  19) = (   0.1250017   0.6495015   0.3914847  )
        20           Pb  tau(  20) = (   0.1250068   0.6494970   0.7829775  )
        21           Pb  tau(  21) = (   0.0000111   0.8659978   1.1744662  )
        22           Pb  tau(  22) = (   0.0000009   0.8660069   0.3914805  )
        23           Pb  tau(  23) = (   0.0000060   0.8660024   0.7829734  )
        24           Pb  tau(  24) = (   0.6250136   0.2164808   1.1744818  )
        25           Pb  tau(  25) = (   0.6250034   0.2164898   0.3914962  )
        26           Pb  tau(  26) = (   0.6250085   0.2164853   0.7829890  )
        27           Pb  tau(  27) = (   0.5000128   0.4329862   1.1744777  )
        28           Pb  tau(  28) = (   0.5000026   0.4329952   0.3914920  )
        29           Pb  tau(  29) = (   0.5000077   0.4329907   0.7829849  )
        30           Pb  tau(  30) = (   0.3750119   0.6494915   1.1744736  )
        31           Pb  tau(  31) = (   0.3750017   0.6495006   0.3914879  )
        32           Pb  tau(  32) = (   0.3750068   0.6494960   0.7829808  )
        33           Pb  tau(  33) = (   0.2500111   0.8659969   1.1744695  )
        34           Pb  tau(  34) = (   0.2500009   0.8660059   0.3914838  )
        35           Pb  tau(  35) = (   0.2500060   0.8660014   0.7829766  )
        36           Pb  tau(  36) = (   0.8750136   0.2164798   1.1744851  )
        37           Pb  tau(  37) = (   0.8750034   0.2164889   0.3914994  )
        38           Pb  tau(  38) = (   0.8750085   0.2164844   0.7829923  )
        39           Pb  tau(  39) = (   0.7500128   0.4329852   1.1744810  )
        40           Pb  tau(  40) = (   0.7500026   0.4329942   0.3914953  )
        41           Pb  tau(  41) = (   0.7500077   0.4329897   0.7829881  )
        42           Pb  tau(  42) = (   0.6250119   0.6494906   1.1744769  )
        43           Pb  tau(  43) = (   0.6250017   0.6494996   0.3914912  )
        44           Pb  tau(  44) = (   0.6250068   0.6494951   0.7829840  )
        45           Pb  tau(  45) = (   0.5000111   0.8659959   1.1744727  )
        46           Pb  tau(  46) = (   0.5000009   0.8660050   0.3914870  )
        47           Pb  tau(  47) = (   0.5000060   0.8660004   0.7829799  )
        48           I   tau(  48) = (   0.1250054   0.0721550   0.2909325  )
        49           I   tau(  49) = (   0.1250105   0.0721505   0.6824253  )
        50           I   tau(  50) = (   0.1250156   0.0721459   1.0739182  )
        51           I   tau(  51) = (   0.0000045   0.2886603   0.2909283  )
        52           I   tau(  52) = (   0.0000096   0.2886558   0.6824212  )
        53           I   tau(  53) = (   0.0000147   0.2886513   1.0739140  )
        54           I   tau(  54) = (  -0.1249963   0.5051657   0.2909242  )
        55           I   tau(  55) = (  -0.1249912   0.5051612   0.6824171  )
        56           I   tau(  56) = (  -0.1249861   0.5051566   1.0739099  )
        57           I   tau(  57) = (  -0.2499971   0.7216710   0.2909201  )
        58           I   tau(  58) = (  -0.2499920   0.7216665   0.6824129  )
        59           I   tau(  59) = (  -0.2499869   0.7216620   1.0739058  )
        60           I   tau(  60) = (   0.3750054   0.0721540   0.2909357  )
[...]
       130           I   tau( 130) = (   0.1250009   0.7938394   0.4920425  )
       131           I   tau( 131) = (   0.1250060   0.7938348   0.8835353  )
       132           I   tau( 132) = (   0.7499983   0.1443268   0.1005653  )
       133           I   tau( 133) = (   0.7500034   0.1443223   0.4920581  )
       134           I   tau( 134) = (   0.7500085   0.1443178   0.8835509  )
       135           I   tau( 135) = (   0.6249975   0.3608322   0.1005611  )
       136           I   tau( 136) = (   0.6250026   0.3608277   0.4920540  )
       137           I   tau( 137) = (   0.6250077   0.3608232   0.8835468  )
       138           I   tau( 138) = (   0.4999966   0.5773376   0.1005570  )
       139           I   tau( 139) = (   0.5000017   0.5773330   0.4920499  )
       140           I   tau( 140) = (   0.5000068   0.5773285   0.8835427  )
       141           I   tau( 141) = (   0.3749958   0.7938429   0.1005529  )
       142           I   tau( 142) = (   0.3750009   0.7938384   0.4920457  )
       143           I   tau( 143) = (   0.3750060   0.7938339   0.8835386  )
       144           I   tau( 144) = (   0.1250136   0.2164827   1.1744753  )

   Crystallographic axes

     site n.     atom                  positions (cryst. coord.)
         1           Pb  tau(   1) = (  0.2499950  0.2499832  0.3333306  )
         2           Pb  tau(   2) = (  0.2499975  0.2499780  0.6666639  )
         3           Pb  tau(   3) = (  0.2499986  0.4999716  0.9999938  )
         4           Pb  tau(   4) = (  0.2499936  0.4999820  0.3333271  )
         5           Pb  tau(   5) = (  0.2499961  0.4999768  0.6666604  )
         6           Pb  tau(   6) = (  0.2499972  0.7499704  0.9999902  )
         7           Pb  tau(   7) = (  0.2499922  0.7499809  0.3333236  )
         8           Pb  tau(   8) = (  0.2499947  0.7499757  0.6666569  )
[...]
     atom   44 type  1   force =     0.00000000    0.00000000    0.00000000
     atom   45 type  1   force =     0.00000000    0.00000000    0.00000000
     atom   46 type  1   force =     0.00000000    0.00000000    0.00000000
     atom   47 type  1   force =     0.00000000    0.00000000    0.00000000
     atom   48 type  2   force =     0.00000000    0.00000000    0.00000000
     atom   49 type  2   force =     0.00000000    0.00000000    0.00000000
     atom   50 type  2   force =     0.00000000    0.00000000    0.00000000
     atom   51 type  2   force =     0.00000000    0.00000000    0.00000000
     atom   52 type  2   force =     0.00000000    0.00000000    0.00000000
     atom   53 type  2   force =     0.00000000    0.00000000    0.00000000
     atom   54 type  2   force =     0.00000000    0.00000000    0.00000000
     atom   55 type  2   force =     0.00000000    0.00000000    0.00000000
     atom   56 type  2   force =     0.00000000    0.00000000    0.00000000
     atom   57 type  2   force =     0.00000000    0.00000000    0.00000000
     atom   58 type  2   force =     0.00000000    0.00000000    0.00000000
     atom   59 type  2   force =     0.00000000    0.00000000    0.00000000
     atom   60 type  2   force =     0.00000000    0.00000000    0.00000000
[...]
     atom  130 type  2   force =     0.00000000    0.00000000    0.00000000
     atom  131 type  2   force =     0.00000000    0.00000000    0.00000000
     atom  132 type  2   force =     0.00000000    0.00000000    0.00000000
     atom  133 type  2   force =     0.00000000    0.00000000    0.00000000
     atom  134 type  2   force =     0.00000000    0.00000000    0.00000000
     atom  135 type  2   force =     0.00000000    0.00000000    0.00000000
     atom  136 type  2   force =     0.00000000    0.00000000    0.00000000
     atom  137 type  2   force =     0.00000000    0.00000000    0.00000000
     atom  138 type  2   force =     0.00000000    0.00000000    0.00000000
     atom  139 type  2   force =     0.00000000    0.00000000    0.00000000
     atom  140 type  2   force =     0.00000000    0.00000000    0.00000000
     atom  141 type  2   force =     0.00000000    0.00000000    0.00000000
     atom  142 type  2   force =     0.00000000    0.00000000    0.00000000
     atom  143 type  2   force =     0.00000000    0.00000000    0.00000000
     atom  144 type  2   force =     0.00000000    0.00000000    0.00000000
     The SCF correction term to forces
     atom    1 type  1   force =     0.00000182   -0.00000505   -0.00000806
     atom    2 type  1   force =     0.00000184    0.00000092    0.00000554
     atom    3 type  1   force =    -0.00000215    0.00000023   -0.00000090
     atom    4 type  1   force =    -0.00001074    0.00000916   -0.00000562
     atom    5 type  1   force =    -0.00000283    0.00001215    0.00000691
     atom    6 type  1   force =    -0.00000148    0.00000145    0.00000314
     atom    7 type  1   force =    -0.00001002   -0.00000099   -0.00000468
     atom    8 type  1   force =     0.00000579    0.00000422    0.00000158
     atom    9 type  1   force =     0.00000004   -0.00000244    0.00000530
     atom   10 type  1   force =     0.00000307   -0.00001231   -0.00000869
     atom   11 type  1   force =     0.00000908   -0.00000898    0.00000229
     atom   12 type  1   force =     0.00000179   -0.00000167    0.00000365
     atom   13 type  1   force =     0.00001371    0.00000082   -0.00000612
     atom   14 type  1   force =     0.00001305   -0.00000331    0.00000281
     atom   15 type  1   force =     0.00000262    0.00000339   -0.00000080
     atom   16 type  1   force =     0.00001256    0.00000866   -0.00000534
     atom   17 type  1   force =     0.00000411    0.00001202    0.00000575
     atom   18 type  1   force =     0.00000021   -0.00000266   -0.00000066
     atom   19 type  1   force =     0.00000006    0.00000576    0.00000259
     atom   20 type  1   force =     0.00000084    0.00001181    0.00000650
     atom   21 type  1   force =    -0.00000528    0.00000097    0.00000079
     atom   22 type  1   force =     0.00000074    0.00000072    0.00000291
     atom   23 type  1   force =     0.00001020   -0.00000412    0.00000445
     atom   24 type  1   force =    -0.00000043   -0.00000012    0.00000383
     atom   25 type  1   force =    -0.00000132    0.00000902   -0.00000232
     atom   26 type  1   force =    -0.00000238   -0.00000788   -0.00000176
     atom   27 type  1   force =    -0.00000368   -0.00000026    0.00000651
     atom   28 type  1   force =     0.00001244    0.00000568   -0.00000768
     atom   29 type  1   force =     0.00000296    0.00000073   -0.00000706
     atom   30 type  1   force =     0.00000069    0.00000118    0.00000340
     atom   31 type  1   force =     0.00001054   -0.00000330   -0.00000383
     atom   32 type  1   force =    -0.00000705    0.00000303    0.00000027
     atom   33 type  1   force =     0.00000563    0.00000041    0.00000103
     atom   34 type  1   force =    -0.00000283   -0.00000042    0.00000219
     atom   35 type  1   force =    -0.00001190   -0.00000656    0.00000476
     atom   36 type  1   force =     0.00000104   -0.00000034    0.00000233
     atom   37 type  1   force =    -0.00001415    0.00000181   -0.00000792
     atom   38 type  1   force =    -0.00001248   -0.00000216    0.00000471
     atom   39 type  1   force =     0.00000379   -0.00000057    0.00000561
     atom   40 type  1   force =    -0.00001425    0.00000568   -0.00000835
     atom   41 type  1   force =    -0.00000419    0.00000229   -0.00000614
     atom   42 type  1   force =     0.00000059    0.00000540    0.00000722
     atom   43 type  1   force =    -0.00000062   -0.00001071   -0.00000951
     atom   44 type  1   force =     0.00000045   -0.00000325   -0.00000635
     atom   45 type  1   force =    -0.00000134   -0.00000217    0.00000611
     atom   46 type  1   force =    -0.00000085   -0.00001419   -0.00000989
     atom   47 type  1   force =    -0.00000751   -0.00001067    0.00000303
     atom   48 type  2   force =     0.00000044   -0.00001562   -0.00001215
     atom   49 type  2   force =     0.00000276   -0.00001201   -0.00000528
     atom   50 type  2   force =    -0.00000042   -0.00000520    0.00001294
     atom   51 type  2   force =    -0.00001082    0.00000043   -0.00001380
     atom   52 type  2   force =    -0.00000885    0.00000586   -0.00000127
     atom   53 type  2   force =    -0.00000541    0.00000281    0.00001232
     atom   54 type  2   force =    -0.00001777    0.00000607   -0.00000156
     atom   55 type  2   force =    -0.00000647    0.00000886   -0.00000166
     atom   56 type  2   force =     0.00000677   -0.00000216    0.00000346
     atom   57 type  2   force =    -0.00000578   -0.00001024   -0.00000189
     atom   58 type  2   force =     0.00000386   -0.00000735   -0.00000374
     atom   59 type  2   force =     0.00000110    0.00000530    0.00000759
     atom   60 type  2   force =     0.00000410   -0.00000471   -0.00000489
[...]
     atom  130 type  2   force =    -0.00000075    0.00000294    0.00000275
     atom  131 type  2   force =    -0.00000056   -0.00000040   -0.00000656
     atom  132 type  2   force =     0.00000688    0.00000241    0.00000139
     atom  133 type  2   force =    -0.00001274    0.00000072   -0.00000373
     atom  134 type  2   force =    -0.00001114   -0.00000931    0.00000007
     atom  135 type  2   force =    -0.00000015    0.00000248    0.00001655
     atom  136 type  2   force =    -0.00000154    0.00000598   -0.00001427
     atom  137 type  2   force =    -0.00000094   -0.00000576   -0.00000442
     atom  138 type  2   force =     0.00000154    0.00000283    0.00001366
     atom  139 type  2   force =     0.00000776   -0.00000341   -0.00001418
     atom  140 type  2   force =    -0.00000593    0.00000184   -0.00000164
     atom  141 type  2   force =     0.00000977    0.00000290    0.00000116
     atom  142 type  2   force =    -0.00000339   -0.00000930   -0.00000393
     atom  143 type  2   force =    -0.00001389   -0.00000545    0.00000158
     atom  144 type  2   force =    -0.00000295   -0.00000338    0.00000379

     Total force =     0.005877     Total SCF correction =     0.000139

     Computing stress (Cartesian axis) and pressure

     Non-local corr. energy    =      69.34406494 Ry

          total   stress  (Ry/bohr**3)                   (kbar)     P=       -6.02
  -0.00004309   0.00000014  -0.00000017           -6.34        0.02       -0.02
   0.00000014  -0.00003863   0.00000132            0.02       -5.68        0.19
  -0.00000017   0.00000132  -0.00004096           -0.02        0.19       -6.03

     kinetic stress (kbar)  14938.52      0.01     -0.02
                                0.01  14943.26      2.58
                               -0.02      2.58  14950.52

     local   stress (kbar)  -7629.34     -3.01      1.17
                               -3.01  -7375.83    134.98
                                1.17    134.98   1395.69

     nonloc. stress (kbar)  -1007.90     -0.01     -0.01
                               -0.01  -1004.06      2.66
                               -0.01      2.66  -1012.97

     hartree stress (kbar)  12118.26      1.20     -0.34
                                1.20  12021.86    -53.70
                               -0.34    -53.70   8055.76

     exc-cor stress (kbar)   6973.16      0.00     -0.00
                                0.00   6972.97     -0.04
                               -0.00     -0.04   6972.00

     corecor stress (kbar) -11344.34      0.00      0.00
                                0.00 -11344.44     -0.06
                                0.00     -0.06 -11344.27

     ewald   stress (kbar) -14138.33      1.84     -0.83
                                1.84 -14303.16    -86.24
                               -0.83    -86.24 -19107.71

     hubbard stress (kbar)      0.00      0.00      0.00
                                0.00      0.00      0.00
                                0.00      0.00      0.00

     DFT-D   stress (kbar)      0.00      0.00      0.00
                                0.00      0.00      0.00
                                0.00      0.00      0.00

     XDM     stress (kbar)      0.00      0.00      0.00
                                0.00      0.00      0.00
                                0.00      0.00      0.00

     dft-nl  stress (kbar)     83.63     -0.00      0.00
                               -0.00     83.72      0.03
                                0.00      0.03     84.97

     TS-vdW  stress (kbar)      0.00      0.00      0.00
                                0.00      0.00      0.00
                                0.00      0.00      0.00

     MDB     stress (kbar)      0.00      0.00      0.00
                                0.00      0.00      0.00
                                0.00      0.00      0.00

     3D-RISM stress (kbar)      0.00      0.00      0.00
                                0.00      0.00      0.00
                                0.00      0.00      0.00

     Energy error            =      8.5E-05 Ry
     Gradient error          =      9.1E-04 Ry/Bohr

     bfgs converged in  43 scf cycles and  42 bfgs steps
     (criteria: energy <  1.0E-04 Ry, force <  1.0E-03 Ry/Bohr)

     End of BFGS Geometry Optimization

     Final energy             =  -96802.2394011495 Ry

     File ./PbI2.bfgs deleted, as requested
Begin final coordinates

ATOMIC_POSITIONS (angstrom)
Pb            2.3569366548        4.0809589281        7.4126548893
Pb            2.3549464648        4.0780651996       14.7207987995
Pb            0.0612468763        8.2646488795       22.2671507828
Pb           -0.0095341322        8.1560322243        7.3991542568
Pb            0.0037830844        8.1614527727       14.7425303829
Pb           -2.3558411618       12.2406367267       22.1325492014
Pb           -2.3610023776       12.2360913757        7.3819521460
Pb           -2.3502552586       12.2435852061       14.7515037265
Pb           -4.7723754446       16.2183326782       22.0013168505
Pb           -4.7145056902       16.3182158460        7.3908076616
Pb           -4.7017609128       16.3233658281       14.7341007170
Pb            7.2059073959        4.0797496165       22.1341536937
Pb            7.0614274474        4.0823129613        7.3893084217
Pb            7.0596514426        4.0765638054       14.7468928759
Pb            4.6599168545        8.2700869630       22.2633466155
Pb            4.7226743031        8.1550764658        7.3981661409
Pb            4.7053694646        8.1613175812       14.7468977597
Pb            2.3547485376       12.2718105467       22.1131225670
Pb            2.3552089112       12.2370789168        7.3332613490
Pb            2.3553840791       12.2413424196       14.7298367463
Pb           -0.0113895296       16.2855974720       22.1221846349
Pb           -0.0080410395       16.3250404076        7.3039045678
Pb            0.0025016319       16.3174165643       14.7272826501
Pb           11.7789615212        4.0794510867       22.1320494420
Pb           11.7784240926        4.0846860641        7.3830042691
Pb           11.7777977024        4.0745431166       14.7505941464
Pb            9.4160163595        8.1950191569       22.1446277526
Pb            9.4251909865        8.1620489581        7.4047623618
Pb            9.4150809202        8.1541563712       14.8266171280
Pb            7.0671473553       12.2396571272       22.1324030268
Pb            7.0730762807       12.2358589809        7.3800242823
Pb            7.0608434865       12.2436529883       14.7539456499
Pb            4.7185406711       16.2843092898       22.1197902233
Pb            4.7189112136       16.3252818512        7.3070357335
Pb            4.7084060830       16.3175395729       14.7286802377
Pb           16.3519862907        4.0796216440       22.1307265523
Pb           16.4967834920        4.0826410800        7.3859284055
Pb           16.4954202490        4.0763825601       14.7445606645
Pb           14.1452836930        8.1932069617       22.1423962613
Pb           14.1310096758        8.1624084125        7.4057383128
Pb           14.1416209152        8.1545490766       14.8296015971
Pb           11.7796738954       12.2077866625       22.1516842567
Pb           11.7784726094       12.2385497079        7.4035297528
Pb           11.7785903253       12.2423332977       14.8004699744
Pb            9.4750569509       16.2088874957       22.0014108586
Pb            9.4292810617       16.3182457039        7.3866066743
Pb            9.4116716707       16.3243513444       14.7363142465
I             2.3594187769        1.3641180576        5.5017435470
I             2.3549621875        1.3550765607       12.8584755257
I             2.3515304662        0.8878801602       19.9923880213
I             0.0077607407        5.4386272403        5.5046745294
I            -0.0042476624        5.4427432038       12.8560356855
I             0.2784024979        5.2692243649       20.3042915922
I            -2.3636571484        9.5099443390        5.5009267881
I            -2.3854101625        9.5046069115       12.8960997668
I            -2.3323854643        9.5103008339       20.2672036221
I            -4.7210637915       13.5974557130        5.5002879543
I            -4.7269986201       13.5857222552       12.8824518835
I            -4.6907779824       13.5775125404       20.2276654292
I             7.0078934765        1.3947415242        5.4463406964
[...]
I             2.3567447856       14.9828205715        9.1846694660
I             2.3555690292       14.9609095392       16.6177430238
I            14.1717006615        2.7488662701        1.8920205467
I            14.1349444053        2.6927213362        9.2390786055
I            14.1369669931        2.7090015081       16.6294593857
I            11.7782349651        6.7951914084        1.8704568214
I            11.7774596684        6.7913170203        9.2902025696
I            11.7758766146        6.7585578630       16.6932266956
I             9.4276223668       10.8783004321        1.8881731528
I             9.4178344303       10.8831904648        9.2883594098
I             9.3986896962       10.9025031361       16.6772286593
I             7.0851819733       14.9640250632        1.8688873671
I             7.0434940903       14.9747448345        9.2346857698
I             7.0587753600       14.9704643948       16.6338770713
I             2.3564105132        4.0811015343       22.1318456308
End final coordinates

     Writing all to output data dir ./PbI2.save/

     General routines

     Parallel routines

     PAW routines

   This run was terminated on:  20:31:22  13Apr2024

   JOB DONE.