     Program PWSCF v.7.1 starts on  1Oct2023 at 20: 8: 2

     Reading input from espresso.pwi
Warning: card &CELL ignored
Warning: card    CELL_DYNAMICS    = 'BFGS' ignored
Warning: card / ignored

     Current dimensions of program PWSCF are:
     Max number of different atomic species (ntypx) = 10
     Max number of k-points (npk) =  40000
     Max angular momentum in pseudopotentials (lmaxx) =  4
     file Ga.pbe-dn-kjpaw_psl.1.0.0.UPF: wavefunction(s)  4S renormalized
     file N.pbe-n-kjpaw_psl.1.0.0.UPF: wavefunction(s)  2S renormalized

     IMPORTANT: XC functional enforced from input :
     Exchange-correlation= BEEF-VDW
                           (   1   4  43  14   2   0   0)
     Any further DFT definition will be discarded
     Please, verify this is what you really want

     K-points division:     npool     =       4
     R & G space division:  proc/nbgrp/npool/nimage =      64
     Subspace diagonalization in iterative solution of the eigenvalue problem:
     a serial algorithm will be used

     Using Slab Decomposition

     bravais-lattice index     =            4
     lattice parameter (alat)  =      24.5252  a.u.
     unit-cell volume          =   15616.6055 (a.u.)^3
     number of atoms/cell      =          192
     number of atomic types    =            2
     number of electrons       =      1735.00
     number of Kohn-Sham states=         1042
     kinetic-energy cutoff     =      70.0000  Ry
     charge density cutoff     =     350.0000  Ry
     scf convergence threshold =      1.0E-09
     mixing beta               =       0.7000
     number of iterations used =            8  plain     mixing
     energy convergence thresh.=      1.0E-04
     force convergence thresh. =      1.0E-03
     Exchange-correlation= BEEF-VDW
                           (   1   4  43  14   2   0   0)
     nstep                     =           50

     celldm(1)=  24.525232  celldm(2)=   0.000000  celldm(3)=   1.222409
     celldm(4)=   0.000000  celldm(5)=   0.000000  celldm(6)=   0.000000

     crystal axes: (cart. coord. in units of alat)
               a(1) = (   1.000000   0.000000   0.000000 )
               a(2) = (  -0.500000   0.866025   0.000000 )
               a(3) = (   0.000000   0.000000   1.222409 )

     reciprocal axes: (cart. coord. in units 2 pi/alat)
               b(1) = (  1.000000  0.577350 -0.000000 )
               b(2) = (  0.000000  1.154701  0.000000 )
               b(3) = (  0.000000 -0.000000  0.818057 )

     PseudoPot. # 1 for Ga read from file:
     //group///packages/espresso/pseudo/psl_1.0.0/pslibrary.1.0.0/pbe/PSEUDOPOTENTIALS/Ga.pbe-dn-kjpaw_psl.1.0.0.UPF
     MD5 check sum: cd2a01e492f15b435d17032472d8505c
     Pseudo is Projector augmented-wave + core cor, Zval = 13.0
     Generated using 'atomic' code by A. Dal Corso  v.7.1
     Shape of augmentation charge: PSQ
     Using radial grid of 1205 points,  6 beta functions with:
                l(1) =   0
                l(2) =   0
                l(3) =   1
                l(4) =   1
                l(5) =   2
                l(6) =   2
     Q(r) pseudized with 0 coefficients

     PseudoPot. # 2 for N  read from file:
     //group///packages/espresso/pseudo/psl_1.0.0/pslibrary.1.0.0/pbe/PSEUDOPOTENTIALS/N.pbe-n-kjpaw_psl.1.0.0.UPF
     MD5 check sum: f77f775694dac7e2c3fe1c82443d1a16
     Pseudo is Projector augmented-wave + core cor, Zval =  5.0
     Generated using 'atomic' code by A. Dal Corso  v.7.1
     Shape of augmentation charge: PSQ
     Using radial grid of 1085 points,  4 beta functions with:
                l(1) =   0
                l(2) =   0
                l(3) =   1
                l(4) =   1
     Q(r) pseudized with 0 coefficients

     atomic species   valence    mass     pseudopotential
        Ga            13.00    69.72300     Ga( 1.00)
        N              5.00    14.00700     N ( 1.00)

      6 Sym. Ops. (no inversion) found ( 4 have fractional translation)

                                    s                        frac. trans.

      isym =  1     identity

 cryst.   s( 1) = (     1          0          0      )
                  (     0          1          0      )
                  (     0          0          1      )

 cart.    s( 1) = (  1.0000000  0.0000000  0.0000000 )
                  (  0.0000000  1.0000000  0.0000000 )
                  (  0.0000000  0.0000000  1.0000000 )

      isym =  2     120 deg rotation - cryst. axis [0,0,1]

 cryst.   s( 2) = (     0          1          0      )    f =( -0.2500000 )
                  (    -1         -1          0      )       (  0.0000002 )
                  (     0          0          1      )       (  0.0000000 )

 cart.    s( 2) = ( -0.5000000 -0.8660254  0.0000000 )    f =( -0.2500001 )
                  (  0.8660254 -0.5000000  0.0000000 )       (  0.0000002 )
                  (  0.0000000  0.0000000  1.0000000 )       (  0.0000000 )

      isym =  3     120 deg rotation - cryst. axis [0,0,-1]

[...]

      isym =  4     inv. 180 deg rotation - cart. axis [1,0,0]

[...]

      isym =  5     inv. 180 deg rotation - cryst. axis [0,1,0]

 cryst.   s( 5) = (     1          1          0      )
                  (     0         -1          0      )
                  (     0          0          1      )

 cart.    s( 5) = (  0.5000000  0.8660254  0.0000000 )
                  (  0.8660254 -0.5000000  0.0000000 )
                  (  0.0000000  0.0000000  1.0000000 )

      isym =  6     inv. 180 deg rotation - cryst. axis [1,1,0]

 cryst.   s( 6) = (     0         -1          0      )    f =( -0.2500000 )
                  (    -1          0          0      )       ( -0.2500000 )
                  (     0          0          1      )       (  0.0000000 )

 cart.    s( 6) = (  0.5000000 -0.8660254  0.0000000 )    f =( -0.1250000 )
                  ( -0.8660254 -0.5000000  0.0000000 )       ( -0.2165064 )
                  (  0.0000000  0.0000000  1.0000000 )       (  0.0000000 )

     point group C_3v (3m)
     there are  3 classes
     the character table:

       E     2C3   3s_v
A_1    1.00  1.00  1.00
A_2    1.00  1.00 -1.00
E      2.00 -1.00  0.00

     the symmetry operations in each class and the name of the first element:

     E        1
          identity
     2C3      2    3
          120 deg rotation - cryst. axis [0,0,1]
     3s_v     4    5    6
          inv. 180 deg rotation - cart. axis [1,0,0]

   Cartesian axes

     site n.     atom                  positions (alat units)
         1           Ga  tau(   1) = (   0.1250001   0.0721687   0.2033935  )
         2           Ga  tau(   2) = (   0.1250001   0.0721687   0.6108633  )
         3           Ga  tau(   3) = (   0.1250001   0.0721687   1.0183331  )
         4           Ga  tau(   4) = (   0.0000001   0.2886751   0.2033935  )
         5           Ga  tau(   5) = (   0.0000001   0.2886751   0.6108633  )
         6           Ga  tau(   6) = (   0.0000001   0.2886751   1.0183331  )
         7           Ga  tau(   7) = (  -0.1249999   0.5051814   0.2033935  )
         8           Ga  tau(   8) = (  -0.1249999   0.5051814   0.6108633  )
         9           Ga  tau(   9) = (  -0.1249999   0.5051814   1.0183331  )
        10           Ga  tau(  10) = (  -0.2499999   0.7216878   0.2033935  )
        11           Ga  tau(  11) = (  -0.2499999   0.7216878   0.6108633  )
        12           Ga  tau(  12) = (  -0.2499999   0.7216878   1.0183331  )
        13           Ga  tau(  13) = (   0.3750001   0.0721687   0.2033935  )
        14           Ga  tau(  14) = (   0.3750001   0.0721687   0.6108633  )
        15           Ga  tau(  15) = (   0.3750001   0.0721687   1.0183331  )
        16           Ga  tau(  16) = (   0.2500001   0.2886751   0.2033935  )
        17           Ga  tau(  17) = (   0.2500001   0.2886751   0.6108633  )
        18           Ga  tau(  18) = (   0.2500001   0.2886751   1.0183331  )
        19           Ga  tau(  19) = (   0.1250001   0.5051814   0.2033935  )
        20           Ga  tau(  20) = (   0.1250001   0.5051814   0.6108633  )
        21           Ga  tau(  21) = (   0.1250001   0.5051814   1.0183331  )
        22           Ga  tau(  22) = (   0.0000001   0.7216878   0.2033935  )
        23           Ga  tau(  23) = (   0.0000001   0.7216878   0.6108633  )
        24           Ga  tau(  24) = (   0.0000001   0.7216878   1.0183331  )
        25           Ga  tau(  25) = (   0.6250001   0.0721687   0.2033935  )
        26           Ga  tau(  26) = (   0.6250001   0.0721687   0.6108633  )
        27           Ga  tau(  27) = (   0.6250001   0.0721687   1.0183331  )
        28           Ga  tau(  28) = (   0.5000001   0.2886751   0.2033935  )
        29           Ga  tau(  29) = (   0.5000001   0.2886751   0.6108633  )
        30           Ga  tau(  30) = (   0.5000001   0.2886751   1.0183331  )
        31           Ga  tau(  31) = (   0.3750001   0.5051814   0.2033935  )
        32           Ga  tau(  32) = (   0.3750001   0.5051814   0.6108633  )
        33           Ga  tau(  33) = (   0.3750001   0.5051814   1.0183331  )
        34           Ga  tau(  34) = (   0.2500001   0.7216878   0.2033935  )
        35           Ga  tau(  35) = (   0.2500001   0.7216878   0.6108633  )
        36           Ga  tau(  36) = (   0.2500001   0.7216878   1.0183331  )
        37           Ga  tau(  37) = (   0.8750001   0.0721687   0.2033935  )
        38           Ga  tau(  38) = (   0.8750001   0.0721687   0.6108633  )
        39           Ga  tau(  39) = (   0.8750001   0.0721687   1.0183331  )
        40           Ga  tau(  40) = (   0.7500001   0.2886751   0.2033935  )
        41           Ga  tau(  41) = (   0.7500001   0.2886751   0.6108633  )
        42           Ga  tau(  42) = (   0.7500001   0.2886751   1.0183331  )
        43           Ga  tau(  43) = (   0.6250001   0.5051814   0.2033935  )
        44           Ga  tau(  44) = (   0.6250001   0.5051814   0.6108633  )
        45           Ga  tau(  45) = (   0.6250001   0.5051814   1.0183331  )
        46           Ga  tau(  46) = (   0.5000001   0.7216878   0.2033935  )
        47           Ga  tau(  47) = (   0.5000001   0.7216878   0.6108633  )
        48           Ga  tau(  48) = (   0.5000001   0.7216878   1.0183331  )
        49           Ga  tau(  49) = (  -0.0000002   0.1443377   0.4071284  )
        50           Ga  tau(  50) = (  -0.0000002   0.1443377   0.8145982  )
        51           Ga  tau(  51) = (  -0.0000002   0.1443377   1.2220680  )
        52           Ga  tau(  52) = (  -0.1250002   0.3608440   0.4071284  )
        53           Ga  tau(  53) = (  -0.1250002   0.3608440   0.8145982  )
        54           Ga  tau(  54) = (  -0.1250002   0.3608440   1.2220680  )
        55           Ga  tau(  55) = (  -0.2500002   0.5773504   0.4071284  )
        56           Ga  tau(  56) = (  -0.2500002   0.5773504   0.8145982  )
        57           Ga  tau(  57) = (  -0.2500002   0.5773504   1.2220680  )
        58           Ga  tau(  58) = (  -0.3750001   0.7938567   0.4071284  )
        59           Ga  tau(  59) = (  -0.3750001   0.7938567   0.8145982  )
        60           Ga  tau(  60) = (  -0.3750001   0.7938567   1.2220680  )
[...]
[...]
     atom   44 type  1   force =     0.00000000    0.00000000    0.00000000
     atom   45 type  1   force =     0.00000000    0.00000000    0.00000000
     atom   46 type  1   force =     0.00000000    0.00000000    0.00000000
     atom   47 type  1   force =     0.00000000    0.00000000    0.00000000
     atom   48 type  1   force =     0.00000000    0.00000000    0.00000000
     atom   49 type  1   force =     0.00000000    0.00000000    0.00000000
     atom   50 type  1   force =     0.00000000    0.00000000    0.00000000
     atom   51 type  1   force =     0.00000000    0.00000000    0.00000000
     atom   52 type  1   force =     0.00000000    0.00000000    0.00000000
     atom   53 type  1   force =     0.00000000    0.00000000    0.00000000
     atom   54 type  1   force =     0.00000000    0.00000000    0.00000000
     atom   55 type  1   force =     0.00000000    0.00000000    0.00000000
     atom   56 type  1   force =     0.00000000    0.00000000    0.00000000
     atom   57 type  1   force =     0.00000000    0.00000000    0.00000000
     atom   58 type  1   force =     0.00000000    0.00000000    0.00000000
     atom   59 type  1   force =     0.00000000    0.00000000    0.00000000
     atom   60 type  1   force =     0.00000000    0.00000000    0.00000000
[...]
     atom  178 type  2   force =     0.00000000    0.00000000    0.00000000
     atom  179 type  2   force =     0.00000000    0.00000000    0.00000000
     atom  180 type  2   force =     0.00000000    0.00000000    0.00000000
     atom  181 type  2   force =     0.00000000    0.00000000    0.00000000
     atom  182 type  2   force =     0.00000000    0.00000000    0.00000000
     atom  183 type  2   force =     0.00000000    0.00000000    0.00000000
     atom  184 type  2   force =     0.00000000    0.00000000    0.00000000
     atom  185 type  2   force =     0.00000000    0.00000000    0.00000000
     atom  186 type  2   force =     0.00000000    0.00000000    0.00000000
     atom  187 type  2   force =     0.00000000    0.00000000    0.00000000
     atom  188 type  2   force =     0.00000000    0.00000000    0.00000000
     atom  189 type  2   force =     0.00000000    0.00000000    0.00000000
     atom  190 type  2   force =     0.00000000    0.00000000    0.00000000
     atom  191 type  2   force =     0.00000000    0.00000000    0.00000000
     atom  192 type  1   force =     0.00000000    0.00000000    0.00000000
     The SCF correction term to forces
     atom    1 type  1   force =    -0.00000000    0.00000000    0.00000072
     atom    2 type  1   force =     0.00000000   -0.00000000   -0.00000095
     atom    3 type  1   force =    -0.00000000    0.00000000   -0.00000013
     atom    4 type  1   force =    -0.00000018    0.00000039    0.00000041
     atom    5 type  1   force =    -0.00000009   -0.00000031    0.00000025
     atom    6 type  1   force =    -0.00000018    0.00000037   -0.00000026
     atom    7 type  1   force =    -0.00000013   -0.00000008   -0.00000021
     atom    8 type  1   force =    -0.00000008   -0.00000005    0.00000074
     atom    9 type  1   force =     0.00000021    0.00000012   -0.00000064
     atom   10 type  1   force =     0.00000024   -0.00000035    0.00000041
     atom   11 type  1   force =    -0.00000031    0.00000007    0.00000025
     atom   12 type  1   force =     0.00000023   -0.00000034   -0.00000026
     atom   13 type  1   force =     0.00000042   -0.00000004    0.00000041
     atom   14 type  1   force =    -0.00000022    0.00000023    0.00000025
     atom   15 type  1   force =     0.00000041   -0.00000003   -0.00000026
     atom   16 type  1   force =     0.00000018    0.00000039    0.00000041
     atom   17 type  1   force =     0.00000009   -0.00000031    0.00000025
     atom   18 type  1   force =     0.00000018    0.00000037   -0.00000026
     atom   19 type  1   force =     0.00000000   -0.00000008   -0.00000039
     atom   20 type  1   force =    -0.00000000   -0.00000009    0.00000066
     atom   21 type  1   force =     0.00000000    0.00000039   -0.00000048
     atom   22 type  1   force =    -0.00000007    0.00000004   -0.00000039
     atom   23 type  1   force =    -0.00000008    0.00000005    0.00000066
     atom   24 type  1   force =     0.00000033   -0.00000019   -0.00000048
     atom   25 type  1   force =    -0.00000000    0.00000015   -0.00000021
     atom   26 type  1   force =    -0.00000000    0.00000009    0.00000074
     atom   27 type  1   force =    -0.00000000   -0.00000024   -0.00000064
     atom   28 type  1   force =     0.00000005    0.00000003   -0.00000006
     atom   29 type  1   force =     0.00000007    0.00000004    0.00000048
     atom   30 type  1   force =     0.00000033    0.00000019   -0.00000066
     atom   31 type  1   force =     0.00000013   -0.00000008   -0.00000021
     atom   32 type  1   force =     0.00000008   -0.00000005    0.00000074
     atom   33 type  1   force =    -0.00000021    0.00000012   -0.00000064
     atom   34 type  1   force =     0.00000007    0.00000004   -0.00000039
     atom   35 type  1   force =     0.00000008    0.00000005    0.00000066
     atom   36 type  1   force =    -0.00000033   -0.00000019   -0.00000048
     atom   37 type  1   force =    -0.00000042   -0.00000004    0.00000041
     atom   38 type  1   force =     0.00000022    0.00000023    0.00000025
     atom   39 type  1   force =    -0.00000041   -0.00000003   -0.00000026
     atom   40 type  1   force =    -0.00000005    0.00000003   -0.00000006
     atom   41 type  1   force =    -0.00000007    0.00000004    0.00000048
     atom   42 type  1   force =    -0.00000033    0.00000019   -0.00000066
     atom   43 type  1   force =    -0.00000000   -0.00000006   -0.00000006
     atom   44 type  1   force =    -0.00000000   -0.00000009    0.00000048
     atom   45 type  1   force =     0.00000000   -0.00000038   -0.00000066
     atom   46 type  1   force =    -0.00000024   -0.00000035    0.00000041
     atom   47 type  1   force =     0.00000031    0.00000007    0.00000025
     atom   48 type  1   force =    -0.00000023   -0.00000034   -0.00000026
     atom   49 type  1   force =     0.00000033   -0.00000019   -0.00000008
     atom   50 type  1   force =    -0.00000012    0.00000007   -0.00000033
     atom   51 type  1   force =    -0.00000026    0.00000015   -0.00000049
     atom   52 type  1   force =    -0.00000004   -0.00000006    0.00000054
     atom   53 type  1   force =    -0.00000014    0.00000006    0.00000005
     atom   54 type  1   force =    -0.00000007    0.00000025   -0.00000066
     atom   55 type  1   force =    -0.00000007   -0.00000001    0.00000054
     atom   56 type  1   force =    -0.00000001   -0.00000015    0.00000005
     atom   57 type  1   force =     0.00000018   -0.00000018   -0.00000066
     atom   58 type  1   force =     0.00000000    0.00000038   -0.00000008
     atom   59 type  1   force =     0.00000000   -0.00000014   -0.00000033
     atom   60 type  1   force =    -0.00000000   -0.00000030   -0.00000049
[...]
     atom  178 type  2   force =    -0.00000000    0.00000004    0.00000023
     atom  179 type  2   force =     0.00000000   -0.00000007   -0.00000011
     atom  180 type  2   force =    -0.00000006   -0.00000002    0.00000003
     atom  181 type  2   force =     0.00000007    0.00000012    0.00000010
     atom  182 type  2   force =    -0.00000005   -0.00000002   -0.00000019
     atom  183 type  2   force =    -0.00000000    0.00000000   -0.00000004
     atom  184 type  2   force =    -0.00000000    0.00000000    0.00000022
     atom  185 type  2   force =     0.00000000   -0.00000000   -0.00000021
     atom  186 type  2   force =    -0.00000004   -0.00000004    0.00000003
     atom  187 type  2   force =     0.00000014   -0.00000000    0.00000010
     atom  188 type  2   force =    -0.00000004   -0.00000004   -0.00000019
     atom  189 type  2   force =    -0.00000008   -0.00000005   -0.00000001
     atom  190 type  2   force =     0.00000011    0.00000006    0.00000008
     atom  191 type  2   force =    -0.00000012   -0.00000007   -0.00000014
     atom  192 type  1   force =     0.00000000   -0.00000000    0.00000291

     Total force =     0.004198     Total SCF correction =     0.000006

     Computing stress (Cartesian axis) and pressure

     Non-local corr. energy    =      52.69600390 Ry

          total   stress  (Ry/bohr**3)                   (kbar)     P=        5.10
   0.00001474  -0.00000000   0.00000000            2.17       -0.00        0.00
   0.00000000   0.00001474   0.00000000            0.00        2.17        0.00
   0.00000000  -0.00000000   0.00007446            0.00       -0.00       10.95

     kinetic stress (kbar)  18465.70     -0.00      0.00
                               -0.00  18465.70      0.00
                                0.00      0.00  18479.42

     local   stress (kbar)   5700.36     -0.07     -0.00
                               -0.07   5700.26      0.00
                               -0.00      0.00   3702.93

     nonloc. stress (kbar)     92.84      0.00      0.00
                                0.00     92.84      0.00
                                0.00      0.00     97.50

     hartree stress (kbar)  19712.24     -0.00     -0.00
                               -0.00  19712.24      0.00
                               -0.00      0.00  20595.99

     exc-cor stress (kbar)   5294.86      0.00     -0.00
                                0.00   5294.86      0.00
                               -0.00      0.00   5296.17

     corecor stress (kbar) -14244.34     -0.00     -0.00
                               -0.00 -14244.34      0.00
                               -0.00      0.00 -14244.21

     ewald   stress (kbar) -35182.96      0.10      0.00
                                0.10 -35182.84     -0.00
                                0.00     -0.00 -34079.14

     hubbard stress (kbar)      0.00      0.00      0.00
                                0.00      0.00      0.00
                                0.00      0.00      0.00

     DFT-D   stress (kbar)      0.00      0.00      0.00
                                0.00      0.00      0.00
                                0.00      0.00      0.00

     XDM     stress (kbar)      0.00      0.00      0.00
                                0.00      0.00      0.00
                                0.00      0.00      0.00

     dft-nl  stress (kbar)    163.45     -0.00     -0.00
                               -0.00    163.45     -0.00
                               -0.00     -0.00    162.29

     TS-vdW  stress (kbar)      0.00      0.00      0.00
                                0.00      0.00      0.00
                                0.00      0.00      0.00

     MDB     stress (kbar)      0.00      0.00      0.00
                                0.00      0.00      0.00
                                0.00      0.00      0.00

     3D-RISM stress (kbar)      0.00      0.00      0.00
                                0.00      0.00      0.00
                                0.00      0.00      0.00

     Energy error            =      4.5E-05 Ry
     Gradient error          =      8.9E-04 Ry/Bohr

     bfgs converged in  18 scf cycles and  17 bfgs steps
     (criteria: energy <  1.0E-04 Ry, force <  1.0E-03 Ry/Bohr)

     End of BFGS Geometry Optimization

     Final energy             =  -30234.5599838310 Ry

     File ./GaN.bfgs deleted, as requested
Begin final coordinates

ATOMIC_POSITIONS (angstrom)
Ga            1.6222756606        0.9366198184        2.2559550205
Ga            1.6222756606        0.9366198184        7.9103953503
Ga            1.6222756606        0.9366198184       13.1905778583
Ga           -0.0049933083        3.7376743447        2.6085741317
Ga           -0.0043350880        3.7892884794        7.9868668228
Ga           -0.0012918063        3.7575591485       13.1921490949
Ga           -1.6220644334        6.5564628000        2.6225153575
Ga           -1.6186511949        6.5584334342        7.9470088002
Ga           -1.6199289805        6.5576957043       13.2229331706
Ga           -3.2546712809        9.3662817016        2.6085741317
Ga           -3.2096430190        9.3410446698        7.9868668228
Ga           -3.2355997847        9.3595448944       13.1921490949
Ga            4.8616945221        0.9453488211        2.6085741317
Ga            4.9060645638        0.9189717184        7.9868668228
Ga            4.8770645164        0.9322008245       13.1921490949
Ga            3.2495446295        3.7376743447        2.6085741317
Ga            3.2488864092        3.7892884794        7.9868668228
Ga            3.2458431275        3.7575591485       13.1921490949
Ga            1.6222756606        6.5519190538        2.6358808245
Ga            1.6222756606        6.5663266719        7.9359784193
Ga            1.6222756606        6.5613375135       13.2268384016
Ga           -0.0038293860        9.3684156130        2.6358808245
Ga            0.0086479773        9.3612118039        7.9359784193
Ga            0.0043272394        9.3637063831       13.2268384016
Ga            8.1113724947        0.9363792675        2.6225153575
Ga            8.1113724947        0.9324379992        7.9470088002
Ga            8.1113724947        0.9339134590       13.2229331706
Ga            6.4885031813        3.7461375875        2.6281412582
Ga            6.4923078316        3.7483342034        7.9454466768
Ga            6.4918420248        3.7480652697       13.2210823816
Ga            4.8666157546        6.5564628000        2.6225153575
Ga            4.8632025161        6.5584334342        7.9470088002
Ga            4.8644803017        6.5576957043       13.2229331706
Ga            3.2483807072        9.3684156130        2.6358808245
Ga            3.2359033439        9.3612118039        7.9359784193
Ga            3.2402240818        9.3637063831       13.2268384016
Ga           11.3610504674        0.9453488211        2.6085741317
Ga           11.3166804257        0.9189717184        7.9868668228
Ga           11.3456804731        0.9322008245       13.1921490949
Ga            9.7342418082        3.7461375875        2.6281412582
Ga            9.7304371579        3.7483342034        7.9454466768
Ga            9.7309029647        3.7480652697       13.2210823816
Ga            8.1113724947        6.5570296925        2.6281412582
Ga            8.1113724947        6.5526364608        7.9454466768
Ga            8.1113724947        6.5531743281       13.2210823816
Ga            6.4992226021        9.3662817016        2.6085741317
Ga            6.4541943402        9.3410446698        7.9868668228
Ga            6.4801511059        9.3595448944       13.1921490949
Ga           -0.2631831816        2.0251901928        5.4553197981
Ga            0.0005642332        1.8729155519       10.5679164062
Ga           -0.0352535345        1.8935949498       15.7569036902
Ga           -1.6527727818        4.7188263664        5.2947693109
Ga           -1.6311727601        4.6890872010       10.5912005166
Ga           -1.6236186225        4.6859364812       15.8494330832
Ga           -3.2288620358        7.4486930316        5.2947693109
Ga           -3.2438168976        7.4822687818       10.5912005166
Ga           -3.2427684323        7.4903862167       15.8494330832
Ga           -4.8668245904        9.9989310130        5.4553197981
Ga           -4.8668245904       10.3034802949       10.5679164062
Ga           -4.8668245904       10.2621214991       15.7569036902
[...]
N             1.6222722437       10.3047164449        7.2756453470
N             1.6222722437       10.3015301130       12.5703471167
N             9.7300007449        1.8736121522        1.9798686586
N             9.7271078221        1.8739784867        7.2836832778
N             9.7255287267        1.8777703880       12.5683060947
N             8.1113690779        4.6831037996        1.9869247762
N             8.1113690779        4.6831037996        7.2796736976
N             8.1113690779        4.6831037996       12.5684827190
N             6.4875937731        7.4896257664        1.9798686586
N             6.4864645667        7.4869372545        7.2836832778
N             6.4889589018        7.4836737671       12.5683060947
N             4.8729140534       10.3063445276        1.9821611358
N             4.8670499484       10.3029588850        7.2908229769
N             4.8566277667       10.2969416355       12.5649726209
Ga            1.6222756606        0.9366198184        4.5242078952
End final coordinates

     Writing all to output data dir ./GaN.save/

     General routines

     Parallel routines

     PAW routines

   This run was terminated on:  21:49:24   2Oct2023

   JOB DONE.