     Program PWSCF v.7.1 starts on 24Mar2024 at 19:14:41

     Reading input from espresso.pwi
Warning: card &CELL ignored
Warning: card    CELL_DYNAMICS    = 'BFGS' ignored
Warning: card / ignored

     Current dimensions of program PWSCF are:
     Max number of different atomic species (ntypx) = 10
     Max number of k-points (npk) =  40000
     Max angular momentum in pseudopotentials (lmaxx) =  4
     file Pb.pbe-dn-kjpaw_psl.1.0.0.UPF: wavefunction(s)  6S 6P 5D renormalized
     file I.pbe-dn-kjpaw_psl.1.0.0.UPF: wavefunction(s)  5S 5P renormalized

     IMPORTANT: XC functional enforced from input :
     Exchange-correlation= BEEF-VDW
                           (   1   4  43  14   2   0   0)
     Any further DFT definition will be discarded
     Please, verify this is what you really want

     K-points division:     npool     =       2
     R & G space division:  proc/nbgrp/npool/nimage =      45
     Subspace diagonalization in iterative solution of the eigenvalue problem:
     a serial algorithm will be used

     Using Slab Decomposition

     bravais-lattice index     =            4
     lattice parameter (alat)  =      26.7090  a.u.
     unit-cell volume          =   17226.5091 (a.u.)^3
     number of atoms/cell      =           54
     number of atomic types    =            2
     number of electrons       =       861.00
     number of Kohn-Sham states=          517
     kinetic-energy cutoff     =      70.0000  Ry
     charge density cutoff     =     350.0000  Ry
     scf convergence threshold =      1.0E-07
     mixing beta               =       0.7000
     number of iterations used =            8  plain     mixing
     Exchange-correlation= BEEF-VDW
                           (   1   4  43  14   2   0   0)

     celldm(1)=  26.709025  celldm(2)=   0.000000  celldm(3)=   1.043981
     celldm(4)=   0.000000  celldm(5)=   0.000000  celldm(6)=   0.000000

     crystal axes: (cart. coord. in units of alat)
               a(1) = (   1.000000   0.000000   0.000000 )
               a(2) = (  -0.500000   0.866025   0.000000 )
               a(3) = (   0.000000   0.000000   1.043981 )

     reciprocal axes: (cart. coord. in units 2 pi/alat)
               b(1) = (  1.000000  0.577350 -0.000000 )
               b(2) = (  0.000000  1.154701  0.000000 )
               b(3) = (  0.000000 -0.000000  0.957872 )

     PseudoPot. # 1 for Pb read from file:
     /trace/group/acmegroup/atimmins/packages/espresso/pseudo/psl_1.0.0/pslibrary.1.0.0/pbe/PSEUDOPOTENTIALS/Pb.pbe-dn-kjpaw_psl.1.0.0.UPF
     MD5 check sum: 39ab5b8a6bbd56b7735ad9f188aac93a
     Pseudo is Projector augmented-wave + core cor, Zval = 14.0
     Generated using 'atomic' code by A. Dal Corso  v.7.1
     Shape of augmentation charge: PSQ
     Using radial grid of 1281 points,  6 beta functions with:
                l(1) =   0
                l(2) =   0
                l(3) =   1
                l(4) =   1
                l(5) =   2
                l(6) =   2
     Q(r) pseudized with 0 coefficients

     PseudoPot. # 2 for I  read from file:
     /trace/group/acmegroup/atimmins/packages/espresso/pseudo/psl_1.0.0/pslibrary.1.0.0/pbe/PSEUDOPOTENTIALS/I.pbe-dn-kjpaw_psl.1.0.0.UPF
     MD5 check sum: bfa8781bc1224d19af3f3980e3fab11e
     Pseudo is Projector augmented-wave + core cor, Zval = 17.0
     Generated using 'atomic' code by A. Dal Corso  v.7.1
     Shape of augmentation charge: PSQ
     Using radial grid of 1247 points,  6 beta functions with:
                l(1) =   0
                l(2) =   0
                l(3) =   1
                l(4) =   1
                l(5) =   2
                l(6) =   2
     Q(r) pseudized with 0 coefficients

     atomic species   valence    mass     pseudopotential
        Pb            14.00   207.20000     Pb( 1.00)
        I             17.00   126.90447     I ( 1.00)

     No symmetry found

                                    s                        frac. trans.

      isym =  1     identity

 cryst.   s( 1) = (     1          0          0      )
                  (     0          1          0      )
                  (     0          0          1      )

 cart.    s( 1) = (  1.0000000  0.0000000  0.0000000 )
                  (  0.0000000  1.0000000  0.0000000 )
                  (  0.0000000  0.0000000  1.0000000 )

     point group C_1 (1)
     there are  1 classes
     the character table:

       E
A      1.00

     the symmetry operations in each class and the name of the first element:

     E        1
          identity

   Cartesian axes

     site n.     atom                  positions (alat units)
         1           Pb  tau(   1) = (   0.1666780   0.2886497   1.0439767  )
         2           Pb  tau(   2) = (   0.1666712   0.2886557   0.5219862  )
         3           Pb  tau(   3) = (   0.0000102   0.5773235   1.0439712  )
         4           Pb  tau(   4) = (   0.0000034   0.5773295   0.5219807  )
         5           Pb  tau(   5) = (  -0.1666576   0.8659973   1.0439657  )
         6           Pb  tau(   6) = (  -0.1666644   0.8660033   0.5219752  )
         7           Pb  tau(   7) = (   0.5000113   0.2886484   1.0439810  )
         8           Pb  tau(   8) = (   0.5000045   0.2886544   0.5219905  )
         9           Pb  tau(   9) = (   0.3333436   0.5773222   1.0439755  )
        10           Pb  tau(  10) = (   0.3333367   0.5773282   0.5219850  )
        11           Pb  tau(  11) = (   0.1666758   0.8659960   1.0439700  )
        12           Pb  tau(  12) = (   0.1666690   0.8660020   0.5219795  )
        13           Pb  tau(  13) = (   0.8333447   0.2886471   1.0439853  )
        14           Pb  tau(  14) = (   0.8333379   0.2886531   0.5219949  )
        15           Pb  tau(  15) = (   0.6666769   0.5773209   1.0439798  )
        16           Pb  tau(  16) = (   0.6666701   0.5773269   0.5219894  )
        17           Pb  tau(  17) = (   0.5000091   0.8659947   1.0439743  )
        18           Pb  tau(  18) = (   0.5000023   0.8660007   0.5219839  )
        19           I   tau(  19) = (   0.1666806   0.0962006   0.9099004  )
        20           I   tau(  20) = (   0.0000060   0.3848804   0.3879044  )
        21           I   tau(  21) = (   0.0000129   0.3848744   0.9098949  )
        22           I   tau(  22) = (  -0.1666617   0.6735542   0.3878990  )
        23           I   tau(  23) = (  -0.1666549   0.6735482   0.9098894  )
        24           I   tau(  24) = (   0.5000071   0.0962053   0.3879143  )
        25           I   tau(  25) = (   0.5000140   0.0961993   0.9099047  )
        26           I   tau(  26) = (   0.3333394   0.3848792   0.3879088  )
        27           I   tau(  27) = (   0.3333462   0.3848731   0.9098993  )
        28           I   tau(  28) = (   0.1666716   0.6735530   0.3879033  )
        29           I   tau(  29) = (   0.1666784   0.6735469   0.9098938  )
        30           I   tau(  30) = (   0.8333405   0.0962041   0.3879186  )
        31           I   tau(  31) = (   0.8333473   0.0961980   0.9099091  )
        32           I   tau(  32) = (   0.6666727   0.3848779   0.3879131  )
        33           I   tau(  33) = (   0.6666795   0.3848718   0.9099036  )
        34           I   tau(  34) = (   0.5000049   0.6735517   0.3879076  )
        35           I   tau(  35) = (   0.5000117   0.6735457   0.9098981  )
        36           I   tau(  36) = (  -0.0000023   0.1924396   0.1340740  )
        37           I   tau(  37) = (   0.0000045   0.1924336   0.6560644  )
        38           I   tau(  38) = (  -0.1666701   0.4811134   0.1340685  )
        39           I   tau(  39) = (  -0.1666632   0.4811074   0.6560589  )
        40           I   tau(  40) = (  -0.3333378   0.7697873   0.1340630  )
        41           I   tau(  41) = (  -0.3333310   0.7697812   0.6560534  )
        42           I   tau(  42) = (   0.3333311   0.1924384   0.1340783  )
        43           I   tau(  43) = (   0.3333379   0.1924323   0.6560688  )
        44           I   tau(  44) = (   0.1666633   0.4811122   0.1340728  )
        45           I   tau(  45) = (   0.1666701   0.4811061   0.6560633  )
        46           I   tau(  46) = (  -0.0000045   0.7697860   0.1340673  )
        47           I   tau(  47) = (   0.0000023   0.7697799   0.6560578  )
        48           I   tau(  48) = (   0.6666644   0.1924371   0.1340827  )
        49           I   tau(  49) = (   0.6666712   0.1924310   0.6560731  )
        50           I   tau(  50) = (   0.4999966   0.4811109   0.1340772  )
        51           I   tau(  51) = (   0.5000034   0.4811049   0.6560676  )
        52           I   tau(  52) = (   0.3333288   0.7697847   0.1340717  )
        53           I   tau(  53) = (   0.3333356   0.7697787   0.6560621  )
        54           Pb  tau(  54) = (   0.1666738   0.0962066   0.3879099  )

   Crystallographic axes

     site n.     atom                  positions (cryst. coord.)
         1           Pb  tau(   1) = (  0.3333300  0.3333039  0.9999959  )
         2           Pb  tau(   2) = (  0.3333266  0.3333109  0.4999959  )
         3           Pb  tau(   3) = (  0.3333281  0.6666357  0.9999906  )
         4           Pb  tau(   4) = (  0.3333248  0.6666427  0.4999906  )
         5           Pb  tau(   5) = (  0.3333262  0.9999675  0.9999854  )
         6           Pb  tau(   6) = (  0.3333229  0.9999745  0.4999854  )
         7           Pb  tau(   7) = (  0.6666626  0.3333025  1.0000001  )
         8           Pb  tau(   8) = (  0.6666592  0.3333094  0.5000001  )
         9           Pb  tau(   9) = (  0.6666607  0.6666343  0.9999948  )
        10           Pb  tau(  10) = (  0.6666573  0.6666412  0.4999948  )
        11           Pb  tau(  11) = (  0.6666588  0.9999661  0.9999895  )
        12           Pb  tau(  12) = (  0.6666555  0.9999730  0.4999895  )
        13           Pb  tau(  13) = (  0.9999951  0.3333010  1.0000042  )
        14           Pb  tau(  14) = (  0.9999918  0.3333079  0.5000042  )
        15           Pb  tau(  15) = (  0.9999933  0.6666328  0.9999990  )
        16           Pb  tau(  16) = (  0.9999899  0.6666397  0.4999990  )
        17           Pb  tau(  17) = (  0.9999914  0.9999646  0.9999937  )
        18           Pb  tau(  18) = (  0.9999881  0.9999715  0.4999937  )
        19           I   tau(  19) = (  0.2222221  0.1110829  0.8715680  )
        20           I   tau(  20) = (  0.2222169  0.4444217  0.3715628  )
        21           I   tau(  21) = (  0.2222202  0.4444147  0.8715628  )
        22           I   tau(  22) = (  0.2222150  0.7777534  0.3715575  )
        23           I   tau(  23) = (  0.2222183  0.7777465  0.8715575  )
        24           I   tau(  24) = (  0.5555513  0.1110884  0.3715722  )
        25           I   tau(  25) = (  0.5555547  0.1110814  0.8715722  )
        26           I   tau(  26) = (  0.5555495  0.4444202  0.3715669  )
        27           I   tau(  27) = (  0.5555528  0.4444132  0.8715669  )
        28           I   tau(  28) = (  0.5555476  0.7777520  0.3715617  )
        29           I   tau(  29) = (  0.5555509  0.7777450  0.8715617  )
        30           I   tau(  30) = (  0.8888839  0.1110869  0.3715764  )
[...]
     atom   38 type  2   force =     0.00023433    0.00014001    0.00553726
     atom   39 type  2   force =    -0.00005385   -0.00002886    0.00476231
     atom   40 type  2   force =     0.00005150   -0.00056470    0.00451751
     atom   41 type  2   force =     0.00019029   -0.00065154    0.00528130
     atom   42 type  2   force =     0.00050776    0.00027333    0.00446072
     atom   43 type  2   force =     0.00046567    0.00026653    0.00535507
     atom   44 type  2   force =    -0.00011054    0.00008037    0.00545856
     atom   45 type  2   force =    -0.00010592   -0.00160469    0.00460248
     atom   46 type  2   force =     0.00000975   -0.00013155    0.00545092
     atom   47 type  2   force =    -0.00144915    0.00071812    0.00459972
     atom   48 type  2   force =     0.00003566   -0.00012317    0.00553089
     atom   49 type  2   force =    -0.00010219   -0.00008323    0.00483753
     atom   50 type  2   force =    -0.00007225    0.00009627    0.00553066
     atom   51 type  2   force =    -0.00012055   -0.00004387    0.00484215
     atom   52 type  2   force =    -0.00010851   -0.00006115    0.00544167
     atom   53 type  2   force =     0.00122020    0.00070686    0.00455192
     atom   54 type  1   force =     0.00000335    0.00000290   -0.00204631
     The Hubbard contrib.    to forces
     atom    1 type  1   force =     0.00000000    0.00000000    0.00000000
     atom    2 type  1   force =     0.00000000    0.00000000    0.00000000
     atom    3 type  1   force =     0.00000000    0.00000000    0.00000000
     atom    4 type  1   force =     0.00000000    0.00000000    0.00000000
     atom    5 type  1   force =     0.00000000    0.00000000    0.00000000
     atom    6 type  1   force =     0.00000000    0.00000000    0.00000000
     atom    7 type  1   force =     0.00000000    0.00000000    0.00000000
     atom    8 type  1   force =     0.00000000    0.00000000    0.00000000
     atom    9 type  1   force =     0.00000000    0.00000000    0.00000000
     atom   10 type  1   force =     0.00000000    0.00000000    0.00000000
     atom   11 type  1   force =     0.00000000    0.00000000    0.00000000
     atom   12 type  1   force =     0.00000000    0.00000000    0.00000000
     atom   13 type  1   force =     0.00000000    0.00000000    0.00000000
     atom   14 type  1   force =     0.00000000    0.00000000    0.00000000
     atom   15 type  1   force =     0.00000000    0.00000000    0.00000000
     atom   16 type  1   force =     0.00000000    0.00000000    0.00000000
     atom   17 type  1   force =     0.00000000    0.00000000    0.00000000
     atom   18 type  1   force =     0.00000000    0.00000000    0.00000000
     atom   19 type  2   force =     0.00000000    0.00000000    0.00000000
     atom   20 type  2   force =     0.00000000    0.00000000    0.00000000
     atom   21 type  2   force =     0.00000000    0.00000000    0.00000000
     atom   22 type  2   force =     0.00000000    0.00000000    0.00000000
     atom   23 type  2   force =     0.00000000    0.00000000    0.00000000
     atom   24 type  2   force =     0.00000000    0.00000000    0.00000000
     atom   25 type  2   force =     0.00000000    0.00000000    0.00000000
     atom   26 type  2   force =     0.00000000    0.00000000    0.00000000
     atom   27 type  2   force =     0.00000000    0.00000000    0.00000000
     atom   28 type  2   force =     0.00000000    0.00000000    0.00000000
     atom   29 type  2   force =     0.00000000    0.00000000    0.00000000
     atom   30 type  2   force =     0.00000000    0.00000000    0.00000000
     atom   31 type  2   force =     0.00000000    0.00000000    0.00000000
     atom   32 type  2   force =     0.00000000    0.00000000    0.00000000
     atom   33 type  2   force =     0.00000000    0.00000000    0.00000000
     atom   34 type  2   force =     0.00000000    0.00000000    0.00000000
     atom   35 type  2   force =     0.00000000    0.00000000    0.00000000
     atom   36 type  2   force =     0.00000000    0.00000000    0.00000000
     atom   37 type  2   force =     0.00000000    0.00000000    0.00000000
     atom   38 type  2   force =     0.00000000    0.00000000    0.00000000
     atom   39 type  2   force =     0.00000000    0.00000000    0.00000000
     atom   40 type  2   force =     0.00000000    0.00000000    0.00000000
     atom   41 type  2   force =     0.00000000    0.00000000    0.00000000
     atom   42 type  2   force =     0.00000000    0.00000000    0.00000000
     atom   43 type  2   force =     0.00000000    0.00000000    0.00000000
     atom   44 type  2   force =     0.00000000    0.00000000    0.00000000
     atom   45 type  2   force =     0.00000000    0.00000000    0.00000000
     atom   46 type  2   force =     0.00000000    0.00000000    0.00000000
     atom   47 type  2   force =     0.00000000    0.00000000    0.00000000
     atom   48 type  2   force =     0.00000000    0.00000000    0.00000000
     atom   49 type  2   force =     0.00000000    0.00000000    0.00000000
     atom   50 type  2   force =     0.00000000    0.00000000    0.00000000
     atom   51 type  2   force =     0.00000000    0.00000000    0.00000000
     atom   52 type  2   force =     0.00000000    0.00000000    0.00000000
     atom   53 type  2   force =     0.00000000    0.00000000    0.00000000
     atom   54 type  1   force =     0.00000000    0.00000000    0.00000000
     The SCF correction term to forces
     atom    1 type  1   force =     0.00000740    0.00000427   -0.00000212
     atom    2 type  1   force =    -0.00001788    0.00006123   -0.00000885
     atom    3 type  1   force =     0.00000877   -0.00000187   -0.00000726
     atom    4 type  1   force =     0.00000756   -0.00002002    0.00000269
     atom    5 type  1   force =     0.00000033    0.00000751   -0.00000021
     atom    6 type  1   force =     0.00002559   -0.00002364   -0.00000862
     atom    7 type  1   force =    -0.00001664   -0.00000244   -0.00000124
     atom    8 type  1   force =     0.00005454    0.00004625   -0.00002024
     atom    9 type  1   force =    -0.00000729   -0.00000722   -0.00001604
     atom   10 type  1   force =     0.00001184    0.00001114    0.00001327
     atom   11 type  1   force =    -0.00000374   -0.00000601   -0.00001562
     atom   12 type  1   force =     0.00003611    0.00000256    0.00001022
     atom   13 type  1   force =     0.00000892    0.00000048   -0.00000044
     atom   14 type  1   force =    -0.00003908    0.00001510   -0.00001855
     atom   15 type  1   force =    -0.00000126    0.00000489    0.00000141
     atom   16 type  1   force =    -0.00001973   -0.00005736   -0.00001893
     atom   17 type  1   force =     0.00000177    0.00000015   -0.00000610
     atom   18 type  1   force =    -0.00007753   -0.00003342   -0.00001323
     atom   19 type  2   force =    -0.00000051    0.00000959    0.00003142
     atom   20 type  2   force =    -0.00004789    0.00003014   -0.00002784
     atom   21 type  2   force =     0.00001362    0.00001220   -0.00000826
     atom   22 type  2   force =     0.00000169   -0.00008533   -0.00004809
     atom   23 type  2   force =     0.00001479   -0.00000579   -0.00000121
     atom   24 type  2   force =     0.00007844    0.00003687   -0.00005140
     atom   25 type  2   force =     0.00000835   -0.00000063   -0.00000150
     atom   26 type  2   force =     0.00004577    0.00005230   -0.00003658
     atom   27 type  2   force =    -0.00000526    0.00001363   -0.00000719
     atom   28 type  2   force =     0.00002273   -0.00000527   -0.00000492
     atom   29 type  2   force =     0.00000805   -0.00000728   -0.00003708
     atom   30 type  2   force =    -0.00002979    0.00000770   -0.00000731
     atom   31 type  2   force =    -0.00000798   -0.00001308   -0.00002735
     atom   32 type  2   force =    -0.00000060    0.00000029    0.00000297
     atom   33 type  2   force =    -0.00000839   -0.00000191   -0.00003281
     atom   34 type  2   force =    -0.00002262   -0.00003798   -0.00001125
     atom   35 type  2   force =    -0.00002207   -0.00000731   -0.00002567
     atom   36 type  2   force =    -0.00000473    0.00001186   -0.00000950
     atom   37 type  2   force =    -0.00006943    0.00001624    0.00005271
     atom   38 type  2   force =     0.00000588    0.00000039    0.00003393
     atom   39 type  2   force =    -0.00001402   -0.00002278    0.00000465
     atom   40 type  2   force =    -0.00000292   -0.00001139   -0.00001199
     atom   41 type  2   force =    -0.00005006   -0.00007151    0.00006780
     atom   42 type  2   force =     0.00000634    0.00001646   -0.00002243
     atom   43 type  2   force =     0.00004949    0.00006218    0.00008942
     atom   44 type  2   force =     0.00000136   -0.00000470   -0.00000473
     atom   45 type  2   force =     0.00001171    0.00004276    0.00004085
     atom   46 type  2   force =     0.00000108   -0.00000578   -0.00000850
     atom   47 type  2   force =     0.00006353   -0.00003189    0.00005893
     atom   48 type  2   force =    -0.00000601    0.00000432    0.00003480
     atom   49 type  2   force =     0.00002084    0.00001264    0.00000735
     atom   50 type  2   force =    -0.00000735   -0.00000594    0.00003386
     atom   51 type  2   force =     0.00000202    0.00000843    0.00000466
     atom   52 type  2   force =     0.00000090   -0.00000575    0.00000927
     atom   53 type  2   force =    -0.00001241   -0.00001628    0.00002165
     atom   54 type  1   force =    -0.00003202    0.00000214   -0.00005479

     Total force =     0.003463     Total SCF correction =     0.000356
     SCF correction compared to forces is large: reduce conv_thr to get better values

     Computing stress (Cartesian axis) and pressure

[...]

          total   stress  (Ry/bohr**3)                   (kbar)     P=        0.78
   0.00000182  -0.00000011   0.00000040            0.27       -0.02        0.06
  -0.00000011   0.00000195   0.00000023           -0.02        0.29        0.03
   0.00000040   0.00000023   0.00001205            0.06        0.03        1.77

     kinetic stress (kbar)  15120.06      0.09      0.01
                                0.09  15119.94      0.00
                                0.01      0.00  15134.96

     local   stress (kbar)  -7250.82      5.49     -5.97
                                5.49  -7257.55     -3.54
                               -5.97     -3.54   1294.43

     nonloc. stress (kbar)  -1265.95      0.04      0.02
                                0.04  -1266.00      0.01
                                0.02      0.01  -1267.07

     hartree stress (kbar)  11820.61     -1.97      2.27
                               -1.97  11823.04      1.34
                                2.27      1.34   7959.90

     exc-cor stress (kbar)   6881.79     -0.00      0.01
                               -0.00   6881.79      0.00
                                0.01      0.00   6881.06

     corecor stress (kbar) -11218.17     -0.00     -0.00
                               -0.00 -11218.16     -0.00
                               -0.00     -0.00 -11218.20

     ewald   stress (kbar) -14169.57     -3.66      3.72
                               -3.66 -14165.10      2.21
                                3.72      2.21 -18866.79

     hubbard stress (kbar)      0.00      0.00      0.00
                                0.00      0.00      0.00
                                0.00      0.00      0.00

     DFT-D   stress (kbar)      0.00      0.00      0.00
                                0.00      0.00      0.00
                                0.00      0.00      0.00

     XDM     stress (kbar)      0.00      0.00      0.00
                                0.00      0.00      0.00
                                0.00      0.00      0.00

     dft-nl  stress (kbar)     82.32      0.00     -0.00
                                0.00     82.32     -0.00
                               -0.00     -0.00     83.48

     TS-vdW  stress (kbar)      0.00      0.00      0.00
                                0.00      0.00      0.00
                                0.00      0.00      0.00

     MDB     stress (kbar)      0.00      0.00      0.00
                                0.00      0.00      0.00
                                0.00      0.00      0.00

     3D-RISM stress (kbar)      0.00      0.00      0.00
                                0.00      0.00      0.00
                                0.00      0.00      0.00

[...]

     Non-local corr. energy    =      25.57450318 Ry

 BEEFens 2000 ensemble energies
             -0.215886869308359E+02
             -0.217120365390526E+03
             -0.987957604611926E+02
              0.758837406821042E+02
             -0.166044469440007E+03
             -0.203239140039820E+03
              0.104356355116598E+03
              0.339486250313030E+00
              0.175732093673137E+03
             -0.111028585737189E+02
              0.900673330510760E+02
              0.912866500795747E+01
             -0.694681713253931E+01
             -0.567721207354714E+01
              0.112076993057633E+03
             -0.845845223549950E+02
             -0.165878239785240E+03
             -0.535067971120725E+02
              0.478920235523866E+02
             -0.110370795193603E+01
              0.244541240279272E+03
              0.204061582271756E+03
             -0.125701166500529E+03
              0.434522811835026E+02
             -0.261942645250928E+03
              0.214977202058024E+03
              0.735706159293190E+02
              0.194103789314212E+03
              0.130794881362420E+03
             -0.607424733389728E+02
              0.479180606820426E+02
             -0.854613526124044E+02
              0.357082919973095E+02
              0.130154924383673E+03
              0.140202160845495E+03
             -0.607893131148700E+02
              0.308954245015929E+03
             -0.124465405108875E+03
             -0.827324010013338E+02
              0.123551714850016E+03
              0.544910804989615E+02
              0.940310104559329E+02
             -0.181439195627266E+03
             -0.118048884447644E+02
              0.174069133970477E+03
              0.227528021953731E+03
             -0.231056010828616E+03
              0.147552729899643E+02
              0.800740025995919E+02
              0.517350147559077E+02
              0.902692737399435E+02
              0.198329597810417E+03
             -0.128910303697522E+03
             -0.125140977860472E+03
             -0.174144421602986E+03
             -0.252002262949275E+02
             -0.148489474084618E+03
              0.191615176083214E+02
             -0.214163649011907E+02
             -0.117906899546723E+03
[...]
              0.147225085995233E+03
              0.942166602469179E+02
              0.960959234965333E+02
             -0.177890527792121E+03
             -0.183672360758255E+03
             -0.414320622431257E+02
             -0.164169711954047E+03
              0.260691993496855E+03
              0.219519760877521E+03
              0.103559750562588E+03
              0.285425647860575E+03
             -0.142550472513932E+03
             -0.614917011882444E+02
             -0.886249490587805E+02
              0.247000193874625E+03

 BEEF-vdW xc energy contributions
            1 :    -2232.473520625979
            2 :     2045.470786842679
            3 :    -1726.661477239067
            4 :     1361.188525681620
            5 :    -1029.271907796148
            6 :     780.1919193885665
            7 :    -624.1129489190548
            8 :     539.6445736027008
            9 :    -490.0443636973282
           10 :     440.9198197847998
           11 :    -373.2824991471102
           12 :     287.5291287091868
           13 :    -197.8566645248661
           14 :     121.4449145171129
           15 :    -68.87043368300965
           16 :     40.15467593566609
           17 :    -26.81825282196996
           18 :     17.42316992129281
           19 :    -3.382993786522093
           20 :    -17.50769328804517
           21 :     41.13183360404673
           22 :    -60.36856788616979
           23 :     69.70996087715548
           24 :    -68.54593078103017
           25 :     61.39430635506642
           26 :    -55.23983920187948
           27 :     55.70418968236299
           28 :    -64.15294241544370
           29 :     77.13953956717978
           30 :    -88.34886143449148
           31 :    -192.7917763222581
           32 :    -138.7775245289108

     Writing all to output data dir ./PbI2.save/

     General routines

     Parallel routines

     PAW routines

   This run was terminated on:  19:19:56  24Mar2024

   JOB DONE.