     Program PWSCF v.7.1 starts on 27Sep2023 at  9:38:47

     Reading input from espresso.pwi
Warning: card &CELL ignored
Warning: card    CELL_DYNAMICS    = 'BFGS' ignored
Warning: card / ignored

     Current dimensions of program PWSCF are:
     Max number of different atomic species (ntypx) = 10
     Max number of k-points (npk) =  40000
     Max angular momentum in pseudopotentials (lmaxx) =  4
     file Ga.pbe-dn-kjpaw_psl.1.0.0.UPF: wavefunction(s)  4S renormalized
     file N.pbe-n-kjpaw_psl.1.0.0.UPF: wavefunction(s)  2S renormalized

     IMPORTANT: XC functional enforced from input :
     Exchange-correlation= BEEF-VDW
                           (   1   4  43  14   2   0   0)
     Any further DFT definition will be discarded
     Please, verify this is what you really want

     K-points division:     npool     =       4
     R & G space division:  proc/nbgrp/npool/nimage =      32
     Subspace diagonalization in iterative solution of the eigenvalue problem:
     a serial algorithm will be used

     Using Slab Decomposition

     bravais-lattice index     =            4
     lattice parameter (alat)  =      18.3939  a.u.
     unit-cell volume          =    5856.2271 (a.u.)^3
     number of atoms/cell      =           72
     number of atomic types    =            2
     number of electrons       =       655.00
     number of Kohn-Sham states=          394
     kinetic-energy cutoff     =      70.0000  Ry
     charge density cutoff     =     350.0000  Ry
     scf convergence threshold =      1.0E-09
     mixing beta               =       0.7000
     number of iterations used =            8  plain     mixing
     energy convergence thresh.=      1.0E-04
     force convergence thresh. =      1.0E-03
     Exchange-correlation= BEEF-VDW
                           (   1   4  43  14   2   0   0)
     nstep                     =           50

     celldm(1)=  18.393924  celldm(2)=   0.000000  celldm(3)=   1.086586
     celldm(4)=   0.000000  celldm(5)=   0.000000  celldm(6)=   0.000000

     crystal axes: (cart. coord. in units of alat)
               a(1) = (   1.000000   0.000000   0.000000 )
               a(2) = (  -0.500000   0.866025   0.000000 )
               a(3) = (   0.000000   0.000000   1.086586 )

     reciprocal axes: (cart. coord. in units 2 pi/alat)
               b(1) = (  1.000000  0.577350 -0.000000 )
               b(2) = (  0.000000  1.154701  0.000000 )
               b(3) = (  0.000000 -0.000000  0.920314 )

     PseudoPot. # 1 for Ga read from file:
     //group///packages/espresso/pseudo/psl_1.0.0/pslibrary.1.0.0/pbe/PSEUDOPOTENTIALS/Ga.pbe-dn-kjpaw_psl.1.0.0.UPF
     MD5 check sum: cd2a01e492f15b435d17032472d8505c
     Pseudo is Projector augmented-wave + core cor, Zval = 13.0
     Generated using 'atomic' code by A. Dal Corso  v.7.1
     Shape of augmentation charge: PSQ
     Using radial grid of 1205 points,  6 beta functions with:
                l(1) =   0
                l(2) =   0
                l(3) =   1
                l(4) =   1
                l(5) =   2
                l(6) =   2
     Q(r) pseudized with 0 coefficients

     PseudoPot. # 2 for N  read from file:
     //group///packages/espresso/pseudo/psl_1.0.0/pslibrary.1.0.0/pbe/PSEUDOPOTENTIALS/N.pbe-n-kjpaw_psl.1.0.0.UPF
     MD5 check sum: f77f775694dac7e2c3fe1c82443d1a16
     Pseudo is Projector augmented-wave + core cor, Zval =  5.0
     Generated using 'atomic' code by A. Dal Corso  v.7.1
     Shape of augmentation charge: PSQ
     Using radial grid of 1085 points,  4 beta functions with:
                l(1) =   0
                l(2) =   0
                l(3) =   1
                l(4) =   1
     Q(r) pseudized with 0 coefficients

     atomic species   valence    mass     pseudopotential
        Ga            13.00    69.72300     Ga( 1.00)
        N              5.00    14.00700     N ( 1.00)

      6 Sym. Ops. (no inversion) found ( 4 have fractional translation)

                                    s                        frac. trans.

      isym =  1     identity

 cryst.   s( 1) = (     1          0          0      )
                  (     0          1          0      )
                  (     0          0          1      )

 cart.    s( 1) = (  1.0000000  0.0000000  0.0000000 )
                  (  0.0000000  1.0000000  0.0000000 )
                  (  0.0000000  0.0000000  1.0000000 )

      isym =  2     120 deg rotation - cryst. axis [0,0,1]

 cryst.   s( 2) = (     0          1          0      )    f =( -0.3333334 )
                  (    -1         -1          0      )       (  0.0000003 )
                  (     0          0          1      )       (  0.0000000 )

 cart.    s( 2) = ( -0.5000000 -0.8660254  0.0000000 )    f =( -0.3333335 )
                  (  0.8660254 -0.5000000  0.0000000 )       (  0.0000002 )
                  (  0.0000000  0.0000000  1.0000000 )       (  0.0000000 )

      isym =  3     120 deg rotation - cryst. axis [0,0,-1]

[...]

      isym =  4     inv. 180 deg rotation - cart. axis [1,0,0]

[...]

      isym =  5     inv. 180 deg rotation - cryst. axis [0,1,0]

 cryst.   s( 5) = (     1          1          0      )
                  (     0         -1          0      )
                  (     0          0          1      )

 cart.    s( 5) = (  0.5000000  0.8660254  0.0000000 )
                  (  0.8660254 -0.5000000  0.0000000 )
                  (  0.0000000  0.0000000  1.0000000 )

      isym =  6     inv. 180 deg rotation - cryst. axis [1,1,0]

 cryst.   s( 6) = (     0         -1          0      )    f =( -0.3333334 )
                  (    -1          0          0      )       ( -0.3333334 )
                  (     0          0          1      )       (  0.0000000 )

 cart.    s( 6) = (  0.5000000 -0.8660254  0.0000000 )    f =( -0.1666667 )
                  ( -0.8660254 -0.5000000  0.0000000 )       ( -0.2886752 )
                  (  0.0000000  0.0000000  1.0000000 )       (  0.0000000 )

     point group C_3v (3m)
     there are  3 classes
     the character table:

       E     2C3   3s_v
A_1    1.00  1.00  1.00
A_2    1.00  1.00 -1.00
E      2.00 -1.00  0.00

     the symmetry operations in each class and the name of the first element:

     E        1
          identity
     2C3      2    3
          120 deg rotation - cryst. axis [0,0,1]
     3s_v     4    5    6
          inv. 180 deg rotation - cart. axis [1,0,0]

   Cartesian axes

     site n.     atom                  positions (alat units)
         1           Ga  tau(   1) = (   0.1666668   0.0962250   0.2711914  )
         2           Ga  tau(   2) = (   0.1666668   0.0962250   0.8144844  )
         3           Ga  tau(   3) = (   0.0000001   0.3849001   0.2711914  )
         4           Ga  tau(   4) = (   0.0000001   0.3849001   0.8144844  )
         5           Ga  tau(   5) = (  -0.1666665   0.6735752   0.2711914  )
         6           Ga  tau(   6) = (  -0.1666665   0.6735752   0.8144844  )
         7           Ga  tau(   7) = (   0.5000001   0.0962250   0.2711914  )
         8           Ga  tau(   8) = (   0.5000001   0.0962250   0.8144844  )
         9           Ga  tau(   9) = (   0.3333335   0.3849001   0.2711914  )
        10           Ga  tau(  10) = (   0.3333335   0.3849001   0.8144844  )
        11           Ga  tau(  11) = (   0.1666668   0.6735752   0.2711914  )
        12           Ga  tau(  12) = (   0.1666668   0.6735752   0.8144844  )
        13           Ga  tau(  13) = (   0.8333335   0.0962250   0.2711914  )
        14           Ga  tau(  14) = (   0.8333335   0.0962250   0.8144844  )
        15           Ga  tau(  15) = (   0.6666668   0.3849001   0.2711914  )
        16           Ga  tau(  16) = (   0.6666668   0.3849001   0.8144844  )
        17           Ga  tau(  17) = (   0.5000001   0.6735752   0.2711914  )
        18           Ga  tau(  18) = (   0.5000001   0.6735752   0.8144844  )
        19           Ga  tau(  19) = (  -0.0000002   0.1924502   0.5428379  )
        20           Ga  tau(  20) = (  -0.0000002   0.1924502   1.0861309  )
        21           Ga  tau(  21) = (  -0.1666669   0.4811254   0.5428379  )
        22           Ga  tau(  22) = (  -0.1666669   0.4811254   1.0861309  )
        23           Ga  tau(  23) = (  -0.3333335   0.7698005   0.5428379  )
        24           Ga  tau(  24) = (  -0.3333335   0.7698005   1.0861309  )
        25           Ga  tau(  25) = (   0.3333331   0.1924502   0.5428379  )
        26           Ga  tau(  26) = (   0.3333331   0.1924502   1.0861309  )
        27           Ga  tau(  27) = (   0.1666665   0.4811254   0.5428379  )
        28           Ga  tau(  28) = (   0.1666665   0.4811254   1.0861309  )
        29           Ga  tau(  29) = (  -0.0000002   0.7698005   0.5428379  )
        30           Ga  tau(  30) = (  -0.0000002   0.7698005   1.0861309  )
        31           Ga  tau(  31) = (   0.6666665   0.1924502   0.5428379  )
        32           Ga  tau(  32) = (   0.6666665   0.1924502   1.0861309  )
        33           Ga  tau(  33) = (   0.4999998   0.4811254   0.5428379  )
        34           Ga  tau(  34) = (   0.4999998   0.4811254   1.0861309  )
        35           Ga  tau(  35) = (   0.3333331   0.7698005   0.5428379  )
        36           Ga  tau(  36) = (   0.3333331   0.7698005   1.0861309  )
        37           N   tau(  37) = (   0.1666668   0.0962250   1.0191295  )
        38           N   tau(  38) = (   0.0000001   0.3849001   0.4758365  )
        39           N   tau(  39) = (   0.0000001   0.3849001   1.0191295  )
        40           N   tau(  40) = (  -0.1666665   0.6735752   0.4758365  )
        41           N   tau(  41) = (  -0.1666665   0.6735752   1.0191295  )
        42           N   tau(  42) = (   0.5000001   0.0962250   0.4758365  )
        43           N   tau(  43) = (   0.5000001   0.0962250   1.0191295  )
        44           N   tau(  44) = (   0.3333335   0.3849001   0.4758365  )
        45           N   tau(  45) = (   0.3333335   0.3849001   1.0191295  )
        46           N   tau(  46) = (   0.1666668   0.6735752   0.4758365  )
        47           N   tau(  47) = (   0.1666668   0.6735752   1.0191295  )
        48           N   tau(  48) = (   0.8333335   0.0962250   0.4758365  )
        49           N   tau(  49) = (   0.8333335   0.0962250   1.0191295  )
        50           N   tau(  50) = (   0.6666668   0.3849001   0.4758365  )
        51           N   tau(  51) = (   0.6666668   0.3849001   1.0191295  )
        52           N   tau(  52) = (   0.5000001   0.6735752   0.4758365  )
        53           N   tau(  53) = (   0.5000001   0.6735752   1.0191295  )
        54           N   tau(  54) = (  -0.0000002   0.1924502   0.2041900  )
        55           N   tau(  55) = (  -0.0000002   0.1924502   0.7474830  )
        56           N   tau(  56) = (  -0.1666669   0.4811254   0.2041900  )
        57           N   tau(  57) = (  -0.1666669   0.4811254   0.7474830  )
        58           N   tau(  58) = (  -0.3333335   0.7698005   0.2041900  )
        59           N   tau(  59) = (  -0.3333335   0.7698005   0.7474830  )
        60           N   tau(  60) = (   0.3333331   0.1924502   0.2041900  )
[...]
     atom   35 type  1   force =     0.00000000    0.00000000    0.00000000
     atom   36 type  1   force =     0.00000000    0.00000000    0.00000000
     atom   37 type  2   force =     0.00000000    0.00000000    0.00000000
     atom   38 type  2   force =     0.00000000    0.00000000    0.00000000
     atom   39 type  2   force =     0.00000000    0.00000000    0.00000000
     atom   40 type  2   force =     0.00000000    0.00000000    0.00000000
     atom   41 type  2   force =     0.00000000    0.00000000    0.00000000
     atom   42 type  2   force =     0.00000000    0.00000000    0.00000000
     atom   43 type  2   force =     0.00000000    0.00000000    0.00000000
     atom   44 type  2   force =     0.00000000    0.00000000    0.00000000
     atom   45 type  2   force =     0.00000000    0.00000000    0.00000000
     atom   46 type  2   force =     0.00000000    0.00000000    0.00000000
     atom   47 type  2   force =     0.00000000    0.00000000    0.00000000
     atom   48 type  2   force =     0.00000000    0.00000000    0.00000000
     atom   49 type  2   force =     0.00000000    0.00000000    0.00000000
     atom   50 type  2   force =     0.00000000    0.00000000    0.00000000
     atom   51 type  2   force =     0.00000000    0.00000000    0.00000000
     atom   52 type  2   force =     0.00000000    0.00000000    0.00000000
     atom   53 type  2   force =     0.00000000    0.00000000    0.00000000
     atom   54 type  2   force =     0.00000000    0.00000000    0.00000000
     atom   55 type  2   force =     0.00000000    0.00000000    0.00000000
     atom   56 type  2   force =     0.00000000    0.00000000    0.00000000
     atom   57 type  2   force =     0.00000000    0.00000000    0.00000000
     atom   58 type  2   force =     0.00000000    0.00000000    0.00000000
     atom   59 type  2   force =     0.00000000    0.00000000    0.00000000
     atom   60 type  2   force =     0.00000000    0.00000000    0.00000000
     atom   61 type  2   force =     0.00000000    0.00000000    0.00000000
     atom   62 type  2   force =     0.00000000    0.00000000    0.00000000
     atom   63 type  2   force =     0.00000000    0.00000000    0.00000000
     atom   64 type  2   force =     0.00000000    0.00000000    0.00000000
     atom   65 type  2   force =     0.00000000    0.00000000    0.00000000
     atom   66 type  2   force =     0.00000000    0.00000000    0.00000000
     atom   67 type  2   force =     0.00000000    0.00000000    0.00000000
     atom   68 type  2   force =     0.00000000    0.00000000    0.00000000
     atom   69 type  2   force =     0.00000000    0.00000000    0.00000000
     atom   70 type  2   force =     0.00000000    0.00000000    0.00000000
     atom   71 type  2   force =     0.00000000    0.00000000    0.00000000
     atom   72 type  1   force =     0.00000000    0.00000000    0.00000000
     The SCF correction term to forces
     atom    1 type  1   force =     0.00000000   -0.00000000    0.00000056
     atom    2 type  1   force =    -0.00000000   -0.00000000   -0.00000116
     atom    3 type  1   force =    -0.00000019    0.00000002   -0.00000095
     atom    4 type  1   force =     0.00000085    0.00000005    0.00000035
     atom    5 type  1   force =    -0.00000008   -0.00000018   -0.00000095
     atom    6 type  1   force =     0.00000047    0.00000071    0.00000035
     atom    7 type  1   force =     0.00000011    0.00000016   -0.00000095
     atom    8 type  1   force =    -0.00000038   -0.00000076    0.00000035
     atom    9 type  1   force =     0.00000019    0.00000002   -0.00000095
     atom   10 type  1   force =    -0.00000085    0.00000005    0.00000035
     atom   11 type  1   force =     0.00000000   -0.00000000   -0.00000157
     atom   12 type  1   force =     0.00000000   -0.00000000    0.00000106
     atom   13 type  1   force =    -0.00000011    0.00000016   -0.00000095
     atom   14 type  1   force =     0.00000038   -0.00000076    0.00000035
     atom   15 type  1   force =     0.00000000   -0.00000000   -0.00000011
     atom   16 type  1   force =     0.00000000   -0.00000000   -0.00000064
     atom   17 type  1   force =     0.00000008   -0.00000018   -0.00000095
     atom   18 type  1   force =    -0.00000047    0.00000071    0.00000035
     atom   19 type  1   force =    -0.00000008    0.00000005    0.00000109
     atom   20 type  1   force =     0.00000036   -0.00000021    0.00000028
     atom   21 type  1   force =    -0.00000060   -0.00000035    0.00000014
     atom   22 type  1   force =     0.00000071    0.00000041    0.00000048
     atom   23 type  1   force =    -0.00000000   -0.00000009    0.00000109
     atom   24 type  1   force =     0.00000000    0.00000042    0.00000028
     atom   25 type  1   force =     0.00000008    0.00000005    0.00000109
     atom   26 type  1   force =    -0.00000036   -0.00000021    0.00000028
     atom   27 type  1   force =    -0.00000000    0.00000017    0.00000104
     atom   28 type  1   force =    -0.00000000    0.00000047   -0.00000016
     atom   29 type  1   force =     0.00000015   -0.00000008    0.00000104
     atom   30 type  1   force =     0.00000040   -0.00000023   -0.00000016
     atom   31 type  1   force =     0.00000000    0.00000069    0.00000014
     atom   32 type  1   force =    -0.00000000   -0.00000082    0.00000048
     atom   33 type  1   force =     0.00000060   -0.00000035    0.00000014
     atom   34 type  1   force =    -0.00000071    0.00000041    0.00000048
     atom   35 type  1   force =    -0.00000015   -0.00000008    0.00000104
     atom   36 type  1   force =    -0.00000040   -0.00000023   -0.00000016
     atom   37 type  2   force =     0.00000000   -0.00000000   -0.00000022
     atom   38 type  2   force =    -0.00000030   -0.00000016    0.00000010
     atom   39 type  2   force =     0.00000042    0.00000007   -0.00000004
     atom   40 type  2   force =    -0.00000029   -0.00000018    0.00000010
     atom   41 type  2   force =     0.00000027    0.00000032   -0.00000004
     atom   42 type  2   force =     0.00000001    0.00000034    0.00000010
     atom   43 type  2   force =    -0.00000015   -0.00000040   -0.00000004
     atom   44 type  2   force =     0.00000030   -0.00000016    0.00000010
     atom   45 type  2   force =    -0.00000042    0.00000007   -0.00000004
     atom   46 type  2   force =     0.00000000   -0.00000000    0.00000024
     atom   47 type  2   force =    -0.00000000    0.00000000   -0.00000020
     atom   48 type  2   force =    -0.00000001    0.00000034    0.00000010
     atom   49 type  2   force =     0.00000015   -0.00000040   -0.00000004
     atom   50 type  2   force =     0.00000000    0.00000000   -0.00000008
     atom   51 type  2   force =     0.00000000   -0.00000000   -0.00000000
     atom   52 type  2   force =     0.00000029   -0.00000018    0.00000010
     atom   53 type  2   force =    -0.00000027    0.00000032   -0.00000004
     atom   54 type  2   force =     0.00000036   -0.00000021   -0.00000003
     atom   55 type  2   force =     0.00000039   -0.00000023    0.00000010
     atom   56 type  2   force =    -0.00000009   -0.00000005    0.00000014
     atom   57 type  2   force =     0.00000000    0.00000000   -0.00000010
     atom   58 type  2   force =    -0.00000000    0.00000041   -0.00000003
     atom   59 type  2   force =     0.00000000    0.00000046    0.00000010
     atom   60 type  2   force =    -0.00000036   -0.00000021   -0.00000003
     atom   61 type  2   force =    -0.00000039   -0.00000023    0.00000010
     atom   62 type  2   force =     0.00000000   -0.00000011   -0.00000045
     atom   63 type  2   force =     0.00000000    0.00000008    0.00000039
     atom   64 type  2   force =    -0.00000009    0.00000005   -0.00000045
     atom   65 type  2   force =     0.00000007   -0.00000004    0.00000039
     atom   66 type  2   force =     0.00000000    0.00000011    0.00000014
     atom   67 type  2   force =     0.00000000   -0.00000000   -0.00000010
     atom   68 type  2   force =     0.00000009   -0.00000005    0.00000014
     atom   69 type  2   force =    -0.00000000    0.00000000   -0.00000010
     atom   70 type  2   force =     0.00000009    0.00000005   -0.00000045
     atom   71 type  2   force =    -0.00000007   -0.00000004    0.00000039
     atom   72 type  1   force =     0.00000000    0.00000000   -0.00000015

     Total force =     0.002702     Total SCF correction =     0.000006

     Computing stress (Cartesian axis) and pressure

     Non-local corr. energy    =      19.99311024 Ry

          total   stress  (Ry/bohr**3)                   (kbar)     P=       10.75
   0.00003181  -0.00000000   0.00000000            4.68       -0.00        0.00
   0.00000000   0.00003181  -0.00000000            0.00        4.68       -0.00
   0.00000000   0.00000000   0.00015566            0.00        0.00       22.90

     kinetic stress (kbar)  18493.29      0.00      0.00
                                0.00  18493.29     -0.00
                                0.00     -0.00  18531.24

     local   stress (kbar)   6089.04     -0.07     -0.00
                               -0.07   6088.95      0.00
                               -0.00      0.00   3603.22

     nonloc. stress (kbar)    146.35      0.00      0.00
                                0.00    146.35      0.00
                                0.00      0.00    141.19

     hartree stress (kbar)  19916.57     -0.00     -0.00
                               -0.00  19916.57      0.00
                               -0.00      0.00  20982.15

     exc-cor stress (kbar)   5423.16      0.00      0.00
                                0.00   5423.16      0.00
                                0.00      0.00   5425.79

     corecor stress (kbar) -14467.89     -0.00      0.00
                               -0.00 -14467.89      0.00
                                0.00      0.00 -14468.25

     ewald   stress (kbar) -35761.53      0.10      0.00
                                0.10 -35761.40     -0.00
                                0.00     -0.00 -34356.58

     hubbard stress (kbar)      0.00      0.00      0.00
                                0.00      0.00      0.00
                                0.00      0.00      0.00

     DFT-D   stress (kbar)      0.00      0.00      0.00
                                0.00      0.00      0.00
                                0.00      0.00      0.00

     XDM     stress (kbar)      0.00      0.00      0.00
                                0.00      0.00      0.00
                                0.00      0.00      0.00

     dft-nl  stress (kbar)    165.68     -0.00     -0.00
                               -0.00    165.68     -0.00
                               -0.00     -0.00    164.14

     TS-vdW  stress (kbar)      0.00      0.00      0.00
                                0.00      0.00      0.00
                                0.00      0.00      0.00

     MDB     stress (kbar)      0.00      0.00      0.00
                                0.00      0.00      0.00
                                0.00      0.00      0.00

     3D-RISM stress (kbar)      0.00      0.00      0.00
                                0.00      0.00      0.00
                                0.00      0.00      0.00

     Energy error            =      1.8E-05 Ry
     Gradient error          =      9.6E-04 Ry/Bohr

     bfgs converged in  17 scf cycles and  16 bfgs steps
     (criteria: energy <  1.0E-04 Ry, force <  1.0E-03 Ry/Bohr)

     End of BFGS Geometry Optimization

     Final energy             =  -11497.1598500520 Ry

     File ./GaN.bfgs deleted, as requested
Begin final coordinates

ATOMIC_POSITIONS (angstrom)
Ga            1.6222756606        0.9366198184        2.2323884596
Ga            1.6222756606        0.9366198184        7.8951466737
Ga           -0.0026160510        3.7348521426        2.6147568001
Ga            0.0009253774        3.7926103357        7.9666933954
Ga           -1.6336525425        6.5598902148        2.6147568001
Ga           -1.5818617658        6.5340780852        7.9666933954
Ga            4.8580617948        0.9447011570        2.6147568001
Ga            4.9063111431        0.9127550935        7.9666933954
Ga            3.2471673722        3.7348521426        2.6147568001
Ga            3.2436259438        3.7926103357        7.9666933954
Ga            1.6222756606        6.5563425246        2.6596513787
Ga            1.6222756606        6.5563425246        7.9416209717
Ga            8.1201347776        0.9447011570        2.6147568001
Ga            8.0718854293        0.9127550935        7.9666933954
Ga            6.4890982862        3.7464811715        2.6400990383
Ga            6.4890982862        3.7464811715        7.9476334945
Ga            4.8782038637        6.5598902148        2.6147568001
Ga            4.8264130870        6.5340780852        7.9666933954
Ga           -0.2393912600        2.0114539205        5.4476811781
Ga           -0.0328255841        1.8921931719       10.4736505142
Ga           -1.6292849936        4.6790572553        5.2917857659
Ga           -1.6264734048        4.6806805269       10.5960106367
Ga           -3.2445503819        7.2165422046        5.4476811781
Ga           -3.2445503819        7.4550637019       10.4736505142
Ga            3.4839357475        2.0114539205        5.4476811781
Ga            3.2773700716        1.8921931719       10.4736505142
Ga            1.6222722437        4.6893668978        5.2950509436
Ga            1.6222722437        4.6935355728       10.5974403731
Ga            0.0054220373        7.4898336036        5.2950509436
Ga            0.0090322158        7.4877492661       10.5974403731
Ga            6.4890948693        1.8813355350        5.2917857659
Ga            6.4890948693        1.8780889919       10.5960106367
Ga            4.8738294811        4.6790572553        5.2917857659
Ga            4.8710178923        4.6806805269       10.5960106367
Ga            3.2391224502        7.4898336036        5.2950509436
Ga            3.2355122717        7.4877492661       10.5974403731
N             1.6222756606        0.9366198184        9.8916571291
N            -0.0119628943        3.7732997713        4.6238475886
N             0.0015139887        3.7798534904        9.9253502916
N            -1.6050293410        6.5325717968        4.6238475886
N            -1.5926152123        6.5409662603        9.9253502916
N             4.8960318396        0.9335719464        4.6238475886
N             4.8949690853        0.9186237638        9.9253502916
N             3.2565142155        3.7732997713        4.6238475886
N             3.2430373325        3.7798534904        9.9253502916
N             1.6222756606        6.5563425246        4.6444240928
N             1.6222756606        6.5563425246        9.9309580243
N             8.0821647328        0.9335719464        4.6238475886
N             8.0832274871        0.9186237638        9.9253502916
N             6.4890982862        3.7464811715        4.6365796557
N             6.4890982862        3.7464811715        9.9305446288
N             4.8495806622        6.5325717968        4.6238475886
N             4.8371665335        6.5409662603        9.9253502916
N            -0.0579294433        1.9066868918        1.8655679047
N            -0.0484497844        1.9012138082        7.3758590912
N            -1.6240840834        4.6820600022        2.0005108077
N            -1.6255279721        4.6812263727        7.2730332609
N            -3.2445503819        7.4260762621        1.8655679047
N            -3.2445503819        7.4370224294        7.3758590912
N             3.3024739308        1.9066868918        1.8655679047
N             3.2929942719        1.9012138082        7.3758590912
N             1.6222722437        4.6826213721        2.0082013856
N             1.6222722437        4.6864480748        7.2754637936
N            -0.0004197593        7.4932063665        2.0082013856
N             0.0028942625        7.4912930151        7.2754637936
N             6.4890948693        1.8753300413        2.0005108077
N             6.4890948693        1.8769973003        7.2730332609
N             4.8686285709        4.6820600022        2.0005108077
N             4.8700724596        4.6812263727        7.2730332609
N             3.2449642468        7.4932063665        2.0082013856
N             3.2416502250        7.4912930151        7.2754637936
Ga            1.6222756606        0.9366198184        4.5075869050
End final coordinates

     Writing all to output data dir ./GaN.save/

     General routines

     Parallel routines

     PAW routines

   This run was terminated on:  11: 8: 1  27Sep2023

   JOB DONE.