     Program PWSCF v.7.1 starts on 18Feb2024 at  7:38:23

     Reading input from espresso.pwi
Warning: card &CELL ignored
Warning: card    CELL_DYNAMICS    = 'BFGS' ignored
Warning: card / ignored

     Current dimensions of program PWSCF are:
     Max number of different atomic species (ntypx) = 10
     Max number of k-points (npk) =  40000
     Max angular momentum in pseudopotentials (lmaxx) =  4
     file Ga.pbe-dn-kjpaw_psl.1.0.0.UPF: wavefunction(s)  4S renormalized
     file N.pbe-n-kjpaw_psl.1.0.0.UPF: wavefunction(s)  2S renormalized

     IMPORTANT: XC functional enforced from input :
     Exchange-correlation= BEEF-VDW
                           (   1   4  43  14   2   0   0)
     Any further DFT definition will be discarded
     Please, verify this is what you really want

     K-points division:     npool     =       4
     R & G space division:  proc/nbgrp/npool/nimage =      32
     Subspace diagonalization in iterative solution of the eigenvalue problem:
     a serial algorithm will be used

     Using Slab Decomposition

     bravais-lattice index     =            4
     lattice parameter (alat)  =      18.3939  a.u.
     unit-cell volume          =    5856.2271 (a.u.)^3
     number of atoms/cell      =           72
     number of atomic types    =            2
     number of electrons       =       656.00
     number of Kohn-Sham states=          394
     kinetic-energy cutoff     =      70.0000  Ry
     charge density cutoff     =     350.0000  Ry
     scf convergence threshold =      1.0E-07
     mixing beta               =       0.7000
     number of iterations used =            8  plain     mixing
     energy convergence thresh.=      1.0E-04
     force convergence thresh. =      1.0E-03
     Exchange-correlation= BEEF-VDW
                           (   1   4  43  14   2   0   0)
     nstep                     =           50

     celldm(1)=  18.393924  celldm(2)=   0.000000  celldm(3)=   1.086586
     celldm(4)=   0.000000  celldm(5)=   0.000000  celldm(6)=   0.000000

     crystal axes: (cart. coord. in units of alat)
               a(1) = (   1.000000   0.000000   0.000000 )
               a(2) = (  -0.500000   0.866025   0.000000 )
               a(3) = (   0.000000   0.000000   1.086586 )

     reciprocal axes: (cart. coord. in units 2 pi/alat)
               b(1) = (  1.000000  0.577350 -0.000000 )
               b(2) = (  0.000000  1.154701  0.000000 )
               b(3) = (  0.000000 -0.000000  0.920314 )

     PseudoPot. # 1 for Ga read from file:
     //group///packages/espresso/pseudo/psl_1.0.0/pslibrary.1.0.0/pbe/PSEUDOPOTENTIALS/Ga.pbe-dn-kjpaw_psl.1.0.0.UPF
     MD5 check sum: cd2a01e492f15b435d17032472d8505c
     Pseudo is Projector augmented-wave + core cor, Zval = 13.0
     Generated using 'atomic' code by A. Dal Corso  v.7.1
     Shape of augmentation charge: PSQ
     Using radial grid of 1205 points,  6 beta functions with:
                l(1) =   0
                l(2) =   0
                l(3) =   1
                l(4) =   1
                l(5) =   2
                l(6) =   2
     Q(r) pseudized with 0 coefficients

     PseudoPot. # 2 for N  read from file:
     //group///packages/espresso/pseudo/psl_1.0.0/pslibrary.1.0.0/pbe/PSEUDOPOTENTIALS/N.pbe-n-kjpaw_psl.1.0.0.UPF
     MD5 check sum: f77f775694dac7e2c3fe1c82443d1a16
     Pseudo is Projector augmented-wave + core cor, Zval =  5.0
     Generated using 'atomic' code by A. Dal Corso  v.7.1
     Shape of augmentation charge: PSQ
     Using radial grid of 1085 points,  4 beta functions with:
                l(1) =   0
                l(2) =   0
                l(3) =   1
                l(4) =   1
     Q(r) pseudized with 0 coefficients

     atomic species   valence    mass     pseudopotential
        Ga            13.00    69.72300     Ga( 1.00)
        N              5.00    14.00700     N ( 1.00)

      6 Sym. Ops. (no inversion) found ( 4 have fractional translation)

                                    s                        frac. trans.

      isym =  1     identity

 cryst.   s( 1) = (     1          0          0      )
                  (     0          1          0      )
                  (     0          0          1      )

 cart.    s( 1) = (  1.0000000  0.0000000  0.0000000 )
                  (  0.0000000  1.0000000  0.0000000 )
                  (  0.0000000  0.0000000  1.0000000 )

      isym =  2     120 deg rotation - cryst. axis [0,0,1]

 cryst.   s( 2) = (     0          1          0      )    f =( -0.3333334 )
                  (    -1         -1          0      )       (  0.0000003 )
                  (     0          0          1      )       (  0.0000000 )

 cart.    s( 2) = ( -0.5000000 -0.8660254  0.0000000 )    f =( -0.3333335 )
                  (  0.8660254 -0.5000000  0.0000000 )       (  0.0000002 )
                  (  0.0000000  0.0000000  1.0000000 )       (  0.0000000 )

      isym =  3     120 deg rotation - cryst. axis [0,0,-1]

[...]

      isym =  4     inv. 180 deg rotation - cart. axis [1,0,0]

[...]

      isym =  5     inv. 180 deg rotation - cryst. axis [0,1,0]

 cryst.   s( 5) = (     1          1          0      )
                  (     0         -1          0      )
                  (     0          0          1      )

 cart.    s( 5) = (  0.5000000  0.8660254  0.0000000 )
                  (  0.8660254 -0.5000000  0.0000000 )
                  (  0.0000000  0.0000000  1.0000000 )

      isym =  6     inv. 180 deg rotation - cryst. axis [1,1,0]

 cryst.   s( 6) = (     0         -1          0      )    f =( -0.3333334 )
                  (    -1          0          0      )       ( -0.3333334 )
                  (     0          0          1      )       (  0.0000000 )

 cart.    s( 6) = (  0.5000000 -0.8660254  0.0000000 )    f =( -0.1666667 )
                  ( -0.8660254 -0.5000000  0.0000000 )       ( -0.2886752 )
                  (  0.0000000  0.0000000  1.0000000 )       (  0.0000000 )

     point group C_3v (3m)
     there are  3 classes
     the character table:

       E     2C3   3s_v
A_1    1.00  1.00  1.00
A_2    1.00  1.00 -1.00
E      2.00 -1.00  0.00

     the symmetry operations in each class and the name of the first element:

     E        1
          identity
     2C3      2    3
          120 deg rotation - cryst. axis [0,0,1]
     3s_v     4    5    6
          inv. 180 deg rotation - cart. axis [1,0,0]

   Cartesian axes

     site n.     atom                  positions (alat units)
         1           Ga  tau(   1) = (   0.1666668   0.0962250   0.2711914  )
         2           Ga  tau(   2) = (   0.1666668   0.0962250   0.8144844  )
         3           Ga  tau(   3) = (   0.0000001   0.3849001   0.2711914  )
         4           Ga  tau(   4) = (   0.0000001   0.3849001   0.8144844  )
         5           Ga  tau(   5) = (  -0.1666665   0.6735752   0.2711914  )
         6           Ga  tau(   6) = (  -0.1666665   0.6735752   0.8144844  )
         7           Ga  tau(   7) = (   0.5000001   0.0962250   0.2711914  )
         8           Ga  tau(   8) = (   0.5000001   0.0962250   0.8144844  )
         9           Ga  tau(   9) = (   0.3333335   0.3849001   0.2711914  )
        10           Ga  tau(  10) = (   0.3333335   0.3849001   0.8144844  )
        11           Ga  tau(  11) = (   0.1666668   0.6735752   0.2711914  )
        12           Ga  tau(  12) = (   0.1666668   0.6735752   0.8144844  )
        13           Ga  tau(  13) = (   0.8333335   0.0962250   0.2711914  )
        14           Ga  tau(  14) = (   0.8333335   0.0962250   0.8144844  )
        15           Ga  tau(  15) = (   0.6666668   0.3849001   0.2711914  )
        16           Ga  tau(  16) = (   0.6666668   0.3849001   0.8144844  )
        17           Ga  tau(  17) = (   0.5000001   0.6735752   0.2711914  )
        18           Ga  tau(  18) = (   0.5000001   0.6735752   0.8144844  )
        19           Ga  tau(  19) = (  -0.0000002   0.1924502   0.5428379  )
        20           Ga  tau(  20) = (  -0.0000002   0.1924502   1.0861309  )
        21           Ga  tau(  21) = (  -0.1666669   0.4811254   0.5428379  )
        22           Ga  tau(  22) = (  -0.1666669   0.4811254   1.0861309  )
        23           Ga  tau(  23) = (  -0.3333335   0.7698005   0.5428379  )
        24           Ga  tau(  24) = (  -0.3333335   0.7698005   1.0861309  )
        25           Ga  tau(  25) = (   0.3333331   0.1924502   0.5428379  )
        26           Ga  tau(  26) = (   0.3333331   0.1924502   1.0861309  )
        27           Ga  tau(  27) = (   0.1666665   0.4811254   0.5428379  )
        28           Ga  tau(  28) = (   0.1666665   0.4811254   1.0861309  )
        29           Ga  tau(  29) = (  -0.0000002   0.7698005   0.5428379  )
        30           Ga  tau(  30) = (  -0.0000002   0.7698005   1.0861309  )
        31           Ga  tau(  31) = (   0.6666665   0.1924502   0.5428379  )
        32           Ga  tau(  32) = (   0.6666665   0.1924502   1.0861309  )
        33           Ga  tau(  33) = (   0.4999998   0.4811254   0.5428379  )
        34           Ga  tau(  34) = (   0.4999998   0.4811254   1.0861309  )
        35           Ga  tau(  35) = (   0.3333331   0.7698005   0.5428379  )
        36           Ga  tau(  36) = (   0.3333331   0.7698005   1.0861309  )
        37           N   tau(  37) = (   0.1666668   0.0962250   1.0191295  )
        38           N   tau(  38) = (   0.0000001   0.3849001   0.4758365  )
        39           N   tau(  39) = (   0.0000001   0.3849001   1.0191295  )
        40           N   tau(  40) = (  -0.1666665   0.6735752   0.4758365  )
        41           N   tau(  41) = (  -0.1666665   0.6735752   1.0191295  )
        42           N   tau(  42) = (   0.5000001   0.0962250   0.4758365  )
        43           N   tau(  43) = (   0.5000001   0.0962250   1.0191295  )
        44           N   tau(  44) = (   0.3333335   0.3849001   0.4758365  )
        45           N   tau(  45) = (   0.3333335   0.3849001   1.0191295  )
        46           N   tau(  46) = (   0.1666668   0.6735752   0.4758365  )
        47           N   tau(  47) = (   0.1666668   0.6735752   1.0191295  )
        48           N   tau(  48) = (   0.8333335   0.0962250   0.4758365  )
        49           N   tau(  49) = (   0.8333335   0.0962250   1.0191295  )
        50           N   tau(  50) = (   0.6666668   0.3849001   0.4758365  )
        51           N   tau(  51) = (   0.6666668   0.3849001   1.0191295  )
        52           N   tau(  52) = (   0.5000001   0.6735752   0.4758365  )
        53           N   tau(  53) = (   0.5000001   0.6735752   1.0191295  )
        54           N   tau(  54) = (  -0.0000002   0.1924502   0.2041900  )
        55           N   tau(  55) = (  -0.0000002   0.1924502   0.7474830  )
        56           N   tau(  56) = (  -0.1666669   0.4811254   0.2041900  )
        57           N   tau(  57) = (  -0.1666669   0.4811254   0.7474830  )
        58           N   tau(  58) = (  -0.3333335   0.7698005   0.2041900  )
        59           N   tau(  59) = (  -0.3333335   0.7698005   0.7474830  )
        60           N   tau(  60) = (   0.3333331   0.1924502   0.2041900  )
[...]
     atom   35 type  1   force =     0.00000000    0.00000000    0.00000000
     atom   36 type  1   force =     0.00000000    0.00000000    0.00000000
     atom   37 type  2   force =     0.00000000    0.00000000    0.00000000
     atom   38 type  2   force =     0.00000000    0.00000000    0.00000000
     atom   39 type  2   force =     0.00000000    0.00000000    0.00000000
     atom   40 type  2   force =     0.00000000    0.00000000    0.00000000
     atom   41 type  2   force =     0.00000000    0.00000000    0.00000000
     atom   42 type  2   force =     0.00000000    0.00000000    0.00000000
     atom   43 type  2   force =     0.00000000    0.00000000    0.00000000
     atom   44 type  2   force =     0.00000000    0.00000000    0.00000000
     atom   45 type  2   force =     0.00000000    0.00000000    0.00000000
     atom   46 type  2   force =     0.00000000    0.00000000    0.00000000
     atom   47 type  2   force =     0.00000000    0.00000000    0.00000000
     atom   48 type  2   force =     0.00000000    0.00000000    0.00000000
     atom   49 type  2   force =     0.00000000    0.00000000    0.00000000
     atom   50 type  2   force =     0.00000000    0.00000000    0.00000000
     atom   51 type  2   force =     0.00000000    0.00000000    0.00000000
     atom   52 type  2   force =     0.00000000    0.00000000    0.00000000
     atom   53 type  2   force =     0.00000000    0.00000000    0.00000000
     atom   54 type  2   force =     0.00000000    0.00000000    0.00000000
     atom   55 type  2   force =     0.00000000    0.00000000    0.00000000
     atom   56 type  2   force =     0.00000000    0.00000000    0.00000000
     atom   57 type  2   force =     0.00000000    0.00000000    0.00000000
     atom   58 type  2   force =     0.00000000    0.00000000    0.00000000
     atom   59 type  2   force =     0.00000000    0.00000000    0.00000000
     atom   60 type  2   force =     0.00000000    0.00000000    0.00000000
     atom   61 type  2   force =     0.00000000    0.00000000    0.00000000
     atom   62 type  2   force =     0.00000000    0.00000000    0.00000000
     atom   63 type  2   force =     0.00000000    0.00000000    0.00000000
     atom   64 type  2   force =     0.00000000    0.00000000    0.00000000
     atom   65 type  2   force =     0.00000000    0.00000000    0.00000000
     atom   66 type  2   force =     0.00000000    0.00000000    0.00000000
     atom   67 type  2   force =     0.00000000    0.00000000    0.00000000
     atom   68 type  2   force =     0.00000000    0.00000000    0.00000000
     atom   69 type  2   force =     0.00000000    0.00000000    0.00000000
     atom   70 type  2   force =     0.00000000    0.00000000    0.00000000
     atom   71 type  2   force =     0.00000000    0.00000000    0.00000000
     atom   72 type  1   force =     0.00000000    0.00000000    0.00000000
     The SCF correction term to forces
     atom    1 type  1   force =    -0.00000000    0.00000000    0.00008585
     atom    2 type  1   force =    -0.00000000    0.00000000   -0.00006532
     atom    3 type  1   force =     0.00001744   -0.00002545    0.00005879
     atom    4 type  1   force =    -0.00000637   -0.00000634   -0.00004378
     atom    5 type  1   force =    -0.00001332    0.00002783    0.00005879
     atom    6 type  1   force =    -0.00000868   -0.00000235   -0.00004378
     atom    7 type  1   force =    -0.00003076   -0.00000238    0.00005879
     atom    8 type  1   force =    -0.00000231    0.00000869   -0.00004378
     atom    9 type  1   force =    -0.00001744   -0.00002545    0.00005879
     atom   10 type  1   force =     0.00000637   -0.00000634   -0.00004378
     atom   11 type  1   force =    -0.00000000    0.00000000    0.00004381
     atom   12 type  1   force =    -0.00000000    0.00000000   -0.00005357
     atom   13 type  1   force =     0.00003076   -0.00000238    0.00005879
     atom   14 type  1   force =     0.00000230    0.00000869   -0.00004378
     atom   15 type  1   force =    -0.00000000    0.00000000    0.00003868
     atom   16 type  1   force =    -0.00000000    0.00000000   -0.00003938
     atom   17 type  1   force =     0.00001332    0.00002783    0.00005879
     atom   18 type  1   force =     0.00000868   -0.00000235   -0.00004378
     atom   19 type  1   force =     0.00004835   -0.00002791   -0.00006114
     atom   20 type  1   force =     0.00000398   -0.00000230    0.00000757
     atom   21 type  1   force =    -0.00000275   -0.00000159   -0.00001151
     atom   22 type  1   force =    -0.00000676   -0.00000391    0.00001841
     atom   23 type  1   force =     0.00000000    0.00005582   -0.00006114
     atom   24 type  1   force =     0.00000000    0.00000459    0.00000757
     atom   25 type  1   force =    -0.00004834   -0.00002791   -0.00006114
     atom   26 type  1   force =    -0.00000397   -0.00000230    0.00000757
     atom   27 type  1   force =     0.00000000   -0.00002668   -0.00002166
     atom   28 type  1   force =     0.00000000   -0.00001420    0.00002910
     atom   29 type  1   force =    -0.00002310    0.00001334   -0.00002166
     atom   30 type  1   force =    -0.00001229    0.00000710    0.00002910
     atom   31 type  1   force =     0.00000000    0.00000317   -0.00001151
     atom   32 type  1   force =     0.00000000    0.00000780    0.00001841
     atom   33 type  1   force =     0.00000276   -0.00000159   -0.00001151
     atom   34 type  1   force =     0.00000677   -0.00000391    0.00001841
     atom   35 type  1   force =     0.00002311    0.00001334   -0.00002166
     atom   36 type  1   force =     0.00001230    0.00000710    0.00002910
     atom   37 type  2   force =     0.00000000   -0.00000000    0.00001064
     atom   38 type  2   force =     0.00000460   -0.00001233   -0.00000109
     atom   39 type  2   force =    -0.00000186   -0.00000404   -0.00000117
     atom   40 type  2   force =    -0.00000838    0.00001015   -0.00000109
     atom   41 type  2   force =    -0.00000443    0.00000041   -0.00000117
     atom   42 type  2   force =    -0.00001298    0.00000218   -0.00000109
     atom   43 type  2   force =    -0.00000257    0.00000363   -0.00000117
     atom   44 type  2   force =    -0.00000460   -0.00001233   -0.00000109
     atom   45 type  2   force =     0.00000186   -0.00000404   -0.00000117
     atom   46 type  2   force =     0.00000000   -0.00000000    0.00000011
     atom   47 type  2   force =     0.00000000   -0.00000000    0.00000886
     atom   48 type  2   force =     0.00001298    0.00000218   -0.00000109
     atom   49 type  2   force =     0.00000257    0.00000363   -0.00000117
     atom   50 type  2   force =     0.00000000   -0.00000000   -0.00000125
     atom   51 type  2   force =     0.00000000   -0.00000000    0.00000252
     atom   52 type  2   force =     0.00000838    0.00001015   -0.00000109
     atom   53 type  2   force =     0.00000443    0.00000041   -0.00000117
     atom   54 type  2   force =     0.00000648   -0.00000374    0.00002639
     atom   55 type  2   force =    -0.00000074    0.00000043   -0.00003381
     atom   56 type  2   force =    -0.00000491   -0.00000283    0.00001285
     atom   57 type  2   force =    -0.00000026   -0.00000015   -0.00002343
     atom   58 type  2   force =    -0.00000000    0.00000748    0.00002639
     atom   59 type  2   force =    -0.00000000   -0.00000086   -0.00003381
     atom   60 type  2   force =    -0.00000648   -0.00000374    0.00002639
     atom   61 type  2   force =     0.00000074    0.00000043   -0.00003381
     atom   62 type  2   force =    -0.00000000   -0.00000722    0.00001455
     atom   63 type  2   force =    -0.00000000   -0.00000565   -0.00002507
     atom   64 type  2   force =    -0.00000625    0.00000361    0.00001455
     atom   65 type  2   force =    -0.00000489    0.00000282   -0.00002507
     atom   66 type  2   force =    -0.00000000    0.00000567    0.00001285
     atom   67 type  2   force =    -0.00000000    0.00000030   -0.00002343
     atom   68 type  2   force =     0.00000491   -0.00000283    0.00001285
     atom   69 type  2   force =     0.00000026   -0.00000015   -0.00002343
     atom   70 type  2   force =     0.00000625    0.00000361    0.00001455
     atom   71 type  2   force =     0.00000489    0.00000282   -0.00002507
     atom   72 type  1   force =     0.00000000   -0.00000000   -0.00003204

     Total force =     0.003957     Total SCF correction =     0.000316

     Computing stress (Cartesian axis) and pressure

     Non-local corr. energy    =      19.98892475 Ry

          total   stress  (Ry/bohr**3)                   (kbar)     P=       39.67
   0.00022078   0.00000000   0.00000000           32.48        0.00        0.00
   0.00000000   0.00022078   0.00000000            0.00       32.48        0.00
   0.00000000   0.00000000   0.00036752            0.00        0.00       54.06

     kinetic stress (kbar)  18524.36     -0.00      0.00
                               -0.00  18524.36     -0.00
                                0.00     -0.00  18569.80

     local   stress (kbar)   6149.19     -0.07     -0.00
                               -0.07   6149.10      0.00
                               -0.00      0.00   3493.60

     nonloc. stress (kbar)    139.18      0.00      0.00
                                0.00    139.18     -0.00
                                0.00     -0.00    131.90

     hartree stress (kbar)  19899.65     -0.00     -0.00
                               -0.00  19899.65      0.00
                               -0.00      0.00  21033.29

     exc-cor stress (kbar)   5416.09      0.00      0.00
                                0.00   5416.09      0.00
                                0.00      0.00   5419.18

     corecor stress (kbar) -14468.45     -0.00      0.00
                               -0.00 -14468.45      0.00
                                0.00      0.00 -14468.92

     ewald   stress (kbar) -35793.29      0.10      0.00
                                0.10 -35793.17     -0.00
                                0.00     -0.00 -34288.85

     hubbard stress (kbar)      0.00      0.00      0.00
                                0.00      0.00      0.00
                                0.00      0.00      0.00

     DFT-D   stress (kbar)      0.00      0.00      0.00
                                0.00      0.00      0.00
                                0.00      0.00      0.00

     XDM     stress (kbar)      0.00      0.00      0.00
                                0.00      0.00      0.00
                                0.00      0.00      0.00

     dft-nl  stress (kbar)    165.73     -0.00     -0.00
                               -0.00    165.73     -0.00
                               -0.00     -0.00    164.06

     TS-vdW  stress (kbar)      0.00      0.00      0.00
                                0.00      0.00      0.00
                                0.00      0.00      0.00

     MDB     stress (kbar)      0.00      0.00      0.00
                                0.00      0.00      0.00
                                0.00      0.00      0.00

     3D-RISM stress (kbar)      0.00      0.00      0.00
                                0.00      0.00      0.00
                                0.00      0.00      0.00

     BFGS Geometry Optimization
     Energy error            =      0.0E+00 Ry
     Gradient error          =      8.5E-04 Ry/Bohr

     bfgs converged in   1 scf cycles and   0 bfgs steps
     (criteria: energy <  1.0E-04 Ry, force <  1.0E-03 Ry/Bohr)

     End of BFGS Geometry Optimization

     Final energy             =  -11496.4013087948 Ry
Begin final coordinates

ATOMIC_POSITIONS (angstrom)
Ga            1.6222756606        0.9366198184        2.2943129640
Ga            1.6222756606        0.9366198184        7.8785641695
Ga           -0.0026020714        3.7220888934        2.6186300065
Ga           -0.0009326376        3.7913852204        7.9658707781
Ga           -1.6446988507        6.5662839462        2.6186300065
Ga           -1.5838517542        6.5330815547        7.9658707781
Ga            4.8470015069        0.9510706749        2.6186300065
Ga            4.9061791696        0.9149767393        7.9658707781
Ga            3.2471533926        3.7220888934        2.6186300065
Ga            3.2454839588        3.7913852204        7.9658707781
Ga            1.6222756606        6.5563425246        2.6630080523
Ga            1.6222756606        6.5563425246        7.9326582730
Ga            8.1311950655        0.9510706749        2.6186300065
Ga            8.0720174028        0.9149767393        7.9658707781
Ga            6.4890982862        3.7464811715        2.6418383361
Ga            6.4890982862        3.7464811715        7.9451742053
Ga            4.8892501719        6.5662839462        2.6186300065
Ga            4.8284030754        6.5330815547        7.9658707781
Ga           -0.2035037735        1.9907342706        5.4479503168
Ga           -0.0282470254        1.8895497398       10.4711968356
Ga           -1.6276620899        4.6799942392        5.2866486157
Ga           -1.6239156891        4.6821572247       10.6001501243
Ga           -3.2445503819        7.2579815046        5.4479503168
Ga           -3.2445503819        7.4603505660       10.4711968356
Ga            3.4480482610        1.9907342706        5.4479503168
Ga            3.2727915129        1.8895497398       10.4711968356
Ga            1.6222722437        4.6806647844        5.2829897741
Ga            1.6222722437        4.6927310456       10.5999241829
Ga           -0.0021142139        7.4941846603        5.2829897741
Ga            0.0083354748        7.4881515297       10.5999241829
Ga            6.4890948693        1.8794615673        5.2866486157
Ga            6.4890948693        1.8751355963       10.6001501243
Ga            4.8722065774        4.6799942392        5.2866486157
Ga            4.8684601766        4.6821572247       10.6001501243
Ga            3.2466587014        7.4941846603        5.2829897741
Ga            3.2362090127        7.4881515297       10.5999241829
N             1.6222756606        0.9366198184        9.8784168617
N            -0.0195464181        3.7767341217        4.6247471387
N             0.0026446084        3.7839092126        9.9239077477
N            -1.6058468682        6.5242870973        4.6247471387
N            -1.5885375439        6.5399175445        9.9239077477
N             4.9027978362        0.9384222955        4.6247471387
N             4.8979161340        0.9156167573        9.9239077477
N             3.2640977393        3.7767341217        4.6247471387
N             3.2419067128        3.7839092126        9.9239077477
N             1.6222756606        6.5563425246        4.6453022665
N             1.6222756606        6.5563425246        9.9284075885
N             8.0753987362        0.9384222955        4.6247471387
N             8.0802804384        0.9156167573        9.9239077477
N             6.4890982862        3.7464811715        4.6375490829
N             6.4890982862        3.7464811715        9.9311280743
N             4.8503981894        6.5242870973        4.6247471387
N             4.8330888651        6.5399175445        9.9239077477
N            -0.0635758160        1.9099468266        1.8429451859
N            -0.0576559023        1.9065289628        7.3949833474
N            -1.6227846581        4.6828102258        2.0019717217
N            -1.6261784326        4.6808508291        7.2728772653
N            -3.2445503819        7.4195563925        1.8429451859
N            -3.2445503819        7.4263921200        7.3949833474
N             3.3081203035        1.9099468266        1.8429451859
N             3.3022003898        1.9065289628        7.3949833474
N             1.6222722437        4.6817432207        2.0097447328
N             1.6222722437        4.6855246445        7.2707898707
N            -0.0011802607        7.4936454421        2.0097447328
N             0.0020945484        7.4917547302        7.2707898707
N             6.4890948693        1.8738295941        2.0019717217
N             6.4890948693        1.8777483875        7.2728772653
N             4.8673291456        4.6828102258        2.0019717217
N             4.8707229201        4.6808508291        7.2728772653
N             3.2457247482        7.4936454421        2.0097447328
N             3.2424499391        7.4917547302        7.2707898707
Ga            1.6222756606        0.9366198184        4.5211360532
End final coordinates

     Writing all to output data dir ./GaN.save/

     General routines

     Parallel routines

     PAW routines

   This run was terminated on:   7:40: 0  18Feb2024

   JOB DONE.