     Program PWSCF v.7.1 starts on  9Mar2024 at 10:35:52

     Reading input from espresso.pwi
Warning: card &CELL ignored
Warning: card    CELL_DYNAMICS    = 'BFGS' ignored
Warning: card / ignored

     Current dimensions of program PWSCF are:
     Max number of different atomic species (ntypx) = 10
     Max number of k-points (npk) =  40000
     Max angular momentum in pseudopotentials (lmaxx) =  4
     file Pb.pbe-dn-kjpaw_psl.1.0.0.UPF: wavefunction(s)  6S 6P 5D renormalized
     file I.pbe-dn-kjpaw_psl.1.0.0.UPF: wavefunction(s)  5S 5P renormalized

     IMPORTANT: XC functional enforced from input :
     Exchange-correlation= BEEF-VDW
                           (   1   4  43  14   2   0   0)
     Any further DFT definition will be discarded
     Please, verify this is what you really want

     R & G space division:  proc/nbgrp/npool/nimage =     128
     Subspace diagonalization in iterative solution of the eigenvalue problem:
     a serial algorithm will be used

     Using Slab Decomposition

     bravais-lattice index     =            4
     lattice parameter (alat)  =      35.6120  a.u.
     unit-cell volume          =   30624.9051 (a.u.)^3
     number of atoms/cell      =           96
     number of atomic types    =            2
     number of electrons       =      1536.00
     number of Kohn-Sham states=          922
     kinetic-energy cutoff     =      70.0000  Ry
     charge density cutoff     =     350.0000  Ry
     scf convergence threshold =      1.0E-07
     mixing beta               =       0.7000
     number of iterations used =            8  plain     mixing
     Exchange-correlation= BEEF-VDW
                           (   1   4  43  14   2   0   0)

     celldm(1)=  35.612033  celldm(2)=   0.000000  celldm(3)=   0.782986
     celldm(4)=   0.000000  celldm(5)=   0.000000  celldm(6)=   0.000000

     crystal axes: (cart. coord. in units of alat)
               a(1) = (   1.000000   0.000000   0.000000 )
               a(2) = (  -0.500000   0.866025   0.000000 )
               a(3) = (   0.000000   0.000000   0.782986 )

     reciprocal axes: (cart. coord. in units 2 pi/alat)
               b(1) = (  1.000000  0.577350 -0.000000 )
               b(2) = (  0.000000  1.154701  0.000000 )
               b(3) = (  0.000000 -0.000000  1.277163 )

     PseudoPot. # 1 for Pb read from file:
     //group///packages/espresso/pseudo/psl_1.0.0/pslibrary.1.0.0/pbe/PSEUDOPOTENTIALS/Pb.pbe-dn-kjpaw_psl.1.0.0.UPF
     MD5 check sum: 39ab5b8a6bbd56b7735ad9f188aac93a
     Pseudo is Projector augmented-wave + core cor, Zval = 14.0
     Generated using 'atomic' code by A. Dal Corso  v.7.1
     Shape of augmentation charge: PSQ
     Using radial grid of 1281 points,  6 beta functions with:
                l(1) =   0
                l(2) =   0
                l(3) =   1
                l(4) =   1
                l(5) =   2
                l(6) =   2
     Q(r) pseudized with 0 coefficients

     PseudoPot. # 2 for I  read from file:
     //group///packages/espresso/pseudo/psl_1.0.0/pslibrary.1.0.0/pbe/PSEUDOPOTENTIALS/I.pbe-dn-kjpaw_psl.1.0.0.UPF
     MD5 check sum: bfa8781bc1224d19af3f3980e3fab11e
     Pseudo is Projector augmented-wave + core cor, Zval = 17.0
     Generated using 'atomic' code by A. Dal Corso  v.7.1
     Shape of augmentation charge: PSQ
     Using radial grid of 1247 points,  6 beta functions with:
                l(1) =   0
                l(2) =   0
                l(3) =   1
                l(4) =   1
                l(5) =   2
                l(6) =   2
     Q(r) pseudized with 0 coefficients

     atomic species   valence    mass     pseudopotential
        Pb            14.00   207.20000     Pb( 1.00)
        I             17.00   126.90447     I ( 1.00)

     No symmetry found

                                    s                        frac. trans.

      isym =  1     identity

 cryst.   s( 1) = (     1          0          0      )
                  (     0          1          0      )
                  (     0          0          1      )

 cart.    s( 1) = (  1.0000000  0.0000000  0.0000000 )
                  (  0.0000000  1.0000000  0.0000000 )
                  (  0.0000000  0.0000000  1.0000000 )

     point group C_1 (1)
     there are  1 classes
     the character table:

       E
A      1.00

     the symmetry operations in each class and the name of the first element:

     E        1
          identity

   Cartesian axes

     site n.     atom                  positions (alat units)
         1           Pb  tau(   1) = (   0.1250085   0.2164873   0.7829825  )
         2           Pb  tau(   2) = (   0.1250034   0.2164918   0.3914896  )
         3           Pb  tau(   3) = (   0.0000077   0.4329926   0.7829784  )
         4           Pb  tau(   4) = (   0.0000026   0.4329971   0.3914855  )
         5           Pb  tau(   5) = (  -0.1249932   0.6494980   0.7829742  )
         6           Pb  tau(   6) = (  -0.1249983   0.6495025   0.3914814  )
         7           Pb  tau(   7) = (  -0.2499940   0.8660033   0.7829701  )
         8           Pb  tau(   8) = (  -0.2499991   0.8660078   0.3914773  )
         9           Pb  tau(   9) = (   0.3750085   0.2164863   0.7829857  )
        10           Pb  tau(  10) = (   0.3750034   0.2164908   0.3914929  )
        11           Pb  tau(  11) = (   0.2500077   0.4329916   0.7829816  )
        12           Pb  tau(  12) = (   0.2500026   0.4329962   0.3914888  )
        13           Pb  tau(  13) = (   0.1250068   0.6494970   0.7829775  )
        14           Pb  tau(  14) = (   0.1250017   0.6495015   0.3914847  )
        15           Pb  tau(  15) = (   0.0000060   0.8660024   0.7829734  )
        16           Pb  tau(  16) = (   0.0000009   0.8660069   0.3914805  )
        17           Pb  tau(  17) = (   0.6250085   0.2164853   0.7829890  )
        18           Pb  tau(  18) = (   0.6250034   0.2164898   0.3914962  )
        19           Pb  tau(  19) = (   0.5000077   0.4329907   0.7829849  )
        20           Pb  tau(  20) = (   0.5000026   0.4329952   0.3914920  )
        21           Pb  tau(  21) = (   0.3750068   0.6494960   0.7829808  )
        22           Pb  tau(  22) = (   0.3750017   0.6495006   0.3914879  )
        23           Pb  tau(  23) = (   0.2500060   0.8660014   0.7829766  )
        24           Pb  tau(  24) = (   0.2500009   0.8660059   0.3914838  )
        25           Pb  tau(  25) = (   0.8750085   0.2164844   0.7829923  )
        26           Pb  tau(  26) = (   0.8750034   0.2164889   0.3914994  )
        27           Pb  tau(  27) = (   0.7500077   0.4329897   0.7829881  )
        28           Pb  tau(  28) = (   0.7500026   0.4329942   0.3914953  )
        29           Pb  tau(  29) = (   0.6250068   0.6494951   0.7829840  )
        30           Pb  tau(  30) = (   0.6250017   0.6494996   0.3914912  )
        31           Pb  tau(  31) = (   0.5000060   0.8660004   0.7829799  )
        32           Pb  tau(  32) = (   0.5000009   0.8660050   0.3914870  )
        33           I   tau(  33) = (   0.1250054   0.0721550   0.2909325  )
        34           I   tau(  34) = (   0.1250105   0.0721505   0.6824253  )
        35           I   tau(  35) = (   0.0000045   0.2886603   0.2909283  )
        36           I   tau(  36) = (   0.0000096   0.2886558   0.6824212  )
        37           I   tau(  37) = (  -0.1249963   0.5051657   0.2909242  )
        38           I   tau(  38) = (  -0.1249912   0.5051612   0.6824171  )
        39           I   tau(  39) = (  -0.2499971   0.7216710   0.2909201  )
        40           I   tau(  40) = (  -0.2499920   0.7216665   0.6824129  )
        41           I   tau(  41) = (   0.3750054   0.0721540   0.2909357  )
        42           I   tau(  42) = (   0.3750105   0.0721495   0.6824286  )
        43           I   tau(  43) = (   0.2500045   0.2886594   0.2909316  )
        44           I   tau(  44) = (   0.2500096   0.2886548   0.6824244  )
        45           I   tau(  45) = (   0.1250037   0.5051647   0.2909275  )
        46           I   tau(  46) = (   0.1250088   0.5051602   0.6824203  )
        47           I   tau(  47) = (   0.0000029   0.7216701   0.2909233  )
        48           I   tau(  48) = (   0.0000080   0.7216656   0.6824162  )
        49           I   tau(  49) = (   0.6250054   0.0721530   0.2909390  )
        50           I   tau(  50) = (   0.6250105   0.0721485   0.6824318  )
        51           I   tau(  51) = (   0.5000045   0.2886584   0.2909348  )
        52           I   tau(  52) = (   0.5000096   0.2886539   0.6824277  )
        53           I   tau(  53) = (   0.3750037   0.5051638   0.2909307  )
        54           I   tau(  54) = (   0.3750088   0.5051592   0.6824236  )
        55           I   tau(  55) = (   0.2500029   0.7216691   0.2909266  )
        56           I   tau(  56) = (   0.2500080   0.7216646   0.6824194  )
        57           I   tau(  57) = (   0.8750054   0.0721521   0.2909422  )
        58           I   tau(  58) = (   0.8750105   0.0721476   0.6824351  )
        59           I   tau(  59) = (   0.7500045   0.2886574   0.2909381  )
        60           I   tau(  60) = (   0.7500096   0.2886529   0.6824310  )
[...]
        82           I   tau(  82) = (   0.5000034   0.1443233   0.4920548  )
        83           I   tau(  83) = (   0.3749975   0.3608332   0.1005579  )
        84           I   tau(  84) = (   0.3750026   0.3608286   0.4920507  )
        85           I   tau(  85) = (   0.2499966   0.5773385   0.1005537  )
        86           I   tau(  86) = (   0.2500017   0.5773340   0.4920466  )
        87           I   tau(  87) = (   0.1249958   0.7938439   0.1005496  )
        88           I   tau(  88) = (   0.1250009   0.7938394   0.4920425  )
        89           I   tau(  89) = (   0.7499983   0.1443268   0.1005653  )
        90           I   tau(  90) = (   0.7500034   0.1443223   0.4920581  )
        91           I   tau(  91) = (   0.6249975   0.3608322   0.1005611  )
        92           I   tau(  92) = (   0.6250026   0.3608277   0.4920540  )
        93           I   tau(  93) = (   0.4999966   0.5773376   0.1005570  )
        94           I   tau(  94) = (   0.5000017   0.5773330   0.4920499  )
        95           I   tau(  95) = (   0.3749958   0.7938429   0.1005529  )
        96           I   tau(  96) = (   0.3750009   0.7938384   0.4920457  )

   Crystallographic axes

     site n.     atom                  positions (cryst. coord.)
         1           Pb  tau(   1) = (  0.2499975  0.2499780  0.9999959  )
         2           Pb  tau(   2) = (  0.2499950  0.2499832  0.4999959  )
         3           Pb  tau(   3) = (  0.2499961  0.4999768  0.9999906  )
         4           Pb  tau(   4) = (  0.2499936  0.4999820  0.4999906  )
         5           Pb  tau(   5) = (  0.2499947  0.7499757  0.9999854  )
         6           Pb  tau(   6) = (  0.2499922  0.7499809  0.4999854  )
         7           Pb  tau(   7) = (  0.2499932  0.9999745  0.9999801  )
         8           Pb  tau(   8) = (  0.2499908  0.9999797  0.4999801  )
         9           Pb  tau(   9) = (  0.4999969  0.2499768  1.0000001  )
[...]
     atom   26 type  1   force =     0.00000000    0.00000000    0.00000000
     atom   27 type  1   force =     0.00000000    0.00000000    0.00000000
     atom   28 type  1   force =     0.00000000    0.00000000    0.00000000
     atom   29 type  1   force =     0.00000000    0.00000000    0.00000000
     atom   30 type  1   force =     0.00000000    0.00000000    0.00000000
     atom   31 type  1   force =     0.00000000    0.00000000    0.00000000
     atom   32 type  1   force =     0.00000000    0.00000000    0.00000000
     atom   33 type  2   force =     0.00000000    0.00000000    0.00000000
     atom   34 type  2   force =     0.00000000    0.00000000    0.00000000
     atom   35 type  2   force =     0.00000000    0.00000000    0.00000000
     atom   36 type  2   force =     0.00000000    0.00000000    0.00000000
     atom   37 type  2   force =     0.00000000    0.00000000    0.00000000
     atom   38 type  2   force =     0.00000000    0.00000000    0.00000000
     atom   39 type  2   force =     0.00000000    0.00000000    0.00000000
     atom   40 type  2   force =     0.00000000    0.00000000    0.00000000
     atom   41 type  2   force =     0.00000000    0.00000000    0.00000000
     atom   42 type  2   force =     0.00000000    0.00000000    0.00000000
     atom   43 type  2   force =     0.00000000    0.00000000    0.00000000
     atom   44 type  2   force =     0.00000000    0.00000000    0.00000000
     atom   45 type  2   force =     0.00000000    0.00000000    0.00000000
     atom   46 type  2   force =     0.00000000    0.00000000    0.00000000
     atom   47 type  2   force =     0.00000000    0.00000000    0.00000000
     atom   48 type  2   force =     0.00000000    0.00000000    0.00000000
     atom   49 type  2   force =     0.00000000    0.00000000    0.00000000
     atom   50 type  2   force =     0.00000000    0.00000000    0.00000000
     atom   51 type  2   force =     0.00000000    0.00000000    0.00000000
     atom   52 type  2   force =     0.00000000    0.00000000    0.00000000
     atom   53 type  2   force =     0.00000000    0.00000000    0.00000000
     atom   54 type  2   force =     0.00000000    0.00000000    0.00000000
     atom   55 type  2   force =     0.00000000    0.00000000    0.00000000
     atom   56 type  2   force =     0.00000000    0.00000000    0.00000000
     atom   57 type  2   force =     0.00000000    0.00000000    0.00000000
     atom   58 type  2   force =     0.00000000    0.00000000    0.00000000
     atom   59 type  2   force =     0.00000000    0.00000000    0.00000000
     atom   60 type  2   force =     0.00000000    0.00000000    0.00000000
[...]
     atom   82 type  2   force =     0.00000000    0.00000000    0.00000000
     atom   83 type  2   force =     0.00000000    0.00000000    0.00000000
     atom   84 type  2   force =     0.00000000    0.00000000    0.00000000
     atom   85 type  2   force =     0.00000000    0.00000000    0.00000000
     atom   86 type  2   force =     0.00000000    0.00000000    0.00000000
     atom   87 type  2   force =     0.00000000    0.00000000    0.00000000
     atom   88 type  2   force =     0.00000000    0.00000000    0.00000000
     atom   89 type  2   force =     0.00000000    0.00000000    0.00000000
     atom   90 type  2   force =     0.00000000    0.00000000    0.00000000
     atom   91 type  2   force =     0.00000000    0.00000000    0.00000000
     atom   92 type  2   force =     0.00000000    0.00000000    0.00000000
     atom   93 type  2   force =     0.00000000    0.00000000    0.00000000
     atom   94 type  2   force =     0.00000000    0.00000000    0.00000000
     atom   95 type  2   force =     0.00000000    0.00000000    0.00000000
     atom   96 type  2   force =     0.00000000    0.00000000    0.00000000
     The SCF correction term to forces
     atom    1 type  1   force =     0.00005994    0.00007000   -0.00000422
     atom    2 type  1   force =     0.00005012    0.00005717   -0.00000641
     atom    3 type  1   force =     0.00003822   -0.00004892   -0.00000293
     atom    4 type  1   force =     0.00002769   -0.00007171    0.00000080
     atom    5 type  1   force =    -0.00001588   -0.00005283    0.00000590
     atom    6 type  1   force =    -0.00003383   -0.00005234    0.00000498
     atom    7 type  1   force =     0.00000410    0.00008502    0.00000285
     atom    8 type  1   force =    -0.00001527    0.00008168    0.00000083
     atom    9 type  1   force =    -0.00005314    0.00006909   -0.00002805
     atom   10 type  1   force =    -0.00006104    0.00006723    0.00002529
     atom   11 type  1   force =     0.00000425   -0.00010290   -0.00001265
     atom   12 type  1   force =     0.00000101   -0.00011401    0.00000981
     atom   13 type  1   force =    -0.00002464   -0.00011389    0.00000456
     atom   14 type  1   force =    -0.00002139   -0.00011307   -0.00000583
     atom   15 type  1   force =    -0.00007577    0.00006484   -0.00000319
     atom   16 type  1   force =    -0.00008159    0.00006381    0.00001253
     atom   17 type  1   force =    -0.00006502    0.00008999   -0.00005467
     atom   18 type  1   force =    -0.00005338    0.00009684    0.00005804
     atom   19 type  1   force =    -0.00003938   -0.00006065   -0.00005411
     atom   20 type  1   force =    -0.00003292   -0.00006074    0.00005916
     atom   21 type  1   force =     0.00001997   -0.00011792   -0.00002476
     atom   22 type  1   force =     0.00003489   -0.00010810    0.00002992
     atom   23 type  1   force =    -0.00000609    0.00004023   -0.00001796
     atom   24 type  1   force =     0.00001027    0.00004731    0.00002319
     atom   25 type  1   force =     0.00005522    0.00008850   -0.00003130
     atom   26 type  1   force =     0.00006557    0.00009015    0.00002020
     atom   27 type  1   force =    -0.00000468   -0.00000965   -0.00004233
     atom   28 type  1   force =     0.00000311   -0.00001450    0.00004735
     atom   29 type  1   force =     0.00001928   -0.00005359   -0.00003262
     atom   30 type  1   force =     0.00002024   -0.00004059    0.00003588
     atom   31 type  1   force =     0.00007592    0.00005920   -0.00001523
     atom   32 type  1   force =     0.00008720    0.00006535    0.00001350
     atom   33 type  2   force =     0.00006983    0.00013071   -0.00001269
     atom   34 type  2   force =     0.00007421    0.00012538    0.00001964
     atom   35 type  2   force =     0.00009372    0.00004221   -0.00000954
     atom   36 type  2   force =     0.00007158    0.00004814    0.00002929
     atom   37 type  2   force =     0.00002218   -0.00007413   -0.00003197
     atom   38 type  2   force =    -0.00000443   -0.00008288    0.00001808
     atom   39 type  2   force =    -0.00000283    0.00001595   -0.00003330
     atom   40 type  2   force =    -0.00001461   -0.00001416    0.00001010
     atom   41 type  2   force =    -0.00010357    0.00011656   -0.00002656
     atom   42 type  2   force =    -0.00006252    0.00014379    0.00003101
     atom   43 type  2   force =    -0.00002340    0.00000262   -0.00000201
     atom   44 type  2   force =     0.00001572    0.00002193    0.00005279
     atom   45 type  2   force =     0.00000309   -0.00017095   -0.00004422
     atom   46 type  2   force =     0.00001234   -0.00015908    0.00004602
     atom   47 type  2   force =    -0.00006868   -0.00005673   -0.00007049
     atom   48 type  2   force =    -0.00005694   -0.00004974    0.00003177
     atom   49 type  2   force =    -0.00007333    0.00010018   -0.00003537
     atom   50 type  2   force =    -0.00007261    0.00013430    0.00000335
     atom   51 type  2   force =    -0.00009727    0.00004839    0.00001337
     atom   52 type  2   force =    -0.00007534    0.00006124    0.00001208
     atom   53 type  2   force =    -0.00001923   -0.00016182   -0.00001093
     atom   54 type  2   force =     0.00001518   -0.00017038    0.00001978
     atom   55 type  2   force =    -0.00000212   -0.00010526   -0.00006395
     atom   56 type  2   force =     0.00000747   -0.00009648    0.00000726
     atom   57 type  2   force =     0.00010068    0.00011510   -0.00002739
     atom   58 type  2   force =     0.00006329    0.00011368   -0.00000980
     atom   59 type  2   force =     0.00002502    0.00008638   -0.00000179
     atom   60 type  2   force =    -0.00002182    0.00008803   -0.00001836
[...]
     atom   82 type  2   force =    -0.00009630    0.00015640    0.00000822
     atom   83 type  2   force =    -0.00006800   -0.00004838   -0.00001733
     atom   84 type  2   force =    -0.00001799   -0.00005231   -0.00001565
     atom   85 type  2   force =    -0.00001699   -0.00019030    0.00002739
     atom   86 type  2   force =     0.00002492   -0.00019530   -0.00000569
     atom   87 type  2   force =    -0.00006664   -0.00002107    0.00005255
     atom   88 type  2   force =    -0.00005250    0.00000430    0.00001351
     atom   89 type  2   force =     0.00000493    0.00012174    0.00002248
     atom   90 type  2   force =    -0.00000088    0.00015217    0.00001279
     atom   91 type  2   force =    -0.00005514    0.00002355   -0.00001928
     atom   92 type  2   force =    -0.00005419    0.00001735    0.00001438
     atom   93 type  2   force =     0.00000659   -0.00011887   -0.00000352
     atom   94 type  2   force =     0.00002564   -0.00013429    0.00000086
     atom   95 type  2   force =     0.00005006   -0.00001271    0.00005142
     atom   96 type  2   force =     0.00007773   -0.00001160    0.00000979

     Total force =     0.000385     Total SCF correction =     0.001075
     SCF correction compared to forces is large: reduce conv_thr to get better values

     Computing stress (Cartesian axis) and pressure

[...]

          total   stress  (Ry/bohr**3)                   (kbar)     P=        1.57
   0.00000999  -0.00000000   0.00000000            1.47       -0.00        0.00
  -0.00000000   0.00000998  -0.00000000           -0.00        1.47       -0.00
   0.00000000  -0.00000000   0.00001210            0.00       -0.00        1.78

     kinetic stress (kbar)  14991.24      0.00      0.00
                                0.00  14991.24     -0.00
                                0.00     -0.00  15002.60

     local   stress (kbar)  -7556.83      0.06     -0.05
                                0.06  -7556.71      0.05
                               -0.05      0.05   1604.41

     nonloc. stress (kbar)  -1072.31     -0.00      0.00
                               -0.00  -1072.31     -0.00
                                0.00     -0.00  -1078.27

     hartree stress (kbar)  12058.20     -0.02      0.02
                               -0.02  12058.15     -0.02
                                0.02     -0.02   7930.56

     exc-cor stress (kbar)   6946.48     -0.00      0.00
                               -0.00   6946.48     -0.00
                                0.00     -0.00   6945.36

     corecor stress (kbar) -11310.03      0.00     -0.00
                                0.00 -11310.03      0.00
                               -0.00      0.00 -11310.03

     ewald   stress (kbar) -14138.56     -0.04      0.03
                               -0.04 -14138.63     -0.03
                                0.03     -0.03 -19177.48

     hubbard stress (kbar)      0.00      0.00      0.00
                                0.00      0.00      0.00
                                0.00      0.00      0.00

     DFT-D   stress (kbar)      0.00      0.00      0.00
                                0.00      0.00      0.00
                                0.00      0.00      0.00

     XDM     stress (kbar)      0.00      0.00      0.00
                                0.00      0.00      0.00
                                0.00      0.00      0.00

     dft-nl  stress (kbar)     83.28      0.00     -0.00
                                0.00     83.28      0.00
                               -0.00      0.00     84.65

     TS-vdW  stress (kbar)      0.00      0.00      0.00
                                0.00      0.00      0.00
                                0.00      0.00      0.00

     MDB     stress (kbar)      0.00      0.00      0.00
                                0.00      0.00      0.00
                                0.00      0.00      0.00

     3D-RISM stress (kbar)      0.00      0.00      0.00
                                0.00      0.00      0.00
                                0.00      0.00      0.00

[...]

     Non-local corr. energy    =      46.02492435 Ry

 BEEFens 2000 ensemble energies
             -0.386871726418394E+02
             -0.389265942393492E+03
             -0.177108356435575E+03
              0.135941516317643E+03
             -0.297508641196410E+03
             -0.364267530644189E+03
              0.186958235937018E+03
              0.796649615185743E+00
              0.315098227920222E+03
             -0.199446148676373E+02
              0.161348480468272E+03
              0.164587392460417E+02
             -0.123562319281597E+02
             -0.998667014526791E+01
              0.201095265393964E+03
             -0.151433831903892E+03
             -0.297302172978750E+03
             -0.959507953487873E+02
              0.859619223147854E+02
             -0.183555880386939E+01
              0.438353009889717E+03
              0.365891568448916E+03
             -0.225368085621095E+03
              0.778959972380021E+02
             -0.469549532295103E+03
              0.385418255254260E+03
              0.131799801151281E+03
              0.348020186640665E+03
              0.234562956317690E+03
             -0.108907836304042E+03
              0.858237012658253E+02
             -0.153452031397320E+03
              0.640885814519954E+02
              0.233362462906866E+03
              0.251095647729311E+03
             -0.109130822464463E+03
              0.553947341829816E+03
             -0.222915917843020E+03
             -0.148500824611364E+03
              0.221568289977874E+03
              0.977085653825491E+02
              0.168347542464923E+03
             -0.325161105451934E+03
             -0.211400411180994E+02
              0.311949389469937E+03
              0.407731490245986E+03
             -0.413996216256785E+03
              0.265731393455451E+02
              0.143621233956178E+03
              0.927191305145166E+02
              0.161885483301972E+03
              0.355497864592486E+03
             -0.230888753939876E+03
             -0.224085449469137E+03
             -0.312146117020785E+03
             -0.452764283147601E+02
             -0.266301572717581E+03
              0.343982890151374E+02
             -0.384086860481634E+02
             -0.211252050163103E+03
[...]
              0.263784343961995E+03
              0.168971462420898E+03
              0.172280633351659E+03
             -0.318818631452072E+03
             -0.329252453925844E+03
             -0.742361551152214E+02
             -0.294327220456121E+03
              0.467264884062733E+03
              0.393586517525421E+03
              0.185639376157027E+03
              0.511757408739468E+03
             -0.255716623724279E+03
             -0.110147359418803E+03
             -0.158786271382651E+03
              0.442721436235361E+03

 BEEF-vdW xc energy contributions
            1 :    -4002.017297954701
            2 :     3667.124767097461
            3 :    -3096.127266602783
            4 :     2441.251373778236
            5 :    -1845.806841916815
            6 :     1397.989152367765
            7 :    -1116.504647192040
            8 :     963.8564672284710
            9 :    -874.7741559010174
           10 :     787.5534759823868
           11 :    -667.5818885701283
           12 :     514.9048769275505
           13 :    -354.5725795737626
           14 :     217.3686860354765
           15 :    -122.5631576805918
           16 :     70.66264864366894
           17 :    -46.86086777682885
           18 :     30.75323162746099
           19 :    -6.692011794925747
           20 :    -29.70969335251084
           21 :     71.39333916268333
           22 :    -105.6339602287662
           23 :     122.3703205597121
           24 :    -120.2664823418163
           25 :     107.2570875976389
           26 :    -95.82176416376478
           27 :     96.11429459595820
           28 :    -110.7409315854911
           29 :     133.6913721975470
           30 :    -153.7465556631732
           31 :    -344.5196584214800
           32 :    -247.8796081972878

     Writing all to output data dir ./PbI2.save/

     General routines

     Parallel routines

     PAW routines

   This run was terminated on:  11: 3:11   9Mar2024

   JOB DONE.