     Program PWSCF v.7.1 starts on 28May2024 at 15:21:52

     Reading input from espresso.pwi
Warning: card &CELL ignored
Warning: card    CELL_DYNAMICS    = 'BFGS' ignored
Warning: card / ignored

     Current dimensions of program PWSCF are:
     Max number of different atomic species (ntypx) = 10
     Max number of k-points (npk) =  40000
     Max angular momentum in pseudopotentials (lmaxx) =  4
     file Ga.pbe-dn-kjpaw_psl.1.0.0.UPF: wavefunction(s)  4S renormalized
     file N.pbe-n-kjpaw_psl.1.0.0.UPF: wavefunction(s)  2S renormalized

     IMPORTANT: XC functional enforced from input :
     Exchange-correlation= BEEF-VDW
                           (   1   4  43  14   2   0   0)
     Any further DFT definition will be discarded
     Please, verify this is what you really want

     K-points division:     npool     =       4
     R & G space division:  proc/nbgrp/npool/nimage =      64
     Subspace diagonalization in iterative solution of the eigenvalue problem:
     a serial algorithm will be used

     Using Slab Decomposition

     bravais-lattice index     =            4
     lattice parameter (alat)  =      30.6565  a.u.
     unit-cell volume          =   24400.9461 (a.u.)^3
     number of atoms/cell      =          300
     number of atomic types    =            2
     number of electrons       =      2710.00
     number of Kohn-Sham states=         1626
     kinetic-energy cutoff     =      70.0000  Ry
     charge density cutoff     =     350.0000  Ry
     scf convergence threshold =      1.0E-07
     mixing beta               =       0.7000
     number of iterations used =            8  plain     mixing
     Exchange-correlation= BEEF-VDW
                           (   1   4  43  14   2   0   0)

     celldm(1)=  30.656540  celldm(2)=   0.000000  celldm(3)=   0.977927
     celldm(4)=   0.000000  celldm(5)=   0.000000  celldm(6)=   0.000000

     crystal axes: (cart. coord. in units of alat)
               a(1) = (   1.000000   0.000000   0.000000 )
               a(2) = (  -0.500000   0.866025   0.000000 )
               a(3) = (   0.000000   0.000000   0.977927 )

     reciprocal axes: (cart. coord. in units 2 pi/alat)
               b(1) = (  1.000000  0.577350 -0.000000 )
               b(2) = (  0.000000  1.154701  0.000000 )
               b(3) = (  0.000000 -0.000000  1.022571 )

     PseudoPot. # 1 for Ga read from file:
     //group///packages/espresso/pseudo/psl_1.0.0/pslibrary.1.0.0/pbe/PSEUDOPOTENTIALS/Ga.pbe-dn-kjpaw_psl.1.0.0.UPF
     MD5 check sum: cd2a01e492f15b435d17032472d8505c
     Pseudo is Projector augmented-wave + core cor, Zval = 13.0
     Generated using 'atomic' code by A. Dal Corso  v.7.1
     Shape of augmentation charge: PSQ
     Using radial grid of 1205 points,  6 beta functions with:
                l(1) =   0
                l(2) =   0
                l(3) =   1
                l(4) =   1
                l(5) =   2
                l(6) =   2
     Q(r) pseudized with 0 coefficients

     PseudoPot. # 2 for N  read from file:
     //group///packages/espresso/pseudo/psl_1.0.0/pslibrary.1.0.0/pbe/PSEUDOPOTENTIALS/N.pbe-n-kjpaw_psl.1.0.0.UPF
     MD5 check sum: f77f775694dac7e2c3fe1c82443d1a16
     Pseudo is Projector augmented-wave + core cor, Zval =  5.0
     Generated using 'atomic' code by A. Dal Corso  v.7.1
     Shape of augmentation charge: PSQ
     Using radial grid of 1085 points,  4 beta functions with:
                l(1) =   0
                l(2) =   0
                l(3) =   1
                l(4) =   1
     Q(r) pseudized with 0 coefficients

     atomic species   valence    mass     pseudopotential
        Ga            13.00    69.72300     Ga( 1.00)
        N              5.00    14.00700     N ( 1.00)

      2 Sym. Ops. (no inversion) found

                                    s                        frac. trans.

      isym =  1     identity

 cryst.   s( 1) = (     1          0          0      )
                  (     0          1          0      )
                  (     0          0          1      )

 cart.    s( 1) = (  1.0000000  0.0000000  0.0000000 )
                  (  0.0000000  1.0000000  0.0000000 )
                  (  0.0000000  0.0000000  1.0000000 )

      isym =  2     inv. 180 deg rotation - cryst. axis [0,1,0]

 cryst.   s( 2) = (     1          1          0      )
                  (     0         -1          0      )
                  (     0          0          1      )

 cart.    s( 2) = (  0.5000000  0.8660254  0.0000000 )
                  (  0.8660254 -0.5000000  0.0000000 )
                  (  0.0000000  0.0000000  1.0000000 )

     point group C_s (m)
     there are  2 classes
     the character table:

       E     s
A'     1.00  1.00
A''    1.00 -1.00

     the symmetry operations in each class and the name of the first element:

     E        1
          identity
     s        2
          inv. 180 deg rotation - cryst. axis [0,1,0]

   Cartesian axes

     site n.     atom                  positions (alat units)
         1           Ga  tau(   1) = (   0.1000001   0.0577350   0.1627148  )
         2           Ga  tau(   2) = (   0.1000001   0.0577350   0.4886906  )
         3           Ga  tau(   3) = (   0.1000001   0.0577350   0.8146665  )
         4           Ga  tau(   4) = (   0.0000001   0.2309401   0.1627148  )
         5           Ga  tau(   5) = (   0.0000001   0.2309401   0.4886906  )
         6           Ga  tau(   6) = (   0.0000001   0.2309401   0.8146665  )
         7           Ga  tau(   7) = (  -0.0999999   0.4041451   0.1627148  )
         8           Ga  tau(   8) = (  -0.0999999   0.4041451   0.4886906  )
         9           Ga  tau(   9) = (  -0.0999999   0.4041451   0.8146665  )
        10           Ga  tau(  10) = (  -0.1999999   0.5773502   0.1627148  )
        11           Ga  tau(  11) = (  -0.1999999   0.5773502   0.4886906  )
        12           Ga  tau(  12) = (  -0.1999999   0.5773502   0.8146665  )
        13           Ga  tau(  13) = (  -0.2999999   0.7505553   0.1627148  )
        14           Ga  tau(  14) = (  -0.2999999   0.7505553   0.4886906  )
        15           Ga  tau(  15) = (  -0.2999999   0.7505553   0.8146665  )
        16           Ga  tau(  16) = (   0.3000001   0.0577350   0.1627148  )
        17           Ga  tau(  17) = (   0.3000001   0.0577350   0.4886906  )
        18           Ga  tau(  18) = (   0.3000001   0.0577350   0.8146665  )
        19           Ga  tau(  19) = (   0.2000001   0.2309401   0.1627148  )
        20           Ga  tau(  20) = (   0.2000001   0.2309401   0.4886906  )
        21           Ga  tau(  21) = (   0.2000001   0.2309401   0.8146665  )
        22           Ga  tau(  22) = (   0.1000001   0.4041451   0.1627148  )
        23           Ga  tau(  23) = (   0.1000001   0.4041451   0.4886906  )
        24           Ga  tau(  24) = (   0.1000001   0.4041451   0.8146665  )
        25           Ga  tau(  25) = (   0.0000001   0.5773502   0.1627148  )
        26           Ga  tau(  26) = (   0.0000001   0.5773502   0.4886906  )
        27           Ga  tau(  27) = (   0.0000001   0.5773502   0.8146665  )
        28           Ga  tau(  28) = (  -0.0999999   0.7505553   0.1627148  )
        29           Ga  tau(  29) = (  -0.0999999   0.7505553   0.4886906  )
        30           Ga  tau(  30) = (  -0.0999999   0.7505553   0.8146665  )
        31           Ga  tau(  31) = (   0.5000001   0.0577350   0.1627148  )
        32           Ga  tau(  32) = (   0.5000001   0.0577350   0.4886906  )
        33           Ga  tau(  33) = (   0.5000001   0.0577350   0.8146665  )
        34           Ga  tau(  34) = (   0.4000001   0.2309401   0.1627148  )
        35           Ga  tau(  35) = (   0.4000001   0.2309401   0.4886906  )
        36           Ga  tau(  36) = (   0.4000001   0.2309401   0.8146665  )
        37           Ga  tau(  37) = (   0.3000001   0.4041451   0.1627148  )
        38           Ga  tau(  38) = (   0.3000001   0.4041451   0.4886906  )
        39           Ga  tau(  39) = (   0.3000001   0.4041451   0.8146665  )
        40           Ga  tau(  40) = (   0.2000001   0.5773502   0.1627148  )
        41           Ga  tau(  41) = (   0.2000001   0.5773502   0.4886906  )
        42           Ga  tau(  42) = (   0.2000001   0.5773502   0.8146665  )
        43           Ga  tau(  43) = (   0.1000001   0.7505553   0.1627148  )
        44           Ga  tau(  44) = (   0.1000001   0.7505553   0.4886906  )
        45           Ga  tau(  45) = (   0.1000001   0.7505553   0.8146665  )
        46           Ga  tau(  46) = (   0.7000001   0.0577350   0.1627148  )
        47           Ga  tau(  47) = (   0.7000001   0.0577350   0.4886906  )
        48           Ga  tau(  48) = (   0.7000001   0.0577350   0.8146665  )
        49           Ga  tau(  49) = (   0.6000001   0.2309401   0.1627148  )
        50           Ga  tau(  50) = (   0.6000001   0.2309401   0.4886906  )
        51           Ga  tau(  51) = (   0.6000001   0.2309401   0.8146665  )
        52           Ga  tau(  52) = (   0.5000001   0.4041451   0.1627148  )
        53           Ga  tau(  53) = (   0.5000001   0.4041451   0.4886906  )
        54           Ga  tau(  54) = (   0.5000001   0.4041451   0.8146665  )
        55           Ga  tau(  55) = (   0.4000001   0.5773502   0.1627148  )
        56           Ga  tau(  56) = (   0.4000001   0.5773502   0.4886906  )
        57           Ga  tau(  57) = (   0.4000001   0.5773502   0.8146665  )
        58           Ga  tau(  58) = (   0.3000001   0.7505553   0.1627148  )
        59           Ga  tau(  59) = (   0.3000001   0.7505553   0.4886906  )
        60           Ga  tau(  60) = (   0.3000001   0.7505553   0.8146665  )
[...]
       286           N   tau( 286) = (   0.7999999   0.1154701   0.4484898  )
       287           N   tau( 287) = (   0.7999999   0.1154701   0.7744656  )
       288           N   tau( 288) = (   0.6999999   0.2886752   0.1225140  )
       289           N   tau( 289) = (   0.6999999   0.2886752   0.4484898  )
       290           N   tau( 290) = (   0.6999999   0.2886752   0.7744656  )
       291           N   tau( 291) = (   0.5999999   0.4618803   0.1225140  )
       292           N   tau( 292) = (   0.5999999   0.4618803   0.4484898  )
       293           N   tau( 293) = (   0.5999999   0.4618803   0.7744656  )
       294           N   tau( 294) = (   0.4999999   0.6350854   0.1225140  )
       295           N   tau( 295) = (   0.4999999   0.6350854   0.4484898  )
       296           N   tau( 296) = (   0.4999999   0.6350854   0.7744656  )
       297           N   tau( 297) = (   0.3999999   0.8082905   0.1225140  )
       298           N   tau( 298) = (   0.3999999   0.8082905   0.4484898  )
       299           N   tau( 299) = (   0.3999999   0.8082905   0.7744656  )
       300           Ga  tau( 300) = (   0.1000001   0.0577350   0.2855019  )

   Crystallographic axes

     site n.     atom                  positions (cryst. coord.)
         1           Ga  tau(   1) = (  0.1333334  0.0666666  0.1663874  )
         2           Ga  tau(   2) = (  0.1333334  0.0666666  0.4997208  )
         3           Ga  tau(   3) = (  0.1333334  0.0666666  0.8330541  )
[...]
     atom   25 type  1   force =     0.00000000    0.00000000    0.00000000
     atom   26 type  1   force =     0.00000000    0.00000000    0.00000000
     atom   27 type  1   force =     0.00000000    0.00000000    0.00000000
     atom   28 type  1   force =     0.00000000    0.00000000    0.00000000
     atom   29 type  1   force =     0.00000000    0.00000000    0.00000000
     atom   30 type  1   force =     0.00000000    0.00000000    0.00000000
     atom   31 type  1   force =     0.00000000    0.00000000    0.00000000
     atom   32 type  1   force =     0.00000000    0.00000000    0.00000000
     atom   33 type  1   force =     0.00000000    0.00000000    0.00000000
     atom   34 type  1   force =     0.00000000    0.00000000    0.00000000
     atom   35 type  1   force =     0.00000000    0.00000000    0.00000000
     atom   36 type  1   force =     0.00000000    0.00000000    0.00000000
     atom   37 type  1   force =     0.00000000    0.00000000    0.00000000
     atom   38 type  1   force =     0.00000000    0.00000000    0.00000000
     atom   39 type  1   force =     0.00000000    0.00000000    0.00000000
     atom   40 type  1   force =     0.00000000    0.00000000    0.00000000
     atom   41 type  1   force =     0.00000000    0.00000000    0.00000000
     atom   42 type  1   force =     0.00000000    0.00000000    0.00000000
     atom   43 type  1   force =     0.00000000    0.00000000    0.00000000
     atom   44 type  1   force =     0.00000000    0.00000000    0.00000000
     atom   45 type  1   force =     0.00000000    0.00000000    0.00000000
     atom   46 type  1   force =     0.00000000    0.00000000    0.00000000
     atom   47 type  1   force =     0.00000000    0.00000000    0.00000000
     atom   48 type  1   force =     0.00000000    0.00000000    0.00000000
     atom   49 type  1   force =     0.00000000    0.00000000    0.00000000
     atom   50 type  1   force =     0.00000000    0.00000000    0.00000000
     atom   51 type  1   force =     0.00000000    0.00000000    0.00000000
     atom   52 type  1   force =     0.00000000    0.00000000    0.00000000
     atom   53 type  1   force =     0.00000000    0.00000000    0.00000000
     atom   54 type  1   force =     0.00000000    0.00000000    0.00000000
     atom   55 type  1   force =     0.00000000    0.00000000    0.00000000
     atom   56 type  1   force =     0.00000000    0.00000000    0.00000000
     atom   57 type  1   force =     0.00000000    0.00000000    0.00000000
     atom   58 type  1   force =     0.00000000    0.00000000    0.00000000
     atom   59 type  1   force =     0.00000000    0.00000000    0.00000000
     atom   60 type  1   force =     0.00000000    0.00000000    0.00000000
[...]
     atom  286 type  2   force =     0.00000000    0.00000000    0.00000000
     atom  287 type  2   force =     0.00000000    0.00000000    0.00000000
     atom  288 type  2   force =     0.00000000    0.00000000    0.00000000
     atom  289 type  2   force =     0.00000000    0.00000000    0.00000000
     atom  290 type  2   force =     0.00000000    0.00000000    0.00000000
     atom  291 type  2   force =     0.00000000    0.00000000    0.00000000
     atom  292 type  2   force =     0.00000000    0.00000000    0.00000000
     atom  293 type  2   force =     0.00000000    0.00000000    0.00000000
     atom  294 type  2   force =     0.00000000    0.00000000    0.00000000
     atom  295 type  2   force =     0.00000000    0.00000000    0.00000000
     atom  296 type  2   force =     0.00000000    0.00000000    0.00000000
     atom  297 type  2   force =     0.00000000    0.00000000    0.00000000
     atom  298 type  2   force =     0.00000000    0.00000000    0.00000000
     atom  299 type  2   force =     0.00000000    0.00000000    0.00000000
     atom  300 type  1   force =     0.00000000    0.00000000    0.00000000
     The SCF correction term to forces
     atom    1 type  1   force =     0.00001090    0.00000629   -0.00002514
     atom    2 type  1   force =     0.00001273    0.00000735    0.00002538
     atom    3 type  1   force =    -0.00000071   -0.00000041    0.00000139
     atom    4 type  1   force =     0.00000728    0.00000902   -0.00002747
     atom    5 type  1   force =     0.00000116    0.00001434    0.00003094
     atom    6 type  1   force =    -0.00001192    0.00001029   -0.00000333
     atom    7 type  1   force =     0.00000434    0.00000818   -0.00001951
     atom    8 type  1   force =     0.00000061    0.00001152    0.00002533
     atom    9 type  1   force =    -0.00001268    0.00000359   -0.00000743
     atom   10 type  1   force =     0.00000926   -0.00000033   -0.00001951
     atom   11 type  1   force =     0.00001028   -0.00000523    0.00002533
     atom   12 type  1   force =    -0.00000323   -0.00001278   -0.00000743
     atom   13 type  1   force =     0.00001145    0.00000179   -0.00002747
     atom   14 type  1   force =     0.00001300   -0.00000617    0.00003094
     atom   15 type  1   force =     0.00000295   -0.00001546   -0.00000333
     atom   16 type  1   force =     0.00000478    0.00000462   -0.00000937
     atom   17 type  1   force =     0.00000957    0.00000619    0.00001694
     atom   18 type  1   force =     0.00001092    0.00000245   -0.00000413
     atom   19 type  1   force =     0.00000639    0.00000183   -0.00000937
     atom   20 type  1   force =     0.00001015    0.00000519    0.00001694
     atom   21 type  1   force =     0.00000758    0.00000823   -0.00000413
     atom   22 type  1   force =     0.00000359    0.00000402   -0.00000872
     atom   23 type  1   force =     0.00000303    0.00001310    0.00001657
     atom   24 type  1   force =    -0.00000341    0.00000710   -0.00000784
     atom   25 type  1   force =     0.00000240    0.00000139   -0.00000940
     atom   26 type  1   force =     0.00000348    0.00000201    0.00001557
     atom   27 type  1   force =    -0.00000523   -0.00000302   -0.00000913
     atom   28 type  1   force =     0.00000528    0.00000110   -0.00000872
     atom   29 type  1   force =     0.00001286   -0.00000392    0.00001657
     atom   30 type  1   force =     0.00000444   -0.00000650   -0.00000784
     atom   31 type  1   force =    -0.00000393   -0.00000611   -0.00001139
     atom   32 type  1   force =     0.00000184   -0.00000614    0.00001778
     atom   33 type  1   force =     0.00000816    0.00000609   -0.00000730
     atom   34 type  1   force =    -0.00001084   -0.00000626   -0.00001689
     atom   35 type  1   force =    -0.00000355   -0.00000205    0.00002193
     atom   36 type  1   force =     0.00001144    0.00000660   -0.00000548
     atom   37 type  1   force =    -0.00000725   -0.00000035   -0.00001139
     atom   38 type  1   force =    -0.00000440    0.00000466    0.00001778
     atom   39 type  1   force =     0.00000936    0.00000402   -0.00000730
     atom   40 type  1   force =    -0.00000266    0.00000113   -0.00000835
     atom   41 type  1   force =    -0.00000489    0.00000139    0.00001405
     atom   42 type  1   force =     0.00000178    0.00000004   -0.00000880
     atom   43 type  1   force =    -0.00000035   -0.00000287   -0.00000835
     atom   44 type  1   force =    -0.00000124   -0.00000493    0.00001405
     atom   45 type  1   force =     0.00000093    0.00000152   -0.00000880
     atom   46 type  1   force =    -0.00000449   -0.00000859   -0.00001790
     atom   47 type  1   force =    -0.00000936   -0.00000707    0.00002349
     atom   48 type  1   force =    -0.00000458    0.00000765   -0.00000628
     atom   49 type  1   force =    -0.00000241   -0.00000790   -0.00002602
     atom   50 type  1   force =    -0.00000221   -0.00000294    0.00003190
     atom   51 type  1   force =     0.00000385    0.00000691   -0.00000638
     atom   52 type  1   force =    -0.00000805    0.00000186   -0.00002602
     atom   53 type  1   force =    -0.00000365   -0.00000045    0.00003190
     atom   54 type  1   force =     0.00000791   -0.00000013   -0.00000638
     atom   55 type  1   force =    -0.00000968    0.00000041   -0.00001790
     atom   56 type  1   force =    -0.00001080   -0.00000457    0.00002349
     atom   57 type  1   force =     0.00000433   -0.00000779   -0.00000628
     atom   58 type  1   force =    -0.00000756   -0.00000437   -0.00001284
     atom   59 type  1   force =    -0.00001436   -0.00000829    0.00001940
     atom   60 type  1   force =    -0.00000483   -0.00000279   -0.00000660
[...]
     atom  286 type  2   force =    -0.00000451   -0.00000229    0.00001191
     atom  287 type  2   force =    -0.00000506    0.00000328    0.00000022
     atom  288 type  2   force =     0.00000129    0.00000006   -0.00001497
     atom  289 type  2   force =     0.00000020    0.00000059    0.00001424
     atom  290 type  2   force =    -0.00000143    0.00000271    0.00000005
     atom  291 type  2   force =     0.00000069    0.00000108   -0.00001497
     atom  292 type  2   force =     0.00000061   -0.00000013    0.00001424
     atom  293 type  2   force =     0.00000163   -0.00000259    0.00000005
     atom  294 type  2   force =    -0.00000254   -0.00000094   -0.00001200
     atom  295 type  2   force =    -0.00000423   -0.00000276    0.00001191
     atom  296 type  2   force =     0.00000032   -0.00000602    0.00000022
     atom  297 type  2   force =    -0.00000347   -0.00000200   -0.00000987
     atom  298 type  2   force =    -0.00000709   -0.00000409    0.00001015
     atom  299 type  2   force =    -0.00000411   -0.00000237   -0.00000020
     atom  300 type  1   force =     0.00003209    0.00001853   -0.00000435

     Total force =     0.002985     Total SCF correction =     0.000282

     Computing stress (Cartesian axis) and pressure

[...]

          total   stress  (Ry/bohr**3)                   (kbar)     P=       25.48
   0.00016612  -0.00000007   0.00000002           24.44       -0.01        0.00
  -0.00000007   0.00016620   0.00000001           -0.01       24.45        0.00
   0.00000002   0.00000001   0.00018738            0.00        0.00       27.56

     kinetic stress (kbar)  18487.33     -0.01      0.00
                               -0.01  18487.33      0.00
                                0.00      0.00  18484.46

     local   stress (kbar)   5574.66      2.13     -0.45
                                2.13   5572.03     -0.26
                               -0.45     -0.26   3811.93

     nonloc. stress (kbar)     75.96      0.02     -0.00
                                0.02     75.93     -0.00
                               -0.00     -0.00     85.48

     hartree stress (kbar)  19688.78     -0.83      0.16
                               -0.83  19689.75      0.09
                                0.16      0.09  20485.43

     exc-cor stress (kbar)   5262.37     -0.01      0.00
                               -0.01   5262.38      0.00
                                0.00      0.00   5262.92

     corecor stress (kbar) -14196.58      0.00     -0.00
                                0.00 -14196.59     -0.00
                               -0.00     -0.00 -14196.10

     ewald   stress (kbar) -35031.03     -1.30      0.29
                               -1.30 -35029.30      0.17
                                0.29      0.17 -34068.56

     hubbard stress (kbar)      0.00      0.00      0.00
                                0.00      0.00      0.00
                                0.00      0.00      0.00

     DFT-D   stress (kbar)      0.00      0.00      0.00
                                0.00      0.00      0.00
                                0.00      0.00      0.00

     XDM     stress (kbar)      0.00      0.00      0.00
                                0.00      0.00      0.00
                                0.00      0.00      0.00

     dft-nl  stress (kbar)    162.93      0.00     -0.00
                                0.00    162.93     -0.00
                               -0.00     -0.00    162.00

     TS-vdW  stress (kbar)      0.00      0.00      0.00
                                0.00      0.00      0.00
                                0.00      0.00      0.00

     MDB     stress (kbar)      0.00      0.00      0.00
                                0.00      0.00      0.00
                                0.00      0.00      0.00

     3D-RISM stress (kbar)      0.00      0.00      0.00
                                0.00      0.00      0.00
                                0.00      0.00      0.00

[...]

     Non-local corr. energy    =      82.11284191 Ry

 BEEFens 2000 ensemble energies
             -0.664635724783425E+02
             -0.598718112156124E+03
             -0.257471862202965E+03
              0.210676427355673E+03
             -0.430579613968996E+03
             -0.553656040880072E+03
              0.284359262999333E+03
             -0.297985809725847E+02
              0.474296425560256E+03
             -0.204802840672310E+02
              0.232627010940148E+03
              0.976222047486124E+01
              0.941710057247815E+01
             -0.202497824095440E+02
              0.310336471062399E+03
             -0.225970186568691E+03
             -0.465703949487074E+03
             -0.152047645519719E+03
              0.113828247225293E+03
             -0.102101255146736E+02
              0.679789115761213E+03
              0.578483969187108E+03
             -0.331370918665234E+03
              0.119866557335990E+03
             -0.726214278988259E+03
              0.582324493065464E+03
              0.190144961397121E+03
              0.565940824530081E+03
              0.371968116161046E+03
             -0.180981073040983E+03
              0.136978312224533E+03
             -0.267380941249492E+03
              0.749430960203921E+02
              0.363973770577725E+03
              0.385836527479211E+03
             -0.139423683318160E+03
              0.857341610903092E+03
             -0.325501007456997E+03
             -0.234221763756488E+03
              0.343573878191396E+03
              0.153764798589432E+03
              0.257157127522832E+03
             -0.490164309289689E+03
             -0.138234581526749E+02
              0.481069778524773E+03
              0.624928039687983E+03
             -0.622254652175889E+03
              0.442982591556087E+02
              0.234554090319106E+03
              0.114415454619466E+03
              0.260030438694163E+03
              0.551118671776301E+03
             -0.333202001980935E+03
             -0.365272260805720E+03
             -0.474926479256766E+03
             -0.734086771007314E+02
             -0.433132160521285E+03
              0.424772650643845E+02
             -0.800641866475166E+02
             -0.337603864066263E+03
[...]
              0.421186069136041E+03
              0.232801979129978E+03
              0.295709750398102E+03
             -0.477981527670490E+03
             -0.457765411777271E+03
             -0.115678928142245E+03
             -0.448546798410202E+03
              0.717966553904682E+03
              0.615265580209216E+03
              0.293984779661776E+03
              0.796302140496232E+03
             -0.414303928144854E+03
             -0.168847306070210E+03
             -0.235041626406199E+03
              0.658679138472756E+03

 BEEF-vdW xc energy contributions
            1 :    -6036.931251056843
            2 :     5438.493175560539
            3 :    -4435.476264842127
            4 :     3320.959403129603
            5 :    -2353.290298233056
            6 :     1657.932271649898
            7 :    -1213.073416155479
            8 :     912.7950416695639
            9 :    -656.9337172246032
           10 :     409.2702631418651
           11 :    -196.0578191462564
           12 :     60.58627324728150
           13 :    -15.63698666718028
           14 :     29.04708799406581
           15 :    -47.46641621027993
           16 :     34.37561721135353
           17 :     8.747971723562841
           18 :    -52.25808342913115
           19 :     67.86314384338493
           20 :    -52.77049399075804
           21 :     30.35989924169189
           22 :    -29.43833810714932
           23 :     60.59212012658918
           24 :    -108.6110221819054
           25 :     145.6110987511765
           26 :    -152.8647483622844
           27 :     133.6076622248911
           28 :    -107.7357710393007
           29 :     94.29970456031333
           30 :    -96.73732758983988
           31 :    -516.9234516216993
           32 :    -354.3872463320431

     Writing all to output data dir ./GaN.save/

     General routines

     Parallel routines

     PAW routines

   This run was terminated on:  16:38:55  28May2024

   JOB DONE.