     Program PWSCF v.7.1 starts on  8May2024 at  6:40:38

     Reading input from espresso.pwi
Warning: card &CELL ignored
Warning: card    CELL_DYNAMICS    = 'BFGS' ignored
Warning: card / ignored

     Current dimensions of program PWSCF are:
     Max number of different atomic species (ntypx) = 10
     Max number of k-points (npk) =  40000
     Max angular momentum in pseudopotentials (lmaxx) =  4
     file Ga.pbe-dn-kjpaw_psl.1.0.0.UPF: wavefunction(s)  4S renormalized
     file N.pbe-n-kjpaw_psl.1.0.0.UPF: wavefunction(s)  2S renormalized

     IMPORTANT: XC functional enforced from input :
     Exchange-correlation= BEEF-VDW
                           (   1   4  43  14   2   0   0)
     Any further DFT definition will be discarded
     Please, verify this is what you really want

     K-points division:     npool     =       4
     R & G space division:  proc/nbgrp/npool/nimage =      64
     Subspace diagonalization in iterative solution of the eigenvalue problem:
     a serial algorithm will be used

     Using Slab Decomposition

     bravais-lattice index     =            4
     lattice parameter (alat)  =      30.6565  a.u.
     unit-cell volume          =   24400.9461 (a.u.)^3
     number of atoms/cell      =          300
     number of atomic types    =            2
     number of electrons       =      2710.00
     number of Kohn-Sham states=         1626
     kinetic-energy cutoff     =      70.0000  Ry
     charge density cutoff     =     350.0000  Ry
     scf convergence threshold =      1.0E-07
     mixing beta               =       0.7000
     number of iterations used =            8  plain     mixing
     energy convergence thresh.=      1.0E-04
     force convergence thresh. =      1.0E-03
     Exchange-correlation= BEEF-VDW
                           (   1   4  43  14   2   0   0)
     nstep                     =           50

     celldm(1)=  30.656540  celldm(2)=   0.000000  celldm(3)=   0.977927
     celldm(4)=   0.000000  celldm(5)=   0.000000  celldm(6)=   0.000000

     crystal axes: (cart. coord. in units of alat)
               a(1) = (   1.000000   0.000000   0.000000 )
               a(2) = (  -0.500000   0.866025   0.000000 )
               a(3) = (   0.000000   0.000000   0.977927 )

     reciprocal axes: (cart. coord. in units 2 pi/alat)
               b(1) = (  1.000000  0.577350 -0.000000 )
               b(2) = (  0.000000  1.154701  0.000000 )
               b(3) = (  0.000000 -0.000000  1.022571 )

     PseudoPot. # 1 for Ga read from file:
     //group///packages/espresso/pseudo/psl_1.0.0/pslibrary.1.0.0/pbe/PSEUDOPOTENTIALS/Ga.pbe-dn-kjpaw_psl.1.0.0.UPF
     MD5 check sum: cd2a01e492f15b435d17032472d8505c
     Pseudo is Projector augmented-wave + core cor, Zval = 13.0
     Generated using 'atomic' code by A. Dal Corso  v.7.1
     Shape of augmentation charge: PSQ
     Using radial grid of 1205 points,  6 beta functions with:
                l(1) =   0
                l(2) =   0
                l(3) =   1
                l(4) =   1
                l(5) =   2
                l(6) =   2
     Q(r) pseudized with 0 coefficients

     PseudoPot. # 2 for N  read from file:
     //group///packages/espresso/pseudo/psl_1.0.0/pslibrary.1.0.0/pbe/PSEUDOPOTENTIALS/N.pbe-n-kjpaw_psl.1.0.0.UPF
     MD5 check sum: f77f775694dac7e2c3fe1c82443d1a16
     Pseudo is Projector augmented-wave + core cor, Zval =  5.0
     Generated using 'atomic' code by A. Dal Corso  v.7.1
     Shape of augmentation charge: PSQ
     Using radial grid of 1085 points,  4 beta functions with:
                l(1) =   0
                l(2) =   0
                l(3) =   1
                l(4) =   1
     Q(r) pseudized with 0 coefficients

     atomic species   valence    mass     pseudopotential
        Ga            13.00    69.72300     Ga( 1.00)
        N              5.00    14.00700     N ( 1.00)

      2 Sym. Ops. (no inversion) found

                                    s                        frac. trans.

      isym =  1     identity

 cryst.   s( 1) = (     1          0          0      )
                  (     0          1          0      )
                  (     0          0          1      )

 cart.    s( 1) = (  1.0000000  0.0000000  0.0000000 )
                  (  0.0000000  1.0000000  0.0000000 )
                  (  0.0000000  0.0000000  1.0000000 )

      isym =  2     inv. 180 deg rotation - cryst. axis [0,1,0]

 cryst.   s( 2) = (     1          1          0      )
                  (     0         -1          0      )
                  (     0          0          1      )

 cart.    s( 2) = (  0.5000000  0.8660254  0.0000000 )
                  (  0.8660254 -0.5000000  0.0000000 )
                  (  0.0000000  0.0000000  1.0000000 )

     point group C_s (m)
     there are  2 classes
     the character table:

       E     s
A'     1.00  1.00
A''    1.00 -1.00

     the symmetry operations in each class and the name of the first element:

     E        1
          identity
     s        2
          inv. 180 deg rotation - cryst. axis [0,1,0]

   Cartesian axes

     site n.     atom                  positions (alat units)
         1           Ga  tau(   1) = (   0.1000001   0.0577350   0.1627148  )
         2           Ga  tau(   2) = (   0.1000001   0.0577350   0.4886906  )
         3           Ga  tau(   3) = (   0.1000001   0.0577350   0.8146665  )
         4           Ga  tau(   4) = (   0.0000001   0.2309401   0.1627148  )
         5           Ga  tau(   5) = (   0.0000001   0.2309401   0.4886906  )
         6           Ga  tau(   6) = (   0.0000001   0.2309401   0.8146665  )
         7           Ga  tau(   7) = (  -0.0999999   0.4041451   0.1627148  )
         8           Ga  tau(   8) = (  -0.0999999   0.4041451   0.4886906  )
         9           Ga  tau(   9) = (  -0.0999999   0.4041451   0.8146665  )
        10           Ga  tau(  10) = (  -0.1999999   0.5773502   0.1627148  )
        11           Ga  tau(  11) = (  -0.1999999   0.5773502   0.4886906  )
        12           Ga  tau(  12) = (  -0.1999999   0.5773502   0.8146665  )
        13           Ga  tau(  13) = (  -0.2999999   0.7505553   0.1627148  )
        14           Ga  tau(  14) = (  -0.2999999   0.7505553   0.4886906  )
        15           Ga  tau(  15) = (  -0.2999999   0.7505553   0.8146665  )
        16           Ga  tau(  16) = (   0.3000001   0.0577350   0.1627148  )
        17           Ga  tau(  17) = (   0.3000001   0.0577350   0.4886906  )
        18           Ga  tau(  18) = (   0.3000001   0.0577350   0.8146665  )
        19           Ga  tau(  19) = (   0.2000001   0.2309401   0.1627148  )
        20           Ga  tau(  20) = (   0.2000001   0.2309401   0.4886906  )
        21           Ga  tau(  21) = (   0.2000001   0.2309401   0.8146665  )
        22           Ga  tau(  22) = (   0.1000001   0.4041451   0.1627148  )
        23           Ga  tau(  23) = (   0.1000001   0.4041451   0.4886906  )
        24           Ga  tau(  24) = (   0.1000001   0.4041451   0.8146665  )
        25           Ga  tau(  25) = (   0.0000001   0.5773502   0.1627148  )
        26           Ga  tau(  26) = (   0.0000001   0.5773502   0.4886906  )
        27           Ga  tau(  27) = (   0.0000001   0.5773502   0.8146665  )
        28           Ga  tau(  28) = (  -0.0999999   0.7505553   0.1627148  )
        29           Ga  tau(  29) = (  -0.0999999   0.7505553   0.4886906  )
        30           Ga  tau(  30) = (  -0.0999999   0.7505553   0.8146665  )
        31           Ga  tau(  31) = (   0.5000001   0.0577350   0.1627148  )
        32           Ga  tau(  32) = (   0.5000001   0.0577350   0.4886906  )
        33           Ga  tau(  33) = (   0.5000001   0.0577350   0.8146665  )
        34           Ga  tau(  34) = (   0.4000001   0.2309401   0.1627148  )
        35           Ga  tau(  35) = (   0.4000001   0.2309401   0.4886906  )
        36           Ga  tau(  36) = (   0.4000001   0.2309401   0.8146665  )
        37           Ga  tau(  37) = (   0.3000001   0.4041451   0.1627148  )
        38           Ga  tau(  38) = (   0.3000001   0.4041451   0.4886906  )
        39           Ga  tau(  39) = (   0.3000001   0.4041451   0.8146665  )
        40           Ga  tau(  40) = (   0.2000001   0.5773502   0.1627148  )
        41           Ga  tau(  41) = (   0.2000001   0.5773502   0.4886906  )
        42           Ga  tau(  42) = (   0.2000001   0.5773502   0.8146665  )
        43           Ga  tau(  43) = (   0.1000001   0.7505553   0.1627148  )
        44           Ga  tau(  44) = (   0.1000001   0.7505553   0.4886906  )
        45           Ga  tau(  45) = (   0.1000001   0.7505553   0.8146665  )
        46           Ga  tau(  46) = (   0.7000001   0.0577350   0.1627148  )
        47           Ga  tau(  47) = (   0.7000001   0.0577350   0.4886906  )
        48           Ga  tau(  48) = (   0.7000001   0.0577350   0.8146665  )
        49           Ga  tau(  49) = (   0.6000001   0.2309401   0.1627148  )
        50           Ga  tau(  50) = (   0.6000001   0.2309401   0.4886906  )
        51           Ga  tau(  51) = (   0.6000001   0.2309401   0.8146665  )
        52           Ga  tau(  52) = (   0.5000001   0.4041451   0.1627148  )
        53           Ga  tau(  53) = (   0.5000001   0.4041451   0.4886906  )
        54           Ga  tau(  54) = (   0.5000001   0.4041451   0.8146665  )
        55           Ga  tau(  55) = (   0.4000001   0.5773502   0.1627148  )
        56           Ga  tau(  56) = (   0.4000001   0.5773502   0.4886906  )
        57           Ga  tau(  57) = (   0.4000001   0.5773502   0.8146665  )
        58           Ga  tau(  58) = (   0.3000001   0.7505553   0.1627148  )
        59           Ga  tau(  59) = (   0.3000001   0.7505553   0.4886906  )
        60           Ga  tau(  60) = (   0.3000001   0.7505553   0.8146665  )
[...]
       286           N   tau( 286) = (   0.7999999   0.1154701   0.4484898  )
       287           N   tau( 287) = (   0.7999999   0.1154701   0.7744656  )
       288           N   tau( 288) = (   0.6999999   0.2886752   0.1225140  )
       289           N   tau( 289) = (   0.6999999   0.2886752   0.4484898  )
       290           N   tau( 290) = (   0.6999999   0.2886752   0.7744656  )
       291           N   tau( 291) = (   0.5999999   0.4618803   0.1225140  )
       292           N   tau( 292) = (   0.5999999   0.4618803   0.4484898  )
       293           N   tau( 293) = (   0.5999999   0.4618803   0.7744656  )
       294           N   tau( 294) = (   0.4999999   0.6350854   0.1225140  )
       295           N   tau( 295) = (   0.4999999   0.6350854   0.4484898  )
       296           N   tau( 296) = (   0.4999999   0.6350854   0.7744656  )
       297           N   tau( 297) = (   0.3999999   0.8082905   0.1225140  )
       298           N   tau( 298) = (   0.3999999   0.8082905   0.4484898  )
       299           N   tau( 299) = (   0.3999999   0.8082905   0.7744656  )
       300           Ga  tau( 300) = (   0.1000001   0.0577350   0.2855019  )

   Crystallographic axes

     site n.     atom                  positions (cryst. coord.)
         1           Ga  tau(   1) = (  0.1333334  0.0666666  0.1663874  )
[...]
     atom   56 type  1   force =     0.00000000    0.00000000    0.00000000
     atom   57 type  1   force =     0.00000000    0.00000000    0.00000000
     atom   58 type  1   force =     0.00000000    0.00000000    0.00000000
     atom   59 type  1   force =     0.00000000    0.00000000    0.00000000
     atom   60 type  1   force =     0.00000000    0.00000000    0.00000000
[...]
     atom  286 type  2   force =     0.00000000    0.00000000    0.00000000
     atom  287 type  2   force =     0.00000000    0.00000000    0.00000000
     atom  288 type  2   force =     0.00000000    0.00000000    0.00000000
     atom  289 type  2   force =     0.00000000    0.00000000    0.00000000
     atom  290 type  2   force =     0.00000000    0.00000000    0.00000000
     atom  291 type  2   force =     0.00000000    0.00000000    0.00000000
     atom  292 type  2   force =     0.00000000    0.00000000    0.00000000
     atom  293 type  2   force =     0.00000000    0.00000000    0.00000000
     atom  294 type  2   force =     0.00000000    0.00000000    0.00000000
     atom  295 type  2   force =     0.00000000    0.00000000    0.00000000
     atom  296 type  2   force =     0.00000000    0.00000000    0.00000000
     atom  297 type  2   force =     0.00000000    0.00000000    0.00000000
     atom  298 type  2   force =     0.00000000    0.00000000    0.00000000
     atom  299 type  2   force =     0.00000000    0.00000000    0.00000000
     atom  300 type  1   force =     0.00000000    0.00000000    0.00000000
     The SCF correction term to forces
     atom    1 type  1   force =    -0.00000187   -0.00000108    0.00000020
     atom    2 type  1   force =    -0.00000153   -0.00000088   -0.00000281
     atom    3 type  1   force =    -0.00000128   -0.00000074    0.00000362
     atom    4 type  1   force =    -0.00000220    0.00000240    0.00000062
     atom    5 type  1   force =    -0.00000079   -0.00000021   -0.00000746
     atom    6 type  1   force =    -0.00000218   -0.00000279    0.00000560
     atom    7 type  1   force =     0.00000107    0.00000547   -0.00000191
     atom    8 type  1   force =     0.00000291    0.00000160   -0.00001048
     atom    9 type  1   force =    -0.00000494   -0.00000312    0.00001159
     atom   10 type  1   force =     0.00000527   -0.00000181   -0.00000191
     atom   11 type  1   force =     0.00000284    0.00000172   -0.00001048
     atom   12 type  1   force =    -0.00000518   -0.00000272    0.00001159
     atom   13 type  1   force =     0.00000098   -0.00000310    0.00000062
     atom   14 type  1   force =    -0.00000058   -0.00000058   -0.00000746
     atom   15 type  1   force =    -0.00000351   -0.00000049    0.00000560
     atom   16 type  1   force =     0.00000199   -0.00000180    0.00000026
     atom   17 type  1   force =    -0.00000027   -0.00000125   -0.00000705
     atom   18 type  1   force =    -0.00000234    0.00000120    0.00000543
     atom   19 type  1   force =    -0.00000056    0.00000262    0.00000026
     atom   20 type  1   force =    -0.00000122    0.00000039   -0.00000705
     atom   21 type  1   force =    -0.00000013   -0.00000262    0.00000543
     atom   22 type  1   force =    -0.00000135    0.00000811    0.00000130
     atom   23 type  1   force =    -0.00000085    0.00000188   -0.00001353
     atom   24 type  1   force =    -0.00000103   -0.00000439    0.00000996
     atom   25 type  1   force =     0.00000327    0.00000189    0.00000590
     atom   26 type  1   force =     0.00000175    0.00000101   -0.00001847
     atom   27 type  1   force =    -0.00000476   -0.00000275    0.00001258
     atom   28 type  1   force =     0.00000635   -0.00000522    0.00000130
     atom   29 type  1   force =     0.00000121   -0.00000168   -0.00001353
     atom   30 type  1   force =    -0.00000432    0.00000130    0.00000996
     atom   31 type  1   force =     0.00000458   -0.00000490   -0.00000186
     atom   32 type  1   force =     0.00000037   -0.00000443   -0.00000993
     atom   33 type  1   force =     0.00000032    0.00000476    0.00001132
     atom   34 type  1   force =     0.00000329    0.00000190   -0.00000367
     atom   35 type  1   force =    -0.00000250   -0.00000144   -0.00000720
     atom   36 type  1   force =     0.00000141    0.00000082    0.00001010
     atom   37 type  1   force =    -0.00000195    0.00000642   -0.00000186
     atom   38 type  1   force =    -0.00000365    0.00000254   -0.00000993
     atom   39 type  1   force =     0.00000428   -0.00000210    0.00001132
     atom   40 type  1   force =    -0.00000406    0.00000301    0.00000590
     atom   41 type  1   force =    -0.00000211    0.00000187   -0.00001827
     atom   42 type  1   force =     0.00000435   -0.00000176    0.00001243
     atom   43 type  1   force =     0.00000058   -0.00000502    0.00000590
     atom   44 type  1   force =     0.00000056   -0.00000276   -0.00001827
     atom   45 type  1   force =     0.00000065    0.00000465    0.00001243
     atom   46 type  1   force =    -0.00000227   -0.00000431   -0.00000192
     atom   47 type  1   force =     0.00000136   -0.00000408   -0.00001015
     atom   48 type  1   force =     0.00000175    0.00000520    0.00001136
     atom   49 type  1   force =     0.00000153   -0.00000218   -0.00000643
     atom   50 type  1   force =     0.00000127   -0.00000580   -0.00000780
     atom   51 type  1   force =     0.00000149    0.00000182    0.00001405
     atom   52 type  1   force =    -0.00000112    0.00000241   -0.00000643
     atom   53 type  1   force =    -0.00000438    0.00000400   -0.00000780
     atom   54 type  1   force =     0.00000232    0.00000038    0.00001405
     atom   55 type  1   force =    -0.00000487    0.00000019   -0.00000192
     atom   56 type  1   force =    -0.00000285    0.00000322   -0.00001015
     atom   57 type  1   force =     0.00000538   -0.00000108    0.00001136
     atom   58 type  1   force =    -0.00000586   -0.00000339    0.00000140
     atom   59 type  1   force =    -0.00000086   -0.00000050   -0.00001365
     atom   60 type  1   force =     0.00000468    0.00000270    0.00000990
[...]
     atom  286 type  2   force =     0.00000109   -0.00000175   -0.00000332
     atom  287 type  2   force =     0.00000067    0.00000118    0.00000468
     atom  288 type  2   force =     0.00000105   -0.00000009   -0.00000249
     atom  289 type  2   force =     0.00000304   -0.00000134   -0.00000403
     atom  290 type  2   force =     0.00000035    0.00000014    0.00000673
     atom  291 type  2   force =     0.00000045    0.00000095   -0.00000249
     atom  292 type  2   force =     0.00000036    0.00000330   -0.00000403
     atom  293 type  2   force =     0.00000029    0.00000023    0.00000673
     atom  294 type  2   force =    -0.00000107   -0.00000154   -0.00000111
     atom  295 type  2   force =    -0.00000097    0.00000182   -0.00000332
     atom  296 type  2   force =     0.00000136   -0.00000002    0.00000468
     atom  297 type  2   force =    -0.00000275   -0.00000159   -0.00000001
     atom  298 type  2   force =    -0.00000131   -0.00000075   -0.00000383
     atom  299 type  2   force =     0.00000182    0.00000105    0.00000377
     atom  300 type  1   force =    -0.00000495   -0.00000286   -0.00000811

     Total force =     0.007553     Total SCF correction =     0.000128

     Computing stress (Cartesian axis) and pressure

[...]

          total   stress  (Ry/bohr**3)                   (kbar)     P=       25.54
   0.00016604  -0.00000003   0.00000003           24.43       -0.00        0.00
  -0.00000003   0.00016607   0.00000002           -0.00       24.43        0.00
   0.00000003   0.00000002   0.00018874            0.00        0.00       27.77

     kinetic stress (kbar)  18487.29      0.01      0.01
                                0.01  18487.28      0.00
                                0.01      0.00  18484.73

     local   stress (kbar)   5579.60      1.69     -0.59
                                1.69   5577.47     -0.34
                               -0.59     -0.34   3802.29

     nonloc. stress (kbar)     75.96      0.02     -0.01
                                0.02     75.94     -0.01
                               -0.01     -0.01     85.45

     hartree stress (kbar)  19686.68     -0.66      0.21
                               -0.66  19687.44      0.12
                                0.21      0.12  20489.50

     exc-cor stress (kbar)   5262.36     -0.00      0.00
                               -0.00   5262.37      0.00
                                0.00      0.00   5262.92

     corecor stress (kbar) -14196.58      0.00     -0.00
                                0.00 -14196.59     -0.00
                               -0.00     -0.00 -14196.10

     ewald   stress (kbar) -35033.83     -1.04      0.39
                               -1.04 -35032.40      0.22
                                0.39      0.22 -34063.01

     hubbard stress (kbar)      0.00      0.00      0.00
                                0.00      0.00      0.00
                                0.00      0.00      0.00

     DFT-D   stress (kbar)      0.00      0.00      0.00
                                0.00      0.00      0.00
                                0.00      0.00      0.00

     XDM     stress (kbar)      0.00      0.00      0.00
                                0.00      0.00      0.00
                                0.00      0.00      0.00

     dft-nl  stress (kbar)    162.93      0.00     -0.00
                                0.00    162.93     -0.00
                               -0.00     -0.00    161.99

     TS-vdW  stress (kbar)      0.00      0.00      0.00
                                0.00      0.00      0.00
                                0.00      0.00      0.00

     MDB     stress (kbar)      0.00      0.00      0.00
                                0.00      0.00      0.00
                                0.00      0.00      0.00

     3D-RISM stress (kbar)      0.00      0.00      0.00
                                0.00      0.00      0.00
                                0.00      0.00      0.00

     Energy error            =      1.5E-04 Ry
     Gradient error          =      2.4E-03 Ry/Bohr

     number of scf cycles    =   5
     number of bfgs steps    =   4

     energy             old  =  -47095.9550804701 Ry
     energy             new  =  -47095.9552347022 Ry

     CASE: energy            _new < energy            _old

     new trust radius        =       0.0060487766 bohr
     new conv_thr            =       0.0000000015 Ry

ATOMIC_POSITIONS (angstrom)
Ga            1.6207593927        0.9357444007        2.3742942059
Ga            1.6207709116        0.9357510511        7.8518433833
Ga            1.6217097263        0.9362930761       13.1861058581
Ga           -0.0034504864        3.7226520430        2.6429437094
Ga           -0.0109098578        3.7762586203        7.9718362883
Ga           -0.0017499621        3.7567953337       13.1895923681
Ga           -1.6238213811        6.5546282193        2.6382141436
Ga           -1.6262117876        6.5634438104        7.9337503601
Ga           -1.6225772722        6.5590344253       13.2224787250
Ga           -3.2468059092        9.3657198819        2.6382141436
Ga           -3.2403665867        9.3592419337        7.9337503601
Ga           -3.2423679685        9.3645942089       13.2224787250
Ga           -4.8891837734       12.1849903285        2.6429437094
Ga           -4.8464888014       12.1517270347        7.9718362883
Ga           -4.8587645541       12.1693913804       13.1895923681
Ga            4.8477020223        0.9524479233        2.6430066583
Ga            4.8982336567        0.9306430893        7.9713716914
Ga            4.8771776217        0.9330369192       13.1896104307
Ga            3.2486963823        3.7220069333        2.6430066583
Ga            3.2550786594        3.7766710294        7.9713716914
Ga            3.2466237594        3.7572390532       13.1896104307
Ga            1.6222560032        6.5416933749        2.6475989890
Ga            1.6224930444        6.5579324366        7.9211553214
Ga            1.6228474053        6.5612958413       13.2264789163
Ga           -0.0002833958        9.3660394206        2.6429383717
Ga            0.0002426977        9.3663431608        7.9250402998
Ga            0.0005982708        9.3665484511       13.2210244851
Ga           -1.6349691210       12.1833727817        2.6475989890
Ga           -1.6207871604       12.1754585346        7.9211553214
Ga           -1.6176971861       12.1740837178       13.2264789163
Ga            8.1106414679        0.9388692721        2.6378790561
Ga            8.1189469633        0.9359821855        7.9338906089
Ga            8.1139870378        0.9355767364       13.2225153710
Ga            6.4879169912        3.7457991505        2.6377529838
Ga            6.4926999650        3.7485606017        7.9326150734
Ga            6.4933797237        3.7489530606       13.2214404889
Ga            4.8684066484        6.5545847100        2.6378790561
Ga            4.8700591057        6.5632210233        7.9338906089
Ga            4.8672280138        6.5591283264       13.2225153710
Ga            3.2454412488        9.3659193437        2.6429291798
Ga            3.2443285203        9.3659993222        7.9252685939
Ga            3.2447039393        9.3663755671       13.2213210974
Ga            1.6224749369       12.1769794551        2.6429291798
Ga            1.6219878360       12.1759758147        7.9252685939
Ga            1.6225013832       12.1761128147       13.2213210974
Ga           11.3558883346        0.9385466313        2.6376686339
Ga           11.3461453822        0.9356499213        7.9341874156
Ga           11.3528954063        0.9352696900       13.2224888225
Ga            9.7337270087        3.7463375096        2.6389441397
Ga            9.7334135711        3.7478212123        7.9303802617
Ga            9.7335073437        3.7476203856       13.2198336497
Ga            8.1112882326        6.5564839021        2.6389441397
Ga            8.1124164380        6.5554706057        7.9303802617
Ga            8.1122894033        6.5556522286       13.2198336497
Ga            6.4907506665        9.3652122584        2.6376686339
Ga            6.4833705659        9.3582229692        7.9341874156
Ga            6.4864162880        9.3642587772       13.2224888225
Ga            4.8797431148       12.1835240403        2.6474274613
Ga            4.8638451778       12.1743453620        7.9217254314
Ga            4.8621755759       12.1733814169       13.2267645693
[...]
N            12.9547854325        1.8764967206        7.2869391993
N            12.9646798232        1.8799229815       12.5652354815
N            11.3537684524        4.6848606090        1.9864243849
N            11.3519110807        4.6856854158        7.2783858611
N            11.3530625205        4.6851410410       12.5656744946
N             9.7340902068        7.4902256226        1.9864243849
N             9.7338758245        7.4882046881        7.2783858611
N             9.7339801020        7.4894740516       12.5656744946
N             8.1079313251       10.2935780728        1.9799326676
N             8.1024842265       10.2809289434        7.2869391993
N             8.1103986507       10.2877846067       12.5652354815
N             6.4970856838       13.1173013577        1.9827969461
N             6.4872132140       13.1116014846        7.2890744313
N             6.4752430239       13.1046904921       12.5623474548
Ga            1.6213155357        0.9360654900        4.5944573566

     Writing config-only to output data dir ./GaN.save/
     NEW-OLD atomic charge density approx. for the potential

     Check: negative core charge=   -0.000003

[...]

     Self-consistent Calculation

[...]

     Threshold (ethr) on eigenvalues was too large:
     Diagonalizing with lowered threshold

     Davidson diagonalization with overlap

[...]

     ethr =  2.79E-10,  avg # of iterations = 13.2

[...]

     c_bands:  1 eigenvalues not converged
     ethr =  2.86E-11,  avg # of iterations = 15.0

     Non-local corr. energy    =      82.11290690 Ry

     total energy              =  -47095.95533179 Ry
     estimated scf accuracy    <       0.00000006 Ry

     iteration # 10     ecut=    70.00 Ry     beta= 0.70
     Davidson diagonalization with overlap

     c_bands:  1 eigenvalues not converged

     max_seconds     =  154800.00
     Calculation stopped in k-point loop, point #     1
     Calculation stopped in scf loop at iteration #     9

     Writing config to output data dir ./GaN.save/

     General routines

     Parallel routines

     PAW routines

   This run was terminated on:   1:56:42  10May2024

   JOB DONE.