     Program PWSCF v.7.1 starts on 20May2024 at 10:19:18

     Reading input from espresso.pwi
Warning: card &CELL ignored
Warning: card    CELL_DYNAMICS    = 'BFGS' ignored
Warning: card / ignored

     Current dimensions of program PWSCF are:
     Max number of different atomic species (ntypx) = 10
     Max number of k-points (npk) =  40000
     Max angular momentum in pseudopotentials (lmaxx) =  4
     file Ga.pbe-dn-kjpaw_psl.1.0.0.UPF: wavefunction(s)  4S renormalized
     file N.pbe-n-kjpaw_psl.1.0.0.UPF: wavefunction(s)  2S renormalized

     IMPORTANT: XC functional enforced from input :
     Exchange-correlation= BEEF-VDW
                           (   1   4  43  14   2   0   0)
     Any further DFT definition will be discarded
     Please, verify this is what you really want

     K-points division:     npool     =       4
     R & G space division:  proc/nbgrp/npool/nimage =      64
     Subspace diagonalization in iterative solution of the eigenvalue problem:
     a serial algorithm will be used

     Using Slab Decomposition

     bravais-lattice index     =            4
     lattice parameter (alat)  =      30.6565  a.u.
     unit-cell volume          =   24400.9461 (a.u.)^3
     number of atoms/cell      =          300
     number of atomic types    =            2
     number of electrons       =      2710.00
     number of Kohn-Sham states=         1626
     kinetic-energy cutoff     =      70.0000  Ry
     charge density cutoff     =     350.0000  Ry
     scf convergence threshold =      1.0E-07
     mixing beta               =       0.7000
     number of iterations used =            8  plain     mixing
     energy convergence thresh.=      1.0E-04
     force convergence thresh. =      1.0E-03
     Exchange-correlation= BEEF-VDW
                           (   1   4  43  14   2   0   0)
     nstep                     =           50

     celldm(1)=  30.656540  celldm(2)=   0.000000  celldm(3)=   0.977927
     celldm(4)=   0.000000  celldm(5)=   0.000000  celldm(6)=   0.000000

     crystal axes: (cart. coord. in units of alat)
               a(1) = (   1.000000   0.000000   0.000000 )
               a(2) = (  -0.500000   0.866025   0.000000 )
               a(3) = (   0.000000   0.000000   0.977927 )

     reciprocal axes: (cart. coord. in units 2 pi/alat)
               b(1) = (  1.000000  0.577350 -0.000000 )
               b(2) = (  0.000000  1.154701  0.000000 )
               b(3) = (  0.000000 -0.000000  1.022571 )

     PseudoPot. # 1 for Ga read from file:
     //group///packages/espresso/pseudo/psl_1.0.0/pslibrary.1.0.0/pbe/PSEUDOPOTENTIALS/Ga.pbe-dn-kjpaw_psl.1.0.0.UPF
     MD5 check sum: cd2a01e492f15b435d17032472d8505c
     Pseudo is Projector augmented-wave + core cor, Zval = 13.0
     Generated using 'atomic' code by A. Dal Corso  v.7.1
     Shape of augmentation charge: PSQ
     Using radial grid of 1205 points,  6 beta functions with:
                l(1) =   0
                l(2) =   0
                l(3) =   1
                l(4) =   1
                l(5) =   2
                l(6) =   2
     Q(r) pseudized with 0 coefficients

     PseudoPot. # 2 for N  read from file:
     //group///packages/espresso/pseudo/psl_1.0.0/pslibrary.1.0.0/pbe/PSEUDOPOTENTIALS/N.pbe-n-kjpaw_psl.1.0.0.UPF
     MD5 check sum: f77f775694dac7e2c3fe1c82443d1a16
     Pseudo is Projector augmented-wave + core cor, Zval =  5.0
     Generated using 'atomic' code by A. Dal Corso  v.7.1
     Shape of augmentation charge: PSQ
     Using radial grid of 1085 points,  4 beta functions with:
                l(1) =   0
                l(2) =   0
                l(3) =   1
                l(4) =   1
     Q(r) pseudized with 0 coefficients

     atomic species   valence    mass     pseudopotential
        Ga            13.00    69.72300     Ga( 1.00)
        N              5.00    14.00700     N ( 1.00)

      2 Sym. Ops. (no inversion) found

                                    s                        frac. trans.

      isym =  1     identity

 cryst.   s( 1) = (     1          0          0      )
                  (     0          1          0      )
                  (     0          0          1      )

 cart.    s( 1) = (  1.0000000  0.0000000  0.0000000 )
                  (  0.0000000  1.0000000  0.0000000 )
                  (  0.0000000  0.0000000  1.0000000 )

      isym =  2     inv. 180 deg rotation - cryst. axis [0,1,0]

 cryst.   s( 2) = (     1          1          0      )
                  (     0         -1          0      )
                  (     0          0          1      )

 cart.    s( 2) = (  0.5000000  0.8660254  0.0000000 )
                  (  0.8660254 -0.5000000  0.0000000 )
                  (  0.0000000  0.0000000  1.0000000 )

     point group C_s (m)
     there are  2 classes
     the character table:

       E     s
A'     1.00  1.00
A''    1.00 -1.00

     the symmetry operations in each class and the name of the first element:

     E        1
          identity
     s        2
          inv. 180 deg rotation - cryst. axis [0,1,0]

   Cartesian axes

     site n.     atom                  positions (alat units)
         1           Ga  tau(   1) = (   0.1000001   0.0577350   0.1627148  )
         2           Ga  tau(   2) = (   0.1000001   0.0577350   0.4886906  )
         3           Ga  tau(   3) = (   0.1000001   0.0577350   0.8146665  )
         4           Ga  tau(   4) = (   0.0000001   0.2309401   0.1627148  )
         5           Ga  tau(   5) = (   0.0000001   0.2309401   0.4886906  )
         6           Ga  tau(   6) = (   0.0000001   0.2309401   0.8146665  )
         7           Ga  tau(   7) = (  -0.0999999   0.4041451   0.1627148  )
         8           Ga  tau(   8) = (  -0.0999999   0.4041451   0.4886906  )
         9           Ga  tau(   9) = (  -0.0999999   0.4041451   0.8146665  )
        10           Ga  tau(  10) = (  -0.1999999   0.5773502   0.1627148  )
        11           Ga  tau(  11) = (  -0.1999999   0.5773502   0.4886906  )
        12           Ga  tau(  12) = (  -0.1999999   0.5773502   0.8146665  )
        13           Ga  tau(  13) = (  -0.2999999   0.7505553   0.1627148  )
        14           Ga  tau(  14) = (  -0.2999999   0.7505553   0.4886906  )
        15           Ga  tau(  15) = (  -0.2999999   0.7505553   0.8146665  )
        16           Ga  tau(  16) = (   0.3000001   0.0577350   0.1627148  )
        17           Ga  tau(  17) = (   0.3000001   0.0577350   0.4886906  )
        18           Ga  tau(  18) = (   0.3000001   0.0577350   0.8146665  )
        19           Ga  tau(  19) = (   0.2000001   0.2309401   0.1627148  )
        20           Ga  tau(  20) = (   0.2000001   0.2309401   0.4886906  )
        21           Ga  tau(  21) = (   0.2000001   0.2309401   0.8146665  )
        22           Ga  tau(  22) = (   0.1000001   0.4041451   0.1627148  )
        23           Ga  tau(  23) = (   0.1000001   0.4041451   0.4886906  )
        24           Ga  tau(  24) = (   0.1000001   0.4041451   0.8146665  )
        25           Ga  tau(  25) = (   0.0000001   0.5773502   0.1627148  )
        26           Ga  tau(  26) = (   0.0000001   0.5773502   0.4886906  )
        27           Ga  tau(  27) = (   0.0000001   0.5773502   0.8146665  )
        28           Ga  tau(  28) = (  -0.0999999   0.7505553   0.1627148  )
        29           Ga  tau(  29) = (  -0.0999999   0.7505553   0.4886906  )
        30           Ga  tau(  30) = (  -0.0999999   0.7505553   0.8146665  )
        31           Ga  tau(  31) = (   0.5000001   0.0577350   0.1627148  )
        32           Ga  tau(  32) = (   0.5000001   0.0577350   0.4886906  )
        33           Ga  tau(  33) = (   0.5000001   0.0577350   0.8146665  )
        34           Ga  tau(  34) = (   0.4000001   0.2309401   0.1627148  )
        35           Ga  tau(  35) = (   0.4000001   0.2309401   0.4886906  )
        36           Ga  tau(  36) = (   0.4000001   0.2309401   0.8146665  )
        37           Ga  tau(  37) = (   0.3000001   0.4041451   0.1627148  )
        38           Ga  tau(  38) = (   0.3000001   0.4041451   0.4886906  )
        39           Ga  tau(  39) = (   0.3000001   0.4041451   0.8146665  )
        40           Ga  tau(  40) = (   0.2000001   0.5773502   0.1627148  )
        41           Ga  tau(  41) = (   0.2000001   0.5773502   0.4886906  )
        42           Ga  tau(  42) = (   0.2000001   0.5773502   0.8146665  )
        43           Ga  tau(  43) = (   0.1000001   0.7505553   0.1627148  )
        44           Ga  tau(  44) = (   0.1000001   0.7505553   0.4886906  )
        45           Ga  tau(  45) = (   0.1000001   0.7505553   0.8146665  )
        46           Ga  tau(  46) = (   0.7000001   0.0577350   0.1627148  )
        47           Ga  tau(  47) = (   0.7000001   0.0577350   0.4886906  )
        48           Ga  tau(  48) = (   0.7000001   0.0577350   0.8146665  )
        49           Ga  tau(  49) = (   0.6000001   0.2309401   0.1627148  )
        50           Ga  tau(  50) = (   0.6000001   0.2309401   0.4886906  )
        51           Ga  tau(  51) = (   0.6000001   0.2309401   0.8146665  )
        52           Ga  tau(  52) = (   0.5000001   0.4041451   0.1627148  )
        53           Ga  tau(  53) = (   0.5000001   0.4041451   0.4886906  )
        54           Ga  tau(  54) = (   0.5000001   0.4041451   0.8146665  )
        55           Ga  tau(  55) = (   0.4000001   0.5773502   0.1627148  )
        56           Ga  tau(  56) = (   0.4000001   0.5773502   0.4886906  )
        57           Ga  tau(  57) = (   0.4000001   0.5773502   0.8146665  )
        58           Ga  tau(  58) = (   0.3000001   0.7505553   0.1627148  )
        59           Ga  tau(  59) = (   0.3000001   0.7505553   0.4886906  )
        60           Ga  tau(  60) = (   0.3000001   0.7505553   0.8146665  )
[...]
       286           N   tau( 286) = (   0.7999999   0.1154701   0.4484898  )
       287           N   tau( 287) = (   0.7999999   0.1154701   0.7744656  )
       288           N   tau( 288) = (   0.6999999   0.2886752   0.1225140  )
       289           N   tau( 289) = (   0.6999999   0.2886752   0.4484898  )
       290           N   tau( 290) = (   0.6999999   0.2886752   0.7744656  )
       291           N   tau( 291) = (   0.5999999   0.4618803   0.1225140  )
       292           N   tau( 292) = (   0.5999999   0.4618803   0.4484898  )
       293           N   tau( 293) = (   0.5999999   0.4618803   0.7744656  )
       294           N   tau( 294) = (   0.4999999   0.6350854   0.1225140  )
       295           N   tau( 295) = (   0.4999999   0.6350854   0.4484898  )
       296           N   tau( 296) = (   0.4999999   0.6350854   0.7744656  )
       297           N   tau( 297) = (   0.3999999   0.8082905   0.1225140  )
       298           N   tau( 298) = (   0.3999999   0.8082905   0.4484898  )
       299           N   tau( 299) = (   0.3999999   0.8082905   0.7744656  )
       300           Ga  tau( 300) = (   0.1000001   0.0577350   0.2855019  )

   Crystallographic axes

     site n.     atom                  positions (cryst. coord.)
         1           Ga  tau(   1) = (  0.1333334  0.0666666  0.1663874  )
[...]
     atom   44 type  1   force =     0.00000000    0.00000000    0.00000000
     atom   45 type  1   force =     0.00000000    0.00000000    0.00000000
     atom   46 type  1   force =     0.00000000    0.00000000    0.00000000
     atom   47 type  1   force =     0.00000000    0.00000000    0.00000000
     atom   48 type  1   force =     0.00000000    0.00000000    0.00000000
     atom   49 type  1   force =     0.00000000    0.00000000    0.00000000
     atom   50 type  1   force =     0.00000000    0.00000000    0.00000000
     atom   51 type  1   force =     0.00000000    0.00000000    0.00000000
     atom   52 type  1   force =     0.00000000    0.00000000    0.00000000
     atom   53 type  1   force =     0.00000000    0.00000000    0.00000000
     atom   54 type  1   force =     0.00000000    0.00000000    0.00000000
     atom   55 type  1   force =     0.00000000    0.00000000    0.00000000
     atom   56 type  1   force =     0.00000000    0.00000000    0.00000000
     atom   57 type  1   force =     0.00000000    0.00000000    0.00000000
     atom   58 type  1   force =     0.00000000    0.00000000    0.00000000
     atom   59 type  1   force =     0.00000000    0.00000000    0.00000000
     atom   60 type  1   force =     0.00000000    0.00000000    0.00000000
[...]
     atom  286 type  2   force =     0.00000000    0.00000000    0.00000000
     atom  287 type  2   force =     0.00000000    0.00000000    0.00000000
     atom  288 type  2   force =     0.00000000    0.00000000    0.00000000
     atom  289 type  2   force =     0.00000000    0.00000000    0.00000000
     atom  290 type  2   force =     0.00000000    0.00000000    0.00000000
     atom  291 type  2   force =     0.00000000    0.00000000    0.00000000
     atom  292 type  2   force =     0.00000000    0.00000000    0.00000000
     atom  293 type  2   force =     0.00000000    0.00000000    0.00000000
     atom  294 type  2   force =     0.00000000    0.00000000    0.00000000
     atom  295 type  2   force =     0.00000000    0.00000000    0.00000000
     atom  296 type  2   force =     0.00000000    0.00000000    0.00000000
     atom  297 type  2   force =     0.00000000    0.00000000    0.00000000
     atom  298 type  2   force =     0.00000000    0.00000000    0.00000000
     atom  299 type  2   force =     0.00000000    0.00000000    0.00000000
     atom  300 type  1   force =     0.00000000    0.00000000    0.00000000
     The SCF correction term to forces
     atom    1 type  1   force =    -0.00000296   -0.00000171    0.00001433
     atom    2 type  1   force =    -0.00000257   -0.00000148   -0.00001911
     atom    3 type  1   force =     0.00000021    0.00000012   -0.00000017
     atom    4 type  1   force =    -0.00000359    0.00000022    0.00000317
     atom    5 type  1   force =    -0.00000165   -0.00000169   -0.00000919
     atom    6 type  1   force =     0.00000458   -0.00000433    0.00000030
     atom    7 type  1   force =    -0.00000170   -0.00000146    0.00000437
     atom    8 type  1   force =    -0.00000022   -0.00000265   -0.00000368
     atom    9 type  1   force =     0.00000470   -0.00000145    0.00000215
     atom   10 type  1   force =    -0.00000211   -0.00000075    0.00000437
     atom   11 type  1   force =    -0.00000240    0.00000113   -0.00000368
     atom   12 type  1   force =     0.00000109    0.00000480    0.00000215
     atom   13 type  1   force =    -0.00000161   -0.00000322    0.00000317
     atom   14 type  1   force =    -0.00000229   -0.00000058   -0.00000919
     atom   15 type  1   force =    -0.00000146    0.00000613    0.00000030
     atom   16 type  1   force =     0.00000193   -0.00000096   -0.00000128
     atom   17 type  1   force =    -0.00000041   -0.00000138   -0.00000533
     atom   18 type  1   force =    -0.00000515   -0.00000091    0.00000029
     atom   19 type  1   force =     0.00000013    0.00000215   -0.00000128
     atom   20 type  1   force =    -0.00000140    0.00000034   -0.00000533
     atom   21 type  1   force =    -0.00000337   -0.00000401    0.00000029
     atom   22 type  1   force =    -0.00000080    0.00000089    0.00000168
     atom   23 type  1   force =    -0.00000072   -0.00000117   -0.00000308
     atom   24 type  1   force =     0.00000086   -0.00000293    0.00000243
     atom   25 type  1   force =    -0.00000034   -0.00000019    0.00000250
     atom   26 type  1   force =    -0.00000044   -0.00000026   -0.00000313
     atom   27 type  1   force =     0.00000165    0.00000095    0.00000313
     atom   28 type  1   force =     0.00000037   -0.00000113    0.00000168
     atom   29 type  1   force =    -0.00000137   -0.00000004   -0.00000308
     atom   30 type  1   force =    -0.00000211    0.00000221    0.00000243
     atom   31 type  1   force =     0.00000157    0.00000194    0.00000264
     atom   32 type  1   force =    -0.00000026    0.00000155   -0.00000208
     atom   33 type  1   force =    -0.00000329   -0.00000256    0.00000212
     atom   34 type  1   force =     0.00000426    0.00000246    0.00000556
     atom   35 type  1   force =     0.00000297    0.00000171   -0.00000291
     atom   36 type  1   force =    -0.00000419   -0.00000242    0.00000109
     atom   37 type  1   force =     0.00000246    0.00000039    0.00000264
     atom   38 type  1   force =     0.00000121   -0.00000100   -0.00000208
     atom   39 type  1   force =    -0.00000386   -0.00000157    0.00000212
     atom   40 type  1   force =     0.00000050   -0.00000043    0.00000224
     atom   41 type  1   force =     0.00000083   -0.00000014   -0.00000281
     atom   42 type  1   force =    -0.00000081    0.00000006    0.00000308
     atom   43 type  1   force =    -0.00000012    0.00000065    0.00000224
     atom   44 type  1   force =     0.00000029    0.00000079   -0.00000281
     atom   45 type  1   force =    -0.00000035   -0.00000073    0.00000308
     atom   46 type  1   force =     0.00000001    0.00000256    0.00000417
     atom   47 type  1   force =     0.00000199    0.00000179   -0.00000314
     atom   48 type  1   force =     0.00000240   -0.00000288    0.00000185
     atom   49 type  1   force =     0.00000047    0.00000344    0.00000611
     atom   50 type  1   force =     0.00000051    0.00000125   -0.00000484
     atom   51 type  1   force =    -0.00000089   -0.00000180    0.00000274
     atom   52 type  1   force =     0.00000321   -0.00000131    0.00000611
     atom   53 type  1   force =     0.00000134   -0.00000018   -0.00000484
     atom   54 type  1   force =    -0.00000201    0.00000013    0.00000274
     atom   55 type  1   force =     0.00000222   -0.00000128    0.00000417
     atom   56 type  1   force =     0.00000255    0.00000083   -0.00000314
     atom   57 type  1   force =    -0.00000130    0.00000352    0.00000185
     atom   58 type  1   force =    -0.00000006   -0.00000004    0.00000285
     atom   59 type  1   force =     0.00000142    0.00000082   -0.00000371
     atom   60 type  1   force =     0.00000213    0.00000123    0.00000206
[...]
     atom  286 type  2   force =     0.00000062    0.00000073   -0.00000260
     atom  287 type  2   force =     0.00000105   -0.00000088   -0.00000015
     atom  288 type  2   force =    -0.00000058    0.00000006    0.00000355
     atom  289 type  2   force =    -0.00000027   -0.00000009   -0.00000349
     atom  290 type  2   force =     0.00000041   -0.00000070    0.00000021
     atom  291 type  2   force =    -0.00000024   -0.00000053    0.00000355
     atom  292 type  2   force =    -0.00000021   -0.00000019   -0.00000349
     atom  293 type  2   force =    -0.00000040    0.00000070    0.00000021
     atom  294 type  2   force =     0.00000074    0.00000011    0.00000262
     atom  295 type  2   force =     0.00000094    0.00000017   -0.00000260
     atom  296 type  2   force =    -0.00000024    0.00000134   -0.00000015
     atom  297 type  2   force =     0.00000055    0.00000032    0.00000207
     atom  298 type  2   force =     0.00000146    0.00000084   -0.00000181
     atom  299 type  2   force =     0.00000082    0.00000048   -0.00000015
     atom  300 type  1   force =    -0.00000784   -0.00000453    0.00000508

     Total force =     0.002932     Total SCF correction =     0.000074

     Computing stress (Cartesian axis) and pressure

     Non-local corr. energy    =      82.11284303 Ry

          total   stress  (Ry/bohr**3)                   (kbar)     P=       25.48
   0.00016612  -0.00000007   0.00000002           24.44       -0.01        0.00
  -0.00000007   0.00016620   0.00000001           -0.01       24.45        0.00
   0.00000002   0.00000001   0.00018738            0.00        0.00       27.57

     kinetic stress (kbar)  18487.33     -0.01      0.00
                               -0.01  18487.34      0.00
                                0.00      0.00  18484.46

     local   stress (kbar)   5574.66      2.12     -0.45
                                2.12   5572.03     -0.26
                               -0.45     -0.26   3811.94

     nonloc. stress (kbar)     75.96      0.02     -0.00
                                0.02     75.93     -0.00
                               -0.00     -0.00     85.48

     hartree stress (kbar)  19688.78     -0.83      0.16
                               -0.83  19689.75      0.09
                                0.16      0.09  20485.43

     exc-cor stress (kbar)   5262.37     -0.01      0.00
                               -0.01   5262.38      0.00
                                0.00      0.00   5262.92

     corecor stress (kbar) -14196.58      0.00     -0.00
                                0.00 -14196.59     -0.00
                               -0.00     -0.00 -14196.10

     ewald   stress (kbar) -35031.03     -1.30      0.29
                               -1.30 -35029.30      0.17
                                0.29      0.17 -34068.56

     hubbard stress (kbar)      0.00      0.00      0.00
                                0.00      0.00      0.00
                                0.00      0.00      0.00

     DFT-D   stress (kbar)      0.00      0.00      0.00
                                0.00      0.00      0.00
                                0.00      0.00      0.00

     XDM     stress (kbar)      0.00      0.00      0.00
                                0.00      0.00      0.00
                                0.00      0.00      0.00

     dft-nl  stress (kbar)    162.93      0.00     -0.00
                                0.00    162.93     -0.00
                               -0.00     -0.00    162.00

     TS-vdW  stress (kbar)      0.00      0.00      0.00
                                0.00      0.00      0.00
                                0.00      0.00      0.00

     MDB     stress (kbar)      0.00      0.00      0.00
                                0.00      0.00      0.00
                                0.00      0.00      0.00

     3D-RISM stress (kbar)      0.00      0.00      0.00
                                0.00      0.00      0.00
                                0.00      0.00      0.00

     Energy error            =      1.6E-05 Ry
     Gradient error          =      4.3E-04 Ry/Bohr

     bfgs converged in  13 scf cycles and  12 bfgs steps
     (criteria: energy <  1.0E-04 Ry, force <  1.0E-03 Ry/Bohr)

     End of BFGS Geometry Optimization

     Final energy             =  -47095.9556741934 Ry

     File ./GaN.bfgs deleted, as requested
Begin final coordinates

ATOMIC_POSITIONS (angstrom)
Ga            1.6201749603        0.9354069785        2.3852343748
Ga            1.6207523399        0.9357403288        7.8242125304
Ga            1.6217213401        0.9362997813       13.1845220373
Ga           -0.0049612593        3.7234275217        2.6442545199
Ga           -0.0117249570        3.7748013304        7.9675563814
Ga           -0.0010820297        3.7554796591       13.1885096158
Ga           -1.6246524747        6.5547966690        2.6393679367
Ga           -1.6262761488        6.5644555637        7.9351729372
Ga           -1.6219608255        6.5587250327       13.2230698147
Ga           -3.2470755743        9.3649159089        2.6393679367
Ga           -3.2395225632        9.3586803187        7.9351729372
Ga           -3.2423276870        9.3652827637       13.2230698147
Ga           -4.8892675756       12.1832942215        2.6442545199
Ga           -4.8481584010       12.1517497830        7.9675563814
Ga           -4.8595699956       12.1706276641       13.1885096158
Ga            4.8489241217        0.9531412238        2.6443070397
Ga            4.8975499732        0.9319135803        7.9671426535
Ga            4.8757423075        0.9332003758       13.1884930539
Ga            3.2499078479        3.7227186522        2.6443070397
Ga            3.2558370951        3.7754436966        7.9671426535
Ga            3.2460476599        3.7559143064       13.1884930539
Ga            1.6221215054        6.5404934798        2.6494658396
Ga            1.6223219807        6.5564943628        7.9178402294
Ga            1.6228875382        6.5604900278       13.2277919662
Ga           -0.0004553809        9.3659401249        2.6444598401
Ga            0.0003063530        9.3663799122        7.9237825787
Ga            0.0004457450        9.3664603902       13.2219749020
Ga           -1.6360755095       12.1838562508        2.6494658396
Ga           -1.6221181007       12.1760294260        7.9178402294
Ga           -1.6183749746       12.1745213806       13.2277919662
Ga            8.1110553305        0.9395256638        2.6391233693
Ga            8.1198270939        0.9354641632        7.9352174894
Ga            8.1134617241        0.9353184088       13.2231502402
Ga            6.4885417096        3.7461598319        2.6395826961
Ga            6.4943943745        3.7495388695        7.9336368115
Ga            6.4929471457        3.7487033116       13.2219051587
Ga            4.8691820316        6.5546149297        2.6391233693
Ga            4.8700505506        6.5642422499        7.9352174894
Ga            4.8667416386        6.5588025551       13.2231502402
Ga            3.2456473491        9.3657605695        2.6445099287
Ga            3.2442508241        9.3660223306        7.9240098431
Ga            3.2448738713        9.3662612112       13.2222951222
Ga            1.6224404846       12.1772373303        2.6445099287
Ga            1.6219689138       12.1758970237        7.9240098431
Ga            1.6224873141       12.1763171580       13.2222951222
Ga           11.3552697398        0.9392937003        2.6389541916
Ga           11.3453429136        0.9351598937        7.9356007825
Ga           11.3535019918        0.9349651233       13.2230509744
Ga            9.7337762955        3.7465821351        2.6395876436
Ga            9.7335262293        3.7483074707        7.9318155809
Ga            9.7335839229        3.7476909277       13.2208004042
Ga            8.1115247278        6.5564042729        2.6395876436
Ga            8.1128938792        6.5553250415        7.9318155809
Ga            8.1123887841        6.5556832771       13.2208004042
Ga            6.4910883498        9.3643030051        2.6389541916
Ga            6.4825449552        9.3577730248        7.9356007825
Ga            6.4864558182        9.3649363790       13.2230509744
Ga            4.8806834809       12.1840669608        2.6493275131
Ga            4.8651334506       12.1750891467        7.9184857383
Ga            4.8628310352       12.1737598466       13.2279733391
[...]
N            12.9523590382        1.8776379816        7.2887738629
N            12.9651356733        1.8797800819       12.5643138526
N            11.3536729683        4.6849589698        1.9872149104
N            11.3507546597        4.6864164071        7.2788942602
N            11.3532314381        4.6851149640       12.5662032697
N             9.7341276476        7.4900937505        1.9872149104
N             9.7339306710        7.4868377025        7.2788942602
N             9.7340419775        7.4896333771       12.5662032697
N             8.1080399035       10.2924952925        1.9806581413
N             8.1022593903       10.2782569938        7.2887738629
N             8.1105028211       10.2882508341       12.5643138526
N             6.4976295079       13.1176153347        1.9852844957
N             6.4876996781       13.1118823448        7.2873502720
N             6.4752604426       13.1047005488       12.5598856807
Ga            1.6219915198        0.9364557696        4.6113776393
End final coordinates

     Writing all to output data dir ./GaN.save/

     General routines

     Parallel routines

     PAW routines

   This run was terminated on:   0:31:25  21May2024

   JOB DONE.