     Program PWSCF v.7.1 starts on 14Feb2024 at  9:26: 5

     Reading input from espresso.pwi
Warning: card &CELL ignored
Warning: card    CELL_DYNAMICS    = 'BFGS' ignored
Warning: card / ignored

     Current dimensions of program PWSCF are:
     Max number of different atomic species (ntypx) = 10
     Max number of k-points (npk) =  40000
     Max angular momentum in pseudopotentials (lmaxx) =  4
     file Pb.pbe-dn-kjpaw_psl.1.0.0.UPF: wavefunction(s)  6S 6P 5D renormalized
     file I.pbe-dn-kjpaw_psl.1.0.0.UPF: wavefunction(s)  5S 5P renormalized

     IMPORTANT: XC functional enforced from input :
     Exchange-correlation= BEEF-VDW
                           (   1   4  43  14   2   0   0)
     Any further DFT definition will be discarded
     Please, verify this is what you really want

     R & G space division:  proc/nbgrp/npool/nimage =     128
     Subspace diagonalization in iterative solution of the eigenvalue problem:
     a serial algorithm will be used

     Using Slab Decomposition

     bravais-lattice index     =            4
     lattice parameter (alat)  =      35.6073  a.u.
     unit-cell volume          =   30614.2220 (a.u.)^3
     number of atoms/cell      =           96
     number of atomic types    =            2
     number of electrons       =      1540.00
     number of Kohn-Sham states=          924
     kinetic-energy cutoff     =      70.0000  Ry
     charge density cutoff     =     350.0000  Ry
     scf convergence threshold =      1.0E-07
     mixing beta               =       0.7000
     number of iterations used =            8  plain     mixing
     energy convergence thresh.=      1.0E-04
     force convergence thresh. =      1.0E-03
     Exchange-correlation= BEEF-VDW
                           (   1   4  43  14   2   0   0)
     nstep                     =           50

     celldm(1)=  35.607290  celldm(2)=   0.000000  celldm(3)=   0.783025
     celldm(4)=   0.000000  celldm(5)=   0.000000  celldm(6)=   0.000000

     crystal axes: (cart. coord. in units of alat)
               a(1) = (   1.000000   0.000000   0.000000 )
               a(2) = (  -0.500000   0.866025   0.000000 )
               a(3) = (   0.000000   0.000000   0.783025 )

     reciprocal axes: (cart. coord. in units 2 pi/alat)
               b(1) = (  1.000000  0.577350 -0.000000 )
               b(2) = (  0.000000  1.154701  0.000000 )
               b(3) = (  0.000000 -0.000000  1.277098 )

     PseudoPot. # 1 for Pb read from file:
     /trace/group/acmegroup/atimmins/packages/espresso/pseudo/psl_1.0.0/pslibrary.1.0.0/pbe/PSEUDOPOTENTIALS/Pb.pbe-dn-kjpaw_psl.1.0.0.UPF
     MD5 check sum: 39ab5b8a6bbd56b7735ad9f188aac93a
     Pseudo is Projector augmented-wave + core cor, Zval = 14.0
     Generated using 'atomic' code by A. Dal Corso  v.7.1
     Shape of augmentation charge: PSQ
     Using radial grid of 1281 points,  6 beta functions with:
                l(1) =   0
                l(2) =   0
                l(3) =   1
                l(4) =   1
                l(5) =   2
                l(6) =   2
     Q(r) pseudized with 0 coefficients

     PseudoPot. # 2 for I  read from file:
     /trace/group/acmegroup/atimmins/packages/espresso/pseudo/psl_1.0.0/pslibrary.1.0.0/pbe/PSEUDOPOTENTIALS/I.pbe-dn-kjpaw_psl.1.0.0.UPF
     MD5 check sum: bfa8781bc1224d19af3f3980e3fab11e
     Pseudo is Projector augmented-wave + core cor, Zval = 17.0
     Generated using 'atomic' code by A. Dal Corso  v.7.1
     Shape of augmentation charge: PSQ
     Using radial grid of 1247 points,  6 beta functions with:
                l(1) =   0
                l(2) =   0
                l(3) =   1
                l(4) =   1
                l(5) =   2
                l(6) =   2
     Q(r) pseudized with 0 coefficients

     atomic species   valence    mass     pseudopotential
        Pb            14.00   207.20000     Pb( 1.00)
        I             17.00   126.90447     I ( 1.00)

     No symmetry found

                                    s                        frac. trans.

      isym =  1     identity

 cryst.   s( 1) = (     1          0          0      )
                  (     0          1          0      )
                  (     0          0          1      )

 cart.    s( 1) = (  1.0000000  0.0000000  0.0000000 )
                  (  0.0000000  1.0000000  0.0000000 )
                  (  0.0000000  0.0000000  1.0000000 )

     point group C_1 (1)
     there are  1 classes
     the character table:

       E
A      1.00

     the symmetry operations in each class and the name of the first element:

     E        1
          identity

   Cartesian axes

     site n.     atom                  positions (alat units)
         1           Pb  tau(   1) = (   0.1250034   0.2164916   0.3915076  )
         2           Pb  tau(   2) = (   0.0000077   0.4329922   0.7830161  )
         3           Pb  tau(   3) = (   0.0000025   0.4329968   0.3915034  )
         4           Pb  tau(   4) = (  -0.1249932   0.6494975   0.7830119  )
         5           Pb  tau(   5) = (  -0.1249984   0.6495021   0.3914992  )
         6           Pb  tau(   6) = (  -0.2499941   0.8660028   0.7830077  )
         7           Pb  tau(   7) = (  -0.2499993   0.8660074   0.3914950  )
         8           Pb  tau(   8) = (   0.3750086   0.2164859   0.7830237  )
         9           Pb  tau(   9) = (   0.3750034   0.2164905   0.3915110  )
        10           Pb  tau(  10) = (   0.2500077   0.4329912   0.7830194  )
        11           Pb  tau(  11) = (   0.2500025   0.4329958   0.3915068  )
        12           Pb  tau(  12) = (   0.1250068   0.6494965   0.7830152  )
        13           Pb  tau(  13) = (   0.1250016   0.6495011   0.3915026  )
        14           Pb  tau(  14) = (   0.0000059   0.8660017   0.7830110  )
        15           Pb  tau(  15) = (   0.0000007   0.8660063   0.3914983  )
        16           Pb  tau(  16) = (   0.6250086   0.2164849   0.7830270  )
        17           Pb  tau(  17) = (   0.6250034   0.2164895   0.3915143  )
        18           Pb  tau(  18) = (   0.5000077   0.4329901   0.7830228  )
        19           Pb  tau(  19) = (   0.5000025   0.4329947   0.3915101  )
        20           Pb  tau(  20) = (   0.3750068   0.6494954   0.7830186  )
        21           Pb  tau(  21) = (   0.3750016   0.6495000   0.3915059  )
        22           Pb  tau(  22) = (   0.2500059   0.8660007   0.7830144  )
        23           Pb  tau(  23) = (   0.2500007   0.8660053   0.3915017  )
        24           Pb  tau(  24) = (   0.8750086   0.2164838   0.7830303  )
        25           Pb  tau(  25) = (   0.8750034   0.2164884   0.3915177  )
        26           Pb  tau(  26) = (   0.7500077   0.4329891   0.7830261  )
        27           Pb  tau(  27) = (   0.7500025   0.4329937   0.3915135  )
        28           Pb  tau(  28) = (   0.6250068   0.6494944   0.7830219  )
        29           Pb  tau(  29) = (   0.6250016   0.6494990   0.3915092  )
        30           Pb  tau(  30) = (   0.5000059   0.8659996   0.7830177  )
        31           Pb  tau(  31) = (   0.5000007   0.8660042   0.3915050  )
        32           I   tau(  32) = (   0.1250056   0.0721546   0.2909163  )
        33           I   tau(  33) = (   0.1250108   0.0721500   0.6824290  )
        34           I   tau(  34) = (   0.0000047   0.2886599   0.2909121  )
        35           I   tau(  35) = (   0.0000099   0.2886553   0.6824248  )
        36           I   tau(  36) = (  -0.1249962   0.5051652   0.2909079  )
        37           I   tau(  37) = (  -0.1249910   0.5051606   0.6824206  )
        38           I   tau(  38) = (  -0.2499972   0.7216704   0.2909037  )
        39           I   tau(  39) = (  -0.2499919   0.7216658   0.6824164  )
        40           I   tau(  40) = (   0.3750056   0.0721536   0.2909197  )
        41           I   tau(  41) = (   0.3750108   0.0721490   0.6824324  )
        42           I   tau(  42) = (   0.2500047   0.2886589   0.2909155  )
        43           I   tau(  43) = (   0.2500099   0.2886543   0.6824282  )
        44           I   tau(  44) = (   0.1250038   0.5051641   0.2909113  )
        45           I   tau(  45) = (   0.1250090   0.5051595   0.6824240  )
        46           I   tau(  46) = (   0.0000028   0.7216694   0.2909071  )
        47           I   tau(  47) = (   0.0000081   0.7216648   0.6824197  )
        48           I   tau(  48) = (   0.6250056   0.0721525   0.2909230  )
        49           I   tau(  49) = (   0.6250108   0.0721479   0.6824357  )
        50           I   tau(  50) = (   0.5000047   0.2886578   0.2909188  )
        51           I   tau(  51) = (   0.5000099   0.2886532   0.6824315  )
        52           I   tau(  52) = (   0.3750038   0.5051631   0.2909146  )
        53           I   tau(  53) = (   0.3750090   0.5051585   0.6824273  )
        54           I   tau(  54) = (   0.2500028   0.7216683   0.2909104  )
        55           I   tau(  55) = (   0.2500081   0.7216637   0.6824231  )
        56           I   tau(  56) = (   0.8750056   0.0721515   0.2909264  )
        57           I   tau(  57) = (   0.8750108   0.0721469   0.6824391  )
        58           I   tau(  58) = (   0.7500047   0.2886567   0.2909222  )
        59           I   tau(  59) = (   0.7500099   0.2886521   0.6824348  )
        60           I   tau(  60) = (   0.6250038   0.5051620   0.2909180  )
[...]
        82           I   tau(  82) = (   0.3749973   0.3608329   0.1005958  )
        83           I   tau(  83) = (   0.3750025   0.3608283   0.4921084  )
        84           I   tau(  84) = (   0.2499964   0.5773382   0.1005915  )
        85           I   tau(  85) = (   0.2500016   0.5773336   0.4921042  )
        86           I   tau(  86) = (   0.1249955   0.7938434   0.1005873  )
        87           I   tau(  87) = (   0.1250007   0.7938388   0.4921000  )
        88           I   tau(  88) = (   0.7499982   0.1443266   0.1006033  )
        89           I   tau(  89) = (   0.7500034   0.1443220   0.4921160  )
        90           I   tau(  90) = (   0.6249973   0.3608319   0.1005991  )
        91           I   tau(  91) = (   0.6250025   0.3608273   0.4921118  )
        92           I   tau(  92) = (   0.4999964   0.5773371   0.1005949  )
        93           I   tau(  93) = (   0.5000016   0.5773325   0.4921076  )
        94           I   tau(  94) = (   0.3749955   0.7938424   0.1005907  )
        95           I   tau(  95) = (   0.3750007   0.7938378   0.4921034  )
        96           I   tau(  96) = (   0.1250086   0.2164870   0.7830203  )

   Crystallographic axes

     site n.     atom                  positions (cryst. coord.)
         1           Pb  tau(   1) = (  0.2499949  0.2499829  0.4999935  )
         2           Pb  tau(   2) = (  0.2499959  0.4999764  0.9999882  )
         3           Pb  tau(   3) = (  0.2499933  0.4999817  0.4999882  )
         4           Pb  tau(   4) = (  0.2499944  0.7499751  0.9999828  )
         5           Pb  tau(   5) = (  0.2499918  0.7499804  0.4999828  )
         6           Pb  tau(   6) = (  0.2499928  0.9999739  0.9999774  )
         7           Pb  tau(   7) = (  0.2499903  0.9999792  0.4999774  )
[...]
     atom   44 type  2   force =     0.00000000    0.00000000    0.00000000
     atom   45 type  2   force =     0.00000000    0.00000000    0.00000000
     atom   46 type  2   force =     0.00000000    0.00000000    0.00000000
     atom   47 type  2   force =     0.00000000    0.00000000    0.00000000
     atom   48 type  2   force =     0.00000000    0.00000000    0.00000000
     atom   49 type  2   force =     0.00000000    0.00000000    0.00000000
     atom   50 type  2   force =     0.00000000    0.00000000    0.00000000
     atom   51 type  2   force =     0.00000000    0.00000000    0.00000000
     atom   52 type  2   force =     0.00000000    0.00000000    0.00000000
     atom   53 type  2   force =     0.00000000    0.00000000    0.00000000
     atom   54 type  2   force =     0.00000000    0.00000000    0.00000000
     atom   55 type  2   force =     0.00000000    0.00000000    0.00000000
     atom   56 type  2   force =     0.00000000    0.00000000    0.00000000
     atom   57 type  2   force =     0.00000000    0.00000000    0.00000000
     atom   58 type  2   force =     0.00000000    0.00000000    0.00000000
     atom   59 type  2   force =     0.00000000    0.00000000    0.00000000
     atom   60 type  2   force =     0.00000000    0.00000000    0.00000000
[...]
     atom   82 type  2   force =     0.00000000    0.00000000    0.00000000
     atom   83 type  2   force =     0.00000000    0.00000000    0.00000000
     atom   84 type  2   force =     0.00000000    0.00000000    0.00000000
     atom   85 type  2   force =     0.00000000    0.00000000    0.00000000
     atom   86 type  2   force =     0.00000000    0.00000000    0.00000000
     atom   87 type  2   force =     0.00000000    0.00000000    0.00000000
     atom   88 type  2   force =     0.00000000    0.00000000    0.00000000
     atom   89 type  2   force =     0.00000000    0.00000000    0.00000000
     atom   90 type  2   force =     0.00000000    0.00000000    0.00000000
     atom   91 type  2   force =     0.00000000    0.00000000    0.00000000
     atom   92 type  2   force =     0.00000000    0.00000000    0.00000000
     atom   93 type  2   force =     0.00000000    0.00000000    0.00000000
     atom   94 type  2   force =     0.00000000    0.00000000    0.00000000
     atom   95 type  2   force =     0.00000000    0.00000000    0.00000000
     atom   96 type  2   force =     0.00000000    0.00000000    0.00000000
     The SCF correction term to forces
     atom    1 type  1   force =     0.00001018   -0.00000974   -0.00000069
     atom    2 type  1   force =     0.00000173    0.00000106    0.00000104
     atom    3 type  1   force =     0.00000213   -0.00000059   -0.00000106
     atom    4 type  1   force =    -0.00000638    0.00001252    0.00000098
     atom    5 type  1   force =    -0.00000514    0.00001061   -0.00000075
     atom    6 type  1   force =    -0.00000063    0.00001058    0.00000218
     atom    7 type  1   force =     0.00000117    0.00000468   -0.00000043
     atom    8 type  1   force =    -0.00000722   -0.00001114    0.00000520
     atom    9 type  1   force =    -0.00000306   -0.00000712   -0.00000187
     atom   10 type  1   force =     0.00000802   -0.00000881   -0.00000097
     atom   11 type  1   force =     0.00000556   -0.00000720   -0.00000016
     atom   12 type  1   force =    -0.00000128    0.00001330    0.00000519
     atom   13 type  1   force =    -0.00000123    0.00000485   -0.00000517
     atom   14 type  1   force =    -0.00000449    0.00000292    0.00000751
     atom   15 type  1   force =    -0.00000878    0.00000541   -0.00000596
     atom   16 type  1   force =    -0.00001052   -0.00000261    0.00000206
     atom   17 type  1   force =    -0.00000885   -0.00000243   -0.00000125
     atom   18 type  1   force =     0.00000456    0.00000034   -0.00000554
     atom   19 type  1   force =    -0.00000212   -0.00000331    0.00000396
     atom   20 type  1   force =     0.00000594    0.00000060   -0.00000192
     atom   21 type  1   force =     0.00000485    0.00000056    0.00000037
     atom   22 type  1   force =    -0.00000902   -0.00000348    0.00000474
     atom   23 type  1   force =    -0.00000212    0.00000047   -0.00000461
     atom   24 type  1   force =     0.00000029   -0.00000612    0.00000067
     atom   25 type  1   force =     0.00000161   -0.00000498   -0.00000050
     atom   26 type  1   force =    -0.00001413    0.00000780   -0.00000351
     atom   27 type  1   force =    -0.00000564    0.00000292    0.00000323
     atom   28 type  1   force =     0.00000171    0.00000094   -0.00000748
     atom   29 type  1   force =     0.00000147    0.00000727    0.00000528
     atom   30 type  1   force =     0.00001495   -0.00000146   -0.00000465
     atom   31 type  1   force =     0.00000945   -0.00000097    0.00000183
     atom   32 type  2   force =     0.00001497    0.00000025    0.00000047
     atom   33 type  2   force =     0.00001354   -0.00000388    0.00000483
     atom   34 type  2   force =     0.00001094   -0.00000969    0.00000147
     atom   35 type  2   force =     0.00000983   -0.00001093   -0.00000271
     atom   36 type  2   force =     0.00000068    0.00000692    0.00000215
     atom   37 type  2   force =    -0.00001230    0.00001122    0.00000046
     atom   38 type  2   force =     0.00000169    0.00001855    0.00000386
     atom   39 type  2   force =    -0.00000836    0.00001123    0.00000219
     atom   40 type  2   force =    -0.00000982    0.00000372   -0.00000399
     atom   41 type  2   force =    -0.00001211    0.00000217    0.00000879
     atom   42 type  2   force =     0.00000555   -0.00001734   -0.00000054
     atom   43 type  2   force =     0.00000850   -0.00001612    0.00000241
     atom   44 type  2   force =     0.00000390   -0.00000192    0.00000130
     atom   45 type  2   force =     0.00000641   -0.00000065    0.00000090
     atom   46 type  2   force =    -0.00000684    0.00001239   -0.00000281
     atom   47 type  2   force =    -0.00000885    0.00001181    0.00000983
     atom   48 type  2   force =    -0.00001135   -0.00000004   -0.00000289
     atom   49 type  2   force =    -0.00001110    0.00000142    0.00000966
     atom   50 type  2   force =    -0.00001180   -0.00001249    0.00000214
     atom   51 type  2   force =    -0.00000622   -0.00000141    0.00000255
     atom   52 type  2   force =    -0.00000124   -0.00000603    0.00000387
     atom   53 type  2   force =     0.00001116   -0.00000413    0.00000081
     atom   54 type  2   force =    -0.00000060    0.00000357   -0.00000161
     atom   55 type  2   force =     0.00000291    0.00000249    0.00000811
     atom   56 type  2   force =     0.00000514   -0.00000348    0.00000250
     atom   57 type  2   force =     0.00000876   -0.00000741    0.00000039
     atom   58 type  2   force =    -0.00000475   -0.00000677    0.00000211
     atom   59 type  2   force =    -0.00001360    0.00000212    0.00000048
     atom   60 type  2   force =    -0.00000330    0.00000326    0.00000433
[...]
     atom   82 type  2   force =     0.00000035   -0.00001482   -0.00000568
     atom   83 type  2   force =    -0.00000075   -0.00001110    0.00000137
     atom   84 type  2   force =     0.00000178    0.00000462   -0.00000126
     atom   85 type  2   force =     0.00000804   -0.00000671   -0.00000023
     atom   86 type  2   force =    -0.00000848    0.00000698   -0.00000224
     atom   87 type  2   force =    -0.00000642    0.00000608   -0.00000307
     atom   88 type  2   force =    -0.00001135   -0.00000762   -0.00000051
     atom   89 type  2   force =    -0.00000172    0.00000139   -0.00000196
     atom   90 type  2   force =    -0.00000926   -0.00000314   -0.00000981
     atom   91 type  2   force =    -0.00000932   -0.00000050    0.00000315
     atom   92 type  2   force =     0.00000352    0.00000161   -0.00001166
     atom   93 type  2   force =     0.00000412    0.00000208    0.00000581
     atom   94 type  2   force =     0.00000073   -0.00000051   -0.00000301
     atom   95 type  2   force =     0.00001413    0.00000114    0.00000084
     atom   96 type  2   force =     0.00002194   -0.00002119   -0.00000319

     Total force =     0.004883     Total SCF correction =     0.000121

     Computing stress (Cartesian axis) and pressure

     Non-local corr. energy    =      46.32553167 Ry

          total   stress  (Ry/bohr**3)                   (kbar)     P=        5.77
   0.00003920   0.00000002  -0.00000002            5.77        0.00       -0.00
   0.00000002   0.00003921   0.00000001            0.00        5.77        0.00
  -0.00000002   0.00000001   0.00003931           -0.00        0.00        5.78

     kinetic stress (kbar)  14925.45      0.01     -0.01
                                0.01  14925.46      0.00
                               -0.01      0.00  14934.98

     local   stress (kbar)  -7342.16      0.32     -0.19
                                0.32  -7341.90      0.08
                               -0.19      0.08   1218.42

     nonloc. stress (kbar)   -963.31      0.01     -0.01
                                0.01   -963.31      0.00
                               -0.01      0.00   -968.89

     hartree stress (kbar)  12024.75     -0.12      0.07
                               -0.12  12024.64     -0.03
                                0.07     -0.03   8156.15

     exc-cor stress (kbar)   6984.69     -0.00     -0.00
                               -0.00   6984.69      0.00
                               -0.00      0.00   6983.85

     corecor stress (kbar) -11365.73     -0.00      0.00
                               -0.00 -11365.73     -0.00
                                0.00     -0.00 -11365.72

     ewald   stress (kbar) -14341.84     -0.21      0.13
                               -0.21 -14342.02     -0.06
                                0.13     -0.06 -19038.14

     hubbard stress (kbar)      0.00      0.00      0.00
                                0.00      0.00      0.00
                                0.00      0.00      0.00

     DFT-D   stress (kbar)      0.00      0.00      0.00
                                0.00      0.00      0.00
                                0.00      0.00      0.00

     XDM     stress (kbar)      0.00      0.00      0.00
                                0.00      0.00      0.00
                                0.00      0.00      0.00

     dft-nl  stress (kbar)     83.93      0.00      0.00
                                0.00     83.93     -0.00
                                0.00     -0.00     85.13

     TS-vdW  stress (kbar)      0.00      0.00      0.00
                                0.00      0.00      0.00
                                0.00      0.00      0.00

     MDB     stress (kbar)      0.00      0.00      0.00
                                0.00      0.00      0.00
                                0.00      0.00      0.00

     3D-RISM stress (kbar)      0.00      0.00      0.00
                                0.00      0.00      0.00
                                0.00      0.00      0.00

     Energy error            =      6.0E-05 Ry
     Gradient error          =      9.8E-04 Ry/Bohr

     bfgs converged in  13 scf cycles and  12 bfgs steps
     (criteria: energy <  1.0E-04 Ry, force <  1.0E-03 Ry/Bohr)

     End of BFGS Geometry Optimization

     Final energy             =  -64422.9443126409 Ry

     File ./PbI2.bfgs deleted, as requested
Begin final coordinates

ATOMIC_POSITIONS (angstrom)
Pb            2.3554091137        4.0791820927        7.3770737303
Pb            0.0318794548        8.1039595465       14.7543134047
Pb           -0.0004543624        8.1596219933        7.3770153355
Pb           -2.3552563472       12.2382527155       14.7539581904
Pb           -2.3552815551       12.2382837853        7.3768876360
Pb           -4.7423170112       16.3724779309       14.7538100962
Pb           -4.7100665090       16.3169064148        7.3769159635
Pb            7.0027674549        4.0793237079       14.7539378951
Pb            7.0670268830        4.0791671805        7.3770951068
Pb            4.6790562905        8.1036897292       14.7540449370
Pb            4.7112103441        8.1595941243        7.3770306769
Pb            2.3554217150       12.2225873638       14.7701749605
Pb            2.3553382094       12.2407514365        7.3800371792
Pb           -0.0135079198       16.3255997939       14.7702282714
Pb            0.0022134771       16.3165272446        7.3800857157
Pb           11.7766829695        4.0791318268       14.7542846599
Pb           11.7766428291        4.0791643015        7.3772171792
Pb            9.4078017070        8.1508787843       14.7380329012
Pb            9.4235184213        8.1599398299        7.3740276603
Pb            7.0660437722       12.2382207994       14.7540764018
Pb            7.0660183287       12.2382359009        7.3770230008
Pb            4.7242685210       16.3255392151       14.7703020726
Pb            4.7085017303       16.3165272680        7.3801988751
Pb           16.5506894433        4.0789253058       14.7545670813
Pb           16.4863077599        4.0791878946        7.3772097108
Pb           14.1455842961        8.1508459375       14.7379852617
Pb           14.1297963274        8.1599866809        7.3740172796
Pb           11.7766526324       12.2538775011       14.7378641843
Pb           11.7766803936       12.2357506821        7.3738835796
Pb            9.4530906234       16.3727213441       14.7541623740
Pb            9.4208471435       16.3168848787        7.3770475639
I             2.3553649403        1.3624654322        5.4900794953
I             2.3554282922        1.0429021856       12.7275094522
I             0.0025076244        5.4376346968        5.4901880838
I            -0.2729702608        5.5965865736       12.7281515683
I            -2.3524413008        9.5196215951        5.4931719238
I            -2.3734507584        9.5351401636       12.8731692697
I            -4.7082826664       13.6001273775        5.4930629203
I            -4.7051958828       13.5739476889       12.8730970440
I             7.0748721401        1.3544956648        5.5073491845
I             7.0664696262        1.3593370949       12.8525087031
I             4.7082267921        5.4376257585        5.4900921287
I             4.9852590201        5.5973836372       12.7273956622
I             2.3553534078        9.5288849394        5.5074570940
I             2.3553618357        9.5190521915       12.8524648286
I             0.0003761330       13.5983862593        5.4963552993
I             0.0013876579       13.5989417297       12.8636323426
I            11.7766551219        1.3592200309        5.4965748885
I            11.7766693300        1.3580575439       12.8638288379
I             9.4208221601        5.4360654849        5.4933315017
I             9.4450070565        5.4464213403       12.8733622527
I             7.0631800094        9.5196252732        5.4932264591
I             7.0843032311        9.5352480473       12.8732713081
I             4.7103492922       13.5983808603        5.4964825105
I             4.7093609056       13.5989469678       12.8637049719
I            16.4783416009        1.3544560931        5.5076889506
I            16.4868633507        1.3593589007       12.8526376246
I            14.1325112708        5.4360715110        5.4934118299
I            14.1085254736        5.4464438730       12.8734204521
I            11.7766930110        9.5185660202        5.4928165046
[...]
I             7.0664567741        6.7991449561        1.9016057195
I             7.0748969812        6.8040709870        9.2465094524
I             4.7160100472       10.9025688094        1.8807072112
I             4.7129620476       10.8765183424        9.2607365876
I             2.3553187405       14.9579643755        1.8819180279
I             2.3552613672       14.9579785089        9.2611791433
I            14.1083805888        2.7118973858        1.8809267846
I            14.1325135593        2.7223782596        9.2609297582
I            11.7766896879        6.8004806743        1.8903782604
I            11.7766698165        6.7993517219        9.2576595143
I             9.4227047802       10.8777069612        1.8902543384
I             9.4217005261       10.8783062134        9.2575002299
I             7.0477327401       14.9411808161        1.8807450988
I             7.0688863798       14.9569587082        9.2607856514
I             2.3555354718        4.0792106811       14.7543481391
End final coordinates

     Writing all to output data dir ./PbI2.save/

     General routines

     Parallel routines

     PAW routines

   This run was terminated on:  20:27:44  14Feb2024

   JOB DONE.