     Program PWSCF v.7.1 starts on 18Feb2024 at 12: 3:34

     Reading input from espresso.pwi
Warning: card &CELL ignored
Warning: card    CELL_DYNAMICS    = 'BFGS' ignored
Warning: card / ignored

     Current dimensions of program PWSCF are:
     Max number of different atomic species (ntypx) = 10
     Max number of k-points (npk) =  40000
     Max angular momentum in pseudopotentials (lmaxx) =  4
     file Pb.pbe-dn-kjpaw_psl.1.0.0.UPF: wavefunction(s)  6S 6P 5D renormalized
     file I.pbe-dn-kjpaw_psl.1.0.0.UPF: wavefunction(s)  5S 5P renormalized

     IMPORTANT: XC functional enforced from input :
     Exchange-correlation= BEEF-VDW
                           (   1   4  43  14   2   0   0)
     Any further DFT definition will be discarded
     Please, verify this is what you really want

     R & G space division:  proc/nbgrp/npool/nimage =     128
     Subspace diagonalization in iterative solution of the eigenvalue problem:
     a serial algorithm will be used

     Using Slab Decomposition

     bravais-lattice index     =            4
     lattice parameter (alat)  =      35.6073  a.u.
     unit-cell volume          =   30614.2220 (a.u.)^3
     number of atoms/cell      =           96
     number of atomic types    =            2
     number of electrons       =      1540.00
     number of Kohn-Sham states=          924
     kinetic-energy cutoff     =      70.0000  Ry
     charge density cutoff     =     350.0000  Ry
     scf convergence threshold =      1.0E-07
     mixing beta               =       0.7000
     number of iterations used =            8  plain     mixing
     Exchange-correlation= BEEF-VDW
                           (   1   4  43  14   2   0   0)

     celldm(1)=  35.607290  celldm(2)=   0.000000  celldm(3)=   0.783025
     celldm(4)=   0.000000  celldm(5)=   0.000000  celldm(6)=   0.000000

     crystal axes: (cart. coord. in units of alat)
               a(1) = (   1.000000   0.000000   0.000000 )
               a(2) = (  -0.500000   0.866025   0.000000 )
               a(3) = (   0.000000   0.000000   0.783025 )

     reciprocal axes: (cart. coord. in units 2 pi/alat)
               b(1) = (  1.000000  0.577350 -0.000000 )
               b(2) = (  0.000000  1.154701  0.000000 )
               b(3) = (  0.000000 -0.000000  1.277098 )

     PseudoPot. # 1 for Pb read from file:
     /trace/group/acmegroup/atimmins/packages/espresso/pseudo/psl_1.0.0/pslibrary.1.0.0/pbe/PSEUDOPOTENTIALS/Pb.pbe-dn-kjpaw_psl.1.0.0.UPF
     MD5 check sum: 39ab5b8a6bbd56b7735ad9f188aac93a
     Pseudo is Projector augmented-wave + core cor, Zval = 14.0
     Generated using 'atomic' code by A. Dal Corso  v.7.1
     Shape of augmentation charge: PSQ
     Using radial grid of 1281 points,  6 beta functions with:
                l(1) =   0
                l(2) =   0
                l(3) =   1
                l(4) =   1
                l(5) =   2
                l(6) =   2
     Q(r) pseudized with 0 coefficients

     PseudoPot. # 2 for I  read from file:
     /trace/group/acmegroup/atimmins/packages/espresso/pseudo/psl_1.0.0/pslibrary.1.0.0/pbe/PSEUDOPOTENTIALS/I.pbe-dn-kjpaw_psl.1.0.0.UPF
     MD5 check sum: bfa8781bc1224d19af3f3980e3fab11e
     Pseudo is Projector augmented-wave + core cor, Zval = 17.0
     Generated using 'atomic' code by A. Dal Corso  v.7.1
     Shape of augmentation charge: PSQ
     Using radial grid of 1247 points,  6 beta functions with:
                l(1) =   0
                l(2) =   0
                l(3) =   1
                l(4) =   1
                l(5) =   2
                l(6) =   2
     Q(r) pseudized with 0 coefficients

     atomic species   valence    mass     pseudopotential
        Pb            14.00   207.20000     Pb( 1.00)
        I             17.00   126.90447     I ( 1.00)

     No symmetry found

                                    s                        frac. trans.

      isym =  1     identity

 cryst.   s( 1) = (     1          0          0      )
                  (     0          1          0      )
                  (     0          0          1      )

 cart.    s( 1) = (  1.0000000  0.0000000  0.0000000 )
                  (  0.0000000  1.0000000  0.0000000 )
                  (  0.0000000  0.0000000  1.0000000 )

     point group C_1 (1)
     there are  1 classes
     the character table:

       E
A      1.00

     the symmetry operations in each class and the name of the first element:

     E        1
          identity

   Cartesian axes

     site n.     atom                  positions (alat units)
         1           Pb  tau(   1) = (   0.1250034   0.2164916   0.3915076  )
         2           Pb  tau(   2) = (   0.0000077   0.4329922   0.7830161  )
         3           Pb  tau(   3) = (   0.0000025   0.4329968   0.3915034  )
         4           Pb  tau(   4) = (  -0.1249932   0.6494975   0.7830119  )
         5           Pb  tau(   5) = (  -0.1249984   0.6495021   0.3914992  )
         6           Pb  tau(   6) = (  -0.2499941   0.8660028   0.7830077  )
         7           Pb  tau(   7) = (  -0.2499993   0.8660074   0.3914950  )
         8           Pb  tau(   8) = (   0.3750086   0.2164859   0.7830237  )
         9           Pb  tau(   9) = (   0.3750034   0.2164905   0.3915110  )
        10           Pb  tau(  10) = (   0.2500077   0.4329912   0.7830194  )
        11           Pb  tau(  11) = (   0.2500025   0.4329958   0.3915068  )
        12           Pb  tau(  12) = (   0.1250068   0.6494965   0.7830152  )
        13           Pb  tau(  13) = (   0.1250016   0.6495011   0.3915026  )
        14           Pb  tau(  14) = (   0.0000059   0.8660017   0.7830110  )
        15           Pb  tau(  15) = (   0.0000007   0.8660063   0.3914983  )
        16           Pb  tau(  16) = (   0.6250086   0.2164849   0.7830270  )
        17           Pb  tau(  17) = (   0.6250034   0.2164895   0.3915143  )
        18           Pb  tau(  18) = (   0.5000077   0.4329901   0.7830228  )
        19           Pb  tau(  19) = (   0.5000025   0.4329947   0.3915101  )
        20           Pb  tau(  20) = (   0.3750068   0.6494954   0.7830186  )
        21           Pb  tau(  21) = (   0.3750016   0.6495000   0.3915059  )
        22           Pb  tau(  22) = (   0.2500059   0.8660007   0.7830144  )
        23           Pb  tau(  23) = (   0.2500007   0.8660053   0.3915017  )
        24           Pb  tau(  24) = (   0.8750086   0.2164838   0.7830303  )
        25           Pb  tau(  25) = (   0.8750034   0.2164884   0.3915177  )
        26           Pb  tau(  26) = (   0.7500077   0.4329891   0.7830261  )
        27           Pb  tau(  27) = (   0.7500025   0.4329937   0.3915135  )
        28           Pb  tau(  28) = (   0.6250068   0.6494944   0.7830219  )
        29           Pb  tau(  29) = (   0.6250016   0.6494990   0.3915092  )
        30           Pb  tau(  30) = (   0.5000059   0.8659996   0.7830177  )
        31           Pb  tau(  31) = (   0.5000007   0.8660042   0.3915050  )
        32           I   tau(  32) = (   0.1250056   0.0721546   0.2909163  )
        33           I   tau(  33) = (   0.1250108   0.0721500   0.6824290  )
        34           I   tau(  34) = (   0.0000047   0.2886599   0.2909121  )
        35           I   tau(  35) = (   0.0000099   0.2886553   0.6824248  )
        36           I   tau(  36) = (  -0.1249962   0.5051652   0.2909079  )
        37           I   tau(  37) = (  -0.1249910   0.5051606   0.6824206  )
        38           I   tau(  38) = (  -0.2499972   0.7216704   0.2909037  )
        39           I   tau(  39) = (  -0.2499919   0.7216658   0.6824164  )
        40           I   tau(  40) = (   0.3750056   0.0721536   0.2909197  )
        41           I   tau(  41) = (   0.3750108   0.0721490   0.6824324  )
        42           I   tau(  42) = (   0.2500047   0.2886589   0.2909155  )
        43           I   tau(  43) = (   0.2500099   0.2886543   0.6824282  )
        44           I   tau(  44) = (   0.1250038   0.5051641   0.2909113  )
        45           I   tau(  45) = (   0.1250090   0.5051595   0.6824240  )
        46           I   tau(  46) = (   0.0000028   0.7216694   0.2909071  )
        47           I   tau(  47) = (   0.0000081   0.7216648   0.6824197  )
        48           I   tau(  48) = (   0.6250056   0.0721525   0.2909230  )
        49           I   tau(  49) = (   0.6250108   0.0721479   0.6824357  )
        50           I   tau(  50) = (   0.5000047   0.2886578   0.2909188  )
        51           I   tau(  51) = (   0.5000099   0.2886532   0.6824315  )
        52           I   tau(  52) = (   0.3750038   0.5051631   0.2909146  )
        53           I   tau(  53) = (   0.3750090   0.5051585   0.6824273  )
        54           I   tau(  54) = (   0.2500028   0.7216683   0.2909104  )
        55           I   tau(  55) = (   0.2500081   0.7216637   0.6824231  )
        56           I   tau(  56) = (   0.8750056   0.0721515   0.2909264  )
        57           I   tau(  57) = (   0.8750108   0.0721469   0.6824391  )
        58           I   tau(  58) = (   0.7500047   0.2886567   0.2909222  )
        59           I   tau(  59) = (   0.7500099   0.2886521   0.6824348  )
        60           I   tau(  60) = (   0.6250038   0.5051620   0.2909180  )
[...]
        82           I   tau(  82) = (   0.3749973   0.3608329   0.1005958  )
        83           I   tau(  83) = (   0.3750025   0.3608283   0.4921084  )
        84           I   tau(  84) = (   0.2499964   0.5773382   0.1005915  )
        85           I   tau(  85) = (   0.2500016   0.5773336   0.4921042  )
        86           I   tau(  86) = (   0.1249955   0.7938434   0.1005873  )
        87           I   tau(  87) = (   0.1250007   0.7938388   0.4921000  )
        88           I   tau(  88) = (   0.7499982   0.1443266   0.1006033  )
        89           I   tau(  89) = (   0.7500034   0.1443220   0.4921160  )
        90           I   tau(  90) = (   0.6249973   0.3608319   0.1005991  )
        91           I   tau(  91) = (   0.6250025   0.3608273   0.4921118  )
        92           I   tau(  92) = (   0.4999964   0.5773371   0.1005949  )
        93           I   tau(  93) = (   0.5000016   0.5773325   0.4921076  )
        94           I   tau(  94) = (   0.3749955   0.7938424   0.1005907  )
        95           I   tau(  95) = (   0.3750007   0.7938378   0.4921034  )
        96           I   tau(  96) = (   0.1250086   0.2164870   0.7830203  )

   Crystallographic axes

     site n.     atom                  positions (cryst. coord.)
         1           Pb  tau(   1) = (  0.2499949  0.2499829  0.4999935  )
         2           Pb  tau(   2) = (  0.2499959  0.4999764  0.9999882  )
         3           Pb  tau(   3) = (  0.2499933  0.4999817  0.4999882  )
         4           Pb  tau(   4) = (  0.2499944  0.7499751  0.9999828  )
         5           Pb  tau(   5) = (  0.2499918  0.7499804  0.4999828  )
         6           Pb  tau(   6) = (  0.2499928  0.9999739  0.9999774  )
         7           Pb  tau(   7) = (  0.2499903  0.9999792  0.4999774  )
         8           Pb  tau(   8) = (  0.4999968  0.2499764  0.9999978  )
         9           Pb  tau(   9) = (  0.4999943  0.2499817  0.4999978  )
[...]
     atom   26 type  1   force =     0.00000000    0.00000000    0.00000000
     atom   27 type  1   force =     0.00000000    0.00000000    0.00000000
     atom   28 type  1   force =     0.00000000    0.00000000    0.00000000
     atom   29 type  1   force =     0.00000000    0.00000000    0.00000000
     atom   30 type  1   force =     0.00000000    0.00000000    0.00000000
     atom   31 type  1   force =     0.00000000    0.00000000    0.00000000
     atom   32 type  2   force =     0.00000000    0.00000000    0.00000000
     atom   33 type  2   force =     0.00000000    0.00000000    0.00000000
     atom   34 type  2   force =     0.00000000    0.00000000    0.00000000
     atom   35 type  2   force =     0.00000000    0.00000000    0.00000000
     atom   36 type  2   force =     0.00000000    0.00000000    0.00000000
     atom   37 type  2   force =     0.00000000    0.00000000    0.00000000
     atom   38 type  2   force =     0.00000000    0.00000000    0.00000000
     atom   39 type  2   force =     0.00000000    0.00000000    0.00000000
     atom   40 type  2   force =     0.00000000    0.00000000    0.00000000
     atom   41 type  2   force =     0.00000000    0.00000000    0.00000000
     atom   42 type  2   force =     0.00000000    0.00000000    0.00000000
     atom   43 type  2   force =     0.00000000    0.00000000    0.00000000
     atom   44 type  2   force =     0.00000000    0.00000000    0.00000000
     atom   45 type  2   force =     0.00000000    0.00000000    0.00000000
     atom   46 type  2   force =     0.00000000    0.00000000    0.00000000
     atom   47 type  2   force =     0.00000000    0.00000000    0.00000000
     atom   48 type  2   force =     0.00000000    0.00000000    0.00000000
     atom   49 type  2   force =     0.00000000    0.00000000    0.00000000
     atom   50 type  2   force =     0.00000000    0.00000000    0.00000000
     atom   51 type  2   force =     0.00000000    0.00000000    0.00000000
     atom   52 type  2   force =     0.00000000    0.00000000    0.00000000
     atom   53 type  2   force =     0.00000000    0.00000000    0.00000000
     atom   54 type  2   force =     0.00000000    0.00000000    0.00000000
     atom   55 type  2   force =     0.00000000    0.00000000    0.00000000
     atom   56 type  2   force =     0.00000000    0.00000000    0.00000000
     atom   57 type  2   force =     0.00000000    0.00000000    0.00000000
     atom   58 type  2   force =     0.00000000    0.00000000    0.00000000
     atom   59 type  2   force =     0.00000000    0.00000000    0.00000000
     atom   60 type  2   force =     0.00000000    0.00000000    0.00000000
[...]
     atom   82 type  2   force =     0.00000000    0.00000000    0.00000000
     atom   83 type  2   force =     0.00000000    0.00000000    0.00000000
     atom   84 type  2   force =     0.00000000    0.00000000    0.00000000
     atom   85 type  2   force =     0.00000000    0.00000000    0.00000000
     atom   86 type  2   force =     0.00000000    0.00000000    0.00000000
     atom   87 type  2   force =     0.00000000    0.00000000    0.00000000
     atom   88 type  2   force =     0.00000000    0.00000000    0.00000000
     atom   89 type  2   force =     0.00000000    0.00000000    0.00000000
     atom   90 type  2   force =     0.00000000    0.00000000    0.00000000
     atom   91 type  2   force =     0.00000000    0.00000000    0.00000000
     atom   92 type  2   force =     0.00000000    0.00000000    0.00000000
     atom   93 type  2   force =     0.00000000    0.00000000    0.00000000
     atom   94 type  2   force =     0.00000000    0.00000000    0.00000000
     atom   95 type  2   force =     0.00000000    0.00000000    0.00000000
     atom   96 type  2   force =     0.00000000    0.00000000    0.00000000
     The SCF correction term to forces
     atom    1 type  1   force =    -0.00005217    0.00004960    0.00000239
     atom    2 type  1   force =    -0.00000376   -0.00001343   -0.00000454
     atom    3 type  1   force =    -0.00000963    0.00000131    0.00000397
     atom    4 type  1   force =     0.00003121   -0.00006362   -0.00000546
     atom    5 type  1   force =     0.00002607   -0.00005448    0.00000348
     atom    6 type  1   force =    -0.00000308   -0.00004362   -0.00001102
     atom    7 type  1   force =    -0.00000717   -0.00002183    0.00000409
     atom    8 type  1   force =     0.00002173    0.00006602   -0.00003960
     atom    9 type  1   force =     0.00001471    0.00003909    0.00001583
     atom   10 type  1   force =    -0.00003842    0.00002590   -0.00000771
     atom   11 type  1   force =    -0.00002629    0.00003456    0.00000520
     atom   12 type  1   force =     0.00000836   -0.00004878   -0.00001576
     atom   13 type  1   force =     0.00000766   -0.00002432    0.00001841
     atom   14 type  1   force =     0.00004077   -0.00002115   -0.00003015
     atom   15 type  1   force =     0.00004601   -0.00002537    0.00002424
     atom   16 type  1   force =     0.00005319    0.00001404   -0.00001063
     atom   17 type  1   force =     0.00004536    0.00001268    0.00000565
     atom   18 type  1   force =    -0.00001023    0.00000448    0.00001203
     atom   19 type  1   force =     0.00000824    0.00001432   -0.00001111
     atom   20 type  1   force =    -0.00002920   -0.00000330    0.00000958
     atom   21 type  1   force =    -0.00002457   -0.00000280   -0.00000239
     atom   22 type  1   force =     0.00003345    0.00001218   -0.00001061
     atom   23 type  1   force =     0.00001190   -0.00000071    0.00001357
     atom   24 type  1   force =     0.00001272    0.00002017    0.00001028
     atom   25 type  1   force =    -0.00000757    0.00002234   -0.00000290
     atom   26 type  1   force =     0.00005207   -0.00003170    0.00000723
     atom   27 type  1   force =     0.00002793   -0.00001695   -0.00001089
     atom   28 type  1   force =    -0.00001046   -0.00002386    0.00002505
     atom   29 type  1   force =    -0.00000892   -0.00003558   -0.00001950
     atom   30 type  1   force =    -0.00007481    0.00002571    0.00003615
     atom   31 type  1   force =    -0.00005047    0.00000726   -0.00001345
     atom   32 type  2   force =    -0.00008227    0.00001260   -0.00000475
     atom   33 type  2   force =    -0.00006733    0.00003649   -0.00001173
     atom   34 type  2   force =    -0.00004512    0.00003426   -0.00001077
     atom   35 type  2   force =    -0.00003545    0.00004363    0.00001673
     atom   36 type  2   force =     0.00001404   -0.00004179    0.00000199
     atom   37 type  2   force =     0.00004905   -0.00005564   -0.00000218
     atom   38 type  2   force =    -0.00000547   -0.00007330   -0.00000384
     atom   39 type  2   force =     0.00002843   -0.00005670   -0.00001338
     atom   40 type  2   force =     0.00003810   -0.00001160    0.00003034
     atom   41 type  2   force =     0.00004693    0.00000161   -0.00004384
     atom   42 type  2   force =    -0.00003850    0.00008060    0.00000855
     atom   43 type  2   force =    -0.00004496    0.00007437   -0.00000757
     atom   44 type  2   force =    -0.00001811   -0.00000186    0.00000190
     atom   45 type  2   force =    -0.00002220   -0.00001152   -0.00000081
     atom   46 type  2   force =     0.00003484   -0.00006091    0.00001949
     atom   47 type  2   force =     0.00004044   -0.00005823   -0.00003422
     atom   48 type  2   force =     0.00005995    0.00000160    0.00001914
     atom   49 type  2   force =     0.00005401    0.00000006   -0.00003392
     atom   50 type  2   force =     0.00004521    0.00004905    0.00000420
     atom   51 type  2   force =     0.00001893    0.00001763   -0.00001655
     atom   52 type  2   force =    -0.00001113    0.00002279   -0.00000526
     atom   53 type  2   force =    -0.00004823    0.00000487   -0.00000594
     atom   54 type  2   force =     0.00000560   -0.00001503    0.00001165
     atom   55 type  2   force =    -0.00000886   -0.00001399   -0.00002397
     atom   56 type  2   force =    -0.00001159    0.00002449   -0.00001662
     atom   57 type  2   force =    -0.00003041    0.00003691    0.00000928
     atom   58 type  2   force =     0.00003811    0.00001661    0.00000047
     atom   59 type  2   force =     0.00005967   -0.00000379   -0.00000133
     atom   60 type  2   force =     0.00001524   -0.00001758   -0.00000563
[...]
     atom   82 type  2   force =    -0.00000962    0.00006790    0.00000396
     atom   83 type  2   force =    -0.00001165    0.00004342    0.00000872
     atom   84 type  2   force =    -0.00001675   -0.00001836    0.00000004
     atom   85 type  2   force =    -0.00003112    0.00000793   -0.00000051
     atom   86 type  2   force =     0.00004503   -0.00003225    0.00000713
     atom   87 type  2   force =     0.00003168   -0.00002720    0.00000798
     atom   88 type  2   force =     0.00006557    0.00002680    0.00000122
     atom   89 type  2   force =     0.00002219    0.00000763    0.00000465
     atom   90 type  2   force =     0.00004464    0.00000814    0.00002574
     atom   91 type  2   force =     0.00004073   -0.00000121   -0.00001007
     atom   92 type  2   force =    -0.00002139   -0.00000570    0.00003417
     atom   93 type  2   force =    -0.00002333   -0.00001227   -0.00002121
     atom   94 type  2   force =    -0.00000619    0.00001841    0.00001098
     atom   95 type  2   force =    -0.00004796    0.00000094   -0.00000775
     atom   96 type  2   force =    -0.00010712    0.00010272    0.00000126

     Total force =     0.004911     Total SCF correction =     0.000549
     SCF correction compared to forces is large: reduce conv_thr to get better values

     Computing stress (Cartesian axis) and pressure

[...]

          total   stress  (Ry/bohr**3)                   (kbar)     P=        5.77
   0.00003920   0.00000002  -0.00000002            5.77        0.00       -0.00
   0.00000002   0.00003922   0.00000001            0.00        5.77        0.00
  -0.00000002   0.00000001   0.00003931           -0.00        0.00        5.78

     kinetic stress (kbar)  14925.45      0.01     -0.01
                                0.01  14925.46      0.00
                               -0.01      0.00  14934.98

     local   stress (kbar)  -7342.16      0.32     -0.19
                                0.32  -7341.90      0.08
                               -0.19      0.08   1218.42

     nonloc. stress (kbar)   -963.31      0.01     -0.01
                                0.01   -963.31      0.00
                               -0.01      0.00   -968.89

     hartree stress (kbar)  12024.75     -0.12      0.08
                               -0.12  12024.64     -0.03
                                0.08     -0.03   8156.15

     exc-cor stress (kbar)   6984.69     -0.00     -0.00
                               -0.00   6984.69      0.00
                               -0.00      0.00   6983.85

     corecor stress (kbar) -11365.73     -0.00      0.00
                               -0.00 -11365.73     -0.00
                                0.00     -0.00 -11365.72

     ewald   stress (kbar) -14341.84     -0.21      0.13
                               -0.21 -14342.02     -0.06
                                0.13     -0.06 -19038.14

     hubbard stress (kbar)      0.00      0.00      0.00
                                0.00      0.00      0.00
                                0.00      0.00      0.00

     DFT-D   stress (kbar)      0.00      0.00      0.00
                                0.00      0.00      0.00
                                0.00      0.00      0.00

     XDM     stress (kbar)      0.00      0.00      0.00
                                0.00      0.00      0.00
                                0.00      0.00      0.00

     dft-nl  stress (kbar)     83.93      0.00      0.00
                                0.00     83.93     -0.00
                                0.00     -0.00     85.13

     TS-vdW  stress (kbar)      0.00      0.00      0.00
                                0.00      0.00      0.00
                                0.00      0.00      0.00

     MDB     stress (kbar)      0.00      0.00      0.00
                                0.00      0.00      0.00
                                0.00      0.00      0.00

     3D-RISM stress (kbar)      0.00      0.00      0.00
                                0.00      0.00      0.00
                                0.00      0.00      0.00

[...]

     Non-local corr. energy    =      46.32553229 Ry

 BEEFens 2000 ensemble energies
             -0.388522326736620E+02
             -0.391100023256919E+03
             -0.177925782934872E+03
              0.136569908298135E+03
             -0.298895799727286E+03
             -0.366018965506709E+03
              0.187838944338127E+03
              0.824688328151524E+00
              0.316630896822964E+03
             -0.200388480849845E+02
              0.162048153859954E+03
              0.166074516015769E+02
             -0.124238557495457E+02
             -0.100279377200000E+02
              0.202145414982427E+03
             -0.152066981705629E+03
             -0.298743657442252E+03
             -0.963829721856803E+02
              0.864461190028156E+02
             -0.178384851521787E+01
              0.440417258830441E+03
              0.367629874868438E+03
             -0.226473876372155E+03
              0.782811312183931E+02
             -0.471785808305482E+03
              0.387277212204540E+03
              0.132401314834442E+03
              0.349739779310439E+03
              0.235739845136746E+03
             -0.109468163685814E+03
              0.862469184642689E+02
             -0.154262808595496E+03
              0.643649637794996E+02
              0.234445802760474E+03
              0.252228550316878E+03
             -0.109619754900422E+03
              0.556623721372369E+03
             -0.223923210751716E+03
             -0.149228120296410E+03
              0.222620786087678E+03
              0.981448983263870E+02
              0.169115854097297E+03
             -0.326681366049563E+03
             -0.211975085129839E+02
              0.313458082200914E+03
              0.409649746112238E+03
             -0.415869867111001E+03
              0.267398979686009E+02
              0.144298718816906E+03
              0.931344810264745E+02
              0.162688129067696E+03
              0.357177158078387E+03
             -0.231954407876101E+03
             -0.225142823921212E+03
             -0.313669511291717E+03
             -0.455851918929418E+02
             -0.267591705338748E+03
              0.345926237291496E+02
             -0.385946940204421E+02
             -0.212242036586106E+03
[...]
              0.265016939164454E+03
              0.169777758189506E+03
              0.173154488724137E+03
             -0.320324413307999E+03
             -0.330832690658139E+03
             -0.745963275105763E+02
             -0.295712411574875E+03
              0.469521372899882E+03
              0.395508162342768E+03
              0.186484521679608E+03
              0.514207134664327E+03
             -0.257015523913029E+03
             -0.110669591032015E+03
             -0.159470465082718E+03
              0.444792926283079E+03

 BEEF-vdW xc energy contributions
            1 :    -4021.003104375665
            2 :     3684.776600620978
            3 :    -3111.251416286980
            4 :     2453.063190421802
            5 :    -1854.195869813795
            6 :     1403.529002732008
            7 :    -1120.165312801204
            8 :     966.6246623599336
            9 :    -877.3730964779179
           10 :     790.2884564133537
           11 :    -670.2972450861398
           12 :     517.1133363952954
           13 :    -355.7813266926596
           14 :     217.4392029199871
           15 :    -121.8432662303867
           16 :     69.78991759725523
           17 :    -46.40645505588054
           18 :     30.97144161321739
           19 :    -7.497136972675435
           20 :    -28.60476775770076
           21 :     70.29420543705237
           22 :    -104.7091253849176
           23 :     121.5730047493180
           24 :    -119.3829378130140
           25 :     106.0681548133825
           26 :    -94.26626148959440
           27 :     94.33293560425864
           28 :    -108.9848510588190
           29 :     132.1798438850919
           30 :    -152.5598757970265
           31 :    -345.5949885017735
           32 :    -248.5939449549605

     Writing all to output data dir ./PbI2.save/

     General routines

     Parallel routines

     PAW routines

   This run was terminated on:  12:10:24  18Feb2024

   JOB DONE.