     Program PWSCF v.7.1 starts on 18Feb2024 at  6:52:22

     Reading input from espresso.pwi
Warning: card &CELL ignored
Warning: card    CELL_DYNAMICS    = 'BFGS' ignored
Warning: card / ignored

     Current dimensions of program PWSCF are:
     Max number of different atomic species (ntypx) = 10
     Max number of k-points (npk) =  40000
     Max angular momentum in pseudopotentials (lmaxx) =  4
     file Ga.pbe-dn-kjpaw_psl.1.0.0.UPF: wavefunction(s)  4S renormalized
     file N.pbe-n-kjpaw_psl.1.0.0.UPF: wavefunction(s)  2S renormalized

     IMPORTANT: XC functional enforced from input :
     Exchange-correlation= BEEF-VDW
                           (   1   4  43  14   2   0   0)
     Any further DFT definition will be discarded
     Please, verify this is what you really want

     Found identity + (  0.0000  0.0000  0.3333) symmetry
     This is a supercell, fractional translations are disabled

     K-points division:     npool     =       4
     R & G space division:  proc/nbgrp/npool/nimage =      64
     Subspace diagonalization in iterative solution of the eigenvalue problem:
     a serial algorithm will be used

     Using Slab Decomposition

     bravais-lattice index     =            4
     lattice parameter (alat)  =      24.5252  a.u.
     unit-cell volume          =   15616.6055 (a.u.)^3
     number of atoms/cell      =          192
     number of atomic types    =            2
     number of electrons       =      1728.00
     number of Kohn-Sham states=         1037
     kinetic-energy cutoff     =      70.0000  Ry
     charge density cutoff     =     350.0000  Ry
     scf convergence threshold =      1.0E-07
     mixing beta               =       0.7000
     number of iterations used =            8  plain     mixing
     Exchange-correlation= BEEF-VDW
                           (   1   4  43  14   2   0   0)

     celldm(1)=  24.525232  celldm(2)=   0.000000  celldm(3)=   1.222409
     celldm(4)=   0.000000  celldm(5)=   0.000000  celldm(6)=   0.000000

     crystal axes: (cart. coord. in units of alat)
               a(1) = (   1.000000   0.000000   0.000000 )
               a(2) = (  -0.500000   0.866025   0.000000 )
               a(3) = (   0.000000   0.000000   1.222409 )

     reciprocal axes: (cart. coord. in units 2 pi/alat)
               b(1) = (  1.000000  0.577350 -0.000000 )
               b(2) = (  0.000000  1.154701  0.000000 )
               b(3) = (  0.000000 -0.000000  0.818057 )

     PseudoPot. # 1 for Ga read from file:
     /trace/group/acmegroup/atimmins/packages/espresso/pseudo/psl_1.0.0/pslibrary.1.0.0/pbe/PSEUDOPOTENTIALS/Ga.pbe-dn-kjpaw_psl.1.0.0.UPF
     MD5 check sum: cd2a01e492f15b435d17032472d8505c
     Pseudo is Projector augmented-wave + core cor, Zval = 13.0
     Generated using 'atomic' code by A. Dal Corso  v.7.1
     Shape of augmentation charge: PSQ
     Using radial grid of 1205 points,  6 beta functions with:
                l(1) =   0
                l(2) =   0
                l(3) =   1
                l(4) =   1
                l(5) =   2
                l(6) =   2
     Q(r) pseudized with 0 coefficients

     PseudoPot. # 2 for N  read from file:
     /trace/group/acmegroup/atimmins/packages/espresso/pseudo/psl_1.0.0/pslibrary.1.0.0/pbe/PSEUDOPOTENTIALS/N.pbe-n-kjpaw_psl.1.0.0.UPF
     MD5 check sum: f77f775694dac7e2c3fe1c82443d1a16
     Pseudo is Projector augmented-wave + core cor, Zval =  5.0
     Generated using 'atomic' code by A. Dal Corso  v.7.1
     Shape of augmentation charge: PSQ
     Using radial grid of 1085 points,  4 beta functions with:
                l(1) =   0
                l(2) =   0
                l(3) =   1
                l(4) =   1
     Q(r) pseudized with 0 coefficients

     atomic species   valence    mass     pseudopotential
        Ga            13.00    69.72300     Ga( 1.00)
        N              5.00    14.00700     N ( 1.00)

      6 Sym. Ops. (no inversion) found

                                    s                        frac. trans.

      isym =  1     identity

 cryst.   s( 1) = (     1          0          0      )
                  (     0          1          0      )
                  (     0          0          1      )

 cart.    s( 1) = (  1.0000000  0.0000000  0.0000000 )
                  (  0.0000000  1.0000000  0.0000000 )
                  (  0.0000000  0.0000000  1.0000000 )

      isym =  2     120 deg rotation - cryst. axis [0,0,1]

[...]

      isym =  3     120 deg rotation - cryst. axis [0,0,-1]

[...]

      isym =  4     inv. 180 deg rotation - cart. axis [1,0,0]

[...]

      isym =  5     inv. 180 deg rotation - cryst. axis [0,1,0]

[...]

      isym =  6     inv. 180 deg rotation - cryst. axis [1,1,0]

 cryst.   s( 6) = (     0         -1          0      )
                  (    -1          0          0      )
                  (     0          0          1      )

 cart.    s( 6) = (  0.5000000 -0.8660254  0.0000000 )
                  ( -0.8660254 -0.5000000  0.0000000 )
                  (  0.0000000  0.0000000  1.0000000 )

     point group C_3v (3m)
     there are  3 classes
     the character table:

       E     2C3   3s_v
A_1    1.00  1.00  1.00
A_2    1.00  1.00 -1.00
E      2.00 -1.00  0.00

     the symmetry operations in each class and the name of the first element:

     E        1
          identity
     2C3      2    3
          120 deg rotation - cryst. axis [0,0,1]
     3s_v     4    5    6
          inv. 180 deg rotation - cart. axis [1,0,0]

   Cartesian axes

     site n.     atom                  positions (alat units)
         1           Ga  tau(   1) = (   0.1250001   0.0721687   0.2033935  )
         2           Ga  tau(   2) = (   0.1250001   0.0721687   0.6108633  )
         3           Ga  tau(   3) = (   0.1250001   0.0721687   1.0183331  )
         4           Ga  tau(   4) = (   0.0000001   0.2886751   0.2033935  )
         5           Ga  tau(   5) = (   0.0000001   0.2886751   0.6108633  )
         6           Ga  tau(   6) = (   0.0000001   0.2886751   1.0183331  )
         7           Ga  tau(   7) = (  -0.1249999   0.5051814   0.2033935  )
         8           Ga  tau(   8) = (  -0.1249999   0.5051814   0.6108633  )
         9           Ga  tau(   9) = (  -0.1249999   0.5051814   1.0183331  )
        10           Ga  tau(  10) = (  -0.2499999   0.7216878   0.2033935  )
        11           Ga  tau(  11) = (  -0.2499999   0.7216878   0.6108633  )
        12           Ga  tau(  12) = (  -0.2499999   0.7216878   1.0183331  )
        13           Ga  tau(  13) = (   0.3750001   0.0721687   0.2033935  )
        14           Ga  tau(  14) = (   0.3750001   0.0721687   0.6108633  )
        15           Ga  tau(  15) = (   0.3750001   0.0721687   1.0183331  )
        16           Ga  tau(  16) = (   0.2500001   0.2886751   0.2033935  )
        17           Ga  tau(  17) = (   0.2500001   0.2886751   0.6108633  )
        18           Ga  tau(  18) = (   0.2500001   0.2886751   1.0183331  )
        19           Ga  tau(  19) = (   0.1250001   0.5051814   0.2033935  )
        20           Ga  tau(  20) = (   0.1250001   0.5051814   0.6108633  )
        21           Ga  tau(  21) = (   0.1250001   0.5051814   1.0183331  )
        22           Ga  tau(  22) = (   0.0000001   0.7216878   0.2033935  )
        23           Ga  tau(  23) = (   0.0000001   0.7216878   0.6108633  )
        24           Ga  tau(  24) = (   0.0000001   0.7216878   1.0183331  )
        25           Ga  tau(  25) = (   0.6250001   0.0721687   0.2033935  )
        26           Ga  tau(  26) = (   0.6250001   0.0721687   0.6108633  )
        27           Ga  tau(  27) = (   0.6250001   0.0721687   1.0183331  )
        28           Ga  tau(  28) = (   0.5000001   0.2886751   0.2033935  )
        29           Ga  tau(  29) = (   0.5000001   0.2886751   0.6108633  )
        30           Ga  tau(  30) = (   0.5000001   0.2886751   1.0183331  )
        31           Ga  tau(  31) = (   0.3750001   0.5051814   0.2033935  )
        32           Ga  tau(  32) = (   0.3750001   0.5051814   0.6108633  )
        33           Ga  tau(  33) = (   0.3750001   0.5051814   1.0183331  )
        34           Ga  tau(  34) = (   0.2500001   0.7216878   0.2033935  )
        35           Ga  tau(  35) = (   0.2500001   0.7216878   0.6108633  )
        36           Ga  tau(  36) = (   0.2500001   0.7216878   1.0183331  )
        37           Ga  tau(  37) = (   0.8750001   0.0721687   0.2033935  )
        38           Ga  tau(  38) = (   0.8750001   0.0721687   0.6108633  )
        39           Ga  tau(  39) = (   0.8750001   0.0721687   1.0183331  )
        40           Ga  tau(  40) = (   0.7500001   0.2886751   0.2033935  )
        41           Ga  tau(  41) = (   0.7500001   0.2886751   0.6108633  )
        42           Ga  tau(  42) = (   0.7500001   0.2886751   1.0183331  )
        43           Ga  tau(  43) = (   0.6250001   0.5051814   0.2033935  )
        44           Ga  tau(  44) = (   0.6250001   0.5051814   0.6108633  )
        45           Ga  tau(  45) = (   0.6250001   0.5051814   1.0183331  )
        46           Ga  tau(  46) = (   0.5000001   0.7216878   0.2033935  )
        47           Ga  tau(  47) = (   0.5000001   0.7216878   0.6108633  )
        48           Ga  tau(  48) = (   0.5000001   0.7216878   1.0183331  )
        49           Ga  tau(  49) = (  -0.0000002   0.1443377   0.4071284  )
        50           Ga  tau(  50) = (  -0.0000002   0.1443377   0.8145982  )
        51           Ga  tau(  51) = (  -0.0000002   0.1443377   1.2220680  )
        52           Ga  tau(  52) = (  -0.1250002   0.3608440   0.4071284  )
        53           Ga  tau(  53) = (  -0.1250002   0.3608440   0.8145982  )
        54           Ga  tau(  54) = (  -0.1250002   0.3608440   1.2220680  )
        55           Ga  tau(  55) = (  -0.2500002   0.5773504   0.4071284  )
        56           Ga  tau(  56) = (  -0.2500002   0.5773504   0.8145982  )
        57           Ga  tau(  57) = (  -0.2500002   0.5773504   1.2220680  )
        58           Ga  tau(  58) = (  -0.3750001   0.7938567   0.4071284  )
        59           Ga  tau(  59) = (  -0.3750001   0.7938567   0.8145982  )
        60           Ga  tau(  60) = (  -0.3750001   0.7938567   1.2220680  )
[...]
       178           N   tau( 178) = (   0.1249998   0.7938567   0.1531425  )
       179           N   tau( 179) = (   0.1249998   0.7938567   0.5606123  )
       180           N   tau( 180) = (   0.1249998   0.7938567   0.9680820  )
       181           N   tau( 181) = (   0.7499998   0.1443377   0.1531425  )
       182           N   tau( 182) = (   0.7499998   0.1443377   0.5606123  )
       183           N   tau( 183) = (   0.7499998   0.1443377   0.9680820  )
       184           N   tau( 184) = (   0.6249998   0.3608440   0.1531425  )
       185           N   tau( 185) = (   0.6249998   0.3608440   0.5606123  )
       186           N   tau( 186) = (   0.6249998   0.3608440   0.9680820  )
       187           N   tau( 187) = (   0.4999998   0.5773504   0.1531425  )
       188           N   tau( 188) = (   0.4999998   0.5773504   0.5606123  )
       189           N   tau( 189) = (   0.4999998   0.5773504   0.9680820  )
[...]
     atom   26 type  1   force =     0.00000000    0.00000000    0.00000000
     atom   27 type  1   force =     0.00000000    0.00000000    0.00000000
     atom   28 type  1   force =     0.00000000    0.00000000    0.00000000
     atom   29 type  1   force =     0.00000000    0.00000000    0.00000000
     atom   30 type  1   force =     0.00000000    0.00000000    0.00000000
     atom   31 type  1   force =     0.00000000    0.00000000    0.00000000
     atom   32 type  1   force =     0.00000000    0.00000000    0.00000000
     atom   33 type  1   force =     0.00000000    0.00000000    0.00000000
     atom   34 type  1   force =     0.00000000    0.00000000    0.00000000
     atom   35 type  1   force =     0.00000000    0.00000000    0.00000000
     atom   36 type  1   force =     0.00000000    0.00000000    0.00000000
     atom   37 type  1   force =     0.00000000    0.00000000    0.00000000
     atom   38 type  1   force =     0.00000000    0.00000000    0.00000000
     atom   39 type  1   force =     0.00000000    0.00000000    0.00000000
     atom   40 type  1   force =     0.00000000    0.00000000    0.00000000
     atom   41 type  1   force =     0.00000000    0.00000000    0.00000000
     atom   42 type  1   force =     0.00000000    0.00000000    0.00000000
     atom   43 type  1   force =     0.00000000    0.00000000    0.00000000
     atom   44 type  1   force =     0.00000000    0.00000000    0.00000000
     atom   45 type  1   force =     0.00000000    0.00000000    0.00000000
     atom   46 type  1   force =     0.00000000    0.00000000    0.00000000
     atom   47 type  1   force =     0.00000000    0.00000000    0.00000000
     atom   48 type  1   force =     0.00000000    0.00000000    0.00000000
     atom   49 type  1   force =     0.00000000    0.00000000    0.00000000
     atom   50 type  1   force =     0.00000000    0.00000000    0.00000000
     atom   51 type  1   force =     0.00000000    0.00000000    0.00000000
     atom   52 type  1   force =     0.00000000    0.00000000    0.00000000
     atom   53 type  1   force =     0.00000000    0.00000000    0.00000000
     atom   54 type  1   force =     0.00000000    0.00000000    0.00000000
     atom   55 type  1   force =     0.00000000    0.00000000    0.00000000
     atom   56 type  1   force =     0.00000000    0.00000000    0.00000000
     atom   57 type  1   force =     0.00000000    0.00000000    0.00000000
     atom   58 type  1   force =     0.00000000    0.00000000    0.00000000
     atom   59 type  1   force =     0.00000000    0.00000000    0.00000000
     atom   60 type  1   force =     0.00000000    0.00000000    0.00000000
[...]
     atom  178 type  2   force =     0.00000000    0.00000000    0.00000000
     atom  179 type  2   force =     0.00000000    0.00000000    0.00000000
     atom  180 type  2   force =     0.00000000    0.00000000    0.00000000
     atom  181 type  2   force =     0.00000000    0.00000000    0.00000000
     atom  182 type  2   force =     0.00000000    0.00000000    0.00000000
     atom  183 type  2   force =     0.00000000    0.00000000    0.00000000
     atom  184 type  2   force =     0.00000000    0.00000000    0.00000000
     atom  185 type  2   force =     0.00000000    0.00000000    0.00000000
     atom  186 type  2   force =     0.00000000    0.00000000    0.00000000
     atom  187 type  2   force =     0.00000000    0.00000000    0.00000000
     atom  188 type  2   force =     0.00000000    0.00000000    0.00000000
     atom  189 type  2   force =     0.00000000    0.00000000    0.00000000
     atom  190 type  2   force =     0.00000000    0.00000000    0.00000000
     atom  191 type  2   force =     0.00000000    0.00000000    0.00000000
     atom  192 type  2   force =     0.00000000    0.00000000    0.00000000
     The SCF correction term to forces
     atom    1 type  1   force =    -0.00003300   -0.00001905    0.00002706
     atom    2 type  1   force =    -0.00003005   -0.00001735    0.00010571
     atom    3 type  1   force =    -0.00002930   -0.00001691   -0.00015657
     atom    4 type  1   force =     0.00000000   -0.00010573    0.00004650
     atom    5 type  1   force =     0.00000000   -0.00008580    0.00010391
     atom    6 type  1   force =     0.00000000   -0.00009169   -0.00016021
     atom    7 type  1   force =    -0.00006084   -0.00003513    0.00006624
     atom    8 type  1   force =    -0.00004126   -0.00002382    0.00010817
     atom    9 type  1   force =    -0.00005534   -0.00003195   -0.00015882
     atom   10 type  1   force =    -0.00009157    0.00005287    0.00004650
     atom   11 type  1   force =    -0.00007430    0.00004290    0.00010391
     atom   12 type  1   force =    -0.00007941    0.00004585   -0.00016021
     atom   13 type  1   force =    -0.00003405    0.00004518    0.00004212
     atom   14 type  1   force =    -0.00003236    0.00003012    0.00010870
     atom   15 type  1   force =    -0.00003317    0.00003797   -0.00015761
     atom   16 type  1   force =     0.00002210   -0.00005208    0.00004212
     atom   17 type  1   force =     0.00000990   -0.00004308    0.00010870
     atom   18 type  1   force =     0.00001629   -0.00004771   -0.00015761
     atom   19 type  1   force =     0.00006084   -0.00003513    0.00006624
     atom   20 type  1   force =     0.00004126   -0.00002382    0.00010817
     atom   21 type  1   force =     0.00005534   -0.00003195   -0.00015882
     atom   22 type  1   force =     0.00000000    0.00007025    0.00006624
     atom   23 type  1   force =     0.00000000    0.00004765    0.00010817
     atom   24 type  1   force =     0.00000000    0.00006391   -0.00015882
     atom   25 type  1   force =     0.00003405    0.00004518    0.00004212
     atom   26 type  1   force =     0.00003236    0.00003012    0.00010870
     atom   27 type  1   force =     0.00003317    0.00003797   -0.00015761
     atom   28 type  1   force =    -0.00000000    0.00000000    0.00004191
     atom   29 type  1   force =     0.00000000   -0.00000000    0.00011666
     atom   30 type  1   force =     0.00000000   -0.00000000   -0.00015249
     atom   31 type  1   force =     0.00005615    0.00000690    0.00004212
     atom   32 type  1   force =     0.00004226    0.00001297    0.00010870
     atom   33 type  1   force =     0.00004947    0.00000975   -0.00015761
     atom   34 type  1   force =     0.00009157    0.00005287    0.00004650
     atom   35 type  1   force =     0.00007430    0.00004290    0.00010391
     atom   36 type  1   force =     0.00007941    0.00004584   -0.00016021
     atom   37 type  1   force =     0.00003300   -0.00001905    0.00002706
     atom   38 type  1   force =     0.00003005   -0.00001735    0.00010571
     atom   39 type  1   force =     0.00002930   -0.00001691   -0.00015657
     atom   40 type  1   force =    -0.00002210   -0.00005208    0.00004212
     atom   41 type  1   force =    -0.00000990   -0.00004308    0.00010870
     atom   42 type  1   force =    -0.00001629   -0.00004771   -0.00015761
     atom   43 type  1   force =    -0.00005615    0.00000690    0.00004212
     atom   44 type  1   force =    -0.00004226    0.00001297    0.00010870
     atom   45 type  1   force =    -0.00004947    0.00000975   -0.00015761
     atom   46 type  1   force =    -0.00000000    0.00003811    0.00002706
     atom   47 type  1   force =    -0.00000000    0.00003470    0.00010571
     atom   48 type  1   force =     0.00000000    0.00003383   -0.00015657
     atom   49 type  1   force =    -0.00000000   -0.00004468    0.00015677
     atom   50 type  1   force =     0.00000000   -0.00005161   -0.00005252
     atom   51 type  1   force =     0.00000000   -0.00006147   -0.00010631
     atom   52 type  1   force =    -0.00003580   -0.00006735    0.00016645
     atom   53 type  1   force =    -0.00003731   -0.00007051   -0.00004424
     atom   54 type  1   force =    -0.00004506   -0.00008540   -0.00011149
     atom   55 type  1   force =    -0.00007623    0.00000268    0.00016645
     atom   56 type  1   force =    -0.00007972    0.00000295   -0.00004424
     atom   57 type  1   force =    -0.00009649    0.00000368   -0.00011149
     atom   58 type  1   force =    -0.00003870    0.00002234    0.00015677
     atom   59 type  1   force =    -0.00004470    0.00002581   -0.00005252
     atom   60 type  1   force =    -0.00005324    0.00003074   -0.00010631
[...]
     atom  178 type  2   force =     0.00002384    0.00003525    0.00001158
     atom  179 type  2   force =     0.00001962    0.00002715    0.00005549
     atom  180 type  2   force =     0.00002005    0.00002853   -0.00006832
     atom  181 type  2   force =     0.00000610   -0.00000352    0.00000996
     atom  182 type  2   force =     0.00000698   -0.00000403    0.00005747
     atom  183 type  2   force =     0.00000639   -0.00000369   -0.00006543
     atom  184 type  2   force =    -0.00001732   -0.00001000    0.00001085
     atom  185 type  2   force =    -0.00001080   -0.00000623    0.00005836
     atom  186 type  2   force =    -0.00001317   -0.00000761   -0.00006618
     atom  187 type  2   force =     0.00000000    0.00000705    0.00000996
     atom  188 type  2   force =     0.00000000    0.00000806    0.00005747
     atom  189 type  2   force =     0.00000000    0.00000737   -0.00006543
     atom  190 type  2   force =     0.00002325    0.00001342    0.00000684
     atom  191 type  2   force =     0.00001935    0.00001117    0.00005760
     atom  192 type  2   force =     0.00002015    0.00001163   -0.00006480

     Total force =     0.002020     Total SCF correction =     0.001382
     SCF correction compared to forces is large: reduce conv_thr to get better values

     Computing stress (Cartesian axis) and pressure

[...]

          total   stress  (Ry/bohr**3)                   (kbar)     P=        1.05
   0.00000369  -0.00000000   0.00000000            0.54       -0.00        0.00
   0.00000000   0.00000369   0.00000000            0.00        0.54        0.00
   0.00000000   0.00000000   0.00001400            0.00        0.00        2.06

     kinetic stress (kbar)  18449.39      0.00      0.00
                                0.00  18449.39      0.00
                                0.00     -0.00  18443.60

     local   stress (kbar)   5446.87     -0.07     -0.00
                               -0.07   5446.78      0.00
                               -0.00      0.00   3812.10

     nonloc. stress (kbar)     61.27     -0.00      0.00
                                0.00     61.27      0.00
                                0.00     -0.00     73.32

     hartree stress (kbar)  19596.18      0.00     -0.00
                                0.00  19596.18     -0.00
                               -0.00     -0.00  20346.04

     exc-cor stress (kbar)   5218.05      0.00      0.00
                                0.00   5218.05     -0.00
                                0.00     -0.00   5218.26

     corecor stress (kbar) -14110.27     -0.00     -0.00
                               -0.00 -14110.27      0.00
                               -0.00      0.00 -14109.68

     ewald   stress (kbar) -34823.05      0.10      0.00
                                0.10 -34822.93     -0.00
                                0.00     -0.00 -33942.83

     hubbard stress (kbar)      0.00      0.00      0.00
                                0.00      0.00      0.00
                                0.00      0.00      0.00

     DFT-D   stress (kbar)      0.00      0.00      0.00
                                0.00      0.00      0.00
                                0.00      0.00      0.00

     XDM     stress (kbar)      0.00      0.00      0.00
                                0.00      0.00      0.00
                                0.00      0.00      0.00

     dft-nl  stress (kbar)    162.09     -0.00     -0.00
                               -0.00    162.09      0.00
                               -0.00      0.00    161.24

     TS-vdW  stress (kbar)      0.00      0.00      0.00
                                0.00      0.00      0.00
                                0.00      0.00      0.00

     MDB     stress (kbar)      0.00      0.00      0.00
                                0.00      0.00      0.00
                                0.00      0.00      0.00

     3D-RISM stress (kbar)      0.00      0.00      0.00
                                0.00      0.00      0.00
                                0.00      0.00      0.00

[...]

     Non-local corr. energy    =      52.32435176 Ry

 BEEFens 2000 ensemble energies
             -0.423400102117873E+02
             -0.381207835280666E+03
             -0.163958980968070E+03
              0.134147726034481E+03
             -0.274081628268391E+03
             -0.352501209860965E+03
              0.181128580444675E+03
             -0.190829861172824E+02
              0.301950880060544E+03
             -0.130437781666110E+02
              0.148121828931283E+03
              0.614775005742172E+01
              0.608314395956404E+01
             -0.129347264911371E+02
              0.197623682742279E+03
             -0.143891900148964E+03
             -0.296571769934037E+03
             -0.969115457998300E+02
              0.724167940074807E+02
             -0.649911795593334E+01
              0.432870616623631E+03
              0.368410044644720E+03
             -0.210892777983740E+03
              0.763655469353216E+02
             -0.462390512438932E+03
              0.370757908260525E+03
              0.121082776403026E+03
              0.360447081621787E+03
              0.236842523055181E+03
             -0.115279616193513E+03
              0.872560906691737E+02
             -0.170325258441185E+03
              0.476610552967210E+02
              0.231729509960693E+03
              0.245732439155474E+03
             -0.887628006254179E+02
              0.545868021180833E+03
             -0.207182066930660E+03
             -0.149145804529879E+03
              0.218769415063118E+03
              0.978535394791720E+02
              0.163749017899614E+03
             -0.312094992800932E+03
             -0.875499385430294E+01
              0.306361021722635E+03
              0.397944106550024E+03
             -0.396165743846822E+03
              0.282177898031752E+02
              0.149370526766937E+03
              0.727308015045169E+02
              0.165658558327100E+03
              0.350894552970293E+03
             -0.212116492304891E+03
             -0.232534850450063E+03
             -0.302343599221948E+03
             -0.467859832104082E+02
             -0.275783099624654E+03
              0.270068542476417E+02
             -0.510469200212369E+02
             -0.214932439240211E+03
[...]
              0.268230385030907E+03
              0.148187310636083E+03
              0.188282688909678E+03
             -0.304292544172535E+03
             -0.291322300367372E+03
             -0.736920548397297E+02
             -0.285535948812998E+03
              0.457128401800148E+03
              0.391778636596071E+03
              0.187215960947327E+03
              0.506983686682040E+03
             -0.263853608985554E+03
             -0.107516866833787E+03
             -0.149596347226374E+03
              0.419351631853230E+03

 BEEF-vdW xc energy contributions
            1 :    -3843.177786520720
            2 :     3461.619193916375
            3 :    -2822.358010223345
            4 :     2112.497177617918
            5 :    -1496.688505880226
            6 :     1054.509340386450
            7 :    -771.5606177631553
            8 :     580.1207421802465
            9 :    -416.6088223954184
           10 :     258.4890858644794
           11 :    -122.9143756468011
           12 :     37.44632340688577
           13 :    -9.785338655374289
           14 :     18.92773640378709
           15 :    -30.69740825416466
           16 :     22.08501330248782
           17 :     5.514489893791506
           18 :    -32.96142131104079
           19 :     42.39650812609489
           20 :    -32.47999702221114
           21 :     18.44332248654609
           22 :    -18.57814646090810
           23 :     39.20378990238169
           24 :    -70.17136452711839
           25 :     93.57566693790068
           26 :    -97.74526610469184
           27 :     85.15309870932742
           28 :    -68.67423446197063
           29 :     60.26580342263651
           30 :    -61.73329585975716
           31 :    -329.2863734583852
           32 :    -225.6474915759700

     Writing all to output data dir ./GaN.save/

     General routines

     Parallel routines

     PAW routines

   This run was terminated on:   7:14:36  18Feb2024

   JOB DONE.