     Program PWSCF v.7.1 starts on 17Feb2024 at 11:58:42

     Reading input from espresso.pwi
Warning: card &CELL ignored
Warning: card    CELL_DYNAMICS    = 'BFGS' ignored
Warning: card / ignored

     Current dimensions of program PWSCF are:
     Max number of different atomic species (ntypx) = 10
     Max number of k-points (npk) =  40000
     Max angular momentum in pseudopotentials (lmaxx) =  4
     file Pb.pbe-dn-kjpaw_psl.1.0.0.UPF: wavefunction(s)  6S 6P 5D renormalized
     file I.pbe-dn-kjpaw_psl.1.0.0.UPF: wavefunction(s)  5S 5P renormalized

     IMPORTANT: XC functional enforced from input :
     Exchange-correlation= BEEF-VDW
                           (   1   4  43  14   2   0   0)
     Any further DFT definition will be discarded
     Please, verify this is what you really want

     K-points division:     npool     =       2
     R & G space division:  proc/nbgrp/npool/nimage =      64
     Subspace diagonalization in iterative solution of the eigenvalue problem:
     a serial algorithm will be used

     Using Slab Decomposition

     bravais-lattice index     =            4
     lattice parameter (alat)  =      26.7090  a.u.
     unit-cell volume          =   17226.5091 (a.u.)^3
     number of atoms/cell      =           54
     number of atomic types    =            2
     number of electrons       =       865.00
     number of Kohn-Sham states=          520
     kinetic-energy cutoff     =      70.0000  Ry
     charge density cutoff     =     350.0000  Ry
     scf convergence threshold =      1.0E-07
     mixing beta               =       0.7000
     number of iterations used =            8  plain     mixing
     energy convergence thresh.=      1.0E-04
     force convergence thresh. =      1.0E-03
     Exchange-correlation= BEEF-VDW
                           (   1   4  43  14   2   0   0)
     nstep                     =           50

     celldm(1)=  26.709025  celldm(2)=   0.000000  celldm(3)=   1.043981
     celldm(4)=   0.000000  celldm(5)=   0.000000  celldm(6)=   0.000000

     crystal axes: (cart. coord. in units of alat)
               a(1) = (   1.000000   0.000000   0.000000 )
               a(2) = (  -0.500000   0.866025   0.000000 )
               a(3) = (   0.000000   0.000000   1.043981 )

     reciprocal axes: (cart. coord. in units 2 pi/alat)
               b(1) = (  1.000000  0.577350 -0.000000 )
               b(2) = (  0.000000  1.154701  0.000000 )
               b(3) = (  0.000000 -0.000000  0.957872 )

     PseudoPot. # 1 for Pb read from file:
     /trace/group/acmegroup/atimmins/packages/espresso/pseudo/psl_1.0.0/pslibrary.1.0.0/pbe/PSEUDOPOTENTIALS/Pb.pbe-dn-kjpaw_psl.1.0.0.UPF
     MD5 check sum: 39ab5b8a6bbd56b7735ad9f188aac93a
     Pseudo is Projector augmented-wave + core cor, Zval = 14.0
     Generated using 'atomic' code by A. Dal Corso  v.7.1
     Shape of augmentation charge: PSQ
     Using radial grid of 1281 points,  6 beta functions with:
                l(1) =   0
                l(2) =   0
                l(3) =   1
                l(4) =   1
                l(5) =   2
                l(6) =   2
     Q(r) pseudized with 0 coefficients

     PseudoPot. # 2 for I  read from file:
     /trace/group/acmegroup/atimmins/packages/espresso/pseudo/psl_1.0.0/pslibrary.1.0.0/pbe/PSEUDOPOTENTIALS/I.pbe-dn-kjpaw_psl.1.0.0.UPF
     MD5 check sum: bfa8781bc1224d19af3f3980e3fab11e
     Pseudo is Projector augmented-wave + core cor, Zval = 17.0
     Generated using 'atomic' code by A. Dal Corso  v.7.1
     Shape of augmentation charge: PSQ
     Using radial grid of 1247 points,  6 beta functions with:
                l(1) =   0
                l(2) =   0
                l(3) =   1
                l(4) =   1
                l(5) =   2
                l(6) =   2
     Q(r) pseudized with 0 coefficients

     atomic species   valence    mass     pseudopotential
        Pb            14.00   207.20000     Pb( 1.00)
        I             17.00   126.90447     I ( 1.00)

     No symmetry found

                                    s                        frac. trans.

      isym =  1     identity

 cryst.   s( 1) = (     1          0          0      )
                  (     0          1          0      )
                  (     0          0          1      )

 cart.    s( 1) = (  1.0000000  0.0000000  0.0000000 )
                  (  0.0000000  1.0000000  0.0000000 )
                  (  0.0000000  0.0000000  1.0000000 )

     point group C_1 (1)
     there are  1 classes
     the character table:

       E
A      1.00

     the symmetry operations in each class and the name of the first element:

     E        1
          identity

   Cartesian axes

     site n.     atom                  positions (alat units)
         1           Pb  tau(   1) = (   0.1666712   0.2886557   0.5219862  )
         2           Pb  tau(   2) = (   0.0000102   0.5773235   1.0439712  )
         3           Pb  tau(   3) = (   0.0000034   0.5773295   0.5219807  )
         4           Pb  tau(   4) = (  -0.1666576   0.8659973   1.0439657  )
         5           Pb  tau(   5) = (  -0.1666644   0.8660033   0.5219752  )
         6           Pb  tau(   6) = (   0.5000113   0.2886484   1.0439810  )
         7           Pb  tau(   7) = (   0.5000045   0.2886544   0.5219905  )
         8           Pb  tau(   8) = (   0.3333436   0.5773222   1.0439755  )
         9           Pb  tau(   9) = (   0.3333367   0.5773282   0.5219850  )
        10           Pb  tau(  10) = (   0.1666758   0.8659960   1.0439700  )
        11           Pb  tau(  11) = (   0.1666690   0.8660020   0.5219795  )
        12           Pb  tau(  12) = (   0.8333447   0.2886471   1.0439853  )
        13           Pb  tau(  13) = (   0.8333379   0.2886531   0.5219949  )
        14           Pb  tau(  14) = (   0.6666769   0.5773209   1.0439798  )
        15           Pb  tau(  15) = (   0.6666701   0.5773269   0.5219894  )
        16           Pb  tau(  16) = (   0.5000091   0.8659947   1.0439743  )
        17           Pb  tau(  17) = (   0.5000023   0.8660007   0.5219839  )
        18           I   tau(  18) = (   0.1666738   0.0962066   0.3879099  )
        19           I   tau(  19) = (   0.1666806   0.0962006   0.9099004  )
        20           I   tau(  20) = (   0.0000060   0.3848804   0.3879044  )
        21           I   tau(  21) = (   0.0000129   0.3848744   0.9098949  )
        22           I   tau(  22) = (  -0.1666617   0.6735542   0.3878990  )
        23           I   tau(  23) = (  -0.1666549   0.6735482   0.9098894  )
        24           I   tau(  24) = (   0.5000071   0.0962053   0.3879143  )
        25           I   tau(  25) = (   0.5000140   0.0961993   0.9099047  )
        26           I   tau(  26) = (   0.3333394   0.3848792   0.3879088  )
        27           I   tau(  27) = (   0.3333462   0.3848731   0.9098993  )
        28           I   tau(  28) = (   0.1666716   0.6735530   0.3879033  )
        29           I   tau(  29) = (   0.1666784   0.6735469   0.9098938  )
        30           I   tau(  30) = (   0.8333405   0.0962041   0.3879186  )
        31           I   tau(  31) = (   0.8333473   0.0961980   0.9099091  )
        32           I   tau(  32) = (   0.6666727   0.3848779   0.3879131  )
        33           I   tau(  33) = (   0.6666795   0.3848718   0.9099036  )
        34           I   tau(  34) = (   0.5000049   0.6735517   0.3879076  )
        35           I   tau(  35) = (   0.5000117   0.6735457   0.9098981  )
        36           I   tau(  36) = (  -0.0000023   0.1924396   0.1340740  )
        37           I   tau(  37) = (   0.0000045   0.1924336   0.6560644  )
        38           I   tau(  38) = (  -0.1666701   0.4811134   0.1340685  )
        39           I   tau(  39) = (  -0.1666632   0.4811074   0.6560589  )
        40           I   tau(  40) = (  -0.3333378   0.7697873   0.1340630  )
        41           I   tau(  41) = (  -0.3333310   0.7697812   0.6560534  )
        42           I   tau(  42) = (   0.3333311   0.1924384   0.1340783  )
        43           I   tau(  43) = (   0.3333379   0.1924323   0.6560688  )
        44           I   tau(  44) = (   0.1666633   0.4811122   0.1340728  )
        45           I   tau(  45) = (   0.1666701   0.4811061   0.6560633  )
        46           I   tau(  46) = (  -0.0000045   0.7697860   0.1340673  )
        47           I   tau(  47) = (   0.0000023   0.7697799   0.6560578  )
        48           I   tau(  48) = (   0.6666644   0.1924371   0.1340827  )
        49           I   tau(  49) = (   0.6666712   0.1924310   0.6560731  )
        50           I   tau(  50) = (   0.4999966   0.4811109   0.1340772  )
        51           I   tau(  51) = (   0.5000034   0.4811049   0.6560676  )
        52           I   tau(  52) = (   0.3333288   0.7697847   0.1340717  )
        53           I   tau(  53) = (   0.3333356   0.7697787   0.6560621  )
        54           I   tau(  54) = (   0.1666780   0.2886497   1.0439767  )

   Crystallographic axes

     site n.     atom                  positions (cryst. coord.)
         1           Pb  tau(   1) = (  0.3333266  0.3333109  0.4999959  )
         2           Pb  tau(   2) = (  0.3333281  0.6666357  0.9999906  )
         3           Pb  tau(   3) = (  0.3333248  0.6666427  0.4999906  )
         4           Pb  tau(   4) = (  0.3333262  0.9999675  0.9999854  )
         5           Pb  tau(   5) = (  0.3333229  0.9999745  0.4999854  )
         6           Pb  tau(   6) = (  0.6666626  0.3333025  1.0000001  )
         7           Pb  tau(   7) = (  0.6666592  0.3333094  0.5000001  )
         8           Pb  tau(   8) = (  0.6666607  0.6666343  0.9999948  )
         9           Pb  tau(   9) = (  0.6666573  0.6666412  0.4999948  )
        10           Pb  tau(  10) = (  0.6666588  0.9999661  0.9999895  )
        11           Pb  tau(  11) = (  0.6666555  0.9999730  0.4999895  )
        12           Pb  tau(  12) = (  0.9999951  0.3333010  1.0000042  )
        13           Pb  tau(  13) = (  0.9999918  0.3333079  0.5000042  )
        14           Pb  tau(  14) = (  0.9999933  0.6666328  0.9999990  )
        15           Pb  tau(  15) = (  0.9999899  0.6666397  0.4999990  )
        16           Pb  tau(  16) = (  0.9999914  0.9999646  0.9999937  )
        17           Pb  tau(  17) = (  0.9999881  0.9999715  0.4999937  )
        18           I   tau(  18) = (  0.2222187  0.1110899  0.3715680  )
        19           I   tau(  19) = (  0.2222221  0.1110829  0.8715680  )
        20           I   tau(  20) = (  0.2222169  0.4444217  0.3715628  )
        21           I   tau(  21) = (  0.2222202  0.4444147  0.8715628  )
        22           I   tau(  22) = (  0.2222150  0.7777534  0.3715575  )
        23           I   tau(  23) = (  0.2222183  0.7777465  0.8715575  )
        24           I   tau(  24) = (  0.5555513  0.1110884  0.3715722  )
        25           I   tau(  25) = (  0.5555547  0.1110814  0.8715722  )
        26           I   tau(  26) = (  0.5555495  0.4444202  0.3715669  )
        27           I   tau(  27) = (  0.5555528  0.4444132  0.8715669  )
        28           I   tau(  28) = (  0.5555476  0.7777520  0.3715617  )
[...]
     atom   38 type  2   force =     0.00076756   -0.00032332    0.00599244
     atom   39 type  2   force =    -0.00010070   -0.00007837    0.00513798
     atom   40 type  2   force =    -0.00017110    0.00006634    0.00524238
     atom   41 type  2   force =    -0.00009303   -0.00005170    0.00483446
     atom   42 type  2   force =    -0.00171019    0.00071200    0.00495265
     atom   43 type  2   force =     0.00000601   -0.00010276    0.00501024
     atom   44 type  2   force =    -0.00046397    0.00263327    0.00596704
     atom   45 type  2   force =    -0.00018164    0.00009748    0.00507563
     atom   46 type  2   force =     0.00075293   -0.00085749    0.00571655
     atom   47 type  2   force =    -0.00004659   -0.00005637    0.00513814
     atom   48 type  2   force =     0.00121691   -0.00012045    0.00571607
     atom   49 type  2   force =    -0.00016594    0.00007333    0.00511246
     atom   50 type  2   force =    -0.00029865   -0.00004628    0.00539867
     atom   51 type  2   force =     0.00018460    0.00032243    0.00486903
     atom   52 type  2   force =    -0.00082017    0.00041455    0.00621619
     atom   53 type  2   force =    -0.00017913   -0.00010827    0.00507247
     atom   54 type  2   force =    -0.00007842   -0.00006332   -0.00000469
     The Hubbard contrib.    to forces
     atom    1 type  1   force =     0.00000000    0.00000000    0.00000000
     atom    2 type  1   force =     0.00000000    0.00000000    0.00000000
     atom    3 type  1   force =     0.00000000    0.00000000    0.00000000
     atom    4 type  1   force =     0.00000000    0.00000000    0.00000000
     atom    5 type  1   force =     0.00000000    0.00000000    0.00000000
     atom    6 type  1   force =     0.00000000    0.00000000    0.00000000
     atom    7 type  1   force =     0.00000000    0.00000000    0.00000000
     atom    8 type  1   force =     0.00000000    0.00000000    0.00000000
     atom    9 type  1   force =     0.00000000    0.00000000    0.00000000
     atom   10 type  1   force =     0.00000000    0.00000000    0.00000000
     atom   11 type  1   force =     0.00000000    0.00000000    0.00000000
     atom   12 type  1   force =     0.00000000    0.00000000    0.00000000
     atom   13 type  1   force =     0.00000000    0.00000000    0.00000000
     atom   14 type  1   force =     0.00000000    0.00000000    0.00000000
     atom   15 type  1   force =     0.00000000    0.00000000    0.00000000
     atom   16 type  1   force =     0.00000000    0.00000000    0.00000000
     atom   17 type  1   force =     0.00000000    0.00000000    0.00000000
     atom   18 type  2   force =     0.00000000    0.00000000    0.00000000
     atom   19 type  2   force =     0.00000000    0.00000000    0.00000000
     atom   20 type  2   force =     0.00000000    0.00000000    0.00000000
     atom   21 type  2   force =     0.00000000    0.00000000    0.00000000
     atom   22 type  2   force =     0.00000000    0.00000000    0.00000000
     atom   23 type  2   force =     0.00000000    0.00000000    0.00000000
     atom   24 type  2   force =     0.00000000    0.00000000    0.00000000
     atom   25 type  2   force =     0.00000000    0.00000000    0.00000000
     atom   26 type  2   force =     0.00000000    0.00000000    0.00000000
     atom   27 type  2   force =     0.00000000    0.00000000    0.00000000
     atom   28 type  2   force =     0.00000000    0.00000000    0.00000000
     atom   29 type  2   force =     0.00000000    0.00000000    0.00000000
     atom   30 type  2   force =     0.00000000    0.00000000    0.00000000
     atom   31 type  2   force =     0.00000000    0.00000000    0.00000000
     atom   32 type  2   force =     0.00000000    0.00000000    0.00000000
     atom   33 type  2   force =     0.00000000    0.00000000    0.00000000
     atom   34 type  2   force =     0.00000000    0.00000000    0.00000000
     atom   35 type  2   force =     0.00000000    0.00000000    0.00000000
     atom   36 type  2   force =     0.00000000    0.00000000    0.00000000
     atom   37 type  2   force =     0.00000000    0.00000000    0.00000000
     atom   38 type  2   force =     0.00000000    0.00000000    0.00000000
     atom   39 type  2   force =     0.00000000    0.00000000    0.00000000
     atom   40 type  2   force =     0.00000000    0.00000000    0.00000000
     atom   41 type  2   force =     0.00000000    0.00000000    0.00000000
     atom   42 type  2   force =     0.00000000    0.00000000    0.00000000
     atom   43 type  2   force =     0.00000000    0.00000000    0.00000000
     atom   44 type  2   force =     0.00000000    0.00000000    0.00000000
     atom   45 type  2   force =     0.00000000    0.00000000    0.00000000
     atom   46 type  2   force =     0.00000000    0.00000000    0.00000000
     atom   47 type  2   force =     0.00000000    0.00000000    0.00000000
     atom   48 type  2   force =     0.00000000    0.00000000    0.00000000
     atom   49 type  2   force =     0.00000000    0.00000000    0.00000000
     atom   50 type  2   force =     0.00000000    0.00000000    0.00000000
     atom   51 type  2   force =     0.00000000    0.00000000    0.00000000
     atom   52 type  2   force =     0.00000000    0.00000000    0.00000000
     atom   53 type  2   force =     0.00000000    0.00000000    0.00000000
     atom   54 type  2   force =     0.00000000    0.00000000    0.00000000
     The SCF correction term to forces
     atom    1 type  1   force =     0.00001049   -0.00000028   -0.00000046
     atom    2 type  1   force =    -0.00000775    0.00000800   -0.00001457
     atom    3 type  1   force =    -0.00000851   -0.00000372    0.00000619
     atom    4 type  1   force =    -0.00000076    0.00000212   -0.00000281
     atom    5 type  1   force =    -0.00000694    0.00000036    0.00000590
     atom    6 type  1   force =    -0.00000144   -0.00000086   -0.00000877
     atom    7 type  1   force =    -0.00000438    0.00001024    0.00000213
     atom    8 type  1   force =     0.00000795    0.00000078   -0.00000908
     atom    9 type  1   force =     0.00001140   -0.00001144    0.00000114
     atom   10 type  1   force =    -0.00000318    0.00000053   -0.00000525
     atom   11 type  1   force =    -0.00000396    0.00000151    0.00000409
     atom   12 type  1   force =    -0.00001080   -0.00000060   -0.00000526
     atom   13 type  1   force =    -0.00000610    0.00001298    0.00000406
     atom   14 type  1   force =     0.00000005    0.00000420   -0.00000614
     atom   15 type  1   force =    -0.00000400   -0.00000099    0.00000783
     atom   16 type  1   force =     0.00000245   -0.00000575   -0.00000927
     atom   17 type  1   force =     0.00001277   -0.00000791    0.00000499
     atom   18 type  2   force =     0.00000797   -0.00000118    0.00000430
     atom   19 type  2   force =     0.00000542    0.00000370    0.00000506
     atom   20 type  2   force =     0.00000054    0.00000179    0.00001002
     atom   21 type  2   force =     0.00000111    0.00000986   -0.00000069
     atom   22 type  2   force =    -0.00001149   -0.00000178    0.00000753
     atom   23 type  2   force =    -0.00000060   -0.00000583   -0.00000504
     atom   24 type  2   force =    -0.00000971    0.00001138    0.00000209
     atom   25 type  2   force =    -0.00000086   -0.00000316   -0.00000004
     atom   26 type  2   force =     0.00000851   -0.00000005    0.00001118
     atom   27 type  2   force =     0.00000334   -0.00000296   -0.00000469
     atom   28 type  2   force =     0.00000512   -0.00000698    0.00000382
     atom   29 type  2   force =    -0.00000246    0.00000456   -0.00000240
     atom   30 type  2   force =     0.00000061    0.00000208   -0.00000194
     atom   31 type  2   force =    -0.00000161   -0.00000532    0.00000421
     atom   32 type  2   force =    -0.00000912    0.00000822    0.00000993
     atom   33 type  2   force =    -0.00000521    0.00000721   -0.00000530
     atom   34 type  2   force =     0.00000870   -0.00001228    0.00000583
     atom   35 type  2   force =     0.00000217   -0.00000523   -0.00000348
     atom   36 type  2   force =     0.00001196   -0.00000347   -0.00000909
     atom   37 type  2   force =     0.00000799   -0.00000038    0.00000379
     atom   38 type  2   force =    -0.00001582    0.00000956   -0.00000397
     atom   39 type  2   force =    -0.00001027    0.00000801   -0.00000049
     atom   40 type  2   force =     0.00000508   -0.00000392   -0.00000534
     atom   41 type  2   force =     0.00000354   -0.00000931   -0.00000102
     atom   42 type  2   force =    -0.00000640   -0.00000754   -0.00000696
     atom   43 type  2   force =     0.00000220    0.00000532   -0.00000142
     atom   44 type  2   force =     0.00000722   -0.00001349   -0.00000962
     atom   45 type  2   force =     0.00000760   -0.00000413    0.00000142
     atom   46 type  2   force =    -0.00000782    0.00001269   -0.00001029
     atom   47 type  2   force =    -0.00001250   -0.00000083    0.00000955
     atom   48 type  2   force =    -0.00000483   -0.00000062   -0.00000739
     atom   49 type  2   force =    -0.00001044    0.00001386    0.00000588
     atom   50 type  2   force =     0.00000388    0.00000403   -0.00000122
     atom   51 type  2   force =     0.00000423   -0.00000123   -0.00000411
     atom   52 type  2   force =     0.00000550   -0.00000004   -0.00000845
     atom   53 type  2   force =     0.00000813   -0.00000989    0.00001033
     atom   54 type  2   force =     0.00001195   -0.00000630   -0.00001150

     Total force =     0.002805     Total SCF correction =     0.000087

     Computing stress (Cartesian axis) and pressure

     Non-local corr. energy    =      26.19354984 Ry

          total   stress  (Ry/bohr**3)                   (kbar)     P=      -11.41
  -0.00007459  -0.00000580   0.00000369          -10.97       -0.85        0.54
  -0.00000580  -0.00008057  -0.00000185           -0.85      -11.85       -0.27
   0.00000369  -0.00000185  -0.00007760            0.54       -0.27      -11.42

     kinetic stress (kbar)  14862.58     -5.44      6.15
                               -5.44  14856.46     -3.55
                                6.15     -3.55  14868.42

     local   stress (kbar)  -7283.37   -310.88    301.76
                             -310.88  -7644.31   -182.60
                              301.76   -182.60   1140.57

     nonloc. stress (kbar)   -889.27     -4.51      6.42
                               -4.51   -894.45     -3.72
                                6.42     -3.72   -899.08

     hartree stress (kbar)  12044.77    120.94   -120.56
                              120.94  12185.19     72.90
                             -120.56     72.90   8228.75

     exc-cor stress (kbar)   7015.30      0.22     -0.05
                                0.22   7015.55      0.04
                               -0.05      0.04   7014.47

     corecor stress (kbar) -11401.81      0.11     -0.16
                                0.11 -11401.68      0.09
                               -0.16      0.09 -11401.62

     ewald   stress (kbar) -14443.55    198.81   -193.08
                              198.81 -14212.87    116.61
                             -193.08    116.61 -19048.47

     hubbard stress (kbar)      0.00      0.00      0.00
                                0.00      0.00      0.00
                                0.00      0.00      0.00

     DFT-D   stress (kbar)      0.00      0.00      0.00
                                0.00      0.00      0.00
                                0.00      0.00      0.00

     XDM     stress (kbar)      0.00      0.00      0.00
                                0.00      0.00      0.00
                                0.00      0.00      0.00

     dft-nl  stress (kbar)     84.38     -0.10      0.05
                               -0.10     84.26     -0.04
                                0.05     -0.04     85.54

     TS-vdW  stress (kbar)      0.00      0.00      0.00
                                0.00      0.00      0.00
                                0.00      0.00      0.00

     MDB     stress (kbar)      0.00      0.00      0.00
                                0.00      0.00      0.00
                                0.00      0.00      0.00

     3D-RISM stress (kbar)      0.00      0.00      0.00
                                0.00      0.00      0.00
                                0.00      0.00      0.00

     Energy error            =      2.3E-05 Ry
     Gradient error          =      8.1E-04 Ry/Bohr

     bfgs converged in  84 scf cycles and  81 bfgs steps
     (criteria: energy <  1.0E-04 Ry, force <  1.0E-03 Ry/Bohr)

     End of BFGS Geometry Optimization

     Final energy             =  -36092.9957108188 Ry

     File ./PbI2.bfgs deleted, as requested
Begin final coordinates

ATOMIC_POSITIONS (angstrom)
Pb            2.3520788815        4.0767019653        7.3712147336
Pb           -0.1476212021        8.1607525983       14.5079993824
Pb           -0.0035925431        8.1623168886        7.3606472708
Pb           -2.1992295438       12.2404260229       14.9949702302
Pb           -2.3539857089       12.2323260234        7.3842387331
Pb            7.1319665965        3.9477046936       15.0134351018
Pb            7.0706888546        4.0788386327        7.3890910857
Pb            4.7585068876        8.2519616318       14.7602901785
Pb            4.7017784287        8.1399210255        7.3749566148
Pb            2.3545234707       12.2606562872       14.7214141272
Pb            2.3781246693       12.2258711952        7.3542911035
Pb           11.7135295288        4.2209991308       14.5035081930
Pb           11.7701759977        4.0769320168        7.3717932477
Pb            9.4274888896        8.1471111184       14.7954758497
Pb            9.4010202281        8.1723506524        7.4039107196
Pb            7.0274248291       12.1601221713       14.7503332838
Pb            7.0706534393       12.2482513241        7.3823915510
I             2.3481965116        1.3486292049        5.4984182464
I             2.3849839200        1.6722863887       12.9632699277
I            -0.0180259267        5.4370931455        5.4913039818
I            -0.4050264648        5.6862010110       12.5119725930
I            -2.3989655752        9.4999180570        5.5104216289
I            -2.4180665311        9.6240937588       12.8481405085
I             7.1073930022        1.3288074755        5.5105731306
I             7.0851319113        1.3593449752       12.9311843666
I             4.7182197235        5.4342543155        5.4949393928
I             4.4666273223        5.2788373070       12.9707576321
I             2.3632987743        9.4716513530        5.4449755170
I             2.3803069108        9.5396354523       12.8698380250
I            11.8252100620        1.3784905330        5.4508284080
I            11.7956700569        1.3377383337       12.8604897822
I             9.4119935628        5.4807136086        5.5161299006
I             9.2984977232        5.4316091701       12.8533176465
I             7.0706271579        9.5092956719        5.5089746257
I             7.0071077591        9.5484850896       12.8447392524
I             0.2541117355        2.8923097351        1.7865757631
I            -0.0021277964        2.7187511109        9.2576804823
I            -2.3654162579        6.8102337661        1.8237169034
I            -2.3995129997        6.8180541990        9.2457846899
I            -4.7327160478       10.8715043663        1.8845280112
I            -4.7170573436       10.9298549261        9.3098173147
I             5.1252159778        2.4647915140        2.2454874634
I             4.7123641716        2.7104061245        9.2570895386
I             2.3316490320        6.4986662311        1.7880145536
I             2.3484786616        6.8026363792        9.2520979401
I             0.0614776354       10.7756144969        1.9035027203
I             0.0371177143       10.8870885055        9.2389577681
I             9.5507753718        2.7415327302        1.9099912007
I             9.4243790029        2.6711317090        9.2462455747
I             7.0470522214        6.8246429401        1.8980051421
I             7.0216786409        6.7797774417        9.3077807644
I             4.7777280312       10.8651841257        1.9115880702
I             4.6965063850       10.8717272408        9.2505079120
I             2.3628322521        4.0862657623       14.7546489985
End final coordinates

     Writing all to output data dir ./PbI2.save/

     General routines

     Parallel routines

     PAW routines

   This run was terminated on:   4:14: 8  18Feb2024

   JOB DONE.