     Program PWSCF v.7.1 starts on 19Feb2024 at  9:48:37

     Reading input from espresso.pwi
Warning: card &CELL ignored
Warning: card    CELL_DYNAMICS    = 'BFGS' ignored
Warning: card / ignored

     Current dimensions of program PWSCF are:
     Max number of different atomic species (ntypx) = 10
     Max number of k-points (npk) =  40000
     Max angular momentum in pseudopotentials (lmaxx) =  4
     file Pb.pbe-dn-kjpaw_psl.1.0.0.UPF: wavefunction(s)  6S 6P 5D renormalized
     file I.pbe-dn-kjpaw_psl.1.0.0.UPF: wavefunction(s)  5S 5P renormalized

     IMPORTANT: XC functional enforced from input :
     Exchange-correlation= BEEF-VDW
                           (   1   4  43  14   2   0   0)
     Any further DFT definition will be discarded
     Please, verify this is what you really want

     K-points division:     npool     =       2
     R & G space division:  proc/nbgrp/npool/nimage =      64
     Subspace diagonalization in iterative solution of the eigenvalue problem:
     a serial algorithm will be used

     Using Slab Decomposition

     bravais-lattice index     =            4
     lattice parameter (alat)  =      26.7090  a.u.
     unit-cell volume          =   17226.5091 (a.u.)^3
     number of atoms/cell      =           54
     number of atomic types    =            2
     number of electrons       =       865.00
     number of Kohn-Sham states=          520
     kinetic-energy cutoff     =      70.0000  Ry
     charge density cutoff     =     350.0000  Ry
     scf convergence threshold =      1.0E-07
     mixing beta               =       0.7000
     number of iterations used =            8  plain     mixing
     Exchange-correlation= BEEF-VDW
                           (   1   4  43  14   2   0   0)

     celldm(1)=  26.709025  celldm(2)=   0.000000  celldm(3)=   1.043981
     celldm(4)=   0.000000  celldm(5)=   0.000000  celldm(6)=   0.000000

     crystal axes: (cart. coord. in units of alat)
               a(1) = (   1.000000   0.000000   0.000000 )
               a(2) = (  -0.500000   0.866025   0.000000 )
               a(3) = (   0.000000   0.000000   1.043981 )

     reciprocal axes: (cart. coord. in units 2 pi/alat)
               b(1) = (  1.000000  0.577350 -0.000000 )
               b(2) = (  0.000000  1.154701  0.000000 )
               b(3) = (  0.000000 -0.000000  0.957872 )

     PseudoPot. # 1 for Pb read from file:
     //group///packages/espresso/pseudo/psl_1.0.0/pslibrary.1.0.0/pbe/PSEUDOPOTENTIALS/Pb.pbe-dn-kjpaw_psl.1.0.0.UPF
     MD5 check sum: 39ab5b8a6bbd56b7735ad9f188aac93a
     Pseudo is Projector augmented-wave + core cor, Zval = 14.0
     Generated using 'atomic' code by A. Dal Corso  v.7.1
     Shape of augmentation charge: PSQ
     Using radial grid of 1281 points,  6 beta functions with:
                l(1) =   0
                l(2) =   0
                l(3) =   1
                l(4) =   1
                l(5) =   2
                l(6) =   2
     Q(r) pseudized with 0 coefficients

     PseudoPot. # 2 for I  read from file:
     //group///packages/espresso/pseudo/psl_1.0.0/pslibrary.1.0.0/pbe/PSEUDOPOTENTIALS/I.pbe-dn-kjpaw_psl.1.0.0.UPF
     MD5 check sum: bfa8781bc1224d19af3f3980e3fab11e
     Pseudo is Projector augmented-wave + core cor, Zval = 17.0
     Generated using 'atomic' code by A. Dal Corso  v.7.1
     Shape of augmentation charge: PSQ
     Using radial grid of 1247 points,  6 beta functions with:
                l(1) =   0
                l(2) =   0
                l(3) =   1
                l(4) =   1
                l(5) =   2
                l(6) =   2
     Q(r) pseudized with 0 coefficients

     atomic species   valence    mass     pseudopotential
        Pb            14.00   207.20000     Pb( 1.00)
        I             17.00   126.90447     I ( 1.00)

     No symmetry found

                                    s                        frac. trans.

      isym =  1     identity

 cryst.   s( 1) = (     1          0          0      )
                  (     0          1          0      )
                  (     0          0          1      )

 cart.    s( 1) = (  1.0000000  0.0000000  0.0000000 )
                  (  0.0000000  1.0000000  0.0000000 )
                  (  0.0000000  0.0000000  1.0000000 )

     point group C_1 (1)
     there are  1 classes
     the character table:

       E
A      1.00

     the symmetry operations in each class and the name of the first element:

     E        1
          identity

   Cartesian axes

     site n.     atom                  positions (alat units)
         1           Pb  tau(   1) = (   0.1666712   0.2886557   0.5219862  )
         2           Pb  tau(   2) = (   0.0000102   0.5773235   1.0439712  )
         3           Pb  tau(   3) = (   0.0000034   0.5773295   0.5219807  )
         4           Pb  tau(   4) = (  -0.1666576   0.8659973   1.0439657  )
         5           Pb  tau(   5) = (  -0.1666644   0.8660033   0.5219752  )
         6           Pb  tau(   6) = (   0.5000113   0.2886484   1.0439810  )
         7           Pb  tau(   7) = (   0.5000045   0.2886544   0.5219905  )
         8           Pb  tau(   8) = (   0.3333436   0.5773222   1.0439755  )
         9           Pb  tau(   9) = (   0.3333367   0.5773282   0.5219850  )
        10           Pb  tau(  10) = (   0.1666758   0.8659960   1.0439700  )
        11           Pb  tau(  11) = (   0.1666690   0.8660020   0.5219795  )
        12           Pb  tau(  12) = (   0.8333447   0.2886471   1.0439853  )
        13           Pb  tau(  13) = (   0.8333379   0.2886531   0.5219949  )
        14           Pb  tau(  14) = (   0.6666769   0.5773209   1.0439798  )
        15           Pb  tau(  15) = (   0.6666701   0.5773269   0.5219894  )
        16           Pb  tau(  16) = (   0.5000091   0.8659947   1.0439743  )
        17           Pb  tau(  17) = (   0.5000023   0.8660007   0.5219839  )
        18           I   tau(  18) = (   0.1666738   0.0962066   0.3879099  )
        19           I   tau(  19) = (   0.1666806   0.0962006   0.9099004  )
        20           I   tau(  20) = (   0.0000060   0.3848804   0.3879044  )
        21           I   tau(  21) = (   0.0000129   0.3848744   0.9098949  )
        22           I   tau(  22) = (  -0.1666617   0.6735542   0.3878990  )
        23           I   tau(  23) = (  -0.1666549   0.6735482   0.9098894  )
        24           I   tau(  24) = (   0.5000071   0.0962053   0.3879143  )
        25           I   tau(  25) = (   0.5000140   0.0961993   0.9099047  )
        26           I   tau(  26) = (   0.3333394   0.3848792   0.3879088  )
        27           I   tau(  27) = (   0.3333462   0.3848731   0.9098993  )
        28           I   tau(  28) = (   0.1666716   0.6735530   0.3879033  )
        29           I   tau(  29) = (   0.1666784   0.6735469   0.9098938  )
        30           I   tau(  30) = (   0.8333405   0.0962041   0.3879186  )
        31           I   tau(  31) = (   0.8333473   0.0961980   0.9099091  )
        32           I   tau(  32) = (   0.6666727   0.3848779   0.3879131  )
        33           I   tau(  33) = (   0.6666795   0.3848718   0.9099036  )
        34           I   tau(  34) = (   0.5000049   0.6735517   0.3879076  )
        35           I   tau(  35) = (   0.5000117   0.6735457   0.9098981  )
        36           I   tau(  36) = (  -0.0000023   0.1924396   0.1340740  )
        37           I   tau(  37) = (   0.0000045   0.1924336   0.6560644  )
        38           I   tau(  38) = (  -0.1666701   0.4811134   0.1340685  )
        39           I   tau(  39) = (  -0.1666632   0.4811074   0.6560589  )
        40           I   tau(  40) = (  -0.3333378   0.7697873   0.1340630  )
        41           I   tau(  41) = (  -0.3333310   0.7697812   0.6560534  )
        42           I   tau(  42) = (   0.3333311   0.1924384   0.1340783  )
        43           I   tau(  43) = (   0.3333379   0.1924323   0.6560688  )
        44           I   tau(  44) = (   0.1666633   0.4811122   0.1340728  )
        45           I   tau(  45) = (   0.1666701   0.4811061   0.6560633  )
        46           I   tau(  46) = (  -0.0000045   0.7697860   0.1340673  )
        47           I   tau(  47) = (   0.0000023   0.7697799   0.6560578  )
        48           I   tau(  48) = (   0.6666644   0.1924371   0.1340827  )
        49           I   tau(  49) = (   0.6666712   0.1924310   0.6560731  )
        50           I   tau(  50) = (   0.4999966   0.4811109   0.1340772  )
        51           I   tau(  51) = (   0.5000034   0.4811049   0.6560676  )
        52           I   tau(  52) = (   0.3333288   0.7697847   0.1340717  )
        53           I   tau(  53) = (   0.3333356   0.7697787   0.6560621  )
        54           I   tau(  54) = (   0.1666780   0.2886497   1.0439767  )

   Crystallographic axes

     site n.     atom                  positions (cryst. coord.)
         1           Pb  tau(   1) = (  0.3333266  0.3333109  0.4999959  )
         2           Pb  tau(   2) = (  0.3333281  0.6666357  0.9999906  )
         3           Pb  tau(   3) = (  0.3333248  0.6666427  0.4999906  )
         4           Pb  tau(   4) = (  0.3333262  0.9999675  0.9999854  )
         5           Pb  tau(   5) = (  0.3333229  0.9999745  0.4999854  )
         6           Pb  tau(   6) = (  0.6666626  0.3333025  1.0000001  )
         7           Pb  tau(   7) = (  0.6666592  0.3333094  0.5000001  )
         8           Pb  tau(   8) = (  0.6666607  0.6666343  0.9999948  )
         9           Pb  tau(   9) = (  0.6666573  0.6666412  0.4999948  )
        10           Pb  tau(  10) = (  0.6666588  0.9999661  0.9999895  )
        11           Pb  tau(  11) = (  0.6666555  0.9999730  0.4999895  )
        12           Pb  tau(  12) = (  0.9999951  0.3333010  1.0000042  )
        13           Pb  tau(  13) = (  0.9999918  0.3333079  0.5000042  )
        14           Pb  tau(  14) = (  0.9999933  0.6666328  0.9999990  )
        15           Pb  tau(  15) = (  0.9999899  0.6666397  0.4999990  )
        16           Pb  tau(  16) = (  0.9999914  0.9999646  0.9999937  )
        17           Pb  tau(  17) = (  0.9999881  0.9999715  0.4999937  )
        18           I   tau(  18) = (  0.2222187  0.1110899  0.3715680  )
        19           I   tau(  19) = (  0.2222221  0.1110829  0.8715680  )
        20           I   tau(  20) = (  0.2222169  0.4444217  0.3715628  )
        21           I   tau(  21) = (  0.2222202  0.4444147  0.8715628  )
        22           I   tau(  22) = (  0.2222150  0.7777534  0.3715575  )
        23           I   tau(  23) = (  0.2222183  0.7777465  0.8715575  )
        24           I   tau(  24) = (  0.5555513  0.1110884  0.3715722  )
        25           I   tau(  25) = (  0.5555547  0.1110814  0.8715722  )
        26           I   tau(  26) = (  0.5555495  0.4444202  0.3715669  )
        27           I   tau(  27) = (  0.5555528  0.4444132  0.8715669  )
        28           I   tau(  28) = (  0.5555476  0.7777520  0.3715617  )
        29           I   tau(  29) = (  0.5555509  0.7777450  0.8715617  )
        30           I   tau(  30) = (  0.8888839  0.1110869  0.3715764  )
        31           I   tau(  31) = (  0.8888873  0.1110799  0.8715764  )
[...]
     atom   38 type  2   force =     0.00076681   -0.00032293    0.00599076
     atom   39 type  2   force =    -0.00010107   -0.00007809    0.00513623
     atom   40 type  2   force =    -0.00017078    0.00006607    0.00524043
     atom   41 type  2   force =    -0.00009284   -0.00005209    0.00483280
     atom   42 type  2   force =    -0.00171017    0.00071175    0.00495067
     atom   43 type  2   force =     0.00000599   -0.00010252    0.00500879
     atom   44 type  2   force =    -0.00046383    0.00263355    0.00596634
     atom   45 type  2   force =    -0.00018117    0.00009719    0.00507412
     atom   46 type  2   force =     0.00075233   -0.00085698    0.00571463
     atom   47 type  2   force =    -0.00004731   -0.00005636    0.00513687
     atom   48 type  2   force =     0.00121640   -0.00012033    0.00571409
     atom   49 type  2   force =    -0.00016649    0.00007393    0.00511118
     atom   50 type  2   force =    -0.00029840   -0.00004628    0.00539692
     atom   51 type  2   force =     0.00018475    0.00032235    0.00486722
     atom   52 type  2   force =    -0.00081985    0.00041444    0.00621447
     atom   53 type  2   force =    -0.00017856   -0.00010877    0.00507149
     atom   54 type  2   force =    -0.00007871   -0.00006328   -0.00000406
     The Hubbard contrib.    to forces
     atom    1 type  1   force =     0.00000000    0.00000000    0.00000000
     atom    2 type  1   force =     0.00000000    0.00000000    0.00000000
     atom    3 type  1   force =     0.00000000    0.00000000    0.00000000
     atom    4 type  1   force =     0.00000000    0.00000000    0.00000000
     atom    5 type  1   force =     0.00000000    0.00000000    0.00000000
     atom    6 type  1   force =     0.00000000    0.00000000    0.00000000
     atom    7 type  1   force =     0.00000000    0.00000000    0.00000000
     atom    8 type  1   force =     0.00000000    0.00000000    0.00000000
     atom    9 type  1   force =     0.00000000    0.00000000    0.00000000
     atom   10 type  1   force =     0.00000000    0.00000000    0.00000000
     atom   11 type  1   force =     0.00000000    0.00000000    0.00000000
     atom   12 type  1   force =     0.00000000    0.00000000    0.00000000
     atom   13 type  1   force =     0.00000000    0.00000000    0.00000000
     atom   14 type  1   force =     0.00000000    0.00000000    0.00000000
     atom   15 type  1   force =     0.00000000    0.00000000    0.00000000
     atom   16 type  1   force =     0.00000000    0.00000000    0.00000000
     atom   17 type  1   force =     0.00000000    0.00000000    0.00000000
     atom   18 type  2   force =     0.00000000    0.00000000    0.00000000
     atom   19 type  2   force =     0.00000000    0.00000000    0.00000000
     atom   20 type  2   force =     0.00000000    0.00000000    0.00000000
     atom   21 type  2   force =     0.00000000    0.00000000    0.00000000
     atom   22 type  2   force =     0.00000000    0.00000000    0.00000000
     atom   23 type  2   force =     0.00000000    0.00000000    0.00000000
     atom   24 type  2   force =     0.00000000    0.00000000    0.00000000
     atom   25 type  2   force =     0.00000000    0.00000000    0.00000000
     atom   26 type  2   force =     0.00000000    0.00000000    0.00000000
     atom   27 type  2   force =     0.00000000    0.00000000    0.00000000
     atom   28 type  2   force =     0.00000000    0.00000000    0.00000000
     atom   29 type  2   force =     0.00000000    0.00000000    0.00000000
     atom   30 type  2   force =     0.00000000    0.00000000    0.00000000
     atom   31 type  2   force =     0.00000000    0.00000000    0.00000000
     atom   32 type  2   force =     0.00000000    0.00000000    0.00000000
     atom   33 type  2   force =     0.00000000    0.00000000    0.00000000
     atom   34 type  2   force =     0.00000000    0.00000000    0.00000000
     atom   35 type  2   force =     0.00000000    0.00000000    0.00000000
     atom   36 type  2   force =     0.00000000    0.00000000    0.00000000
     atom   37 type  2   force =     0.00000000    0.00000000    0.00000000
     atom   38 type  2   force =     0.00000000    0.00000000    0.00000000
     atom   39 type  2   force =     0.00000000    0.00000000    0.00000000
     atom   40 type  2   force =     0.00000000    0.00000000    0.00000000
     atom   41 type  2   force =     0.00000000    0.00000000    0.00000000
     atom   42 type  2   force =     0.00000000    0.00000000    0.00000000
     atom   43 type  2   force =     0.00000000    0.00000000    0.00000000
     atom   44 type  2   force =     0.00000000    0.00000000    0.00000000
     atom   45 type  2   force =     0.00000000    0.00000000    0.00000000
     atom   46 type  2   force =     0.00000000    0.00000000    0.00000000
     atom   47 type  2   force =     0.00000000    0.00000000    0.00000000
     atom   48 type  2   force =     0.00000000    0.00000000    0.00000000
     atom   49 type  2   force =     0.00000000    0.00000000    0.00000000
     atom   50 type  2   force =     0.00000000    0.00000000    0.00000000
     atom   51 type  2   force =     0.00000000    0.00000000    0.00000000
     atom   52 type  2   force =     0.00000000    0.00000000    0.00000000
     atom   53 type  2   force =     0.00000000    0.00000000    0.00000000
     atom   54 type  2   force =     0.00000000    0.00000000    0.00000000
     The SCF correction term to forces
     atom    1 type  1   force =     0.00002941   -0.00002951    0.00003259
     atom    2 type  1   force =     0.00001388    0.00004621    0.00001651
     atom    3 type  1   force =     0.00003974    0.00005070   -0.00000512
     atom    4 type  1   force =    -0.00000582    0.00005800   -0.00000237
     atom    5 type  1   force =     0.00003474    0.00003751    0.00000244
     atom    6 type  1   force =    -0.00005415   -0.00001044   -0.00000675
     atom    7 type  1   force =    -0.00001519   -0.00005821    0.00001263
     atom    8 type  1   force =     0.00002278   -0.00003434   -0.00003637
     atom    9 type  1   force =    -0.00001345    0.00002130    0.00003815
     atom   10 type  1   force =    -0.00002751    0.00001232   -0.00000981
     atom   11 type  1   force =    -0.00001618    0.00000868    0.00001048
     atom   12 type  1   force =    -0.00004405   -0.00002482    0.00000137
     atom   13 type  1   force =    -0.00001267   -0.00006513    0.00000290
     atom   14 type  1   force =    -0.00003786    0.00000640   -0.00000575
     atom   15 type  1   force =    -0.00002427    0.00002324    0.00000424
     atom   16 type  1   force =     0.00003243   -0.00001330   -0.00003535
     atom   17 type  1   force =    -0.00001596    0.00000914    0.00003411
     atom   18 type  2   force =     0.00003244   -0.00000244   -0.00006826
     atom   19 type  2   force =     0.00004597    0.00001314   -0.00005795
     atom   20 type  2   force =     0.00001257   -0.00001134   -0.00006605
     atom   21 type  2   force =     0.00005106   -0.00003789   -0.00009238
     atom   22 type  2   force =     0.00003281    0.00006502   -0.00009647
     atom   23 type  2   force =    -0.00002788    0.00007481   -0.00007548
     atom   24 type  2   force =    -0.00000347   -0.00000765   -0.00007739
     atom   25 type  2   force =    -0.00004348    0.00004218   -0.00008641
     atom   26 type  2   force =     0.00000975   -0.00003783   -0.00008566
     atom   27 type  2   force =     0.00002743   -0.00003665   -0.00004060
     atom   28 type  2   force =    -0.00001050    0.00005614   -0.00003973
     atom   29 type  2   force =     0.00003858    0.00001165   -0.00010358
     atom   30 type  2   force =    -0.00004113   -0.00002809   -0.00002946
     atom   31 type  2   force =    -0.00000194   -0.00002869   -0.00012686
     atom   32 type  2   force =    -0.00002793   -0.00004938   -0.00010227
     atom   33 type  2   force =    -0.00008683   -0.00002380   -0.00006253
     atom   34 type  2   force =    -0.00002416    0.00002418   -0.00007130
     atom   35 type  2   force =    -0.00001221   -0.00000299   -0.00008935
     atom   36 type  2   force =     0.00004478   -0.00001777    0.00002938
     atom   37 type  2   force =     0.00001865   -0.00005449    0.00007350
     atom   38 type  2   force =    -0.00001577    0.00001293    0.00009218
     atom   39 type  2   force =    -0.00000143   -0.00000167    0.00007868
     atom   40 type  2   force =     0.00001651    0.00002917    0.00006956
     atom   41 type  2   force =    -0.00001246    0.00006080    0.00009976
     atom   42 type  2   force =     0.00002354   -0.00000133    0.00007016
     atom   43 type  2   force =     0.00001928   -0.00001782    0.00009804
     atom   44 type  2   force =     0.00004817   -0.00002490    0.00002489
     atom   45 type  2   force =     0.00004312    0.00001151    0.00009175
     atom   46 type  2   force =    -0.00000427    0.00004603    0.00010309
     atom   47 type  2   force =     0.00004058    0.00006310    0.00005173
     atom   48 type  2   force =    -0.00005866   -0.00000774    0.00009765
     atom   49 type  2   force =    -0.00002598   -0.00006541    0.00006166
     atom   50 type  2   force =    -0.00002146   -0.00003704    0.00004500
     atom   51 type  2   force =    -0.00004771   -0.00001596    0.00012324
     atom   52 type  2   force =    -0.00001094   -0.00000678    0.00007330
     atom   53 type  2   force =    -0.00002972    0.00002427    0.00006565
     atom   54 type  2   force =     0.00011999   -0.00004947   -0.00005917

     Total force =     0.002772     Total SCF correction =     0.000615
     SCF correction compared to forces is large: reduce conv_thr to get better values

     Computing stress (Cartesian axis) and pressure

[...]

          total   stress  (Ry/bohr**3)                   (kbar)     P=      -11.42
  -0.00007460  -0.00000580   0.00000369          -10.97       -0.85        0.54
  -0.00000580  -0.00008058  -0.00000185           -0.85      -11.85       -0.27
   0.00000369  -0.00000185  -0.00007761            0.54       -0.27      -11.42

     kinetic stress (kbar)  14862.57     -5.44      6.15
                               -5.44  14856.44     -3.55
                                6.15     -3.55  14868.41

     local   stress (kbar)  -7283.38   -310.88    301.76
                             -310.88  -7644.32   -182.60
                              301.76   -182.60   1140.57

     nonloc. stress (kbar)   -889.25     -4.51      6.42
                               -4.51   -894.43     -3.72
                                6.42     -3.72   -899.06

     hartree stress (kbar)  12044.77    120.94   -120.56
                              120.94  12185.19     72.90
                             -120.56     72.90   8228.74

     exc-cor stress (kbar)   7015.30      0.22     -0.05
                                0.22   7015.55      0.04
                               -0.05      0.04   7014.47

     corecor stress (kbar) -11401.81      0.11     -0.16
                                0.11 -11401.68      0.09
                               -0.16      0.09 -11401.62

     ewald   stress (kbar) -14443.55    198.81   -193.08
                              198.81 -14212.87    116.61
                             -193.08    116.61 -19048.47

     hubbard stress (kbar)      0.00      0.00      0.00
                                0.00      0.00      0.00
                                0.00      0.00      0.00

     DFT-D   stress (kbar)      0.00      0.00      0.00
                                0.00      0.00      0.00
                                0.00      0.00      0.00

     XDM     stress (kbar)      0.00      0.00      0.00
                                0.00      0.00      0.00
                                0.00      0.00      0.00

     dft-nl  stress (kbar)     84.38     -0.10      0.05
                               -0.10     84.26     -0.04
                                0.05     -0.04     85.54

     TS-vdW  stress (kbar)      0.00      0.00      0.00
                                0.00      0.00      0.00
                                0.00      0.00      0.00

     MDB     stress (kbar)      0.00      0.00      0.00
                                0.00      0.00      0.00
                                0.00      0.00      0.00

     3D-RISM stress (kbar)      0.00      0.00      0.00
                                0.00      0.00      0.00
                                0.00      0.00      0.00

[...]

     Non-local corr. energy    =      26.19353719 Ry

 BEEFens 2000 ensemble energies
             -0.218955347099673E+02
             -0.220614943134192E+03
             -0.100441347723143E+03
              0.770089181478511E+02
             -0.168634353126325E+03
             -0.206493794099543E+03
              0.105947479914462E+03
              0.493771369013189E+00
              0.178593795923544E+03
             -0.113410895193790E+02
              0.914734860767734E+02
              0.938135007055973E+01
             -0.702731335780277E+01
             -0.566794652886631E+01
              0.114043367185981E+03
             -0.857737013635889E+02
             -0.168433985215221E+03
             -0.543823565174970E+02
              0.487649923143374E+02
             -0.101924667950698E+01
              0.248491996428629E+03
              0.207380483189655E+03
             -0.127811982790628E+03
              0.441179291301590E+02
             -0.266159314117222E+03
              0.218483568381148E+03
              0.746627649491782E+02
              0.197274603531610E+03
              0.132966938799741E+03
             -0.616939361910640E+02
              0.486522206084862E+02
             -0.870174665578854E+02
              0.363703628411581E+02
              0.132327705296555E+03
              0.142259954480053E+03
             -0.619058895401889E+02
              0.314008781398508E+03
             -0.126346334051721E+03
             -0.842127417559301E+02
              0.125590108392343E+03
              0.553714551275516E+02
              0.953776338943677E+02
             -0.184264712413909E+03
             -0.119244707780181E+02
              0.176826978171608E+03
              0.231136477337846E+03
             -0.234665311455708E+03
              0.150754675154702E+02
              0.813846280614985E+02
              0.525996414444955E+02
              0.917497738323490E+02
              0.201457472662730E+03
             -0.130783163059901E+03
             -0.126963633552434E+03
             -0.176944240955253E+03
             -0.256625277526787E+02
             -0.151028098399264E+03
              0.195065603867729E+02
             -0.217409386194422E+02
             -0.119679643524292E+03
[...]
              0.149439523300538E+03
              0.958095719552117E+02
              0.976378851063521E+02
             -0.180680497547295E+03
             -0.186695745675717E+03
             -0.420312875365548E+02
             -0.166829686911901E+03
              0.264843456939545E+03
              0.223108605822574E+03
              0.105228316610882E+03
              0.290116595723165E+03
             -0.145059262837129E+03
             -0.623918982318366E+02
             -0.899605468333339E+02
              0.250978872024837E+03

 BEEF-vdW xc energy contributions
            1 :    -2268.235623652122
            2 :     2078.498617355585
            3 :    -1755.024354882261
            4 :     1384.034079252398
            5 :    -1046.625561943662
            6 :     792.7038903575158
            7 :    -632.9231503451856
            8 :     546.1635385436005
            9 :    -495.5196202103325
           10 :     446.0018401000639
           11 :    -377.9022008223455
           12 :     291.1548930184167
           13 :    -199.9445841799743
           14 :     121.8436811426682
           15 :    -68.00703212234475
           16 :     38.91074042939954
           17 :    -26.14150312904530
           18 :     17.88992501386247
           19 :    -4.985094471278899
           20 :    -15.23256072058302
           21 :     38.75127733013915
           22 :    -58.23251165188867
           23 :     67.82570662349326
           24 :    -66.66917132869276
           25 :     59.24101630182076
           26 :    -52.68447624622786
           27 :     52.85082127518581
           28 :    -61.24309295096236
           29 :     74.36721339598989
           30 :    -85.71793549395898
           31 :    -194.5729129004262
           32 :    -139.8979945465112

     Writing all to output data dir ./PbI2.save/

     General routines

     Parallel routines

     PAW routines

   This run was terminated on:  10: 3:48  19Feb2024

   JOB DONE.