     Program PWSCF v.7.1 starts on 17Feb2024 at 19:56:55

     Reading input from espresso.pwi
Warning: card &CELL ignored
Warning: card    CELL_DYNAMICS    = 'BFGS' ignored
Warning: card / ignored

     Current dimensions of program PWSCF are:
     Max number of different atomic species (ntypx) = 10
     Max number of k-points (npk) =  40000
     Max angular momentum in pseudopotentials (lmaxx) =  4
     file Ga.pbe-dn-kjpaw_psl.1.0.0.UPF: wavefunction(s)  4S renormalized
     file N.pbe-n-kjpaw_psl.1.0.0.UPF: wavefunction(s)  2S renormalized

     IMPORTANT: XC functional enforced from input :
     Exchange-correlation= BEEF-VDW
                           (   1   4  43  14   2   0   0)
     Any further DFT definition will be discarded
     Please, verify this is what you really want

     K-points division:     npool     =       4
     R & G space division:  proc/nbgrp/npool/nimage =      64
     Subspace diagonalization in iterative solution of the eigenvalue problem:
     a serial algorithm will be used

     Using Slab Decomposition

     bravais-lattice index     =            4
     lattice parameter (alat)  =      24.5252  a.u.
     unit-cell volume          =   15616.6055 (a.u.)^3
     number of atoms/cell      =          192
     number of atomic types    =            2
     number of electrons       =      1733.00
     number of Kohn-Sham states=         1040
     kinetic-energy cutoff     =      70.0000  Ry
     charge density cutoff     =     350.0000  Ry
     scf convergence threshold =      1.0E-07
     mixing beta               =       0.7000
     number of iterations used =            8  plain     mixing
     energy convergence thresh.=      1.0E-04
     force convergence thresh. =      1.0E-03
     Exchange-correlation= BEEF-VDW
                           (   1   4  43  14   2   0   0)
     nstep                     =           50

     celldm(1)=  24.525232  celldm(2)=   0.000000  celldm(3)=   1.222409
     celldm(4)=   0.000000  celldm(5)=   0.000000  celldm(6)=   0.000000

     crystal axes: (cart. coord. in units of alat)
               a(1) = (   1.000000   0.000000   0.000000 )
               a(2) = (  -0.500000   0.866025   0.000000 )
               a(3) = (   0.000000   0.000000   1.222409 )

     reciprocal axes: (cart. coord. in units 2 pi/alat)
               b(1) = (  1.000000  0.577350 -0.000000 )
               b(2) = (  0.000000  1.154701  0.000000 )
               b(3) = (  0.000000 -0.000000  0.818057 )

     PseudoPot. # 1 for Ga read from file:
     /trace/group/acmegroup/atimmins/packages/espresso/pseudo/psl_1.0.0/pslibrary.1.0.0/pbe/PSEUDOPOTENTIALS/Ga.pbe-dn-kjpaw_psl.1.0.0.UPF
     MD5 check sum: cd2a01e492f15b435d17032472d8505c
     Pseudo is Projector augmented-wave + core cor, Zval = 13.0
     Generated using 'atomic' code by A. Dal Corso  v.7.1
     Shape of augmentation charge: PSQ
     Using radial grid of 1205 points,  6 beta functions with:
                l(1) =   0
                l(2) =   0
                l(3) =   1
                l(4) =   1
                l(5) =   2
                l(6) =   2
     Q(r) pseudized with 0 coefficients

     PseudoPot. # 2 for N  read from file:
     /trace/group/acmegroup/atimmins/packages/espresso/pseudo/psl_1.0.0/pslibrary.1.0.0/pbe/PSEUDOPOTENTIALS/N.pbe-n-kjpaw_psl.1.0.0.UPF
     MD5 check sum: f77f775694dac7e2c3fe1c82443d1a16
     Pseudo is Projector augmented-wave + core cor, Zval =  5.0
     Generated using 'atomic' code by A. Dal Corso  v.7.1
     Shape of augmentation charge: PSQ
     Using radial grid of 1085 points,  4 beta functions with:
                l(1) =   0
                l(2) =   0
                l(3) =   1
                l(4) =   1
     Q(r) pseudized with 0 coefficients

     atomic species   valence    mass     pseudopotential
        Ga            13.00    69.72300     Ga( 1.00)
        N              5.00    14.00700     N ( 1.00)

      6 Sym. Ops. (no inversion) found ( 4 have fractional translation)

                                    s                        frac. trans.

      isym =  1     identity

 cryst.   s( 1) = (     1          0          0      )
                  (     0          1          0      )
                  (     0          0          1      )

 cart.    s( 1) = (  1.0000000  0.0000000  0.0000000 )
                  (  0.0000000  1.0000000  0.0000000 )
                  (  0.0000000  0.0000000  1.0000000 )

      isym =  2     120 deg rotation - cryst. axis [0,0,1]

 cryst.   s( 2) = (     0          1          0      )    f =( -0.2500000 )
                  (    -1         -1          0      )       (  0.0000002 )
                  (     0          0          1      )       (  0.0000000 )

 cart.    s( 2) = ( -0.5000000 -0.8660254  0.0000000 )    f =( -0.2500001 )
                  (  0.8660254 -0.5000000  0.0000000 )       (  0.0000002 )
                  (  0.0000000  0.0000000  1.0000000 )       (  0.0000000 )

      isym =  3     120 deg rotation - cryst. axis [0,0,-1]

[...]

      isym =  4     inv. 180 deg rotation - cart. axis [1,0,0]

[...]

      isym =  5     inv. 180 deg rotation - cryst. axis [0,1,0]

 cryst.   s( 5) = (     1          1          0      )
                  (     0         -1          0      )
                  (     0          0          1      )

 cart.    s( 5) = (  0.5000000  0.8660254  0.0000000 )
                  (  0.8660254 -0.5000000  0.0000000 )
                  (  0.0000000  0.0000000  1.0000000 )

      isym =  6     inv. 180 deg rotation - cryst. axis [1,1,0]

 cryst.   s( 6) = (     0         -1          0      )    f =( -0.2500000 )
                  (    -1          0          0      )       ( -0.2500000 )
                  (     0          0          1      )       (  0.0000000 )

 cart.    s( 6) = (  0.5000000 -0.8660254  0.0000000 )    f =( -0.1250000 )
                  ( -0.8660254 -0.5000000  0.0000000 )       ( -0.2165064 )
                  (  0.0000000  0.0000000  1.0000000 )       (  0.0000000 )

     point group C_3v (3m)
     there are  3 classes
     the character table:

       E     2C3   3s_v
A_1    1.00  1.00  1.00
A_2    1.00  1.00 -1.00
E      2.00 -1.00  0.00

     the symmetry operations in each class and the name of the first element:

     E        1
          identity
     2C3      2    3
          120 deg rotation - cryst. axis [0,0,1]
     3s_v     4    5    6
          inv. 180 deg rotation - cart. axis [1,0,0]

   Cartesian axes

     site n.     atom                  positions (alat units)
         1           Ga  tau(   1) = (   0.1250001   0.0721687   0.2033935  )
         2           Ga  tau(   2) = (   0.1250001   0.0721687   0.6108633  )
         3           Ga  tau(   3) = (   0.1250001   0.0721687   1.0183331  )
         4           Ga  tau(   4) = (   0.0000001   0.2886751   0.2033935  )
         5           Ga  tau(   5) = (   0.0000001   0.2886751   0.6108633  )
         6           Ga  tau(   6) = (   0.0000001   0.2886751   1.0183331  )
         7           Ga  tau(   7) = (  -0.1249999   0.5051814   0.2033935  )
         8           Ga  tau(   8) = (  -0.1249999   0.5051814   0.6108633  )
         9           Ga  tau(   9) = (  -0.1249999   0.5051814   1.0183331  )
        10           Ga  tau(  10) = (  -0.2499999   0.7216878   0.2033935  )
        11           Ga  tau(  11) = (  -0.2499999   0.7216878   0.6108633  )
        12           Ga  tau(  12) = (  -0.2499999   0.7216878   1.0183331  )
        13           Ga  tau(  13) = (   0.3750001   0.0721687   0.2033935  )
        14           Ga  tau(  14) = (   0.3750001   0.0721687   0.6108633  )
        15           Ga  tau(  15) = (   0.3750001   0.0721687   1.0183331  )
        16           Ga  tau(  16) = (   0.2500001   0.2886751   0.2033935  )
        17           Ga  tau(  17) = (   0.2500001   0.2886751   0.6108633  )
        18           Ga  tau(  18) = (   0.2500001   0.2886751   1.0183331  )
        19           Ga  tau(  19) = (   0.1250001   0.5051814   0.2033935  )
        20           Ga  tau(  20) = (   0.1250001   0.5051814   0.6108633  )
        21           Ga  tau(  21) = (   0.1250001   0.5051814   1.0183331  )
        22           Ga  tau(  22) = (   0.0000001   0.7216878   0.2033935  )
        23           Ga  tau(  23) = (   0.0000001   0.7216878   0.6108633  )
        24           Ga  tau(  24) = (   0.0000001   0.7216878   1.0183331  )
        25           Ga  tau(  25) = (   0.6250001   0.0721687   0.2033935  )
        26           Ga  tau(  26) = (   0.6250001   0.0721687   0.6108633  )
        27           Ga  tau(  27) = (   0.6250001   0.0721687   1.0183331  )
        28           Ga  tau(  28) = (   0.5000001   0.2886751   0.2033935  )
        29           Ga  tau(  29) = (   0.5000001   0.2886751   0.6108633  )
        30           Ga  tau(  30) = (   0.5000001   0.2886751   1.0183331  )
        31           Ga  tau(  31) = (   0.3750001   0.5051814   0.2033935  )
        32           Ga  tau(  32) = (   0.3750001   0.5051814   0.6108633  )
        33           Ga  tau(  33) = (   0.3750001   0.5051814   1.0183331  )
        34           Ga  tau(  34) = (   0.2500001   0.7216878   0.2033935  )
        35           Ga  tau(  35) = (   0.2500001   0.7216878   0.6108633  )
        36           Ga  tau(  36) = (   0.2500001   0.7216878   1.0183331  )
        37           Ga  tau(  37) = (   0.8750001   0.0721687   0.2033935  )
        38           Ga  tau(  38) = (   0.8750001   0.0721687   0.6108633  )
        39           Ga  tau(  39) = (   0.8750001   0.0721687   1.0183331  )
        40           Ga  tau(  40) = (   0.7500001   0.2886751   0.2033935  )
        41           Ga  tau(  41) = (   0.7500001   0.2886751   0.6108633  )
        42           Ga  tau(  42) = (   0.7500001   0.2886751   1.0183331  )
        43           Ga  tau(  43) = (   0.6250001   0.5051814   0.2033935  )
        44           Ga  tau(  44) = (   0.6250001   0.5051814   0.6108633  )
        45           Ga  tau(  45) = (   0.6250001   0.5051814   1.0183331  )
        46           Ga  tau(  46) = (   0.5000001   0.7216878   0.2033935  )
        47           Ga  tau(  47) = (   0.5000001   0.7216878   0.6108633  )
        48           Ga  tau(  48) = (   0.5000001   0.7216878   1.0183331  )
        49           Ga  tau(  49) = (  -0.0000002   0.1443377   0.4071284  )
        50           Ga  tau(  50) = (  -0.0000002   0.1443377   0.8145982  )
        51           Ga  tau(  51) = (  -0.0000002   0.1443377   1.2220680  )
        52           Ga  tau(  52) = (  -0.1250002   0.3608440   0.4071284  )
        53           Ga  tau(  53) = (  -0.1250002   0.3608440   0.8145982  )
        54           Ga  tau(  54) = (  -0.1250002   0.3608440   1.2220680  )
        55           Ga  tau(  55) = (  -0.2500002   0.5773504   0.4071284  )
        56           Ga  tau(  56) = (  -0.2500002   0.5773504   0.8145982  )
        57           Ga  tau(  57) = (  -0.2500002   0.5773504   1.2220680  )
        58           Ga  tau(  58) = (  -0.3750001   0.7938567   0.4071284  )
        59           Ga  tau(  59) = (  -0.3750001   0.7938567   0.8145982  )
[...]
     atom   44 type  1   force =     0.00000000    0.00000000    0.00000000
     atom   45 type  1   force =     0.00000000    0.00000000    0.00000000
     atom   46 type  1   force =     0.00000000    0.00000000    0.00000000
     atom   47 type  1   force =     0.00000000    0.00000000    0.00000000
     atom   48 type  1   force =     0.00000000    0.00000000    0.00000000
     atom   49 type  1   force =     0.00000000    0.00000000    0.00000000
     atom   50 type  1   force =     0.00000000    0.00000000    0.00000000
     atom   51 type  1   force =     0.00000000    0.00000000    0.00000000
     atom   52 type  1   force =     0.00000000    0.00000000    0.00000000
     atom   53 type  1   force =     0.00000000    0.00000000    0.00000000
     atom   54 type  1   force =     0.00000000    0.00000000    0.00000000
     atom   55 type  1   force =     0.00000000    0.00000000    0.00000000
     atom   56 type  1   force =     0.00000000    0.00000000    0.00000000
     atom   57 type  1   force =     0.00000000    0.00000000    0.00000000
     atom   58 type  1   force =     0.00000000    0.00000000    0.00000000
     atom   59 type  1   force =     0.00000000    0.00000000    0.00000000
     atom   60 type  1   force =     0.00000000    0.00000000    0.00000000
[...]
     atom  178 type  2   force =     0.00000000    0.00000000    0.00000000
     atom  179 type  2   force =     0.00000000    0.00000000    0.00000000
     atom  180 type  2   force =     0.00000000    0.00000000    0.00000000
     atom  181 type  2   force =     0.00000000    0.00000000    0.00000000
     atom  182 type  2   force =     0.00000000    0.00000000    0.00000000
     atom  183 type  2   force =     0.00000000    0.00000000    0.00000000
     atom  184 type  2   force =     0.00000000    0.00000000    0.00000000
     atom  185 type  2   force =     0.00000000    0.00000000    0.00000000
     atom  186 type  2   force =     0.00000000    0.00000000    0.00000000
     atom  187 type  2   force =     0.00000000    0.00000000    0.00000000
     atom  188 type  2   force =     0.00000000    0.00000000    0.00000000
     atom  189 type  2   force =     0.00000000    0.00000000    0.00000000
     atom  190 type  2   force =     0.00000000    0.00000000    0.00000000
     atom  191 type  2   force =     0.00000000    0.00000000    0.00000000
     atom  192 type  1   force =     0.00000000    0.00000000    0.00000000
     The SCF correction term to forces
     atom    1 type  1   force =    -0.00000000    0.00000000    0.00000294
     atom    2 type  1   force =    -0.00000000    0.00000000   -0.00000284
     atom    3 type  1   force =    -0.00000000    0.00000000    0.00000370
     atom    4 type  1   force =    -0.00001215    0.00001015    0.00000855
     atom    5 type  1   force =    -0.00001474    0.00002577   -0.00001288
     atom    6 type  1   force =    -0.00001050    0.00000654    0.00000834
     atom    7 type  1   force =    -0.00000737   -0.00000425    0.00001668
     atom    8 type  1   force =    -0.00000546   -0.00000315   -0.00002221
     atom    9 type  1   force =    -0.00000872   -0.00000503    0.00000572
     atom   10 type  1   force =     0.00000271   -0.00001560    0.00000855
     atom   11 type  1   force =     0.00001495   -0.00002564   -0.00001288
     atom   12 type  1   force =     0.00000042   -0.00001236    0.00000834
     atom   13 type  1   force =     0.00001486    0.00000545    0.00000855
     atom   14 type  1   force =     0.00002968   -0.00000012   -0.00001288
     atom   15 type  1   force =     0.00001091    0.00000582    0.00000834
     atom   16 type  1   force =     0.00001215    0.00001015    0.00000855
     atom   17 type  1   force =     0.00001474    0.00002577   -0.00001288
     atom   18 type  1   force =     0.00001050    0.00000654    0.00000834
     atom   19 type  1   force =    -0.00000000    0.00000276    0.00001464
     atom   20 type  1   force =    -0.00000000    0.00000641   -0.00001883
     atom   21 type  1   force =    -0.00000000    0.00000134    0.00000372
     atom   22 type  1   force =     0.00000239   -0.00000138    0.00001464
     atom   23 type  1   force =     0.00000555   -0.00000320   -0.00001883
     atom   24 type  1   force =     0.00000116   -0.00000067    0.00000372
     atom   25 type  1   force =    -0.00000000    0.00000850    0.00001668
     atom   26 type  1   force =    -0.00000000    0.00000630   -0.00002221
     atom   27 type  1   force =    -0.00000000    0.00001007    0.00000572
     atom   28 type  1   force =     0.00001062    0.00000613    0.00001345
     atom   29 type  1   force =     0.00001498    0.00000865   -0.00002096
     atom   30 type  1   force =     0.00000809    0.00000467    0.00000711
     atom   31 type  1   force =     0.00000737   -0.00000425    0.00001668
     atom   32 type  1   force =     0.00000546   -0.00000315   -0.00002221
     atom   33 type  1   force =     0.00000872   -0.00000503    0.00000572
     atom   34 type  1   force =    -0.00000239   -0.00000138    0.00001464
     atom   35 type  1   force =    -0.00000555   -0.00000320   -0.00001883
     atom   36 type  1   force =    -0.00000116   -0.00000067    0.00000372
     atom   37 type  1   force =    -0.00001486    0.00000545    0.00000855
     atom   38 type  1   force =    -0.00002968   -0.00000012   -0.00001288
     atom   39 type  1   force =    -0.00001091    0.00000582    0.00000834
     atom   40 type  1   force =    -0.00001062    0.00000613    0.00001345
     atom   41 type  1   force =    -0.00001498    0.00000865   -0.00002096
     atom   42 type  1   force =    -0.00000809    0.00000467    0.00000711
     atom   43 type  1   force =    -0.00000000   -0.00001226    0.00001345
     atom   44 type  1   force =    -0.00000000   -0.00001730   -0.00002096
     atom   45 type  1   force =    -0.00000000   -0.00000934    0.00000711
     atom   46 type  1   force =    -0.00000271   -0.00001560    0.00000855
     atom   47 type  1   force =    -0.00001495   -0.00002564   -0.00001288
     atom   48 type  1   force =    -0.00000042   -0.00001236    0.00000834
     atom   49 type  1   force =    -0.00002788    0.00001610   -0.00002312
     atom   50 type  1   force =    -0.00001268    0.00000732    0.00000579
     atom   51 type  1   force =    -0.00001687    0.00000974    0.00002434
     atom   52 type  1   force =    -0.00001319    0.00001171   -0.00001379
     atom   53 type  1   force =    -0.00001017    0.00000762   -0.00000712
     atom   54 type  1   force =    -0.00000971    0.00000215    0.00001752
     atom   55 type  1   force =     0.00000355   -0.00001728   -0.00001379
     atom   56 type  1   force =     0.00000152   -0.00001262   -0.00000712
     atom   57 type  1   force =    -0.00000299   -0.00000948    0.00001752
     atom   58 type  1   force =     0.00000000   -0.00003220   -0.00002312
     atom   59 type  1   force =     0.00000000   -0.00001464    0.00000579
     atom   60 type  1   force =     0.00000000   -0.00001948    0.00002434
[...]
     atom  178 type  2   force =     0.00000000    0.00000028   -0.00000854
     atom  179 type  2   force =    -0.00000000    0.00000055    0.00000075
     atom  180 type  2   force =    -0.00000366    0.00000345    0.00000572
     atom  181 type  2   force =    -0.00000838    0.00000266   -0.00000985
     atom  182 type  2   force =    -0.00000360    0.00000311    0.00000182
     atom  183 type  2   force =     0.00000000   -0.00000000    0.00000642
     atom  184 type  2   force =     0.00000000   -0.00000000   -0.00000941
     atom  185 type  2   force =     0.00000000   -0.00000000    0.00000148
     atom  186 type  2   force =     0.00000116   -0.00000489    0.00000572
     atom  187 type  2   force =    -0.00000188   -0.00000859   -0.00000985
     atom  188 type  2   force =     0.00000090   -0.00000468    0.00000182
     atom  189 type  2   force =    -0.00000347   -0.00000200    0.00000413
     atom  190 type  2   force =    -0.00000948   -0.00000547   -0.00000798
     atom  191 type  2   force =    -0.00000281   -0.00000162    0.00000141
     atom  192 type  1   force =    -0.00000000    0.00000000   -0.00002741

     Total force =     0.005794     Total SCF correction =     0.000217

     Computing stress (Cartesian axis) and pressure

     Non-local corr. energy    =      52.70313622 Ry

          total   stress  (Ry/bohr**3)                   (kbar)     P=      -15.40
  -0.00010231  -0.00000000   0.00000000          -15.05       -0.00        0.00
   0.00000000  -0.00010231  -0.00000000            0.00      -15.05       -0.00
   0.00000000   0.00000000  -0.00010942            0.00        0.00      -16.10

     kinetic stress (kbar)  18449.45      0.00      0.00
                                0.00  18449.45      0.00
                                0.00      0.00  18440.24

     local   stress (kbar)   5564.74     -0.07     -0.00
                               -0.07   5564.65      0.00
                               -0.00      0.00   3912.67

     nonloc. stress (kbar)     95.77     -0.00      0.00
                                0.00     95.77     -0.00
                                0.00     -0.00    106.12

     hartree stress (kbar)  19761.49     -0.00     -0.00
                               -0.00  19761.49      0.00
                               -0.00      0.00  20513.86

     exc-cor stress (kbar)   5300.37      0.00     -0.00
                                0.00   5300.37      0.00
                               -0.00      0.00   5300.50

     corecor stress (kbar) -14244.02     -0.00     -0.00
                               -0.00 -14244.02      0.00
                               -0.00      0.00 -14243.45

     ewald   stress (kbar) -35106.19      0.10      0.00
                                0.10 -35106.07     -0.00
                                0.00     -0.00 -34208.54

     hubbard stress (kbar)      0.00      0.00      0.00
                                0.00      0.00      0.00
                                0.00      0.00      0.00

     DFT-D   stress (kbar)      0.00      0.00      0.00
                                0.00      0.00      0.00
                                0.00      0.00      0.00

     XDM     stress (kbar)      0.00      0.00      0.00
                                0.00      0.00      0.00
                                0.00      0.00      0.00

     dft-nl  stress (kbar)    163.33     -0.00     -0.00
                               -0.00    163.33     -0.00
                               -0.00     -0.00    162.51

     TS-vdW  stress (kbar)      0.00      0.00      0.00
                                0.00      0.00      0.00
                                0.00      0.00      0.00

     MDB     stress (kbar)      0.00      0.00      0.00
                                0.00      0.00      0.00
                                0.00      0.00      0.00

     3D-RISM stress (kbar)      0.00      0.00      0.00
                                0.00      0.00      0.00
                                0.00      0.00      0.00

     BFGS Geometry Optimization
     Energy error            =      0.0E+00 Ry
     Gradient error          =      9.3E-04 Ry/Bohr

     bfgs converged in   1 scf cycles and   0 bfgs steps
     (criteria: energy <  1.0E-04 Ry, force <  1.0E-03 Ry/Bohr)

     End of BFGS Geometry Optimization

     Final energy             =  -30236.0120804447 Ry
Begin final coordinates

ATOMIC_POSITIONS (angstrom)
Ga            1.6222756606        0.9366198184        1.8673122885
Ga            1.6222756606        0.9366198184        7.9292330367
Ga            1.6222756606        0.9366198184       13.2113701385
Ga           -0.0047355214        3.7774801980        2.6179777431
Ga            0.0002870915        3.7871577011        7.9790507883
Ga           -0.0017692194        3.7639014198       13.1922945839
Ga           -1.6197257087        6.5578130633        2.6230826838
Ga           -1.6157153285        6.5601284574        7.9554334562
Ga           -1.6201015025        6.5575960987       13.2159460409
Ga           -3.2200695073        9.3466020250        2.6179777431
Ga           -3.2091772373        9.3461129838        7.9790507883
Ga           -3.2303459232        9.3559603070       13.1922945839
Ga            4.8960385089        0.9252226445        2.6179777431
Ga            4.9019081659        0.9160341826        7.9790507883
Ga            4.8827957910        0.9294431407       13.1922945839
Ga            3.2492868426        3.7774801980        2.6179777431
Ga            3.2442642297        3.7871577011        7.9790507883
Ga            3.2463205406        3.7639014198       13.1922945839
Ga            1.6222756606        6.5648460650        2.6379292054
Ga            1.6222756606        6.5710620271        7.9486635445
Ga            1.6222756606        6.5627450355       13.2216832063
Ga            0.0073657341        9.3619521074        2.6379292054
Ga            0.0127489152        9.3588441263        7.9486635445
Ga            0.0055461892        9.3630026222       13.2216832063
Ga            8.1113724947        0.9336787409        2.6230826838
Ga            8.1113724947        0.9290479528        7.9554334562
Ga            8.1113724947        0.9341126702       13.2159460409
Ga            6.4923289735        3.7483464097        2.6325003257
Ga            6.4942063156        3.7494302937        7.9530010959
Ga            6.4913363457        3.7477733158       13.2164510520
Ga            4.8642770299        6.5578130633        2.6230826838
Ga            4.8602666497        6.5601284574        7.9554334562
Ga            4.8646528237        6.5575960987       13.2159460409
Ga            3.2371855871        9.3619521074        2.6379292054
Ga            3.2318024060        9.3588441263        7.9486635445
Ga            3.2390051320        9.3630026222       13.2216832063
Ga           11.3267064806        0.9252226445        2.6179777431
Ga           11.3208368236        0.9160341826        7.9790507883
Ga           11.3399491985        0.9294431407       13.1922945839
Ga            9.7304160160        3.7483464097        2.6325003257
Ga            9.7285386739        3.7494302937        7.9530010959
Ga            9.7314086438        3.7477733158       13.2164510520
Ga            8.1113724947        6.5526120482        2.6325003257
Ga            8.1113724947        6.5504442803        7.9530010959
Ga            8.1113724947        6.5537582361       13.2164510520
Ga            6.4646208285        9.3466020250        2.6179777431
Ga            6.4537285585        9.3461129838        7.9790507883
Ga            6.4748972444        9.3559603070       13.1922945839
Ga           -0.3387416020        2.0688138672        5.4160890907
Ga            0.0017898830        1.8722079227       10.5840615424
Ga           -0.0823640651        1.9207942273       15.7465274128
Ga           -1.6662481897        4.7328226631        5.3068447799
Ga           -1.6308949312        4.6875576299       10.5875364161
Ga           -1.6365247001        4.6959434729       15.8478836933
Ga           -3.2234785913        7.4300248377        5.3068447799
Ga           -3.2450026307        7.4832741743       10.5875364161
Ga           -3.2405551620        7.4742057299       15.8478836933
Ga           -4.8668245904        9.9116836643        5.4160890907
Ga           -4.8668245904       10.3048955533       10.5840615424
Ga           -4.8668245904       10.2077229441       15.7465274128
[...]
N             1.6222722437       10.3041090718        7.2813036625
N             1.6222722437       10.3025526338       12.5732276472
N             9.7303839931        1.8768355530        1.9798149885
N             9.7300179380        1.8741434954        7.2865692423
N             9.7292940520        1.8759185173       12.5674076488
N             8.1113690779        4.6831037996        1.9875312478
N             8.1113690779        4.6831037996        7.2809121849
N             8.1113690779        4.6831037996       12.5704826482
N             6.4905769442        7.4883459687        1.9798149885
N             6.4880625263        7.4893749844        7.2865692423
N             6.4892377974        7.4878605699       12.5674076488
N             4.8669276812       10.3028882939        1.9838821035
N             4.8641344122       10.3012755993        7.2930633704
N             4.8606811976       10.2992818850       12.5662376674
Ga            1.6222756606        0.9366198184        4.4213893163
End final coordinates

     Writing all to output data dir ./GaN.save/

     General routines

     Parallel routines

     PAW routines

   This run was terminated on:  20:17:40  17Feb2024

   JOB DONE.