     Program PWSCF v.7.1 starts on 18Feb2024 at 12: 4:35

     Reading input from espresso.pwi
Warning: card &CELL ignored
Warning: card    CELL_DYNAMICS    = 'BFGS' ignored
Warning: card / ignored

     Current dimensions of program PWSCF are:
     Max number of different atomic species (ntypx) = 10
     Max number of k-points (npk) =  40000
     Max angular momentum in pseudopotentials (lmaxx) =  4
     file Pb.pbe-dn-kjpaw_psl.1.0.0.UPF: wavefunction(s)  6S 6P 5D renormalized
     file I.pbe-dn-kjpaw_psl.1.0.0.UPF: wavefunction(s)  5S 5P renormalized

     IMPORTANT: XC functional enforced from input :
     Exchange-correlation= BEEF-VDW
                           (   1   4  43  14   2   0   0)
     Any further DFT definition will be discarded
     Please, verify this is what you really want

     K-points division:     npool     =       2
     R & G space division:  proc/nbgrp/npool/nimage =      64
     Subspace diagonalization in iterative solution of the eigenvalue problem:
     a serial algorithm will be used

     Using Slab Decomposition

     bravais-lattice index     =            4
     lattice parameter (alat)  =      26.7090  a.u.
     unit-cell volume          =   17226.5091 (a.u.)^3
     number of atoms/cell      =           54
     number of atomic types    =            2
     number of electrons       =       866.00
     number of Kohn-Sham states=          520
     kinetic-energy cutoff     =      70.0000  Ry
     charge density cutoff     =     350.0000  Ry
     scf convergence threshold =      1.0E-07
     mixing beta               =       0.7000
     number of iterations used =            8  plain     mixing
     Exchange-correlation= BEEF-VDW
                           (   1   4  43  14   2   0   0)

     celldm(1)=  26.709025  celldm(2)=   0.000000  celldm(3)=   1.043981
     celldm(4)=   0.000000  celldm(5)=   0.000000  celldm(6)=   0.000000

     crystal axes: (cart. coord. in units of alat)
               a(1) = (   1.000000   0.000000   0.000000 )
               a(2) = (  -0.500000   0.866025   0.000000 )
               a(3) = (   0.000000   0.000000   1.043981 )

     reciprocal axes: (cart. coord. in units 2 pi/alat)
               b(1) = (  1.000000  0.577350 -0.000000 )
               b(2) = (  0.000000  1.154701  0.000000 )
               b(3) = (  0.000000 -0.000000  0.957872 )

     PseudoPot. # 1 for Pb read from file:
     //group///packages/espresso/pseudo/psl_1.0.0/pslibrary.1.0.0/pbe/PSEUDOPOTENTIALS/Pb.pbe-dn-kjpaw_psl.1.0.0.UPF
     MD5 check sum: 39ab5b8a6bbd56b7735ad9f188aac93a
     Pseudo is Projector augmented-wave + core cor, Zval = 14.0
     Generated using 'atomic' code by A. Dal Corso  v.7.1
     Shape of augmentation charge: PSQ
     Using radial grid of 1281 points,  6 beta functions with:
                l(1) =   0
                l(2) =   0
                l(3) =   1
                l(4) =   1
                l(5) =   2
                l(6) =   2
     Q(r) pseudized with 0 coefficients

     PseudoPot. # 2 for I  read from file:
     //group///packages/espresso/pseudo/psl_1.0.0/pslibrary.1.0.0/pbe/PSEUDOPOTENTIALS/I.pbe-dn-kjpaw_psl.1.0.0.UPF
     MD5 check sum: bfa8781bc1224d19af3f3980e3fab11e
     Pseudo is Projector augmented-wave + core cor, Zval = 17.0
     Generated using 'atomic' code by A. Dal Corso  v.7.1
     Shape of augmentation charge: PSQ
     Using radial grid of 1247 points,  6 beta functions with:
                l(1) =   0
                l(2) =   0
                l(3) =   1
                l(4) =   1
                l(5) =   2
                l(6) =   2
     Q(r) pseudized with 0 coefficients

     atomic species   valence    mass     pseudopotential
        Pb            14.00   207.20000     Pb( 1.00)
        I             17.00   126.90447     I ( 1.00)

     No symmetry found

                                    s                        frac. trans.

      isym =  1     identity

 cryst.   s( 1) = (     1          0          0      )
                  (     0          1          0      )
                  (     0          0          1      )

 cart.    s( 1) = (  1.0000000  0.0000000  0.0000000 )
                  (  0.0000000  1.0000000  0.0000000 )
                  (  0.0000000  0.0000000  1.0000000 )

     point group C_1 (1)
     there are  1 classes
     the character table:

       E
A      1.00

     the symmetry operations in each class and the name of the first element:

     E        1
          identity

   Cartesian axes

     site n.     atom                  positions (alat units)
         1           Pb  tau(   1) = (   0.1666712   0.2886557   0.5219862  )
         2           Pb  tau(   2) = (   0.0000102   0.5773235   1.0439712  )
         3           Pb  tau(   3) = (   0.0000034   0.5773295   0.5219807  )
         4           Pb  tau(   4) = (  -0.1666576   0.8659973   1.0439657  )
         5           Pb  tau(   5) = (  -0.1666644   0.8660033   0.5219752  )
         6           Pb  tau(   6) = (   0.5000113   0.2886484   1.0439810  )
         7           Pb  tau(   7) = (   0.5000045   0.2886544   0.5219905  )
         8           Pb  tau(   8) = (   0.3333436   0.5773222   1.0439755  )
         9           Pb  tau(   9) = (   0.3333367   0.5773282   0.5219850  )
        10           Pb  tau(  10) = (   0.1666758   0.8659960   1.0439700  )
        11           Pb  tau(  11) = (   0.1666690   0.8660020   0.5219795  )
        12           Pb  tau(  12) = (   0.8333447   0.2886471   1.0439853  )
        13           Pb  tau(  13) = (   0.8333379   0.2886531   0.5219949  )
        14           Pb  tau(  14) = (   0.6666769   0.5773209   1.0439798  )
        15           Pb  tau(  15) = (   0.6666701   0.5773269   0.5219894  )
        16           Pb  tau(  16) = (   0.5000091   0.8659947   1.0439743  )
        17           Pb  tau(  17) = (   0.5000023   0.8660007   0.5219839  )
        18           I   tau(  18) = (   0.1666738   0.0962066   0.3879099  )
        19           I   tau(  19) = (   0.1666806   0.0962006   0.9099004  )
        20           I   tau(  20) = (   0.0000060   0.3848804   0.3879044  )
        21           I   tau(  21) = (   0.0000129   0.3848744   0.9098949  )
        22           I   tau(  22) = (  -0.1666617   0.6735542   0.3878990  )
        23           I   tau(  23) = (  -0.1666549   0.6735482   0.9098894  )
        24           I   tau(  24) = (   0.5000071   0.0962053   0.3879143  )
        25           I   tau(  25) = (   0.5000140   0.0961993   0.9099047  )
        26           I   tau(  26) = (   0.3333394   0.3848792   0.3879088  )
        27           I   tau(  27) = (   0.3333462   0.3848731   0.9098993  )
        28           I   tau(  28) = (   0.1666716   0.6735530   0.3879033  )
        29           I   tau(  29) = (   0.1666784   0.6735469   0.9098938  )
        30           I   tau(  30) = (   0.8333405   0.0962041   0.3879186  )
        31           I   tau(  31) = (   0.8333473   0.0961980   0.9099091  )
        32           I   tau(  32) = (   0.6666727   0.3848779   0.3879131  )
        33           I   tau(  33) = (   0.6666795   0.3848718   0.9099036  )
        34           I   tau(  34) = (   0.5000049   0.6735517   0.3879076  )
        35           I   tau(  35) = (   0.5000117   0.6735457   0.9098981  )
        36           I   tau(  36) = (  -0.0000023   0.1924396   0.1340740  )
        37           I   tau(  37) = (   0.0000045   0.1924336   0.6560644  )
        38           I   tau(  38) = (  -0.1666701   0.4811134   0.1340685  )
        39           I   tau(  39) = (  -0.1666632   0.4811074   0.6560589  )
        40           I   tau(  40) = (  -0.3333378   0.7697873   0.1340630  )
        41           I   tau(  41) = (  -0.3333310   0.7697812   0.6560534  )
        42           I   tau(  42) = (   0.3333311   0.1924384   0.1340783  )
        43           I   tau(  43) = (   0.3333379   0.1924323   0.6560688  )
        44           I   tau(  44) = (   0.1666633   0.4811122   0.1340728  )
        45           I   tau(  45) = (   0.1666701   0.4811061   0.6560633  )
        46           I   tau(  46) = (  -0.0000045   0.7697860   0.1340673  )
        47           I   tau(  47) = (   0.0000023   0.7697799   0.6560578  )
        48           I   tau(  48) = (   0.6666644   0.1924371   0.1340827  )
        49           I   tau(  49) = (   0.6666712   0.1924310   0.6560731  )
        50           I   tau(  50) = (   0.4999966   0.4811109   0.1340772  )
        51           I   tau(  51) = (   0.5000034   0.4811049   0.6560676  )
        52           I   tau(  52) = (   0.3333288   0.7697847   0.1340717  )
        53           I   tau(  53) = (   0.3333356   0.7697787   0.6560621  )
        54           I   tau(  54) = (   0.1666780   0.2886497   1.0439767  )

   Crystallographic axes

     site n.     atom                  positions (cryst. coord.)
         1           Pb  tau(   1) = (  0.3333266  0.3333109  0.4999959  )
         2           Pb  tau(   2) = (  0.3333281  0.6666357  0.9999906  )
         3           Pb  tau(   3) = (  0.3333248  0.6666427  0.4999906  )
         4           Pb  tau(   4) = (  0.3333262  0.9999675  0.9999854  )
         5           Pb  tau(   5) = (  0.3333229  0.9999745  0.4999854  )
         6           Pb  tau(   6) = (  0.6666626  0.3333025  1.0000001  )
         7           Pb  tau(   7) = (  0.6666592  0.3333094  0.5000001  )
         8           Pb  tau(   8) = (  0.6666607  0.6666343  0.9999948  )
         9           Pb  tau(   9) = (  0.6666573  0.6666412  0.4999948  )
        10           Pb  tau(  10) = (  0.6666588  0.9999661  0.9999895  )
        11           Pb  tau(  11) = (  0.6666555  0.9999730  0.4999895  )
        12           Pb  tau(  12) = (  0.9999951  0.3333010  1.0000042  )
        13           Pb  tau(  13) = (  0.9999918  0.3333079  0.5000042  )
        14           Pb  tau(  14) = (  0.9999933  0.6666328  0.9999990  )
        15           Pb  tau(  15) = (  0.9999899  0.6666397  0.4999990  )
        16           Pb  tau(  16) = (  0.9999914  0.9999646  0.9999937  )
        17           Pb  tau(  17) = (  0.9999881  0.9999715  0.4999937  )
        18           I   tau(  18) = (  0.2222187  0.1110899  0.3715680  )
        19           I   tau(  19) = (  0.2222221  0.1110829  0.8715680  )
        20           I   tau(  20) = (  0.2222169  0.4444217  0.3715628  )
        21           I   tau(  21) = (  0.2222202  0.4444147  0.8715628  )
        22           I   tau(  22) = (  0.2222150  0.7777534  0.3715575  )
        23           I   tau(  23) = (  0.2222183  0.7777465  0.8715575  )
        24           I   tau(  24) = (  0.5555513  0.1110884  0.3715722  )
        25           I   tau(  25) = (  0.5555547  0.1110814  0.8715722  )
        26           I   tau(  26) = (  0.5555495  0.4444202  0.3715669  )
        27           I   tau(  27) = (  0.5555528  0.4444132  0.8715669  )
        28           I   tau(  28) = (  0.5555476  0.7777520  0.3715617  )
        29           I   tau(  29) = (  0.5555509  0.7777450  0.8715617  )
        30           I   tau(  30) = (  0.8888839  0.1110869  0.3715764  )
        31           I   tau(  31) = (  0.8888873  0.1110799  0.8715764  )
[...]
     atom   38 type  2   force =     0.00030133   -0.00004599    0.00536720
     atom   39 type  2   force =    -0.00013725    0.00022708    0.00514247
     atom   40 type  2   force =     0.00018242    0.00008806    0.00536672
     atom   41 type  2   force =     0.00009013   -0.00022455    0.00511595
     atom   42 type  2   force =    -0.00081996    0.00027495    0.00453718
     atom   43 type  2   force =     0.00000672   -0.00007412    0.00514201
     atom   44 type  2   force =    -0.00002856   -0.00085011    0.00458135
     atom   45 type  2   force =    -0.00012717    0.00003611    0.00508491
     atom   46 type  2   force =     0.00036227    0.00005276    0.00553766
     atom   47 type  2   force =    -0.00017856   -0.00021437    0.00509134
     atom   48 type  2   force =     0.00016529   -0.00020505    0.00558396
     atom   49 type  2   force =    -0.00010333   -0.00007532    0.00513234
     atom   50 type  2   force =    -0.00004925   -0.00007093    0.00541629
     atom   51 type  2   force =    -0.00001185    0.00017076    0.00510563
     atom   52 type  2   force =    -0.00030477    0.00010813    0.00554737
     atom   53 type  2   force =    -0.00003105   -0.00020828    0.00507856
     atom   54 type  2   force =    -0.00008164   -0.00014081   -0.00000234
     The Hubbard contrib.    to forces
     atom    1 type  1   force =     0.00000000    0.00000000    0.00000000
     atom    2 type  1   force =     0.00000000    0.00000000    0.00000000
     atom    3 type  1   force =     0.00000000    0.00000000    0.00000000
     atom    4 type  1   force =     0.00000000    0.00000000    0.00000000
     atom    5 type  1   force =     0.00000000    0.00000000    0.00000000
     atom    6 type  1   force =     0.00000000    0.00000000    0.00000000
     atom    7 type  1   force =     0.00000000    0.00000000    0.00000000
     atom    8 type  1   force =     0.00000000    0.00000000    0.00000000
     atom    9 type  1   force =     0.00000000    0.00000000    0.00000000
     atom   10 type  1   force =     0.00000000    0.00000000    0.00000000
     atom   11 type  1   force =     0.00000000    0.00000000    0.00000000
     atom   12 type  1   force =     0.00000000    0.00000000    0.00000000
     atom   13 type  1   force =     0.00000000    0.00000000    0.00000000
     atom   14 type  1   force =     0.00000000    0.00000000    0.00000000
     atom   15 type  1   force =     0.00000000    0.00000000    0.00000000
     atom   16 type  1   force =     0.00000000    0.00000000    0.00000000
     atom   17 type  1   force =     0.00000000    0.00000000    0.00000000
     atom   18 type  2   force =     0.00000000    0.00000000    0.00000000
     atom   19 type  2   force =     0.00000000    0.00000000    0.00000000
     atom   20 type  2   force =     0.00000000    0.00000000    0.00000000
     atom   21 type  2   force =     0.00000000    0.00000000    0.00000000
     atom   22 type  2   force =     0.00000000    0.00000000    0.00000000
     atom   23 type  2   force =     0.00000000    0.00000000    0.00000000
     atom   24 type  2   force =     0.00000000    0.00000000    0.00000000
     atom   25 type  2   force =     0.00000000    0.00000000    0.00000000
     atom   26 type  2   force =     0.00000000    0.00000000    0.00000000
     atom   27 type  2   force =     0.00000000    0.00000000    0.00000000
     atom   28 type  2   force =     0.00000000    0.00000000    0.00000000
     atom   29 type  2   force =     0.00000000    0.00000000    0.00000000
     atom   30 type  2   force =     0.00000000    0.00000000    0.00000000
     atom   31 type  2   force =     0.00000000    0.00000000    0.00000000
     atom   32 type  2   force =     0.00000000    0.00000000    0.00000000
     atom   33 type  2   force =     0.00000000    0.00000000    0.00000000
     atom   34 type  2   force =     0.00000000    0.00000000    0.00000000
     atom   35 type  2   force =     0.00000000    0.00000000    0.00000000
     atom   36 type  2   force =     0.00000000    0.00000000    0.00000000
     atom   37 type  2   force =     0.00000000    0.00000000    0.00000000
     atom   38 type  2   force =     0.00000000    0.00000000    0.00000000
     atom   39 type  2   force =     0.00000000    0.00000000    0.00000000
     atom   40 type  2   force =     0.00000000    0.00000000    0.00000000
     atom   41 type  2   force =     0.00000000    0.00000000    0.00000000
     atom   42 type  2   force =     0.00000000    0.00000000    0.00000000
     atom   43 type  2   force =     0.00000000    0.00000000    0.00000000
     atom   44 type  2   force =     0.00000000    0.00000000    0.00000000
     atom   45 type  2   force =     0.00000000    0.00000000    0.00000000
     atom   46 type  2   force =     0.00000000    0.00000000    0.00000000
     atom   47 type  2   force =     0.00000000    0.00000000    0.00000000
     atom   48 type  2   force =     0.00000000    0.00000000    0.00000000
     atom   49 type  2   force =     0.00000000    0.00000000    0.00000000
     atom   50 type  2   force =     0.00000000    0.00000000    0.00000000
     atom   51 type  2   force =     0.00000000    0.00000000    0.00000000
     atom   52 type  2   force =     0.00000000    0.00000000    0.00000000
     atom   53 type  2   force =     0.00000000    0.00000000    0.00000000
     atom   54 type  2   force =     0.00000000    0.00000000    0.00000000
     The SCF correction term to forces
     atom    1 type  1   force =     0.00001641    0.00002420   -0.00000538
     atom    2 type  1   force =     0.00003863    0.00000971    0.00003083
     atom    3 type  1   force =    -0.00001131    0.00005274   -0.00001440
     atom    4 type  1   force =     0.00003679   -0.00001504    0.00001258
     atom    5 type  1   force =     0.00004026   -0.00005071   -0.00000605
     atom    6 type  1   force =     0.00000303   -0.00001085    0.00003701
     atom    7 type  1   force =     0.00004253    0.00000425   -0.00001613
     atom    8 type  1   force =    -0.00004868    0.00000428    0.00006097
     atom    9 type  1   force =     0.00000967    0.00003813   -0.00002482
     atom   10 type  1   force =    -0.00003805   -0.00004132    0.00000846
     atom   11 type  1   force =    -0.00001801   -0.00002224    0.00001749
     atom   12 type  1   force =    -0.00005745    0.00006443   -0.00005768
     atom   13 type  1   force =    -0.00005909    0.00002131    0.00001601
     atom   14 type  1   force =     0.00000833   -0.00000333    0.00000096
     atom   15 type  1   force =     0.00000171   -0.00000221   -0.00002651
     atom   16 type  1   force =     0.00000152   -0.00008857   -0.00005294
     atom   17 type  1   force =    -0.00002205   -0.00006497    0.00001590
     atom   18 type  2   force =     0.00005386   -0.00004848    0.00001764
     atom   19 type  2   force =     0.00003268   -0.00002917   -0.00004788
     atom   20 type  2   force =    -0.00000594    0.00009394    0.00000305
     atom   21 type  2   force =    -0.00000812    0.00006640   -0.00003142
     atom   22 type  2   force =     0.00001428   -0.00000929    0.00002021
     atom   23 type  2   force =     0.00002225   -0.00000700   -0.00001923
     atom   24 type  2   force =     0.00001184   -0.00002249    0.00001351
     atom   25 type  2   force =     0.00001017   -0.00002869   -0.00002117
     atom   26 type  2   force =     0.00002996    0.00004586   -0.00003906
     atom   27 type  2   force =     0.00000892    0.00002973   -0.00000295
     atom   28 type  2   force =    -0.00001047   -0.00000844   -0.00001003
     atom   29 type  2   force =    -0.00002258   -0.00000261    0.00000030
     atom   30 type  2   force =    -0.00007189   -0.00004543    0.00008112
     atom   31 type  2   force =    -0.00004472   -0.00002199   -0.00007765
     atom   32 type  2   force =    -0.00002415    0.00003039    0.00003336
     atom   33 type  2   force =     0.00001065    0.00001421   -0.00002805
     atom   34 type  2   force =    -0.00000368   -0.00004281    0.00002983
     atom   35 type  2   force =     0.00000169   -0.00000964   -0.00002596
     atom   36 type  2   force =     0.00001533    0.00003093    0.00003943
     atom   37 type  2   force =    -0.00003303   -0.00001078    0.00001602
     atom   38 type  2   force =     0.00000903    0.00006599    0.00003183
     atom   39 type  2   force =    -0.00001430    0.00002718   -0.00002398
     atom   40 type  2   force =     0.00004595   -0.00005819    0.00003787
     atom   41 type  2   force =     0.00001161   -0.00003647   -0.00002885
     atom   42 type  2   force =     0.00005721    0.00001012    0.00003799
     atom   43 type  2   force =     0.00004290   -0.00003080   -0.00000847
     atom   44 type  2   force =     0.00001907    0.00007703    0.00002844
     atom   45 type  2   force =    -0.00001263    0.00006197   -0.00001080
     atom   46 type  2   force =     0.00001946   -0.00003394    0.00002918
     atom   47 type  2   force =     0.00001299   -0.00000659   -0.00003679
     atom   48 type  2   force =    -0.00008137   -0.00000321    0.00002773
     atom   49 type  2   force =    -0.00001025   -0.00001487   -0.00002886
     atom   50 type  2   force =    -0.00002629    0.00000345    0.00005531
     atom   51 type  2   force =     0.00003061    0.00002317   -0.00005546
     atom   52 type  2   force =    -0.00006652   -0.00010236    0.00003042
     atom   53 type  2   force =    -0.00002518   -0.00001096   -0.00003488
     atom   54 type  2   force =     0.00006974    0.00010368    0.00000564

     Total force =     0.002723     Total SCF correction =     0.000466
     SCF correction compared to forces is large: reduce conv_thr to get better values

     Computing stress (Cartesian axis) and pressure

[...]

          total   stress  (Ry/bohr**3)                   (kbar)     P=       -5.17
  -0.00003541   0.00000016  -0.00000033           -5.21        0.02       -0.05
   0.00000016  -0.00003515   0.00000024            0.02       -5.17        0.03
  -0.00000033   0.00000024  -0.00003490           -0.05        0.03       -5.13

     kinetic stress (kbar)  14857.94     -0.04     -0.01
                               -0.04  14857.94      0.03
                               -0.01      0.03  14868.64

     local   stress (kbar)  -7462.99     -5.71      5.13
                               -5.71  -7468.37     -2.39
                                5.13     -2.39   1383.20

     nonloc. stress (kbar)   -885.89     -0.02     -0.02
                               -0.02   -885.89      0.03
                               -0.02      0.03   -890.73

     hartree stress (kbar)  12114.58      2.14     -1.92
                                2.14  12116.60      0.89
                               -1.92      0.89   8118.97

     exc-cor stress (kbar)   7013.94      0.01     -0.01
                                0.01   7013.95      0.00
                               -0.01      0.00   7012.98

     corecor stress (kbar) -11401.85     -0.00      0.00
                               -0.00 -11401.85     -0.00
                                0.00     -0.00 -11401.80

     ewald   stress (kbar) -14325.24      3.64     -3.23
                                3.64 -14321.85      1.47
                               -3.23      1.47 -19181.95

     hubbard stress (kbar)      0.00      0.00      0.00
                                0.00      0.00      0.00
                                0.00      0.00      0.00

     DFT-D   stress (kbar)      0.00      0.00      0.00
                                0.00      0.00      0.00
                                0.00      0.00      0.00

     XDM     stress (kbar)      0.00      0.00      0.00
                                0.00      0.00      0.00
                                0.00      0.00      0.00

     dft-nl  stress (kbar)     84.31     -0.00      0.00
                               -0.00     84.31     -0.00
                                0.00     -0.00     85.55

     TS-vdW  stress (kbar)      0.00      0.00      0.00
                                0.00      0.00      0.00
                                0.00      0.00      0.00

     MDB     stress (kbar)      0.00      0.00      0.00
                                0.00      0.00      0.00
                                0.00      0.00      0.00

     3D-RISM stress (kbar)      0.00      0.00      0.00
                                0.00      0.00      0.00
                                0.00      0.00      0.00

[...]

     Non-local corr. energy    =      26.19276388 Ry

 BEEFens 2000 ensemble energies
             -0.219101212506780E+02
             -0.220667167351251E+03
             -0.100414850720695E+03
              0.770393455341413E+02
             -0.168671853428970E+03
             -0.206561232047425E+03
              0.106014300491363E+03
              0.478225673494194E+00
              0.178639059639934E+03
             -0.113348132678991E+02
              0.914852309487504E+02
              0.939308454920001E+01
             -0.704028890803306E+01
             -0.568835409675739E+01
              0.114091762927591E+03
             -0.857850330995709E+02
             -0.168535948603249E+03
             -0.543956158985535E+02
              0.487894625945924E+02
             -0.990085836079743E+00
              0.248535936633165E+03
              0.207427942583096E+03
             -0.127834425962989E+03
              0.441510605817356E+02
             -0.266242281670250E+03
              0.218544130980277E+03
              0.746912353245780E+02
              0.197350660434059E+03
              0.133007314542330E+03
             -0.617620319748839E+02
              0.486765327500468E+02
             -0.870398219002529E+02
              0.363504527841047E+02
              0.132313187895951E+03
              0.142310331122849E+03
             -0.618837885913356E+02
              0.314096446884781E+03
             -0.126373587130638E+03
             -0.842228019858712E+02
              0.125623716992891E+03
              0.553666321660301E+02
              0.954410929580101E+02
             -0.184315756486992E+03
             -0.119376042373269E+02
              0.176881915530206E+03
              0.231174595696863E+03
             -0.234672097488744E+03
              0.150727642279141E+02
              0.813835344360489E+02
              0.525800220809429E+02
              0.917917105415806E+02
              0.201509240241031E+03
             -0.130880681409699E+03
             -0.127041559920380E+03
             -0.177023567134209E+03
             -0.257157315499223E+02
             -0.151033014904253E+03
              0.195167871522019E+02
             -0.217508488272661E+02
             -0.119737224107284E+03
[...]
              0.149502367467158E+03
              0.958133964594414E+02
              0.976861693323601E+02
             -0.180747081815119E+03
             -0.186723917030111E+03
             -0.420867410017616E+02
             -0.166875959069197E+03
              0.264945224899001E+03
              0.223173144154188E+03
              0.105215104573039E+03
              0.290171887179731E+03
             -0.145075457284404E+03
             -0.624208203590513E+02
             -0.899736768820434E+02
              0.250999545300036E+03

 BEEF-vdW xc energy contributions
            1 :    -2268.767300641480
            2 :     2079.008759166516
            3 :    -1755.390147160832
            4 :     1384.090430841667
            5 :    -1046.318592901111
            6 :     792.1545524374287
            7 :    -632.3508471901760
            8 :     545.7752159837978
            9 :    -495.4438486784220
           10 :     446.2521318543825
           11 :    -378.3609170206596
           12 :     291.6196743822052
           13 :    -200.2359660425882
           14 :     121.8871764563132
           15 :    -67.82463393759463
           16 :     38.56649644450954
           17 :    -25.72077628984516
           18 :     17.50935847177243
           19 :    -4.769649572782328
           20 :    -15.21470894272716
           21 :     38.52954419872458
           22 :    -57.90689914398081
           23 :     67.50949987446711
           24 :    -66.45662215108132
           25 :     59.20047475431511
           26 :    -52.84661399057859
           27 :     53.19131466332965
           28 :    -61.68363700910095
           29 :     74.79610181864109
           30 :    -86.00783707321716
           31 :    -194.6635471919299
           32 :    -139.9622720427683

     Writing all to output data dir ./PbI2.save/

     General routines

     Parallel routines

     PAW routines

   This run was terminated on:  12: 8: 3  18Feb2024

   JOB DONE.