     Program PWSCF v.7.1 starts on 12Feb2024 at  8:13:27

     Reading input from espresso.pwi
Warning: card &CELL ignored
Warning: card    CELL_DYNAMICS    = 'BFGS' ignored
Warning: card / ignored

     Current dimensions of program PWSCF are:
     Max number of different atomic species (ntypx) = 10
     Max number of k-points (npk) =  40000
     Max angular momentum in pseudopotentials (lmaxx) =  4
     file Pb.pbe-dn-kjpaw_psl.1.0.0.UPF: wavefunction(s)  6S 6P 5D renormalized
     file I.pbe-dn-kjpaw_psl.1.0.0.UPF: wavefunction(s)  5S 5P renormalized

     IMPORTANT: XC functional enforced from input :
     Exchange-correlation= BEEF-VDW
                           (   1   4  43  14   2   0   0)
     Any further DFT definition will be discarded
     Please, verify this is what you really want

     K-points division:     npool     =       2
     R & G space division:  proc/nbgrp/npool/nimage =      64
     Subspace diagonalization in iterative solution of the eigenvalue problem:
     a serial algorithm will be used

     Using Slab Decomposition

     bravais-lattice index     =            4
     lattice parameter (alat)  =      26.7090  a.u.
     unit-cell volume          =   17226.5091 (a.u.)^3
     number of atoms/cell      =           54
     number of atomic types    =            2
     number of electrons       =       866.00
     number of Kohn-Sham states=          520
     kinetic-energy cutoff     =      70.0000  Ry
     charge density cutoff     =     350.0000  Ry
     scf convergence threshold =      1.0E-07
     mixing beta               =       0.7000
     number of iterations used =            8  plain     mixing
     energy convergence thresh.=      1.0E-04
     force convergence thresh. =      1.0E-03
     Exchange-correlation= BEEF-VDW
                           (   1   4  43  14   2   0   0)
     nstep                     =           50

     celldm(1)=  26.709025  celldm(2)=   0.000000  celldm(3)=   1.043981
     celldm(4)=   0.000000  celldm(5)=   0.000000  celldm(6)=   0.000000

     crystal axes: (cart. coord. in units of alat)
               a(1) = (   1.000000   0.000000   0.000000 )
               a(2) = (  -0.500000   0.866025   0.000000 )
               a(3) = (   0.000000   0.000000   1.043981 )

     reciprocal axes: (cart. coord. in units 2 pi/alat)
               b(1) = (  1.000000  0.577350 -0.000000 )
               b(2) = (  0.000000  1.154701  0.000000 )
               b(3) = (  0.000000 -0.000000  0.957872 )

     PseudoPot. # 1 for Pb read from file:
     //group///packages/espresso/pseudo/psl_1.0.0/pslibrary.1.0.0/pbe/PSEUDOPOTENTIALS/Pb.pbe-dn-kjpaw_psl.1.0.0.UPF
     MD5 check sum: 39ab5b8a6bbd56b7735ad9f188aac93a
     Pseudo is Projector augmented-wave + core cor, Zval = 14.0
     Generated using 'atomic' code by A. Dal Corso  v.7.1
     Shape of augmentation charge: PSQ
     Using radial grid of 1281 points,  6 beta functions with:
                l(1) =   0
                l(2) =   0
                l(3) =   1
                l(4) =   1
                l(5) =   2
                l(6) =   2
     Q(r) pseudized with 0 coefficients

     PseudoPot. # 2 for I  read from file:
     //group///packages/espresso/pseudo/psl_1.0.0/pslibrary.1.0.0/pbe/PSEUDOPOTENTIALS/I.pbe-dn-kjpaw_psl.1.0.0.UPF
     MD5 check sum: bfa8781bc1224d19af3f3980e3fab11e
     Pseudo is Projector augmented-wave + core cor, Zval = 17.0
     Generated using 'atomic' code by A. Dal Corso  v.7.1
     Shape of augmentation charge: PSQ
     Using radial grid of 1247 points,  6 beta functions with:
                l(1) =   0
                l(2) =   0
                l(3) =   1
                l(4) =   1
                l(5) =   2
                l(6) =   2
     Q(r) pseudized with 0 coefficients

     atomic species   valence    mass     pseudopotential
        Pb            14.00   207.20000     Pb( 1.00)
        I             17.00   126.90447     I ( 1.00)

     No symmetry found

                                    s                        frac. trans.

      isym =  1     identity

 cryst.   s( 1) = (     1          0          0      )
                  (     0          1          0      )
                  (     0          0          1      )

 cart.    s( 1) = (  1.0000000  0.0000000  0.0000000 )
                  (  0.0000000  1.0000000  0.0000000 )
                  (  0.0000000  0.0000000  1.0000000 )

     point group C_1 (1)
     there are  1 classes
     the character table:

       E
A      1.00

     the symmetry operations in each class and the name of the first element:

     E        1
          identity

   Cartesian axes

     site n.     atom                  positions (alat units)
         1           Pb  tau(   1) = (   0.1666712   0.2886557   0.5219862  )
         2           Pb  tau(   2) = (   0.0000102   0.5773235   1.0439712  )
         3           Pb  tau(   3) = (   0.0000034   0.5773295   0.5219807  )
         4           Pb  tau(   4) = (  -0.1666576   0.8659973   1.0439657  )
         5           Pb  tau(   5) = (  -0.1666644   0.8660033   0.5219752  )
         6           Pb  tau(   6) = (   0.5000113   0.2886484   1.0439810  )
         7           Pb  tau(   7) = (   0.5000045   0.2886544   0.5219905  )
         8           Pb  tau(   8) = (   0.3333436   0.5773222   1.0439755  )
         9           Pb  tau(   9) = (   0.3333367   0.5773282   0.5219850  )
        10           Pb  tau(  10) = (   0.1666758   0.8659960   1.0439700  )
        11           Pb  tau(  11) = (   0.1666690   0.8660020   0.5219795  )
        12           Pb  tau(  12) = (   0.8333447   0.2886471   1.0439853  )
        13           Pb  tau(  13) = (   0.8333379   0.2886531   0.5219949  )
        14           Pb  tau(  14) = (   0.6666769   0.5773209   1.0439798  )
        15           Pb  tau(  15) = (   0.6666701   0.5773269   0.5219894  )
        16           Pb  tau(  16) = (   0.5000091   0.8659947   1.0439743  )
        17           Pb  tau(  17) = (   0.5000023   0.8660007   0.5219839  )
        18           I   tau(  18) = (   0.1666738   0.0962066   0.3879099  )
        19           I   tau(  19) = (   0.1666806   0.0962006   0.9099004  )
        20           I   tau(  20) = (   0.0000060   0.3848804   0.3879044  )
        21           I   tau(  21) = (   0.0000129   0.3848744   0.9098949  )
        22           I   tau(  22) = (  -0.1666617   0.6735542   0.3878990  )
        23           I   tau(  23) = (  -0.1666549   0.6735482   0.9098894  )
        24           I   tau(  24) = (   0.5000071   0.0962053   0.3879143  )
        25           I   tau(  25) = (   0.5000140   0.0961993   0.9099047  )
        26           I   tau(  26) = (   0.3333394   0.3848792   0.3879088  )
        27           I   tau(  27) = (   0.3333462   0.3848731   0.9098993  )
        28           I   tau(  28) = (   0.1666716   0.6735530   0.3879033  )
        29           I   tau(  29) = (   0.1666784   0.6735469   0.9098938  )
        30           I   tau(  30) = (   0.8333405   0.0962041   0.3879186  )
        31           I   tau(  31) = (   0.8333473   0.0961980   0.9099091  )
        32           I   tau(  32) = (   0.6666727   0.3848779   0.3879131  )
        33           I   tau(  33) = (   0.6666795   0.3848718   0.9099036  )
        34           I   tau(  34) = (   0.5000049   0.6735517   0.3879076  )
        35           I   tau(  35) = (   0.5000117   0.6735457   0.9098981  )
        36           I   tau(  36) = (  -0.0000023   0.1924396   0.1340740  )
        37           I   tau(  37) = (   0.0000045   0.1924336   0.6560644  )
        38           I   tau(  38) = (  -0.1666701   0.4811134   0.1340685  )
        39           I   tau(  39) = (  -0.1666632   0.4811074   0.6560589  )
        40           I   tau(  40) = (  -0.3333378   0.7697873   0.1340630  )
        41           I   tau(  41) = (  -0.3333310   0.7697812   0.6560534  )
        42           I   tau(  42) = (   0.3333311   0.1924384   0.1340783  )
        43           I   tau(  43) = (   0.3333379   0.1924323   0.6560688  )
        44           I   tau(  44) = (   0.1666633   0.4811122   0.1340728  )
        45           I   tau(  45) = (   0.1666701   0.4811061   0.6560633  )
        46           I   tau(  46) = (  -0.0000045   0.7697860   0.1340673  )
        47           I   tau(  47) = (   0.0000023   0.7697799   0.6560578  )
        48           I   tau(  48) = (   0.6666644   0.1924371   0.1340827  )
        49           I   tau(  49) = (   0.6666712   0.1924310   0.6560731  )
        50           I   tau(  50) = (   0.4999966   0.4811109   0.1340772  )
        51           I   tau(  51) = (   0.5000034   0.4811049   0.6560676  )
        52           I   tau(  52) = (   0.3333288   0.7697847   0.1340717  )
        53           I   tau(  53) = (   0.3333356   0.7697787   0.6560621  )
        54           I   tau(  54) = (   0.1666780   0.2886497   1.0439767  )

   Crystallographic axes

     site n.     atom                  positions (cryst. coord.)
         1           Pb  tau(   1) = (  0.3333266  0.3333109  0.4999959  )
         2           Pb  tau(   2) = (  0.3333281  0.6666357  0.9999906  )
         3           Pb  tau(   3) = (  0.3333248  0.6666427  0.4999906  )
         4           Pb  tau(   4) = (  0.3333262  0.9999675  0.9999854  )
         5           Pb  tau(   5) = (  0.3333229  0.9999745  0.4999854  )
         6           Pb  tau(   6) = (  0.6666626  0.3333025  1.0000001  )
         7           Pb  tau(   7) = (  0.6666592  0.3333094  0.5000001  )
         8           Pb  tau(   8) = (  0.6666607  0.6666343  0.9999948  )
         9           Pb  tau(   9) = (  0.6666573  0.6666412  0.4999948  )
        10           Pb  tau(  10) = (  0.6666588  0.9999661  0.9999895  )
        11           Pb  tau(  11) = (  0.6666555  0.9999730  0.4999895  )
        12           Pb  tau(  12) = (  0.9999951  0.3333010  1.0000042  )
        13           Pb  tau(  13) = (  0.9999918  0.3333079  0.5000042  )
        14           Pb  tau(  14) = (  0.9999933  0.6666328  0.9999990  )
        15           Pb  tau(  15) = (  0.9999899  0.6666397  0.4999990  )
        16           Pb  tau(  16) = (  0.9999914  0.9999646  0.9999937  )
        17           Pb  tau(  17) = (  0.9999881  0.9999715  0.4999937  )
        18           I   tau(  18) = (  0.2222187  0.1110899  0.3715680  )
        19           I   tau(  19) = (  0.2222221  0.1110829  0.8715680  )
        20           I   tau(  20) = (  0.2222169  0.4444217  0.3715628  )
        21           I   tau(  21) = (  0.2222202  0.4444147  0.8715628  )
        22           I   tau(  22) = (  0.2222150  0.7777534  0.3715575  )
        23           I   tau(  23) = (  0.2222183  0.7777465  0.8715575  )
        24           I   tau(  24) = (  0.5555513  0.1110884  0.3715722  )
        25           I   tau(  25) = (  0.5555547  0.1110814  0.8715722  )
        26           I   tau(  26) = (  0.5555495  0.4444202  0.3715669  )
        27           I   tau(  27) = (  0.5555528  0.4444132  0.8715669  )
        28           I   tau(  28) = (  0.5555476  0.7777520  0.3715617  )
        29           I   tau(  29) = (  0.5555509  0.7777450  0.8715617  )
[...]
     atom   38 type  2   force =     0.00030144   -0.00004601    0.00536742
     atom   39 type  2   force =    -0.00013724    0.00022709    0.00514233
     atom   40 type  2   force =     0.00018244    0.00008812    0.00536694
     atom   41 type  2   force =     0.00009011   -0.00022450    0.00511584
     atom   42 type  2   force =    -0.00082042    0.00027522    0.00453696
     atom   43 type  2   force =     0.00000678   -0.00007418    0.00514236
     atom   44 type  2   force =    -0.00002853   -0.00085085    0.00458066
     atom   45 type  2   force =    -0.00012715    0.00003618    0.00508517
     atom   46 type  2   force =     0.00036226    0.00005267    0.00553758
     atom   47 type  2   force =    -0.00017858   -0.00021438    0.00509102
     atom   48 type  2   force =     0.00016524   -0.00020499    0.00558405
     atom   49 type  2   force =    -0.00010336   -0.00007535    0.00513211
     atom   50 type  2   force =    -0.00004930   -0.00007095    0.00541656
     atom   51 type  2   force =    -0.00001181    0.00017082    0.00510541
     atom   52 type  2   force =    -0.00030478    0.00010797    0.00554738
     atom   53 type  2   force =    -0.00003104   -0.00020829    0.00507826
     atom   54 type  2   force =    -0.00008102   -0.00013990   -0.00000234
     The Hubbard contrib.    to forces
     atom    1 type  1   force =     0.00000000    0.00000000    0.00000000
     atom    2 type  1   force =     0.00000000    0.00000000    0.00000000
     atom    3 type  1   force =     0.00000000    0.00000000    0.00000000
     atom    4 type  1   force =     0.00000000    0.00000000    0.00000000
     atom    5 type  1   force =     0.00000000    0.00000000    0.00000000
     atom    6 type  1   force =     0.00000000    0.00000000    0.00000000
     atom    7 type  1   force =     0.00000000    0.00000000    0.00000000
     atom    8 type  1   force =     0.00000000    0.00000000    0.00000000
     atom    9 type  1   force =     0.00000000    0.00000000    0.00000000
     atom   10 type  1   force =     0.00000000    0.00000000    0.00000000
     atom   11 type  1   force =     0.00000000    0.00000000    0.00000000
     atom   12 type  1   force =     0.00000000    0.00000000    0.00000000
     atom   13 type  1   force =     0.00000000    0.00000000    0.00000000
     atom   14 type  1   force =     0.00000000    0.00000000    0.00000000
     atom   15 type  1   force =     0.00000000    0.00000000    0.00000000
     atom   16 type  1   force =     0.00000000    0.00000000    0.00000000
     atom   17 type  1   force =     0.00000000    0.00000000    0.00000000
     atom   18 type  2   force =     0.00000000    0.00000000    0.00000000
     atom   19 type  2   force =     0.00000000    0.00000000    0.00000000
     atom   20 type  2   force =     0.00000000    0.00000000    0.00000000
     atom   21 type  2   force =     0.00000000    0.00000000    0.00000000
     atom   22 type  2   force =     0.00000000    0.00000000    0.00000000
     atom   23 type  2   force =     0.00000000    0.00000000    0.00000000
     atom   24 type  2   force =     0.00000000    0.00000000    0.00000000
     atom   25 type  2   force =     0.00000000    0.00000000    0.00000000
     atom   26 type  2   force =     0.00000000    0.00000000    0.00000000
     atom   27 type  2   force =     0.00000000    0.00000000    0.00000000
     atom   28 type  2   force =     0.00000000    0.00000000    0.00000000
     atom   29 type  2   force =     0.00000000    0.00000000    0.00000000
     atom   30 type  2   force =     0.00000000    0.00000000    0.00000000
     atom   31 type  2   force =     0.00000000    0.00000000    0.00000000
     atom   32 type  2   force =     0.00000000    0.00000000    0.00000000
     atom   33 type  2   force =     0.00000000    0.00000000    0.00000000
     atom   34 type  2   force =     0.00000000    0.00000000    0.00000000
     atom   35 type  2   force =     0.00000000    0.00000000    0.00000000
     atom   36 type  2   force =     0.00000000    0.00000000    0.00000000
     atom   37 type  2   force =     0.00000000    0.00000000    0.00000000
     atom   38 type  2   force =     0.00000000    0.00000000    0.00000000
     atom   39 type  2   force =     0.00000000    0.00000000    0.00000000
     atom   40 type  2   force =     0.00000000    0.00000000    0.00000000
     atom   41 type  2   force =     0.00000000    0.00000000    0.00000000
     atom   42 type  2   force =     0.00000000    0.00000000    0.00000000
     atom   43 type  2   force =     0.00000000    0.00000000    0.00000000
     atom   44 type  2   force =     0.00000000    0.00000000    0.00000000
     atom   45 type  2   force =     0.00000000    0.00000000    0.00000000
     atom   46 type  2   force =     0.00000000    0.00000000    0.00000000
     atom   47 type  2   force =     0.00000000    0.00000000    0.00000000
     atom   48 type  2   force =     0.00000000    0.00000000    0.00000000
     atom   49 type  2   force =     0.00000000    0.00000000    0.00000000
     atom   50 type  2   force =     0.00000000    0.00000000    0.00000000
     atom   51 type  2   force =     0.00000000    0.00000000    0.00000000
     atom   52 type  2   force =     0.00000000    0.00000000    0.00000000
     atom   53 type  2   force =     0.00000000    0.00000000    0.00000000
     atom   54 type  2   force =     0.00000000    0.00000000    0.00000000
     The SCF correction term to forces
     atom    1 type  1   force =    -0.00000270   -0.00000385    0.00000101
     atom    2 type  1   force =    -0.00000692   -0.00000030   -0.00000439
     atom    3 type  1   force =     0.00000516   -0.00001502    0.00000212
     atom    4 type  1   force =    -0.00000593    0.00000066   -0.00000259
     atom    5 type  1   force =    -0.00000983    0.00001446    0.00000069
     atom    6 type  1   force =     0.00000345   -0.00000087   -0.00000217
     atom    7 type  1   force =    -0.00001463   -0.00000199    0.00000139
     atom    8 type  1   force =     0.00000738    0.00000368   -0.00000574
     atom    9 type  1   force =    -0.00000614   -0.00001243    0.00000267
     atom   10 type  1   force =     0.00000506    0.00000620   -0.00000453
     atom   11 type  1   force =     0.00000174    0.00000308   -0.00000920
     atom   12 type  1   force =     0.00000631   -0.00000782    0.00000578
     atom   13 type  1   force =     0.00001756   -0.00000246   -0.00000086
     atom   14 type  1   force =     0.00000042    0.00000198    0.00000293
     atom   15 type  1   force =     0.00000083    0.00000092    0.00001054
     atom   16 type  1   force =     0.00000105    0.00001029    0.00000464
     atom   17 type  1   force =     0.00000817    0.00001691   -0.00000117
     atom   18 type  2   force =    -0.00000443    0.00001089    0.00000380
     atom   19 type  2   force =    -0.00000430   -0.00000539    0.00000667
     atom   20 type  2   force =     0.00000645   -0.00001261    0.00000611
     atom   21 type  2   force =    -0.00000776   -0.00000348    0.00000414
     atom   22 type  2   force =     0.00000052    0.00000365   -0.00000806
     atom   23 type  2   force =    -0.00000395   -0.00000132    0.00000522
     atom   24 type  2   force =    -0.00000434    0.00000337   -0.00000926
     atom   25 type  2   force =    -0.00000048    0.00000085    0.00001064
     atom   26 type  2   force =    -0.00000815   -0.00000901    0.00000913
     atom   27 type  2   force =     0.00000511   -0.00000028    0.00000113
     atom   28 type  2   force =     0.00000016    0.00000033   -0.00000471
     atom   29 type  2   force =     0.00000168    0.00000188    0.00000780
     atom   30 type  2   force =     0.00000920    0.00000648   -0.00001591
     atom   31 type  2   force =     0.00000576    0.00000207    0.00001637
     atom   32 type  2   force =     0.00000290   -0.00000543   -0.00001034
     atom   33 type  2   force =     0.00000285   -0.00000131    0.00000684
     atom   34 type  2   force =    -0.00000066    0.00000639   -0.00000989
     atom   35 type  2   force =     0.00000225    0.00000377    0.00000657
     atom   36 type  2   force =    -0.00000904   -0.00000791   -0.00000625
     atom   37 type  2   force =     0.00000762    0.00000436   -0.00000605
     atom   38 type  2   force =    -0.00000362   -0.00000663   -0.00001244
     atom   39 type  2   force =     0.00000393   -0.00000504    0.00001094
     atom   40 type  2   force =    -0.00000509    0.00000577   -0.00001316
     atom   41 type  2   force =    -0.00000066    0.00000608    0.00001112
     atom   42 type  2   force =     0.00000129   -0.00000679   -0.00000625
     atom   43 type  2   force =    -0.00001031    0.00000457   -0.00000622
     atom   44 type  2   force =    -0.00000319   -0.00000064   -0.00000375
     atom   45 type  2   force =    -0.00000107   -0.00001243   -0.00000477
     atom   46 type  2   force =    -0.00000284    0.00000595   -0.00000517
     atom   47 type  2   force =    -0.00000349    0.00000007    0.00001041
     atom   48 type  2   force =     0.00000717   -0.00000153   -0.00000586
     atom   49 type  2   force =     0.00000299    0.00000396    0.00000852
     atom   50 type  2   force =     0.00000469   -0.00000003   -0.00001432
     atom   51 type  2   force =    -0.00000303   -0.00000373    0.00001172
     atom   52 type  2   force =     0.00000641    0.00001297   -0.00000599
     atom   53 type  2   force =     0.00000456    0.00000210    0.00001015
     atom   54 type  2   force =    -0.00001151   -0.00001695   -0.00000015

     Total force =     0.002732     Total SCF correction =     0.000089

     Computing stress (Cartesian axis) and pressure

     Non-local corr. energy    =      26.19276552 Ry

          total   stress  (Ry/bohr**3)                   (kbar)     P=       -5.17
  -0.00003540   0.00000016  -0.00000033           -5.21        0.02       -0.05
   0.00000016  -0.00003514   0.00000023            0.02       -5.17        0.03
  -0.00000033   0.00000023  -0.00003489           -0.05        0.03       -5.13

     kinetic stress (kbar)  14857.94     -0.04     -0.01
                               -0.04  14857.94      0.03
                               -0.01      0.03  14868.64

     local   stress (kbar)  -7462.99     -5.70      5.13
                               -5.70  -7468.37     -2.39
                                5.13     -2.39   1383.20

     nonloc. stress (kbar)   -885.89     -0.02     -0.01
                               -0.02   -885.89      0.03
                               -0.01      0.03   -890.73

     hartree stress (kbar)  12114.58      2.14     -1.92
                                2.14  12116.60      0.89
                               -1.92      0.89   8118.97

     exc-cor stress (kbar)   7013.94      0.01     -0.01
                                0.01   7013.95      0.00
                               -0.01      0.00   7012.98

     corecor stress (kbar) -11401.85     -0.00      0.00
                               -0.00 -11401.85     -0.00
                                0.00     -0.00 -11401.80

     ewald   stress (kbar) -14325.24      3.64     -3.23
                                3.64 -14321.85      1.47
                               -3.23      1.47 -19181.95

     hubbard stress (kbar)      0.00      0.00      0.00
                                0.00      0.00      0.00
                                0.00      0.00      0.00

     DFT-D   stress (kbar)      0.00      0.00      0.00
                                0.00      0.00      0.00
                                0.00      0.00      0.00

     XDM     stress (kbar)      0.00      0.00      0.00
                                0.00      0.00      0.00
                                0.00      0.00      0.00

     dft-nl  stress (kbar)     84.31     -0.00      0.00
                               -0.00     84.31     -0.00
                                0.00     -0.00     85.55

     TS-vdW  stress (kbar)      0.00      0.00      0.00
                                0.00      0.00      0.00
                                0.00      0.00      0.00

     MDB     stress (kbar)      0.00      0.00      0.00
                                0.00      0.00      0.00
                                0.00      0.00      0.00

     3D-RISM stress (kbar)      0.00      0.00      0.00
                                0.00      0.00      0.00
                                0.00      0.00      0.00

     Energy error            =      5.4E-05 Ry
     Gradient error          =      7.0E-04 Ry/Bohr

     bfgs converged in  18 scf cycles and  17 bfgs steps
     (criteria: energy <  1.0E-04 Ry, force <  1.0E-03 Ry/Bohr)

     End of BFGS Geometry Optimization

     Final energy             =  -36092.6803768439 Ry

     File ./PbI2.bfgs deleted, as requested
Begin final coordinates

ATOMIC_POSITIONS (angstrom)
Pb            2.3575625146        4.0830144292        7.3778047015
Pb           -0.0154674025        8.1910502751       14.7502088262
Pb            0.0019486837        8.1583470666        7.3713466436
Pb           -2.3342181474       12.2088984573       14.7554049723
Pb           -2.3542390285       12.2430582962        7.3763037242
Pb            7.1018860351        4.0817471701       14.7607364027
Pb            7.0647345606        4.0807269244        7.3840793776
Pb            4.7277926272        8.1885387045       14.7557364889
Pb            4.7093610865        8.1563802340        7.3778554553
Pb            2.3551363603       12.2417368699       14.7174393746
Pb            2.3538694002       12.2403880967        7.3741052295
Pb           11.7405452646        4.0829701844       14.7548868590
Pb           11.7802674815        4.0825695416        7.3789726269
Pb            9.4246424574        8.1603057539       14.7930461250
Pb            9.4239008606        8.1584819484        7.3812123412
Pb            7.0466500875       12.2042245178       14.7550580056
Pb            7.0691740429       12.2437419998        7.3777211469
I             2.3594208400        1.3596671582        5.4985809777
I             2.3517473948        1.3037153392       12.8156864698
I            -0.0051637932        5.4382039560        5.4942893536
I            -0.0431360067        5.4619196620       12.8133866587
I            -2.3755535252        9.5075511381        5.4996129977
I            -2.3408410550        9.5345657413       12.8662221156
I             7.0572172252        1.3738198585        5.4690571719
I             7.0708259481        1.3656632321       12.8766556204
I             4.7200661482        5.4383782973        5.4976973735
I             4.7489151187        5.4606865756       12.8195081808
I             2.3604356074        9.5058418691        5.4672250562
I             2.3583640689        9.5295721737       12.8739010743
I            11.7869863603        1.3699094665        5.4718443346
I            11.7710794810        1.3617540682       12.8770726502
I             9.4184505537        5.4522648134        5.5041600039
I             9.4175322619        5.4272477802       12.8697355978
I             7.0805346961        9.5078432004        5.5053045648
I             7.0535233419        9.5244974907       12.8690531745
I            -0.0456700652        2.6888648562        1.9389001026
I            -0.0020190571        2.7230213587        9.2568061565
I            -2.3523472470        6.8061317081        1.8785519157
I            -2.3386202428        6.7984558617        9.2863231791
I            -4.7057190036       10.8746699412        1.8781026988
I            -4.7065921967       10.8922964168        9.2834501416
I             4.7518124395        2.6934865577        1.9415461235
I             4.7126876821        2.7142030278        9.2610937894
I             2.3549780731        6.8441175249        1.9364308228
I             2.3499269936        6.8067354696        9.2578777128
I            -0.0083092830       10.8693510908        1.8853258326
I             0.0128850133       10.8826372729        9.2510200541
I             9.4281799420        2.7398093540        1.8888939074
I             9.4219472370        2.6963634816        9.2556829195
I             7.0746635998        6.8068940319        1.8814335284
I             7.0527922577        6.7968289650        9.2883670480
I             4.7224049765       10.8707482816        1.8861913013
I             4.6940100864       10.8857983566        9.2501547167
I             2.3502852354        4.0708056856       14.7551931552
End final coordinates

     Writing all to output data dir ./PbI2.save/

     General routines

     Parallel routines

     PAW routines

   This run was terminated on:  14:28: 4  12Feb2024

   JOB DONE.