     Program PWSCF v.7.1 starts on 20Mar2024 at  9:26:24

     Reading input from espresso.pwi
Warning: card &CELL ignored
Warning: card    CELL_DYNAMICS    = 'BFGS' ignored
Warning: card / ignored

     Current dimensions of program PWSCF are:
     Max number of different atomic species (ntypx) = 10
     Max number of k-points (npk) =  40000
     Max angular momentum in pseudopotentials (lmaxx) =  4
     file Pb.pbe-dn-kjpaw_psl.1.0.0.UPF: wavefunction(s)  6S 6P 5D renormalized
     file I.pbe-dn-kjpaw_psl.1.0.0.UPF: wavefunction(s)  5S 5P renormalized

     IMPORTANT: XC functional enforced from input :
     Exchange-correlation= BEEF-VDW
                           (   1   4  43  14   2   0   0)
     Any further DFT definition will be discarded
     Please, verify this is what you really want

     K-points division:     npool     =       2
     R & G space division:  proc/nbgrp/npool/nimage =      64
     Subspace diagonalization in iterative solution of the eigenvalue problem:
     a serial algorithm will be used

     Using Slab Decomposition

     bravais-lattice index     =            4
     lattice parameter (alat)  =      26.7090  a.u.
     unit-cell volume          =   17226.5091 (a.u.)^3
     number of atoms/cell      =           54
     number of atomic types    =            2
     number of electrons       =       861.00
     number of Kohn-Sham states=          517
     kinetic-energy cutoff     =      70.0000  Ry
     charge density cutoff     =     350.0000  Ry
     scf convergence threshold =      1.0E-07
     mixing beta               =       0.7000
     number of iterations used =            8  plain     mixing
     energy convergence thresh.=      1.0E-04
     force convergence thresh. =      1.0E-03
     Exchange-correlation= BEEF-VDW
                           (   1   4  43  14   2   0   0)
     nstep                     =           50

     celldm(1)=  26.709025  celldm(2)=   0.000000  celldm(3)=   1.043981
     celldm(4)=   0.000000  celldm(5)=   0.000000  celldm(6)=   0.000000

     crystal axes: (cart. coord. in units of alat)
               a(1) = (   1.000000   0.000000   0.000000 )
               a(2) = (  -0.500000   0.866025   0.000000 )
               a(3) = (   0.000000   0.000000   1.043981 )

     reciprocal axes: (cart. coord. in units 2 pi/alat)
               b(1) = (  1.000000  0.577350 -0.000000 )
               b(2) = (  0.000000  1.154701  0.000000 )
               b(3) = (  0.000000 -0.000000  0.957872 )

     PseudoPot. # 1 for Pb read from file:
     //group///packages/espresso/pseudo/psl_1.0.0/pslibrary.1.0.0/pbe/PSEUDOPOTENTIALS/Pb.pbe-dn-kjpaw_psl.1.0.0.UPF
     MD5 check sum: 39ab5b8a6bbd56b7735ad9f188aac93a
     Pseudo is Projector augmented-wave + core cor, Zval = 14.0
     Generated using 'atomic' code by A. Dal Corso  v.7.1
     Shape of augmentation charge: PSQ
     Using radial grid of 1281 points,  6 beta functions with:
                l(1) =   0
                l(2) =   0
                l(3) =   1
                l(4) =   1
                l(5) =   2
                l(6) =   2
     Q(r) pseudized with 0 coefficients

     PseudoPot. # 2 for I  read from file:
     //group///packages/espresso/pseudo/psl_1.0.0/pslibrary.1.0.0/pbe/PSEUDOPOTENTIALS/I.pbe-dn-kjpaw_psl.1.0.0.UPF
     MD5 check sum: bfa8781bc1224d19af3f3980e3fab11e
     Pseudo is Projector augmented-wave + core cor, Zval = 17.0
     Generated using 'atomic' code by A. Dal Corso  v.7.1
     Shape of augmentation charge: PSQ
     Using radial grid of 1247 points,  6 beta functions with:
                l(1) =   0
                l(2) =   0
                l(3) =   1
                l(4) =   1
                l(5) =   2
                l(6) =   2
     Q(r) pseudized with 0 coefficients

     atomic species   valence    mass     pseudopotential
        Pb            14.00   207.20000     Pb( 1.00)
        I             17.00   126.90447     I ( 1.00)

     No symmetry found

                                    s                        frac. trans.

      isym =  1     identity

 cryst.   s( 1) = (     1          0          0      )
                  (     0          1          0      )
                  (     0          0          1      )

 cart.    s( 1) = (  1.0000000  0.0000000  0.0000000 )
                  (  0.0000000  1.0000000  0.0000000 )
                  (  0.0000000  0.0000000  1.0000000 )

     point group C_1 (1)
     there are  1 classes
     the character table:

       E
A      1.00

     the symmetry operations in each class and the name of the first element:

     E        1
          identity

   Cartesian axes

     site n.     atom                  positions (alat units)
         1           Pb  tau(   1) = (   0.1666780   0.2886497   1.0439767  )
         2           Pb  tau(   2) = (   0.1666712   0.2886557   0.5219862  )
         3           Pb  tau(   3) = (   0.0000102   0.5773235   1.0439712  )
         4           Pb  tau(   4) = (   0.0000034   0.5773295   0.5219807  )
         5           Pb  tau(   5) = (  -0.1666576   0.8659973   1.0439657  )
         6           Pb  tau(   6) = (  -0.1666644   0.8660033   0.5219752  )
         7           Pb  tau(   7) = (   0.5000113   0.2886484   1.0439810  )
         8           Pb  tau(   8) = (   0.5000045   0.2886544   0.5219905  )
         9           Pb  tau(   9) = (   0.3333436   0.5773222   1.0439755  )
        10           Pb  tau(  10) = (   0.3333367   0.5773282   0.5219850  )
        11           Pb  tau(  11) = (   0.1666758   0.8659960   1.0439700  )
        12           Pb  tau(  12) = (   0.1666690   0.8660020   0.5219795  )
        13           Pb  tau(  13) = (   0.8333447   0.2886471   1.0439853  )
        14           Pb  tau(  14) = (   0.8333379   0.2886531   0.5219949  )
        15           Pb  tau(  15) = (   0.6666769   0.5773209   1.0439798  )
        16           Pb  tau(  16) = (   0.6666701   0.5773269   0.5219894  )
        17           Pb  tau(  17) = (   0.5000091   0.8659947   1.0439743  )
        18           Pb  tau(  18) = (   0.5000023   0.8660007   0.5219839  )
        19           I   tau(  19) = (   0.1666806   0.0962006   0.9099004  )
        20           I   tau(  20) = (   0.0000060   0.3848804   0.3879044  )
        21           I   tau(  21) = (   0.0000129   0.3848744   0.9098949  )
        22           I   tau(  22) = (  -0.1666617   0.6735542   0.3878990  )
        23           I   tau(  23) = (  -0.1666549   0.6735482   0.9098894  )
        24           I   tau(  24) = (   0.5000071   0.0962053   0.3879143  )
        25           I   tau(  25) = (   0.5000140   0.0961993   0.9099047  )
        26           I   tau(  26) = (   0.3333394   0.3848792   0.3879088  )
        27           I   tau(  27) = (   0.3333462   0.3848731   0.9098993  )
        28           I   tau(  28) = (   0.1666716   0.6735530   0.3879033  )
        29           I   tau(  29) = (   0.1666784   0.6735469   0.9098938  )
        30           I   tau(  30) = (   0.8333405   0.0962041   0.3879186  )
        31           I   tau(  31) = (   0.8333473   0.0961980   0.9099091  )
        32           I   tau(  32) = (   0.6666727   0.3848779   0.3879131  )
        33           I   tau(  33) = (   0.6666795   0.3848718   0.9099036  )
        34           I   tau(  34) = (   0.5000049   0.6735517   0.3879076  )
        35           I   tau(  35) = (   0.5000117   0.6735457   0.9098981  )
        36           I   tau(  36) = (  -0.0000023   0.1924396   0.1340740  )
        37           I   tau(  37) = (   0.0000045   0.1924336   0.6560644  )
        38           I   tau(  38) = (  -0.1666701   0.4811134   0.1340685  )
        39           I   tau(  39) = (  -0.1666632   0.4811074   0.6560589  )
        40           I   tau(  40) = (  -0.3333378   0.7697873   0.1340630  )
        41           I   tau(  41) = (  -0.3333310   0.7697812   0.6560534  )
        42           I   tau(  42) = (   0.3333311   0.1924384   0.1340783  )
        43           I   tau(  43) = (   0.3333379   0.1924323   0.6560688  )
        44           I   tau(  44) = (   0.1666633   0.4811122   0.1340728  )
        45           I   tau(  45) = (   0.1666701   0.4811061   0.6560633  )
        46           I   tau(  46) = (  -0.0000045   0.7697860   0.1340673  )
        47           I   tau(  47) = (   0.0000023   0.7697799   0.6560578  )
        48           I   tau(  48) = (   0.6666644   0.1924371   0.1340827  )
        49           I   tau(  49) = (   0.6666712   0.1924310   0.6560731  )
        50           I   tau(  50) = (   0.4999966   0.4811109   0.1340772  )
        51           I   tau(  51) = (   0.5000034   0.4811049   0.6560676  )
        52           I   tau(  52) = (   0.3333288   0.7697847   0.1340717  )
        53           I   tau(  53) = (   0.3333356   0.7697787   0.6560621  )
        54           Pb  tau(  54) = (   0.1666738   0.0962066   0.3879099  )

   Crystallographic axes

     site n.     atom                  positions (cryst. coord.)
         1           Pb  tau(   1) = (  0.3333300  0.3333039  0.9999959  )
         2           Pb  tau(   2) = (  0.3333266  0.3333109  0.4999959  )
         3           Pb  tau(   3) = (  0.3333281  0.6666357  0.9999906  )
         4           Pb  tau(   4) = (  0.3333248  0.6666427  0.4999906  )
         5           Pb  tau(   5) = (  0.3333262  0.9999675  0.9999854  )
         6           Pb  tau(   6) = (  0.3333229  0.9999745  0.4999854  )
         7           Pb  tau(   7) = (  0.6666626  0.3333025  1.0000001  )
         8           Pb  tau(   8) = (  0.6666592  0.3333094  0.5000001  )
         9           Pb  tau(   9) = (  0.6666607  0.6666343  0.9999948  )
        10           Pb  tau(  10) = (  0.6666573  0.6666412  0.4999948  )
        11           Pb  tau(  11) = (  0.6666588  0.9999661  0.9999895  )
        12           Pb  tau(  12) = (  0.6666555  0.9999730  0.4999895  )
        13           Pb  tau(  13) = (  0.9999951  0.3333010  1.0000042  )
        14           Pb  tau(  14) = (  0.9999918  0.3333079  0.5000042  )
        15           Pb  tau(  15) = (  0.9999933  0.6666328  0.9999990  )
        16           Pb  tau(  16) = (  0.9999899  0.6666397  0.4999990  )
        17           Pb  tau(  17) = (  0.9999914  0.9999646  0.9999937  )
        18           Pb  tau(  18) = (  0.9999881  0.9999715  0.4999937  )
        19           I   tau(  19) = (  0.2222221  0.1110829  0.8715680  )
        20           I   tau(  20) = (  0.2222169  0.4444217  0.3715628  )
        21           I   tau(  21) = (  0.2222202  0.4444147  0.8715628  )
        22           I   tau(  22) = (  0.2222150  0.7777534  0.3715575  )
        23           I   tau(  23) = (  0.2222183  0.7777465  0.8715575  )
        24           I   tau(  24) = (  0.5555513  0.1110884  0.3715722  )
        25           I   tau(  25) = (  0.5555547  0.1110814  0.8715722  )
        26           I   tau(  26) = (  0.5555495  0.4444202  0.3715669  )
        27           I   tau(  27) = (  0.5555528  0.4444132  0.8715669  )
        28           I   tau(  28) = (  0.5555476  0.7777520  0.3715617  )
        29           I   tau(  29) = (  0.5555509  0.7777450  0.8715617  )
[...]
     atom   38 type  2   force =     0.00023442    0.00014005    0.00553758
     atom   39 type  2   force =    -0.00005389   -0.00002891    0.00476230
     atom   40 type  2   force =     0.00005155   -0.00056487    0.00451745
     atom   41 type  2   force =     0.00019023   -0.00065200    0.00528194
     atom   42 type  2   force =     0.00050781    0.00027341    0.00446066
     atom   43 type  2   force =     0.00046600    0.00026679    0.00535576
     atom   44 type  2   force =    -0.00011060    0.00008031    0.00545858
     atom   45 type  2   force =    -0.00010593   -0.00160442    0.00460269
     atom   46 type  2   force =     0.00000967   -0.00013158    0.00545096
     atom   47 type  2   force =    -0.00144890    0.00071794    0.00460015
     atom   48 type  2   force =     0.00003563   -0.00012319    0.00553128
     atom   49 type  2   force =    -0.00010211   -0.00008319    0.00483752
     atom   50 type  2   force =    -0.00007229    0.00009626    0.00553104
     atom   51 type  2   force =    -0.00012052   -0.00004385    0.00484210
     atom   52 type  2   force =    -0.00010850   -0.00006115    0.00544182
     atom   53 type  2   force =     0.00122005    0.00070674    0.00455192
     atom   54 type  1   force =     0.00000326    0.00000288   -0.00204658
     The Hubbard contrib.    to forces
     atom    1 type  1   force =     0.00000000    0.00000000    0.00000000
     atom    2 type  1   force =     0.00000000    0.00000000    0.00000000
     atom    3 type  1   force =     0.00000000    0.00000000    0.00000000
     atom    4 type  1   force =     0.00000000    0.00000000    0.00000000
     atom    5 type  1   force =     0.00000000    0.00000000    0.00000000
     atom    6 type  1   force =     0.00000000    0.00000000    0.00000000
     atom    7 type  1   force =     0.00000000    0.00000000    0.00000000
     atom    8 type  1   force =     0.00000000    0.00000000    0.00000000
     atom    9 type  1   force =     0.00000000    0.00000000    0.00000000
     atom   10 type  1   force =     0.00000000    0.00000000    0.00000000
     atom   11 type  1   force =     0.00000000    0.00000000    0.00000000
     atom   12 type  1   force =     0.00000000    0.00000000    0.00000000
     atom   13 type  1   force =     0.00000000    0.00000000    0.00000000
     atom   14 type  1   force =     0.00000000    0.00000000    0.00000000
     atom   15 type  1   force =     0.00000000    0.00000000    0.00000000
     atom   16 type  1   force =     0.00000000    0.00000000    0.00000000
     atom   17 type  1   force =     0.00000000    0.00000000    0.00000000
     atom   18 type  1   force =     0.00000000    0.00000000    0.00000000
     atom   19 type  2   force =     0.00000000    0.00000000    0.00000000
     atom   20 type  2   force =     0.00000000    0.00000000    0.00000000
     atom   21 type  2   force =     0.00000000    0.00000000    0.00000000
     atom   22 type  2   force =     0.00000000    0.00000000    0.00000000
     atom   23 type  2   force =     0.00000000    0.00000000    0.00000000
     atom   24 type  2   force =     0.00000000    0.00000000    0.00000000
     atom   25 type  2   force =     0.00000000    0.00000000    0.00000000
     atom   26 type  2   force =     0.00000000    0.00000000    0.00000000
     atom   27 type  2   force =     0.00000000    0.00000000    0.00000000
     atom   28 type  2   force =     0.00000000    0.00000000    0.00000000
     atom   29 type  2   force =     0.00000000    0.00000000    0.00000000
     atom   30 type  2   force =     0.00000000    0.00000000    0.00000000
     atom   31 type  2   force =     0.00000000    0.00000000    0.00000000
     atom   32 type  2   force =     0.00000000    0.00000000    0.00000000
     atom   33 type  2   force =     0.00000000    0.00000000    0.00000000
     atom   34 type  2   force =     0.00000000    0.00000000    0.00000000
     atom   35 type  2   force =     0.00000000    0.00000000    0.00000000
     atom   36 type  2   force =     0.00000000    0.00000000    0.00000000
     atom   37 type  2   force =     0.00000000    0.00000000    0.00000000
     atom   38 type  2   force =     0.00000000    0.00000000    0.00000000
     atom   39 type  2   force =     0.00000000    0.00000000    0.00000000
     atom   40 type  2   force =     0.00000000    0.00000000    0.00000000
     atom   41 type  2   force =     0.00000000    0.00000000    0.00000000
     atom   42 type  2   force =     0.00000000    0.00000000    0.00000000
     atom   43 type  2   force =     0.00000000    0.00000000    0.00000000
     atom   44 type  2   force =     0.00000000    0.00000000    0.00000000
     atom   45 type  2   force =     0.00000000    0.00000000    0.00000000
     atom   46 type  2   force =     0.00000000    0.00000000    0.00000000
     atom   47 type  2   force =     0.00000000    0.00000000    0.00000000
     atom   48 type  2   force =     0.00000000    0.00000000    0.00000000
     atom   49 type  2   force =     0.00000000    0.00000000    0.00000000
     atom   50 type  2   force =     0.00000000    0.00000000    0.00000000
     atom   51 type  2   force =     0.00000000    0.00000000    0.00000000
     atom   52 type  2   force =     0.00000000    0.00000000    0.00000000
     atom   53 type  2   force =     0.00000000    0.00000000    0.00000000
     atom   54 type  1   force =     0.00000000    0.00000000    0.00000000
     The SCF correction term to forces
     atom    1 type  1   force =    -0.00000167    0.00000242   -0.00000093
     atom    2 type  1   force =     0.00000336   -0.00001862    0.00000569
     atom    3 type  1   force =    -0.00000159    0.00000014    0.00000129
     atom    4 type  1   force =    -0.00000074    0.00000411   -0.00000046
     atom    5 type  1   force =     0.00000271   -0.00000326   -0.00000141
     atom    6 type  1   force =    -0.00001175    0.00000824    0.00000569
     atom    7 type  1   force =     0.00000771    0.00000296    0.00000042
     atom    8 type  1   force =    -0.00001708   -0.00001272    0.00001039
     atom    9 type  1   force =     0.00000236    0.00000282    0.00000449
     atom   10 type  1   force =    -0.00000208   -0.00000177   -0.00000362
     atom   11 type  1   force =     0.00000268    0.00000133    0.00000446
     atom   12 type  1   force =    -0.00000639   -0.00000090   -0.00000276
     atom   13 type  1   force =    -0.00000585    0.00000076   -0.00000041
     atom   14 type  1   force =     0.00001321   -0.00000695    0.00000974
     atom   15 type  1   force =    -0.00000100   -0.00000494   -0.00000083
     atom   16 type  1   force =     0.00000336    0.00001805    0.00000967
     atom   17 type  1   force =    -0.00000389   -0.00000199    0.00000034
     atom   18 type  1   force =     0.00002068    0.00000967    0.00000865
     atom   19 type  2   force =    -0.00000181   -0.00000318   -0.00001069
     atom   20 type  2   force =     0.00001791   -0.00001105    0.00000913
     atom   21 type  2   force =    -0.00000479   -0.00000563    0.00000482
     atom   22 type  2   force =    -0.00000134    0.00002428    0.00001335
     atom   23 type  2   force =    -0.00000719    0.00000075    0.00000394
     atom   24 type  2   force =    -0.00002193   -0.00001109    0.00001473
     atom   25 type  2   force =    -0.00000212    0.00000220    0.00000430
     atom   26 type  2   force =    -0.00001825   -0.00001487    0.00001254
     atom   27 type  2   force =     0.00000220   -0.00000380    0.00000546
     atom   28 type  2   force =    -0.00000335    0.00000149    0.00000031
     atom   29 type  2   force =    -0.00000085    0.00000187    0.00001849
     atom   30 type  2   force =     0.00001222   -0.00000621    0.00000623
     atom   31 type  2   force =     0.00000466    0.00000430    0.00001089
     atom   32 type  2   force =     0.00000078    0.00000070   -0.00000315
     atom   33 type  2   force =     0.00000234    0.00000075    0.00001606
     atom   34 type  2   force =     0.00000353    0.00001582    0.00000713
     atom   35 type  2   force =     0.00000701    0.00000337    0.00001049
     atom   36 type  2   force =     0.00000341   -0.00000689    0.00000392
     atom   37 type  2   force =     0.00002027   -0.00000961   -0.00002230
     atom   38 type  2   force =    -0.00000452   -0.00000217   -0.00001569
     atom   39 type  2   force =     0.00000349    0.00000476   -0.00000112
     atom   40 type  2   force =    -0.00000234    0.00000700    0.00000470
     atom   41 type  2   force =     0.00000726    0.00002339   -0.00002499
     atom   42 type  2   force =    -0.00000437   -0.00000475    0.00000729
     atom   43 type  2   force =    -0.00001696   -0.00001604   -0.00002938
     atom   44 type  2   force =     0.00000163    0.00000269   -0.00000093
     atom   45 type  2   force =    -0.00000089   -0.00001378   -0.00001387
     atom   46 type  2   force =     0.00000262    0.00000179   -0.00000061
     atom   47 type  2   force =    -0.00001330    0.00000817   -0.00001851
     atom   48 type  2   force =     0.00000234    0.00000079   -0.00001713
     atom   49 type  2   force =    -0.00000334   -0.00000234   -0.00000199
     atom   50 type  2   force =     0.00000317    0.00000153   -0.00001715
     atom   51 type  2   force =    -0.00000047   -0.00000091   -0.00000169
     atom   52 type  2   force =    -0.00000059    0.00000075   -0.00000567
     atom   53 type  2   force =     0.00000919    0.00000713   -0.00000985
     atom   54 type  1   force =     0.00000633    0.00000021    0.00000587

     Total force =     0.003440     Total SCF correction =     0.000117

     Computing stress (Cartesian axis) and pressure

     Non-local corr. energy    =      25.57450525 Ry

          total   stress  (Ry/bohr**3)                   (kbar)     P=        0.77
   0.00000179  -0.00000011   0.00000040            0.26       -0.02        0.06
  -0.00000011   0.00000191   0.00000023           -0.02        0.28        0.03
   0.00000040   0.00000023   0.00001201            0.06        0.03        1.77

     kinetic stress (kbar)  15120.06      0.09      0.01
                                0.09  15119.94      0.00
                                0.01      0.00  15134.96

     local   stress (kbar)  -7250.82      5.49     -5.97
                                5.49  -7257.54     -3.54
                               -5.97     -3.54   1294.43

     nonloc. stress (kbar)  -1265.95      0.04      0.02
                                0.04  -1266.01      0.01
                                0.02      0.01  -1267.08

     hartree stress (kbar)  11820.61     -1.97      2.27
                               -1.97  11823.04      1.34
                                2.27      1.34   7959.90

     exc-cor stress (kbar)   6881.79     -0.00      0.01
                               -0.00   6881.79      0.00
                                0.01      0.00   6881.06

     corecor stress (kbar) -11218.17     -0.00     -0.00
                               -0.00 -11218.16     -0.00
                               -0.00     -0.00 -11218.20

     ewald   stress (kbar) -14169.57     -3.66      3.72
                               -3.66 -14165.10      2.21
                                3.72      2.21 -18866.79

     hubbard stress (kbar)      0.00      0.00      0.00
                                0.00      0.00      0.00
                                0.00      0.00      0.00

     DFT-D   stress (kbar)      0.00      0.00      0.00
                                0.00      0.00      0.00
                                0.00      0.00      0.00

     XDM     stress (kbar)      0.00      0.00      0.00
                                0.00      0.00      0.00
                                0.00      0.00      0.00

     dft-nl  stress (kbar)     82.32      0.00     -0.00
                                0.00     82.32     -0.00
                               -0.00     -0.00     83.48

     TS-vdW  stress (kbar)      0.00      0.00      0.00
                                0.00      0.00      0.00
                                0.00      0.00      0.00

     MDB     stress (kbar)      0.00      0.00      0.00
                                0.00      0.00      0.00
                                0.00      0.00      0.00

     3D-RISM stress (kbar)      0.00      0.00      0.00
                                0.00      0.00      0.00
                                0.00      0.00      0.00

     Energy error            =      3.8E-05 Ry
     Gradient error          =      9.7E-04 Ry/Bohr

     bfgs converged in  32 scf cycles and  31 bfgs steps
     (criteria: energy <  1.0E-04 Ry, force <  1.0E-03 Ry/Bohr)

     End of BFGS Geometry Optimization

     Final energy             =  -36757.8921780915 Ry

     File ./PbI2.bfgs deleted, as requested
Begin final coordinates

ATOMIC_POSITIONS (angstrom)
Pb            2.3565146399        4.0994470181       14.7412731899
Pb            2.3598000217        3.7781461673        7.3704712004
Pb            0.0082467768        8.1645497486       14.7598448986
Pb            0.0325960362        8.1787965134        7.4061605193
Pb           -2.3382756699       12.2306022557       14.7405344559
Pb           -2.6149951508       12.3946366691        7.3701681562
Pb            7.0803010109        4.0875164137       14.7903883700
Pb            7.0555288368        4.0733009871        7.3733543728
Pb            4.7018757821        8.1626375717       14.7716904079
Pb            4.6794854150        8.1781723752        7.4111532982
Pb            2.3533846944       12.2301088383       14.7707531724
Pb            2.3556003023       12.2030392577        7.4108287031
Pb           11.7659406516        4.0883150293       14.7809766411
Pb           11.7897497472        4.0730683212        7.3670612506
Pb            9.4237968183        8.1448829280       14.7809540081
Pb            9.4224631530        8.1735935477        7.3672074811
Pb            7.0475759756       12.2286591527       14.7334501673
Pb            7.3271477084       12.3903732805        7.3713010716
I             2.3608771944        1.3630494356       12.8977050252
I             0.0506971479        5.3432218762        5.5231430522
I             0.0024466174        5.4319802736       12.8891935186
I            -2.4137737877        9.6122263815        5.5229610345
I            -2.3613911876        9.5252417143       12.8887794636
I             6.9697521162        1.3723945770        5.5251138460
I             7.0657135801        1.3703806072       12.8968995233
I             4.6732975011        5.3495131266        5.5252458835
I             4.7197134435        5.4337144734       12.8973331939
I             2.3582262882        9.5206728995        5.4749142418
I             2.3609716190        9.5218657045       12.8908904900
I            11.8802984455        1.3666899699        5.5247654482
I            11.7720014506        1.3668453449       12.8921208474
I             9.4163920874        5.4363850658        5.5066868218
I             9.4170874272        5.4366697607       12.8980239458
I             7.1236175627        9.6050029576        5.5247777785
I             7.0696794855        9.5106479116       12.8923379354
I             0.0110302196        2.7112046704        1.9184643658
I            -0.0034077704        2.7294175791        9.3366678366
I            -2.3482829644        6.8040263755        1.9016853152
I            -2.3397582257        6.8090569403        9.2545841522
I            -4.7128232106       10.8934666107        1.9184778057
I            -4.7047706147       10.8724626118        9.3367226388
I             4.6987811701        2.7116446244        1.9242688858
I             4.7123940835        2.7205687840        9.3439129618
I             2.3479333869        6.8013812474        1.8908544299
I             2.3492661997        6.8227515534        9.2200789426
I            -0.0024112467       10.8726562634        1.8902615473
I             0.0174462007       10.8629324424        9.2203148598
I             9.4282732562        2.7189256071        1.9066680533
I             9.4231545632        2.6988717921        9.2594092719
I             7.0698923092        6.8048433930        1.9071193264
I             7.0496000542        6.8108269753        9.2597683045
I             4.7119915551       10.8806211484        1.8901384846
I             4.6833536683       10.8639746673        9.2231328482
Pb            2.3472416166        1.3545200917        4.7012633381
End final coordinates

     Writing all to output data dir ./PbI2.save/

     General routines

     Parallel routines

     PAW routines

   This run was terminated on:  20:53:55  20Mar2024

   JOB DONE.