     Program PWSCF v.7.1 starts on 19Feb2024 at  7:20:53

     Reading input from espresso.pwi
Warning: card &CELL ignored
Warning: card    CELL_DYNAMICS    = 'BFGS' ignored
Warning: card / ignored

     Current dimensions of program PWSCF are:
     Max number of different atomic species (ntypx) = 10
     Max number of k-points (npk) =  40000
     Max angular momentum in pseudopotentials (lmaxx) =  4
     file Ga.pbe-dn-kjpaw_psl.1.0.0.UPF: wavefunction(s)  4S renormalized
     file N.pbe-n-kjpaw_psl.1.0.0.UPF: wavefunction(s)  2S renormalized

     IMPORTANT: XC functional enforced from input :
     Exchange-correlation= BEEF-VDW
                           (   1   4  43  14   2   0   0)
     Any further DFT definition will be discarded
     Please, verify this is what you really want

     K-points division:     npool     =       4
     R & G space division:  proc/nbgrp/npool/nimage =      32
     Subspace diagonalization in iterative solution of the eigenvalue problem:
     a serial algorithm will be used

     Using Slab Decomposition

     bravais-lattice index     =            4
     lattice parameter (alat)  =      18.3939  a.u.
     unit-cell volume          =    5856.2271 (a.u.)^3
     number of atoms/cell      =           71
     number of atomic types    =            2
     number of electrons       =       637.00
     number of Kohn-Sham states=          383
     kinetic-energy cutoff     =      70.0000  Ry
     charge density cutoff     =     350.0000  Ry
     scf convergence threshold =      1.0E-07
     mixing beta               =       0.7000
     number of iterations used =            8  plain     mixing
     Exchange-correlation= BEEF-VDW
                           (   1   4  43  14   2   0   0)

     celldm(1)=  18.393924  celldm(2)=   0.000000  celldm(3)=   1.086586
     celldm(4)=   0.000000  celldm(5)=   0.000000  celldm(6)=   0.000000

     crystal axes: (cart. coord. in units of alat)
               a(1) = (   1.000000   0.000000   0.000000 )
               a(2) = (  -0.500000   0.866025   0.000000 )
               a(3) = (   0.000000   0.000000   1.086586 )

     reciprocal axes: (cart. coord. in units 2 pi/alat)
               b(1) = (  1.000000  0.577350 -0.000000 )
               b(2) = (  0.000000  1.154701  0.000000 )
               b(3) = (  0.000000 -0.000000  0.920314 )

     PseudoPot. # 1 for Ga read from file:
     //group///packages/espresso/pseudo/psl_1.0.0/pslibrary.1.0.0/pbe/PSEUDOPOTENTIALS/Ga.pbe-dn-kjpaw_psl.1.0.0.UPF
     MD5 check sum: cd2a01e492f15b435d17032472d8505c
     Pseudo is Projector augmented-wave + core cor, Zval = 13.0
     Generated using 'atomic' code by A. Dal Corso  v.7.1
     Shape of augmentation charge: PSQ
     Using radial grid of 1205 points,  6 beta functions with:
                l(1) =   0
                l(2) =   0
                l(3) =   1
                l(4) =   1
                l(5) =   2
                l(6) =   2
     Q(r) pseudized with 0 coefficients

     PseudoPot. # 2 for N  read from file:
     //group///packages/espresso/pseudo/psl_1.0.0/pslibrary.1.0.0/pbe/PSEUDOPOTENTIALS/N.pbe-n-kjpaw_psl.1.0.0.UPF
     MD5 check sum: f77f775694dac7e2c3fe1c82443d1a16
     Pseudo is Projector augmented-wave + core cor, Zval =  5.0
     Generated using 'atomic' code by A. Dal Corso  v.7.1
     Shape of augmentation charge: PSQ
     Using radial grid of 1085 points,  4 beta functions with:
                l(1) =   0
                l(2) =   0
                l(3) =   1
                l(4) =   1
     Q(r) pseudized with 0 coefficients

     atomic species   valence    mass     pseudopotential
        Ga            13.00    69.72300     Ga( 1.00)
        N              5.00    14.00700     N ( 1.00)

      6 Sym. Ops. (no inversion) found ( 4 have fractional translation)

                                    s                        frac. trans.

      isym =  1     identity

 cryst.   s( 1) = (     1          0          0      )
                  (     0          1          0      )
                  (     0          0          1      )

 cart.    s( 1) = (  1.0000000  0.0000000  0.0000000 )
                  (  0.0000000  1.0000000  0.0000000 )
                  (  0.0000000  0.0000000  1.0000000 )

      isym =  2     120 deg rotation - cryst. axis [0,0,1]

 cryst.   s( 2) = (     0          1          0      )    f =( -0.3333334 )
                  (    -1         -1          0      )       (  0.0000003 )
                  (     0          0          1      )       (  0.0000000 )

 cart.    s( 2) = ( -0.5000000 -0.8660254  0.0000000 )    f =( -0.3333335 )
                  (  0.8660254 -0.5000000  0.0000000 )       (  0.0000002 )
                  (  0.0000000  0.0000000  1.0000000 )       (  0.0000000 )

      isym =  3     120 deg rotation - cryst. axis [0,0,-1]

[...]

      isym =  4     inv. 180 deg rotation - cart. axis [1,0,0]

[...]

      isym =  5     inv. 180 deg rotation - cryst. axis [0,1,0]

 cryst.   s( 5) = (     1          1          0      )
                  (     0         -1          0      )
                  (     0          0          1      )

 cart.    s( 5) = (  0.5000000  0.8660254  0.0000000 )
                  (  0.8660254 -0.5000000  0.0000000 )
                  (  0.0000000  0.0000000  1.0000000 )

      isym =  6     inv. 180 deg rotation - cryst. axis [1,1,0]

 cryst.   s( 6) = (     0         -1          0      )    f =( -0.3333334 )
                  (    -1          0          0      )       ( -0.3333334 )
                  (     0          0          1      )       (  0.0000000 )

 cart.    s( 6) = (  0.5000000 -0.8660254  0.0000000 )    f =( -0.1666667 )
                  ( -0.8660254 -0.5000000  0.0000000 )       ( -0.2886752 )
                  (  0.0000000  0.0000000  1.0000000 )       (  0.0000000 )

     point group C_3v (3m)
     there are  3 classes
     the character table:

       E     2C3   3s_v
A_1    1.00  1.00  1.00
A_2    1.00  1.00 -1.00
E      2.00 -1.00  0.00

     the symmetry operations in each class and the name of the first element:

     E        1
          identity
     2C3      2    3
          120 deg rotation - cryst. axis [0,0,1]
     3s_v     4    5    6
          inv. 180 deg rotation - cart. axis [1,0,0]

   Cartesian axes

     site n.     atom                  positions (alat units)
         1           Ga  tau(   1) = (   0.1666668   0.0962250   0.8144844  )
         2           Ga  tau(   2) = (   0.0000001   0.3849001   0.2711914  )
         3           Ga  tau(   3) = (   0.0000001   0.3849001   0.8144844  )
         4           Ga  tau(   4) = (  -0.1666665   0.6735752   0.2711914  )
         5           Ga  tau(   5) = (  -0.1666665   0.6735752   0.8144844  )
         6           Ga  tau(   6) = (   0.5000001   0.0962250   0.2711914  )
         7           Ga  tau(   7) = (   0.5000001   0.0962250   0.8144844  )
         8           Ga  tau(   8) = (   0.3333335   0.3849001   0.2711914  )
         9           Ga  tau(   9) = (   0.3333335   0.3849001   0.8144844  )
        10           Ga  tau(  10) = (   0.1666668   0.6735752   0.2711914  )
        11           Ga  tau(  11) = (   0.1666668   0.6735752   0.8144844  )
        12           Ga  tau(  12) = (   0.8333335   0.0962250   0.2711914  )
        13           Ga  tau(  13) = (   0.8333335   0.0962250   0.8144844  )
        14           Ga  tau(  14) = (   0.6666668   0.3849001   0.2711914  )
        15           Ga  tau(  15) = (   0.6666668   0.3849001   0.8144844  )
        16           Ga  tau(  16) = (   0.5000001   0.6735752   0.2711914  )
        17           Ga  tau(  17) = (   0.5000001   0.6735752   0.8144844  )
        18           Ga  tau(  18) = (  -0.0000002   0.1924502   0.5428379  )
        19           Ga  tau(  19) = (  -0.0000002   0.1924502   1.0861309  )
        20           Ga  tau(  20) = (  -0.1666669   0.4811254   0.5428379  )
        21           Ga  tau(  21) = (  -0.1666669   0.4811254   1.0861309  )
        22           Ga  tau(  22) = (  -0.3333335   0.7698005   0.5428379  )
        23           Ga  tau(  23) = (  -0.3333335   0.7698005   1.0861309  )
        24           Ga  tau(  24) = (   0.3333331   0.1924502   0.5428379  )
        25           Ga  tau(  25) = (   0.3333331   0.1924502   1.0861309  )
        26           Ga  tau(  26) = (   0.1666665   0.4811254   0.5428379  )
        27           Ga  tau(  27) = (   0.1666665   0.4811254   1.0861309  )
        28           Ga  tau(  28) = (  -0.0000002   0.7698005   0.5428379  )
        29           Ga  tau(  29) = (  -0.0000002   0.7698005   1.0861309  )
        30           Ga  tau(  30) = (   0.6666665   0.1924502   0.5428379  )
        31           Ga  tau(  31) = (   0.6666665   0.1924502   1.0861309  )
        32           Ga  tau(  32) = (   0.4999998   0.4811254   0.5428379  )
        33           Ga  tau(  33) = (   0.4999998   0.4811254   1.0861309  )
        34           Ga  tau(  34) = (   0.3333331   0.7698005   0.5428379  )
        35           Ga  tau(  35) = (   0.3333331   0.7698005   1.0861309  )
        36           N   tau(  36) = (   0.1666668   0.0962250   0.4758365  )
        37           N   tau(  37) = (   0.1666668   0.0962250   1.0191295  )
        38           N   tau(  38) = (   0.0000001   0.3849001   0.4758365  )
        39           N   tau(  39) = (   0.0000001   0.3849001   1.0191295  )
        40           N   tau(  40) = (  -0.1666665   0.6735752   0.4758365  )
        41           N   tau(  41) = (  -0.1666665   0.6735752   1.0191295  )
        42           N   tau(  42) = (   0.5000001   0.0962250   0.4758365  )
        43           N   tau(  43) = (   0.5000001   0.0962250   1.0191295  )
        44           N   tau(  44) = (   0.3333335   0.3849001   0.4758365  )
        45           N   tau(  45) = (   0.3333335   0.3849001   1.0191295  )
        46           N   tau(  46) = (   0.1666668   0.6735752   0.4758365  )
        47           N   tau(  47) = (   0.1666668   0.6735752   1.0191295  )
        48           N   tau(  48) = (   0.8333335   0.0962250   0.4758365  )
        49           N   tau(  49) = (   0.8333335   0.0962250   1.0191295  )
        50           N   tau(  50) = (   0.6666668   0.3849001   0.4758365  )
        51           N   tau(  51) = (   0.6666668   0.3849001   1.0191295  )
        52           N   tau(  52) = (   0.5000001   0.6735752   0.4758365  )
        53           N   tau(  53) = (   0.5000001   0.6735752   1.0191295  )
        54           N   tau(  54) = (  -0.0000002   0.1924502   0.2041900  )
        55           N   tau(  55) = (  -0.0000002   0.1924502   0.7474830  )
        56           N   tau(  56) = (  -0.1666669   0.4811254   0.2041900  )
        57           N   tau(  57) = (  -0.1666669   0.4811254   0.7474830  )
        58           N   tau(  58) = (  -0.3333335   0.7698005   0.2041900  )
        59           N   tau(  59) = (  -0.3333335   0.7698005   0.7474830  )
        60           N   tau(  60) = (   0.3333331   0.1924502   0.2041900  )
        61           N   tau(  61) = (   0.3333331   0.1924502   0.7474830  )
        62           N   tau(  62) = (   0.1666665   0.4811254   0.2041900  )
[...]
     atom   17 type  1   force =     0.00000000    0.00000000    0.00000000
     atom   18 type  1   force =     0.00000000    0.00000000    0.00000000
     atom   19 type  1   force =     0.00000000    0.00000000    0.00000000
     atom   20 type  1   force =     0.00000000    0.00000000    0.00000000
     atom   21 type  1   force =     0.00000000    0.00000000    0.00000000
     atom   22 type  1   force =     0.00000000    0.00000000    0.00000000
     atom   23 type  1   force =     0.00000000    0.00000000    0.00000000
     atom   24 type  1   force =     0.00000000    0.00000000    0.00000000
     atom   25 type  1   force =     0.00000000    0.00000000    0.00000000
     atom   26 type  1   force =     0.00000000    0.00000000    0.00000000
     atom   27 type  1   force =     0.00000000    0.00000000    0.00000000
     atom   28 type  1   force =     0.00000000    0.00000000    0.00000000
     atom   29 type  1   force =     0.00000000    0.00000000    0.00000000
     atom   30 type  1   force =     0.00000000    0.00000000    0.00000000
     atom   31 type  1   force =     0.00000000    0.00000000    0.00000000
     atom   32 type  1   force =     0.00000000    0.00000000    0.00000000
     atom   33 type  1   force =     0.00000000    0.00000000    0.00000000
     atom   34 type  1   force =     0.00000000    0.00000000    0.00000000
     atom   35 type  1   force =     0.00000000    0.00000000    0.00000000
     atom   36 type  2   force =     0.00000000    0.00000000    0.00000000
     atom   37 type  2   force =     0.00000000    0.00000000    0.00000000
     atom   38 type  2   force =     0.00000000    0.00000000    0.00000000
     atom   39 type  2   force =     0.00000000    0.00000000    0.00000000
     atom   40 type  2   force =     0.00000000    0.00000000    0.00000000
     atom   41 type  2   force =     0.00000000    0.00000000    0.00000000
     atom   42 type  2   force =     0.00000000    0.00000000    0.00000000
     atom   43 type  2   force =     0.00000000    0.00000000    0.00000000
     atom   44 type  2   force =     0.00000000    0.00000000    0.00000000
     atom   45 type  2   force =     0.00000000    0.00000000    0.00000000
     atom   46 type  2   force =     0.00000000    0.00000000    0.00000000
     atom   47 type  2   force =     0.00000000    0.00000000    0.00000000
     atom   48 type  2   force =     0.00000000    0.00000000    0.00000000
     atom   49 type  2   force =     0.00000000    0.00000000    0.00000000
     atom   50 type  2   force =     0.00000000    0.00000000    0.00000000
     atom   51 type  2   force =     0.00000000    0.00000000    0.00000000
     atom   52 type  2   force =     0.00000000    0.00000000    0.00000000
     atom   53 type  2   force =     0.00000000    0.00000000    0.00000000
     atom   54 type  2   force =     0.00000000    0.00000000    0.00000000
     atom   55 type  2   force =     0.00000000    0.00000000    0.00000000
     atom   56 type  2   force =     0.00000000    0.00000000    0.00000000
     atom   57 type  2   force =     0.00000000    0.00000000    0.00000000
     atom   58 type  2   force =     0.00000000    0.00000000    0.00000000
     atom   59 type  2   force =     0.00000000    0.00000000    0.00000000
     atom   60 type  2   force =     0.00000000    0.00000000    0.00000000
     atom   61 type  2   force =     0.00000000    0.00000000    0.00000000
     atom   62 type  2   force =     0.00000000    0.00000000    0.00000000
     atom   63 type  2   force =     0.00000000    0.00000000    0.00000000
     atom   64 type  2   force =     0.00000000    0.00000000    0.00000000
     atom   65 type  2   force =     0.00000000    0.00000000    0.00000000
     atom   66 type  2   force =     0.00000000    0.00000000    0.00000000
     atom   67 type  2   force =     0.00000000    0.00000000    0.00000000
     atom   68 type  2   force =     0.00000000    0.00000000    0.00000000
     atom   69 type  2   force =     0.00000000    0.00000000    0.00000000
     atom   70 type  2   force =     0.00000000    0.00000000    0.00000000
     atom   71 type  2   force =     0.00000000    0.00000000    0.00000000
     The SCF correction term to forces
     atom    1 type  1   force =     0.00000000   -0.00000000   -0.00016106
     atom    2 type  1   force =     0.00007650    0.00000670    0.00011240
     atom    3 type  1   force =     0.00002214   -0.00006871   -0.00007330
     atom    4 type  1   force =     0.00004405    0.00006289    0.00011240
     atom    5 type  1   force =    -0.00004844    0.00005353   -0.00007330
     atom    6 type  1   force =    -0.00003244   -0.00006960    0.00011240
     atom    7 type  1   force =    -0.00007057    0.00001519   -0.00007330
     atom    8 type  1   force =    -0.00007649    0.00000670    0.00011240
     atom    9 type  1   force =    -0.00002214   -0.00006871   -0.00007330
     atom   10 type  1   force =     0.00000000   -0.00000000    0.00005300
     atom   11 type  1   force =     0.00000000   -0.00000000   -0.00005275
     atom   12 type  1   force =     0.00003244   -0.00006960    0.00011240
     atom   13 type  1   force =     0.00007057    0.00001519   -0.00007330
     atom   14 type  1   force =     0.00000000   -0.00000000    0.00009343
     atom   15 type  1   force =     0.00000000   -0.00000000   -0.00005242
     atom   16 type  1   force =    -0.00004405    0.00006289    0.00011240
     atom   17 type  1   force =     0.00004844    0.00005353   -0.00007330
     atom   18 type  1   force =     0.00026514   -0.00015308    0.00016267
     atom   19 type  1   force =     0.00004666   -0.00002694   -0.00025442
     atom   20 type  1   force =    -0.00000897   -0.00000518    0.00018532
     atom   21 type  1   force =     0.00000085    0.00000049   -0.00020944
     atom   22 type  1   force =     0.00000000    0.00030616    0.00016267
     atom   23 type  1   force =    -0.00000000    0.00005388   -0.00025442
     atom   24 type  1   force =    -0.00026515   -0.00015308    0.00016267
     atom   25 type  1   force =    -0.00004666   -0.00002694   -0.00025442
     atom   26 type  1   force =    -0.00000000   -0.00007362    0.00016794
     atom   27 type  1   force =    -0.00000000   -0.00002334   -0.00016766
     atom   28 type  1   force =    -0.00006376    0.00003681    0.00016794
     atom   29 type  1   force =    -0.00002022    0.00001167   -0.00016766
     atom   30 type  1   force =    -0.00000000    0.00001036    0.00018532
     atom   31 type  1   force =    -0.00000000   -0.00000099   -0.00020944
     atom   32 type  1   force =     0.00000897   -0.00000518    0.00018532
     atom   33 type  1   force =    -0.00000086    0.00000049   -0.00020944
     atom   34 type  1   force =     0.00006376    0.00003681    0.00016794
     atom   35 type  1   force =     0.00002022    0.00001167   -0.00016766
     atom   36 type  2   force =    -0.00000000    0.00000000    0.00006545
     atom   37 type  2   force =    -0.00000000    0.00000000   -0.00009253
     atom   38 type  2   force =     0.00002305   -0.00003571    0.00008488
     atom   39 type  2   force =     0.00001030   -0.00001264   -0.00008459
     atom   40 type  2   force =    -0.00001940    0.00003782    0.00008488
     atom   41 type  2   force =    -0.00000580    0.00001524   -0.00008459
     atom   42 type  2   force =    -0.00004245   -0.00000211    0.00008488
     atom   43 type  2   force =    -0.00001610   -0.00000260   -0.00008459
     atom   44 type  2   force =    -0.00002305   -0.00003571    0.00008488
     atom   45 type  2   force =    -0.00001030   -0.00001264   -0.00008459
     atom   46 type  2   force =    -0.00000000   -0.00000000    0.00007085
     atom   47 type  2   force =    -0.00000000   -0.00000000   -0.00007041
     atom   48 type  2   force =     0.00004245   -0.00000211    0.00008488
     atom   49 type  2   force =     0.00001610   -0.00000260   -0.00008459
     atom   50 type  2   force =    -0.00000000    0.00000000    0.00008575
     atom   51 type  2   force =    -0.00000000    0.00000000   -0.00008861
     atom   52 type  2   force =     0.00001940    0.00003782    0.00008488
     atom   53 type  2   force =     0.00000580    0.00001524   -0.00008459
     atom   54 type  2   force =     0.00001392   -0.00000804    0.00001383
     atom   55 type  2   force =     0.00003511   -0.00002027   -0.00003385
     atom   56 type  2   force =     0.00000677    0.00000391    0.00000269
     atom   57 type  2   force =    -0.00000270   -0.00000156   -0.00000244
     atom   58 type  2   force =    -0.00000000    0.00001608    0.00001383
     atom   59 type  2   force =     0.00000000    0.00004054   -0.00003385
     atom   60 type  2   force =    -0.00001392   -0.00000804    0.00001383
     atom   61 type  2   force =    -0.00003511   -0.00002027   -0.00003385
     atom   62 type  2   force =    -0.00000000   -0.00000442    0.00000421
     atom   63 type  2   force =     0.00000000   -0.00002422   -0.00000582
     atom   64 type  2   force =    -0.00000383    0.00000221    0.00000421
     atom   65 type  2   force =    -0.00002098    0.00001211   -0.00000582
     atom   66 type  2   force =    -0.00000000   -0.00000782    0.00000269
     atom   67 type  2   force =     0.00000000    0.00000312   -0.00000244
     atom   68 type  2   force =    -0.00000677    0.00000391    0.00000269
     atom   69 type  2   force =     0.00000270   -0.00000156   -0.00000244
     atom   70 type  2   force =     0.00000383    0.00000221    0.00000421
     atom   71 type  2   force =     0.00002098    0.00001211   -0.00000582

     Total force =     0.003967     Total SCF correction =     0.001163
     SCF correction compared to forces is large: reduce conv_thr to get better values

     Computing stress (Cartesian axis) and pressure

[...]

          total   stress  (Ry/bohr**3)                   (kbar)     P=       54.59
   0.00036497  -0.00000000   0.00000000           53.69       -0.00        0.00
  -0.00000000   0.00036497   0.00000000           -0.00       53.69        0.00
   0.00000000   0.00000000   0.00038335            0.00        0.00       56.39

     kinetic stress (kbar)  18228.02     -0.00      0.00
                                0.00  18228.02      0.00
                                0.00      0.00  18236.65

     local   stress (kbar)   4178.44     -0.07     -0.00
                               -0.07   4178.35      0.00
                               -0.00      0.00   2698.54

     nonloc. stress (kbar)      2.94      0.00      0.00
                                0.00      2.94     -0.00
                                0.00     -0.00      9.99

     hartree stress (kbar)  19579.33     -0.00     -0.00
                               -0.00  19579.33      0.00
                               -0.00      0.00  20251.46

     exc-cor stress (kbar)   5033.31      0.00      0.00
                                0.00   5033.31      0.00
                                0.00      0.00   5033.80

     corecor stress (kbar) -13736.37     -0.00      0.00
                               -0.00 -13736.37      0.00
                                0.00      0.00 -13736.10

     ewald   stress (kbar) -33390.33      0.09      0.00
                                0.09 -33390.21     -0.00
                                0.00     -0.00 -32595.45

     hubbard stress (kbar)      0.00      0.00      0.00
                                0.00      0.00      0.00
                                0.00      0.00      0.00

     DFT-D   stress (kbar)      0.00      0.00      0.00
                                0.00      0.00      0.00
                                0.00      0.00      0.00

     XDM     stress (kbar)      0.00      0.00      0.00
                                0.00      0.00      0.00
                                0.00      0.00      0.00

     dft-nl  stress (kbar)    158.33     -0.00     -0.00
                               -0.00    158.33     -0.00
                               -0.00     -0.00    157.49

     TS-vdW  stress (kbar)      0.00      0.00      0.00
                                0.00      0.00      0.00
                                0.00      0.00      0.00

     MDB     stress (kbar)      0.00      0.00      0.00
                                0.00      0.00      0.00
                                0.00      0.00      0.00

     3D-RISM stress (kbar)      0.00      0.00      0.00
                                0.00      0.00      0.00
                                0.00      0.00      0.00

[...]

     Non-local corr. energy    =      19.17571343 Ry

 BEEFens 2000 ensemble energies
             -0.155542591023176E+02
             -0.139654453437486E+03
             -0.599782486553000E+02
              0.491831742406523E+02
             -0.100316583055892E+03
             -0.129086314207181E+03
              0.663826010905402E+02
             -0.703448609961436E+01
              0.110568189019952E+03
             -0.475300244005871E+01
              0.541398645564175E+02
              0.225437706695004E+01
              0.227161899885317E+01
             -0.476726089914325E+01
              0.723495435871382E+02
             -0.527300023990074E+02
             -0.108732720525585E+03
             -0.354720689495982E+02
              0.265272988577516E+02
             -0.236018038989869E+01
              0.158447360743991E+03
              0.134938469408137E+03
             -0.771538355124103E+02
              0.280310374477035E+02
             -0.169342649950940E+03
              0.135787383692541E+03
              0.443725043101367E+02
              0.132088517114728E+03
              0.867838323587716E+02
             -0.423184734998571E+02
              0.319666211682127E+02
             -0.624834134984706E+02
              0.173459962326600E+02
              0.847927392552556E+02
              0.900071840511390E+02
             -0.324529869236077E+02
              0.199945610393771E+03
             -0.758366646347710E+02
             -0.546107385455416E+02
              0.800994576733088E+02
              0.358069132034326E+02
              0.599906298284811E+02
             -0.114289839039587E+03
             -0.323366064582046E+01
              0.112254897548358E+03
              0.145748674154035E+03
             -0.145039296999849E+03
              0.103444388303974E+02
              0.547141666096599E+02
              0.265356866251524E+02
              0.606705312480160E+02
              0.128544854070583E+03
             -0.777303792135809E+02
             -0.851888364746931E+02
             -0.110753895053891E+03
             -0.172166634731212E+02
             -0.100997696978723E+03
              0.984474920646937E+01
             -0.187649775527012E+02
             -0.788033396231548E+02
[...]
              0.983674916469767E+02
              0.542154739037609E+02
              0.690531801607549E+02
             -0.111467980007793E+03
             -0.106545893951691E+03
             -0.270327196204904E+02
             -0.104533671500080E+03
              0.167479505397974E+03
              0.143540898127895E+03
              0.685708787956999E+02
              0.185632938239280E+03
             -0.966193745550925E+02
             -0.394353320090792E+02
             -0.547496828993789E+02
              0.153484942195978E+03

 BEEF-vdW xc energy contributions
            1 :    -1407.594797607846
            2 :     1267.745259246259
            3 :    -1033.371182062319
            4 :     772.9698981445362
            5 :    -546.8875856540101
            6 :     384.4133324820484
            7 :    -280.4687097849285
            8 :     210.3770665299178
            9 :    -150.8042198801959
           10 :     93.28646697254567
           11 :    -43.88098768212922
           12 :     12.61800159048789
           13 :    -2.466124508334588
           14 :     5.963234485902149
           15 :    -10.69569111198484
           16 :     8.106240900044213
           17 :     1.563860866998311
           18 :    -11.49767094430149
           19 :     15.11697407110819
           20 :    -11.70170265188153
           21 :     6.601282733944345
           22 :    -6.467447022195074
           23 :     13.77021611009877
           24 :    -25.00538166453634
           25 :     33.70338992080588
           26 :    -35.49058137449288
           27 :     31.09155761455509
           28 :    -25.13557891015853
           29 :     22.10156437753608
           30 :    -22.85445728353557
           31 :    -120.8841040575783
           32 :    -82.84020405219417

     Writing all to output data dir ./GaN.save/

     General routines

     Parallel routines

     PAW routines

   This run was terminated on:   7:21:55  19Feb2024

   JOB DONE.