     Program PWSCF v.7.1 starts on 18Feb2024 at 11:51:18

     Reading input from espresso.pwi
Warning: card &CELL ignored
Warning: card    CELL_DYNAMICS    = 'BFGS' ignored
Warning: card / ignored

     Current dimensions of program PWSCF are:
     Max number of different atomic species (ntypx) = 10
     Max number of k-points (npk) =  40000
     Max angular momentum in pseudopotentials (lmaxx) =  4
     file Pb.pbe-dn-kjpaw_psl.1.0.0.UPF: wavefunction(s)  6S 6P 5D renormalized
     file I.pbe-dn-kjpaw_psl.1.0.0.UPF: wavefunction(s)  5S 5P renormalized

     IMPORTANT: XC functional enforced from input :
     Exchange-correlation= BEEF-VDW
                           (   1   4  43  14   2   0   0)
     Any further DFT definition will be discarded
     Please, verify this is what you really want

     R & G space division:  proc/nbgrp/npool/nimage =     256
     wavefunctions fft division:  task group distribution
                                  #TG    x Z-proc =       8     32
     Subspace diagonalization in iterative solution of the eigenvalue problem:
     a serial algorithm will be used

     Using Pencil Decomposition

     bravais-lattice index     =            4
     lattice parameter (alat)  =      35.6120  a.u.
     unit-cell volume          =   45937.3577 (a.u.)^3
     number of atoms/cell      =          144
     number of atomic types    =            2
     number of electrons       =      2308.00
     number of Kohn-Sham states=         1385
     kinetic-energy cutoff     =      70.0000  Ry
     charge density cutoff     =     350.0000  Ry
     scf convergence threshold =      1.0E-07
     mixing beta               =       0.7000
     number of iterations used =            8  plain     mixing
     Exchange-correlation= BEEF-VDW
                           (   1   4  43  14   2   0   0)

     celldm(1)=  35.612033  celldm(2)=   0.000000  celldm(3)=   1.174479
     celldm(4)=   0.000000  celldm(5)=   0.000000  celldm(6)=   0.000000

     crystal axes: (cart. coord. in units of alat)
               a(1) = (   1.000000   0.000000   0.000000 )
               a(2) = (  -0.500000   0.866025   0.000000 )
               a(3) = (   0.000000   0.000000   1.174479 )

     reciprocal axes: (cart. coord. in units 2 pi/alat)
               b(1) = (  1.000000  0.577350 -0.000000 )
               b(2) = (  0.000000  1.154701  0.000000 )
               b(3) = (  0.000000 -0.000000  0.851442 )

     PseudoPot. # 1 for Pb read from file:
     //group///packages/espresso/pseudo/psl_1.0.0/pslibrary.1.0.0/pbe/PSEUDOPOTENTIALS/Pb.pbe-dn-kjpaw_psl.1.0.0.UPF
     MD5 check sum: 39ab5b8a6bbd56b7735ad9f188aac93a
     Pseudo is Projector augmented-wave + core cor, Zval = 14.0
     Generated using 'atomic' code by A. Dal Corso  v.7.1
     Shape of augmentation charge: PSQ
     Using radial grid of 1281 points,  6 beta functions with:
                l(1) =   0
                l(2) =   0
                l(3) =   1
                l(4) =   1
                l(5) =   2
                l(6) =   2
     Q(r) pseudized with 0 coefficients

     PseudoPot. # 2 for I  read from file:
     //group///packages/espresso/pseudo/psl_1.0.0/pslibrary.1.0.0/pbe/PSEUDOPOTENTIALS/I.pbe-dn-kjpaw_psl.1.0.0.UPF
     MD5 check sum: bfa8781bc1224d19af3f3980e3fab11e
     Pseudo is Projector augmented-wave + core cor, Zval = 17.0
     Generated using 'atomic' code by A. Dal Corso  v.7.1
     Shape of augmentation charge: PSQ
     Using radial grid of 1247 points,  6 beta functions with:
                l(1) =   0
                l(2) =   0
                l(3) =   1
                l(4) =   1
                l(5) =   2
                l(6) =   2
     Q(r) pseudized with 0 coefficients

     atomic species   valence    mass     pseudopotential
        Pb            14.00   207.20000     Pb( 1.00)
        I             17.00   126.90447     I ( 1.00)

     No symmetry found

                                    s                        frac. trans.

      isym =  1     identity

 cryst.   s( 1) = (     1          0          0      )
                  (     0          1          0      )
                  (     0          0          1      )

 cart.    s( 1) = (  1.0000000  0.0000000  0.0000000 )
                  (  0.0000000  1.0000000  0.0000000 )
                  (  0.0000000  0.0000000  1.0000000 )

     point group C_1 (1)
     there are  1 classes
     the character table:

       E
A      1.00

     the symmetry operations in each class and the name of the first element:

     E        1
          identity

   Cartesian axes

     site n.     atom                  positions (alat units)
         1           Pb  tau(   1) = (   0.1250034   0.2164918   0.3914896  )
         2           Pb  tau(   2) = (   0.1250085   0.2164873   0.7829825  )
         3           Pb  tau(   3) = (   0.0000128   0.4329881   1.1744712  )
         4           Pb  tau(   4) = (   0.0000026   0.4329971   0.3914855  )
         5           Pb  tau(   5) = (   0.0000077   0.4329926   0.7829784  )
         6           Pb  tau(   6) = (  -0.1249881   0.6494934   1.1744671  )
         7           Pb  tau(   7) = (  -0.1249983   0.6495025   0.3914814  )
         8           Pb  tau(   8) = (  -0.1249932   0.6494980   0.7829742  )
         9           Pb  tau(   9) = (  -0.2499889   0.8659988   1.1744630  )
        10           Pb  tau(  10) = (  -0.2499991   0.8660078   0.3914773  )
        11           Pb  tau(  11) = (  -0.2499940   0.8660033   0.7829701  )
        12           Pb  tau(  12) = (   0.3750136   0.2164818   1.1744786  )
        13           Pb  tau(  13) = (   0.3750034   0.2164908   0.3914929  )
        14           Pb  tau(  14) = (   0.3750085   0.2164863   0.7829857  )
        15           Pb  tau(  15) = (   0.2500128   0.4329871   1.1744745  )
        16           Pb  tau(  16) = (   0.2500026   0.4329962   0.3914888  )
        17           Pb  tau(  17) = (   0.2500077   0.4329916   0.7829816  )
        18           Pb  tau(  18) = (   0.1250119   0.6494925   1.1744703  )
        19           Pb  tau(  19) = (   0.1250017   0.6495015   0.3914847  )
        20           Pb  tau(  20) = (   0.1250068   0.6494970   0.7829775  )
        21           Pb  tau(  21) = (   0.0000111   0.8659978   1.1744662  )
        22           Pb  tau(  22) = (   0.0000009   0.8660069   0.3914805  )
        23           Pb  tau(  23) = (   0.0000060   0.8660024   0.7829734  )
        24           Pb  tau(  24) = (   0.6250136   0.2164808   1.1744818  )
        25           Pb  tau(  25) = (   0.6250034   0.2164898   0.3914962  )
        26           Pb  tau(  26) = (   0.6250085   0.2164853   0.7829890  )
        27           Pb  tau(  27) = (   0.5000128   0.4329862   1.1744777  )
        28           Pb  tau(  28) = (   0.5000026   0.4329952   0.3914920  )
        29           Pb  tau(  29) = (   0.5000077   0.4329907   0.7829849  )
        30           Pb  tau(  30) = (   0.3750119   0.6494915   1.1744736  )
        31           Pb  tau(  31) = (   0.3750017   0.6495006   0.3914879  )
        32           Pb  tau(  32) = (   0.3750068   0.6494960   0.7829808  )
        33           Pb  tau(  33) = (   0.2500111   0.8659969   1.1744695  )
        34           Pb  tau(  34) = (   0.2500009   0.8660059   0.3914838  )
        35           Pb  tau(  35) = (   0.2500060   0.8660014   0.7829766  )
        36           Pb  tau(  36) = (   0.8750136   0.2164798   1.1744851  )
        37           Pb  tau(  37) = (   0.8750034   0.2164889   0.3914994  )
        38           Pb  tau(  38) = (   0.8750085   0.2164844   0.7829923  )
        39           Pb  tau(  39) = (   0.7500128   0.4329852   1.1744810  )
        40           Pb  tau(  40) = (   0.7500026   0.4329942   0.3914953  )
        41           Pb  tau(  41) = (   0.7500077   0.4329897   0.7829881  )
        42           Pb  tau(  42) = (   0.6250119   0.6494906   1.1744769  )
        43           Pb  tau(  43) = (   0.6250017   0.6494996   0.3914912  )
        44           Pb  tau(  44) = (   0.6250068   0.6494951   0.7829840  )
        45           Pb  tau(  45) = (   0.5000111   0.8659959   1.1744727  )
        46           Pb  tau(  46) = (   0.5000009   0.8660050   0.3914870  )
        47           Pb  tau(  47) = (   0.5000060   0.8660004   0.7829799  )
        48           I   tau(  48) = (   0.1250054   0.0721550   0.2909325  )
        49           I   tau(  49) = (   0.1250105   0.0721505   0.6824253  )
        50           I   tau(  50) = (   0.1250156   0.0721459   1.0739182  )
        51           I   tau(  51) = (   0.0000045   0.2886603   0.2909283  )
        52           I   tau(  52) = (   0.0000096   0.2886558   0.6824212  )
        53           I   tau(  53) = (   0.0000147   0.2886513   1.0739140  )
        54           I   tau(  54) = (  -0.1249963   0.5051657   0.2909242  )
        55           I   tau(  55) = (  -0.1249912   0.5051612   0.6824171  )
        56           I   tau(  56) = (  -0.1249861   0.5051566   1.0739099  )
        57           I   tau(  57) = (  -0.2499971   0.7216710   0.2909201  )
        58           I   tau(  58) = (  -0.2499920   0.7216665   0.6824129  )
        59           I   tau(  59) = (  -0.2499869   0.7216620   1.0739058  )
        60           I   tau(  60) = (   0.3750054   0.0721540   0.2909357  )
[...]
       130           I   tau( 130) = (   0.1250009   0.7938394   0.4920425  )
       131           I   tau( 131) = (   0.1250060   0.7938348   0.8835353  )
       132           I   tau( 132) = (   0.7499983   0.1443268   0.1005653  )
       133           I   tau( 133) = (   0.7500034   0.1443223   0.4920581  )
       134           I   tau( 134) = (   0.7500085   0.1443178   0.8835509  )
       135           I   tau( 135) = (   0.6249975   0.3608322   0.1005611  )
       136           I   tau( 136) = (   0.6250026   0.3608277   0.4920540  )
       137           I   tau( 137) = (   0.6250077   0.3608232   0.8835468  )
       138           I   tau( 138) = (   0.4999966   0.5773376   0.1005570  )
       139           I   tau( 139) = (   0.5000017   0.5773330   0.4920499  )
       140           I   tau( 140) = (   0.5000068   0.5773285   0.8835427  )
       141           I   tau( 141) = (   0.3749958   0.7938429   0.1005529  )
       142           I   tau( 142) = (   0.3750009   0.7938384   0.4920457  )
       143           I   tau( 143) = (   0.3750060   0.7938339   0.8835386  )
       144           I   tau( 144) = (   0.1250136   0.2164827   1.1744753  )

   Crystallographic axes

     site n.     atom                  positions (cryst. coord.)
         1           Pb  tau(   1) = (  0.2499950  0.2499832  0.3333306  )
         2           Pb  tau(   2) = (  0.2499975  0.2499780  0.6666639  )
         3           Pb  tau(   3) = (  0.2499986  0.4999716  0.9999938  )
         4           Pb  tau(   4) = (  0.2499936  0.4999820  0.3333271  )
         5           Pb  tau(   5) = (  0.2499961  0.4999768  0.6666604  )
         6           Pb  tau(   6) = (  0.2499972  0.7499704  0.9999902  )
         7           Pb  tau(   7) = (  0.2499922  0.7499809  0.3333236  )
         8           Pb  tau(   8) = (  0.2499947  0.7499757  0.6666569  )
[...]
     atom   26 type  1   force =     0.00000000    0.00000000    0.00000000
     atom   27 type  1   force =     0.00000000    0.00000000    0.00000000
     atom   28 type  1   force =     0.00000000    0.00000000    0.00000000
     atom   29 type  1   force =     0.00000000    0.00000000    0.00000000
     atom   30 type  1   force =     0.00000000    0.00000000    0.00000000
     atom   31 type  1   force =     0.00000000    0.00000000    0.00000000
     atom   32 type  1   force =     0.00000000    0.00000000    0.00000000
     atom   33 type  1   force =     0.00000000    0.00000000    0.00000000
     atom   34 type  1   force =     0.00000000    0.00000000    0.00000000
     atom   35 type  1   force =     0.00000000    0.00000000    0.00000000
     atom   36 type  1   force =     0.00000000    0.00000000    0.00000000
     atom   37 type  1   force =     0.00000000    0.00000000    0.00000000
     atom   38 type  1   force =     0.00000000    0.00000000    0.00000000
     atom   39 type  1   force =     0.00000000    0.00000000    0.00000000
     atom   40 type  1   force =     0.00000000    0.00000000    0.00000000
     atom   41 type  1   force =     0.00000000    0.00000000    0.00000000
     atom   42 type  1   force =     0.00000000    0.00000000    0.00000000
     atom   43 type  1   force =     0.00000000    0.00000000    0.00000000
     atom   44 type  1   force =     0.00000000    0.00000000    0.00000000
     atom   45 type  1   force =     0.00000000    0.00000000    0.00000000
     atom   46 type  1   force =     0.00000000    0.00000000    0.00000000
     atom   47 type  1   force =     0.00000000    0.00000000    0.00000000
     atom   48 type  2   force =     0.00000000    0.00000000    0.00000000
     atom   49 type  2   force =     0.00000000    0.00000000    0.00000000
     atom   50 type  2   force =     0.00000000    0.00000000    0.00000000
     atom   51 type  2   force =     0.00000000    0.00000000    0.00000000
     atom   52 type  2   force =     0.00000000    0.00000000    0.00000000
     atom   53 type  2   force =     0.00000000    0.00000000    0.00000000
     atom   54 type  2   force =     0.00000000    0.00000000    0.00000000
     atom   55 type  2   force =     0.00000000    0.00000000    0.00000000
     atom   56 type  2   force =     0.00000000    0.00000000    0.00000000
     atom   57 type  2   force =     0.00000000    0.00000000    0.00000000
     atom   58 type  2   force =     0.00000000    0.00000000    0.00000000
     atom   59 type  2   force =     0.00000000    0.00000000    0.00000000
     atom   60 type  2   force =     0.00000000    0.00000000    0.00000000
[...]
     atom  130 type  2   force =     0.00000000    0.00000000    0.00000000
     atom  131 type  2   force =     0.00000000    0.00000000    0.00000000
     atom  132 type  2   force =     0.00000000    0.00000000    0.00000000
     atom  133 type  2   force =     0.00000000    0.00000000    0.00000000
     atom  134 type  2   force =     0.00000000    0.00000000    0.00000000
     atom  135 type  2   force =     0.00000000    0.00000000    0.00000000
     atom  136 type  2   force =     0.00000000    0.00000000    0.00000000
     atom  137 type  2   force =     0.00000000    0.00000000    0.00000000
     atom  138 type  2   force =     0.00000000    0.00000000    0.00000000
     atom  139 type  2   force =     0.00000000    0.00000000    0.00000000
     atom  140 type  2   force =     0.00000000    0.00000000    0.00000000
     atom  141 type  2   force =     0.00000000    0.00000000    0.00000000
     atom  142 type  2   force =     0.00000000    0.00000000    0.00000000
     atom  143 type  2   force =     0.00000000    0.00000000    0.00000000
     atom  144 type  2   force =     0.00000000    0.00000000    0.00000000
     The SCF correction term to forces
     atom    1 type  1   force =     0.00001065   -0.00000116   -0.00003494
     atom    2 type  1   force =    -0.00001055    0.00000101   -0.00004098
     atom    3 type  1   force =    -0.00002241    0.00000669    0.00004463
     atom    4 type  1   force =     0.00001137   -0.00001070   -0.00004558
     atom    5 type  1   force =    -0.00000263   -0.00001345   -0.00001074
     atom    6 type  1   force =     0.00000396    0.00000259    0.00006189
     atom    7 type  1   force =     0.00000116    0.00000522   -0.00006169
     atom    8 type  1   force =     0.00000132   -0.00000362    0.00000020
     atom    9 type  1   force =     0.00003861    0.00000245    0.00010972
     atom   10 type  1   force =     0.00000209    0.00002139   -0.00005865
     atom   11 type  1   force =    -0.00000482    0.00000625   -0.00002344
     atom   12 type  1   force =     0.00002325   -0.00004748    0.00012776
     atom   13 type  1   force =    -0.00001974   -0.00001029   -0.00006103
     atom   14 type  1   force =    -0.00000859   -0.00000543   -0.00002906
     atom   15 type  1   force =    -0.00000180    0.00004050    0.00009490
     atom   16 type  1   force =    -0.00001043   -0.00001771   -0.00004933
     atom   17 type  1   force =    -0.00001231   -0.00000661   -0.00002785
     atom   18 type  1   force =    -0.00000868    0.00000206    0.00005671
     atom   19 type  1   force =    -0.00000407   -0.00000929   -0.00006417
     atom   20 type  1   force =    -0.00000474   -0.00000319   -0.00000055
     atom   21 type  1   force =    -0.00001167    0.00000377    0.00006775
     atom   22 type  1   force =    -0.00001645    0.00000790   -0.00007121
     atom   23 type  1   force =    -0.00000216   -0.00000083   -0.00000136
     atom   24 type  1   force =    -0.00000007   -0.00000479    0.00006198
     atom   25 type  1   force =    -0.00000670   -0.00000234   -0.00006149
     atom   26 type  1   force =     0.00000666   -0.00000062   -0.00000012
     atom   27 type  1   force =     0.00001088   -0.00000088    0.00007468
     atom   28 type  1   force =    -0.00000690   -0.00000741   -0.00006014
     atom   29 type  1   force =     0.00000181   -0.00000195   -0.00000428
     atom   30 type  1   force =    -0.00000398    0.00000257    0.00006181
     atom   31 type  1   force =    -0.00000173   -0.00000218   -0.00005772
     atom   32 type  1   force =    -0.00000073    0.00000367   -0.00000377
     atom   33 type  1   force =    -0.00001027    0.00000109    0.00004977
     atom   34 type  1   force =     0.00000162    0.00000400   -0.00006053
     atom   35 type  1   force =     0.00000289    0.00000509    0.00000129
     atom   36 type  1   force =    -0.00002283    0.00002810    0.00002728
     atom   37 type  1   force =     0.00001575    0.00000176   -0.00004014
     atom   38 type  1   force =     0.00001263    0.00000683   -0.00000827
     atom   39 type  1   force =     0.00001110   -0.00000354    0.00005662
     atom   40 type  1   force =     0.00000594   -0.00000151   -0.00005736
     atom   41 type  1   force =     0.00001288   -0.00000574    0.00000628
     atom   42 type  1   force =     0.00000872   -0.00000212    0.00006743
     atom   43 type  1   force =     0.00000468    0.00000780   -0.00005830
     atom   44 type  1   force =     0.00000409    0.00000543   -0.00000046
     atom   45 type  1   force =    -0.00001430   -0.00003096    0.00005969
     atom   46 type  1   force =     0.00001288    0.00001457   -0.00004159
     atom   47 type  1   force =     0.00000407    0.00001316   -0.00001982
     atom   48 type  2   force =     0.00003398    0.00000792   -0.00002526
     atom   49 type  2   force =    -0.00000064    0.00001668   -0.00002598
     atom   50 type  2   force =     0.00000321   -0.00003055    0.00003000
     atom   51 type  2   force =     0.00001252    0.00000661   -0.00001212
     atom   52 type  2   force =     0.00000982   -0.00000611   -0.00001738
     atom   53 type  2   force =    -0.00004401    0.00002570    0.00002237
     atom   54 type  2   force =     0.00000542    0.00000281   -0.00004213
     atom   55 type  2   force =     0.00000956   -0.00001242   -0.00000381
     atom   56 type  2   force =     0.00001020   -0.00002104    0.00003851
     atom   57 type  2   force =     0.00000881    0.00001741   -0.00004672
     atom   58 type  2   force =    -0.00000172    0.00001168   -0.00001009
     atom   59 type  2   force =     0.00001210   -0.00000421    0.00004874
     atom   60 type  2   force =    -0.00002056    0.00001223   -0.00007104
[...]
     atom  130 type  2   force =    -0.00000536    0.00000067   -0.00004989
     atom  131 type  2   force =    -0.00000196    0.00000106    0.00001248
     atom  132 type  2   force =    -0.00001156    0.00000286    0.00004610
     atom  133 type  2   force =     0.00001213    0.00000376   -0.00004282
     atom  134 type  2   force =     0.00000567    0.00000644    0.00000529
     atom  135 type  2   force =     0.00000106    0.00000276    0.00005319
     atom  136 type  2   force =    -0.00000027   -0.00000648   -0.00004677
     atom  137 type  2   force =     0.00001668   -0.00000066    0.00000197
     atom  138 type  2   force =     0.00001035   -0.00000602    0.00005666
     atom  139 type  2   force =    -0.00000310    0.00000154   -0.00004627
     atom  140 type  2   force =     0.00000771    0.00000290   -0.00000196
     atom  141 type  2   force =    -0.00000632   -0.00000339    0.00005098
     atom  142 type  2   force =     0.00000927    0.00001174   -0.00004240
     atom  143 type  2   force =    -0.00000498    0.00000562   -0.00000117
     atom  144 type  2   force =    -0.00000020   -0.00000047    0.00010407

     Total force =     0.004707     Total SCF correction =     0.000598
     SCF correction compared to forces is large: reduce conv_thr to get better values

     Computing stress (Cartesian axis) and pressure

[...]

          total   stress  (Ry/bohr**3)                   (kbar)     P=        4.26
   0.00002854  -0.00000000   0.00000000            4.20       -0.00        0.00
  -0.00000000   0.00002855   0.00000001           -0.00        4.20        0.00
   0.00000000   0.00000001   0.00002969            0.00        0.00        4.37

     kinetic stress (kbar)  14943.85     -0.00      0.00
                               -0.00  14943.86      0.01
                                0.00      0.01  14953.94

     local   stress (kbar)  -7399.26     -0.05      0.03
                               -0.05  -7398.98      0.08
                                0.03      0.08   1325.41

     nonloc. stress (kbar)   -999.52     -0.00      0.00
                               -0.00   -999.51      0.00
                                0.00      0.00  -1005.28

     hartree stress (kbar)  12027.08      0.02     -0.01
                                0.02  12026.97     -0.03
                               -0.01     -0.03   8088.37

     exc-cor stress (kbar)   6970.37      0.00      0.00
                                0.00   6970.37      0.00
                                0.00      0.00   6969.40

     corecor stress (kbar) -11344.52      0.00     -0.00
                                0.00 -11344.52     -0.00
                               -0.00     -0.00 -11344.45

     ewald   stress (kbar) -14277.50      0.04     -0.02
                                0.04 -14277.69     -0.06
                               -0.02     -0.06 -19067.97

     hubbard stress (kbar)      0.00      0.00      0.00
                                0.00      0.00      0.00
                                0.00      0.00      0.00

     DFT-D   stress (kbar)      0.00      0.00      0.00
                                0.00      0.00      0.00
                                0.00      0.00      0.00

     XDM     stress (kbar)      0.00      0.00      0.00
                                0.00      0.00      0.00
                                0.00      0.00      0.00

     dft-nl  stress (kbar)     83.70     -0.00      0.00
                               -0.00     83.70     -0.00
                                0.00     -0.00     84.95

     TS-vdW  stress (kbar)      0.00      0.00      0.00
                                0.00      0.00      0.00
                                0.00      0.00      0.00

     MDB     stress (kbar)      0.00      0.00      0.00
                                0.00      0.00      0.00
                                0.00      0.00      0.00

     3D-RISM stress (kbar)      0.00      0.00      0.00
                                0.00      0.00      0.00
                                0.00      0.00      0.00

[...]

     Non-local corr. energy    =      69.33915559 Ry

 BEEFens 2000 ensemble energies
             -0.581864145699938E+02
             -0.585716538415099E+03
             -0.266519519514428E+03
              0.204556479951848E+03
             -0.447657063119629E+03
             -0.548140241325656E+03
              0.281323358170723E+03
              0.120674756376093E+01
              0.474197486307205E+03
             -0.300027163973723E+02
              0.242704856484327E+03
              0.248512589432584E+02
             -0.186241639758887E+02
             -0.150302934218639E+02
              0.302691645326258E+03
             -0.227796509283857E+03
             -0.447367077479033E+03
             -0.144350895467627E+03
              0.129438600631771E+03
             -0.270808711580594E+01
              0.659596596497724E+03
              0.550573400523691E+03
             -0.339149427371762E+03
              0.117224231404768E+03
             -0.706533848533414E+03
              0.579988466729299E+03
              0.198324213183328E+03
              0.523759773377358E+03
              0.353024612878672E+03
             -0.163915998004056E+03
              0.129175016477681E+03
             -0.230983272558749E+03
              0.963950727086057E+02
              0.351127857447660E+03
              0.377787688076062E+03
             -0.164172690283526E+03
              0.833588835452963E+03
             -0.335370482150625E+03
             -0.223446315302408E+03
              0.333387808816426E+03
              0.146969162690499E+03
              0.253277157394909E+03
             -0.489288640043108E+03
             -0.317546011374297E+02
              0.469463232617967E+03
              0.613553356595503E+03
             -0.622889351389848E+03
              0.400360692128988E+02
              0.216106383074338E+03
              0.139503641570492E+03
              0.243636438037002E+03
              0.534942912938991E+03
             -0.347366462962850E+03
             -0.337167429896011E+03
             -0.469737065658222E+03
             -0.682261383011223E+02
             -0.400727861818991E+03
              0.517961558658453E+02
             -0.577896464710675E+02
             -0.317861555006991E+03
[...]
              0.396909466761995E+03
              0.254266134679081E+03
              0.259288576370844E+03
             -0.479728851112787E+03
             -0.495460436981265E+03
             -0.111698453352347E+03
             -0.442845654777408E+03
              0.703149179692132E+03
              0.592324870168603E+03
              0.279317744173873E+03
              0.770083712756223E+03
             -0.384888957673302E+03
             -0.165753538885932E+03
             -0.238859112529116E+03
              0.666181505058382E+03

 BEEF-vdW xc energy contributions
            1 :    -6021.978924541720
            2 :     5518.294797476156
            3 :    -4659.255784167683
            4 :     3673.625854031157
            5 :    -2777.056995809653
            6 :     2102.523106591424
            7 :    -1678.458276183905
            8 :     1448.611295592376
            9 :    -1314.808094952865
           10 :     1184.086788453275
           11 :    -1004.082421132971
           12 :     774.5399796771744
           13 :    -533.0351688131132
           14 :     326.1059112285602
           15 :    -183.1477042865245
           16 :     105.2007243322332
           17 :    -69.96382460854875
           18 :     46.47936833759832
           19 :    -10.90349615034302
           20 :    -43.56263376511379
           21 :     106.3306662150735
           22 :    -158.1005301075256
           23 :     183.4358876539536
           24 :    -180.0259449549467
           25 :     159.6893410868915
           26 :    -141.3561523635281
           27 :     140.6709627104974
           28 :    -161.9935761764027
           29 :     196.6505078914815
           30 :    -227.9402924866572
           31 :    -517.8521329326632
           32 :    -372.5282993066721

     Writing all to output data dir ./PbI2.save/

     General routines

     Parallel routines

     PAW routines

   This run was terminated on:  12: 6:30  18Feb2024

   JOB DONE.