     Program PWSCF v.7.1 starts on 25Feb2024 at 18:29:18

     Reading input from espresso.pwi
Warning: card &CELL ignored
Warning: card    CELL_DYNAMICS    = 'BFGS' ignored
Warning: card / ignored

     Current dimensions of program PWSCF are:
     Max number of different atomic species (ntypx) = 10
     Max number of k-points (npk) =  40000
     Max angular momentum in pseudopotentials (lmaxx) =  4
     file C.pbe-n-kjpaw_psl.1.0.0.UPF: wavefunction(s)  2S 2P renormalized

     IMPORTANT: XC functional enforced from input :
     Exchange-correlation= BEEF-VDW
                           (   1   4  43  14   2   0   0)
     Any further DFT definition will be discarded
     Please, verify this is what you really want

     R & G space division:  proc/nbgrp/npool/nimage =     256
     wavefunctions fft division:  task group distribution
                                  #TG    x Z-proc =       8     32
     Subspace diagonalization in iterative solution of the eigenvalue problem:
     a serial algorithm will be used

     Using Pencil Decomposition

     bravais-lattice index     =            1
     lattice parameter (alat)  =      33.7534  a.u.
     unit-cell volume          =   38454.8879 (a.u.)^3
     number of atoms/cell      =          999
     number of atomic types    =            1
     number of electrons       =      3997.00
     number of Kohn-Sham states=         2399
     kinetic-energy cutoff     =      70.0000  Ry
     charge density cutoff     =     350.0000  Ry
     scf convergence threshold =      1.0E-07
     mixing beta               =       0.7000
     number of iterations used =            8  plain     mixing
     energy convergence thresh.=      1.0E-04
     force convergence thresh. =      1.0E-03
     Exchange-correlation= BEEF-VDW
                           (   1   4  43  14   2   0   0)
     nstep                     =           50

     celldm(1)=  33.753373  celldm(2)=   0.000000  celldm(3)=   0.000000
     celldm(4)=   0.000000  celldm(5)=   0.000000  celldm(6)=   0.000000

     crystal axes: (cart. coord. in units of alat)
               a(1) = (   1.000000   0.000000   0.000000 )
               a(2) = (   0.000000   1.000000   0.000000 )
               a(3) = (   0.000000   0.000000   1.000000 )

     reciprocal axes: (cart. coord. in units 2 pi/alat)
               b(1) = (  1.000000  0.000000  0.000000 )
               b(2) = (  0.000000  1.000000  0.000000 )
               b(3) = (  0.000000  0.000000  1.000000 )

     PseudoPot. # 1 for C  read from file:
     //group///packages/espresso/pseudo/psl_1.0.0/pslibrary.1.0.0/pbe/PSEUDOPOTENTIALS/C.pbe-n-kjpaw_psl.1.0.0.UPF
     MD5 check sum: 5459cf7f2c8c37df2f7cde8914797f4d
     Pseudo is Projector augmented-wave + core cor, Zval =  4.0
     Generated using 'atomic' code by A. Dal Corso  v.7.1
     Shape of augmentation charge: PSQ
     Using radial grid of 1073 points,  4 beta functions with:
                l(1) =   0
                l(2) =   0
                l(3) =   1
                l(4) =   1
     Q(r) pseudized with 0 coefficients

     atomic species   valence    mass     pseudopotential
        C              4.00    12.01100     C ( 1.00)

      2 Sym. Ops. (no inversion) found

                                    s                        frac. trans.

      isym =  1     identity

 cryst.   s( 1) = (     1          0          0      )
                  (     0          1          0      )
                  (     0          0          1      )

 cart.    s( 1) = (  1.0000000  0.0000000  0.0000000 )
                  (  0.0000000  1.0000000  0.0000000 )
                  (  0.0000000  0.0000000  1.0000000 )

      isym =  2     inv. 180 deg rotation - cart. axis [-1,0,1]

 cryst.   s( 2) = (     0          0          1      )
                  (     0          1          0      )
                  (     1          0          0      )

 cart.    s( 2) = (  0.0000000  0.0000000  1.0000000 )
                  (  0.0000000  1.0000000  0.0000000 )
                  (  1.0000000  0.0000000  0.0000000 )

     point group C_s (m)
     there are  2 classes
     the character table:

       E     s
A'     1.00  1.00
A''    1.00 -1.00

     the symmetry operations in each class and the name of the first element:

     E        1
          identity
     s        2
          inv. 180 deg rotation - cart. axis [-1,0,1]

   Cartesian axes

     site n.     atom                  positions (alat units)
         1           C   tau(   1) = (   0.0500012   0.1499988   0.2500012  )
         2           C   tau(   2) = (   0.0500012   0.1499988   0.4500012  )
         3           C   tau(   3) = (   0.0500012   0.1499988   0.6500012  )
         4           C   tau(   4) = (   0.0500012   0.1499988   0.8500012  )
         5           C   tau(   5) = (   0.0500012   0.3499988   0.0500012  )
         6           C   tau(   6) = (   0.0500012   0.3499988   0.2500012  )
         7           C   tau(   7) = (   0.0500012   0.3499988   0.4500012  )
         8           C   tau(   8) = (   0.0500012   0.3499988   0.6500012  )
         9           C   tau(   9) = (   0.0500012   0.3499988   0.8500012  )
        10           C   tau(  10) = (   0.0500012   0.5499988   0.0500012  )
        11           C   tau(  11) = (   0.0500012   0.5499988   0.2500012  )
        12           C   tau(  12) = (   0.0500012   0.5499988   0.4500012  )
        13           C   tau(  13) = (   0.0500012   0.5499988   0.6500012  )
        14           C   tau(  14) = (   0.0500012   0.5499988   0.8500012  )
        15           C   tau(  15) = (   0.0500012   0.7499988   0.0500012  )
        16           C   tau(  16) = (   0.0500012   0.7499988   0.2500012  )
        17           C   tau(  17) = (   0.0500012   0.7499988   0.4500012  )
        18           C   tau(  18) = (   0.0500012   0.7499988   0.6500012  )
        19           C   tau(  19) = (   0.0500012   0.7499988   0.8500012  )
        20           C   tau(  20) = (   0.0500012   0.9499988   0.0500012  )
        21           C   tau(  21) = (   0.0500012   0.9499988   0.2500012  )
        22           C   tau(  22) = (   0.0500012   0.9499988   0.4500012  )
        23           C   tau(  23) = (   0.0500012   0.9499988   0.6500012  )
        24           C   tau(  24) = (   0.0500012   0.9499988   0.8500012  )
        25           C   tau(  25) = (   0.2500012   0.1499988   0.0500012  )
        26           C   tau(  26) = (   0.2500012   0.1499988   0.2500012  )
        27           C   tau(  27) = (   0.2500012   0.1499988   0.4500012  )
        28           C   tau(  28) = (   0.2500012   0.1499988   0.6500012  )
        29           C   tau(  29) = (   0.2500012   0.1499988   0.8500012  )
        30           C   tau(  30) = (   0.2500012   0.3499988   0.0500012  )
        31           C   tau(  31) = (   0.2500012   0.3499988   0.2500012  )
        32           C   tau(  32) = (   0.2500012   0.3499988   0.4500012  )
        33           C   tau(  33) = (   0.2500012   0.3499988   0.6500012  )
        34           C   tau(  34) = (   0.2500012   0.3499988   0.8500012  )
        35           C   tau(  35) = (   0.2500012   0.5499988   0.0500012  )
        36           C   tau(  36) = (   0.2500012   0.5499988   0.2500012  )
        37           C   tau(  37) = (   0.2500012   0.5499988   0.4500012  )
        38           C   tau(  38) = (   0.2500012   0.5499988   0.6500012  )
        39           C   tau(  39) = (   0.2500012   0.5499988   0.8500012  )
        40           C   tau(  40) = (   0.2500012   0.7499988   0.0500012  )
        41           C   tau(  41) = (   0.2500012   0.7499988   0.2500012  )
        42           C   tau(  42) = (   0.2500012   0.7499988   0.4500012  )
        43           C   tau(  43) = (   0.2500012   0.7499988   0.6500012  )
        44           C   tau(  44) = (   0.2500012   0.7499988   0.8500012  )
        45           C   tau(  45) = (   0.2500012   0.9499988   0.0500012  )
        46           C   tau(  46) = (   0.2500012   0.9499988   0.2500012  )
        47           C   tau(  47) = (   0.2500012   0.9499988   0.4500012  )
        48           C   tau(  48) = (   0.2500012   0.9499988   0.6500012  )
        49           C   tau(  49) = (   0.2500012   0.9499988   0.8500012  )
        50           C   tau(  50) = (   0.4500012   0.1499988   0.0500012  )
        51           C   tau(  51) = (   0.4500012   0.1499988   0.2500012  )
        52           C   tau(  52) = (   0.4500012   0.1499988   0.4500012  )
        53           C   tau(  53) = (   0.4500012   0.1499988   0.6500012  )
        54           C   tau(  54) = (   0.4500012   0.1499988   0.8500012  )
        55           C   tau(  55) = (   0.4500012   0.3499988   0.0500012  )
        56           C   tau(  56) = (   0.4500012   0.3499988   0.2500012  )
        57           C   tau(  57) = (   0.4500012   0.3499988   0.4500012  )
        58           C   tau(  58) = (   0.4500012   0.3499988   0.6500012  )
        59           C   tau(  59) = (   0.4500012   0.3499988   0.8500012  )
        60           C   tau(  60) = (   0.4500012   0.5499988   0.0500012  )
[...]
       985           C   tau( 985) = (   0.9000000   0.5000000   0.1000000  )
       986           C   tau( 986) = (   0.9000000   0.5000000   0.3000000  )
       987           C   tau( 987) = (   0.9000000   0.5000000   0.5000000  )
       988           C   tau( 988) = (   0.9000000   0.5000000   0.7000000  )
       989           C   tau( 989) = (   0.9000000   0.5000000   0.9000000  )
       990           C   tau( 990) = (   0.9000000   0.7000000   0.1000000  )
       991           C   tau( 991) = (   0.9000000   0.7000000   0.3000000  )
       992           C   tau( 992) = (   0.9000000   0.7000000   0.5000000  )
       993           C   tau( 993) = (   0.9000000   0.7000000   0.7000000  )
       994           C   tau( 994) = (   0.9000000   0.7000000   0.9000000  )
       995           C   tau( 995) = (   0.9000000   0.9000000   0.1000000  )
       996           C   tau( 996) = (   0.9000000   0.9000000   0.3000000  )
       997           C   tau( 997) = (   0.9000000   0.9000000   0.5000000  )
       998           C   tau( 998) = (   0.9000000   0.9000000   0.7000000  )
       999           C   tau( 999) = (   0.9000000   0.9000000   0.9000000  )

   Crystallographic axes

     site n.     atom                  positions (cryst. coord.)
         1           C   tau(   1) = (  0.0500012  0.1499988  0.2500012  )
         2           C   tau(   2) = (  0.0500012  0.1499988  0.4500012  )
         3           C   tau(   3) = (  0.0500012  0.1499988  0.6500012  )
         4           C   tau(   4) = (  0.0500012  0.1499988  0.8500012  )
         5           C   tau(   5) = (  0.0500012  0.3499988  0.0500012  )
         6           C   tau(   6) = (  0.0500012  0.3499988  0.2500012  )
         7           C   tau(   7) = (  0.0500012  0.3499988  0.4500012  )
         8           C   tau(   8) = (  0.0500012  0.3499988  0.6500012  )
         9           C   tau(   9) = (  0.0500012  0.3499988  0.8500012  )
        10           C   tau(  10) = (  0.0500012  0.5499988  0.0500012  )
[...]
     atom   45 type  1   force =     0.00000000    0.00000000    0.00000000
     atom   46 type  1   force =     0.00000000    0.00000000    0.00000000
     atom   47 type  1   force =     0.00000000    0.00000000    0.00000000
     atom   48 type  1   force =     0.00000000    0.00000000    0.00000000
     atom   49 type  1   force =     0.00000000    0.00000000    0.00000000
     atom   50 type  1   force =     0.00000000    0.00000000    0.00000000
     atom   51 type  1   force =     0.00000000    0.00000000    0.00000000
     atom   52 type  1   force =     0.00000000    0.00000000    0.00000000
     atom   53 type  1   force =     0.00000000    0.00000000    0.00000000
     atom   54 type  1   force =     0.00000000    0.00000000    0.00000000
     atom   55 type  1   force =     0.00000000    0.00000000    0.00000000
     atom   56 type  1   force =     0.00000000    0.00000000    0.00000000
     atom   57 type  1   force =     0.00000000    0.00000000    0.00000000
     atom   58 type  1   force =     0.00000000    0.00000000    0.00000000
     atom   59 type  1   force =     0.00000000    0.00000000    0.00000000
     atom   60 type  1   force =     0.00000000    0.00000000    0.00000000
[...]
     atom  985 type  1   force =     0.00000000    0.00000000    0.00000000
     atom  986 type  1   force =     0.00000000    0.00000000    0.00000000
     atom  987 type  1   force =     0.00000000    0.00000000    0.00000000
     atom  988 type  1   force =     0.00000000    0.00000000    0.00000000
     atom  989 type  1   force =     0.00000000    0.00000000    0.00000000
     atom  990 type  1   force =     0.00000000    0.00000000    0.00000000
     atom  991 type  1   force =     0.00000000    0.00000000    0.00000000
     atom  992 type  1   force =     0.00000000    0.00000000    0.00000000
     atom  993 type  1   force =     0.00000000    0.00000000    0.00000000
     atom  994 type  1   force =     0.00000000    0.00000000    0.00000000
     atom  995 type  1   force =     0.00000000    0.00000000    0.00000000
     atom  996 type  1   force =     0.00000000    0.00000000    0.00000000
     atom  997 type  1   force =     0.00000000    0.00000000    0.00000000
     atom  998 type  1   force =     0.00000000    0.00000000    0.00000000
     atom  999 type  1   force =     0.00000000    0.00000000    0.00000000
     The SCF correction term to forces
     atom    1 type  1   force =     0.00000586   -0.00001330   -0.00000359
     atom    2 type  1   force =    -0.00000101   -0.00000359    0.00000785
     atom    3 type  1   force =    -0.00000152   -0.00000228   -0.00000981
     atom    4 type  1   force =    -0.00000157   -0.00000565   -0.00000399
     atom    5 type  1   force =    -0.00000173    0.00000720   -0.00000173
     atom    6 type  1   force =    -0.00000388   -0.00000741   -0.00000436
     atom    7 type  1   force =    -0.00000198   -0.00000420    0.00001423
     atom    8 type  1   force =    -0.00000216   -0.00000236   -0.00001167
     atom    9 type  1   force =     0.00000114   -0.00000498    0.00000408
     atom   10 type  1   force =    -0.00000170    0.00001658   -0.00000170
     atom   11 type  1   force =    -0.00000212    0.00001822   -0.00000466
     atom   12 type  1   force =    -0.00000365    0.00000926    0.00000739
     atom   13 type  1   force =    -0.00000097    0.00000883   -0.00000338
     atom   14 type  1   force =    -0.00000207    0.00001818    0.00000237
     atom   15 type  1   force =    -0.00000065   -0.00000879   -0.00000065
     atom   16 type  1   force =    -0.00000039   -0.00001111   -0.00000440
     atom   17 type  1   force =     0.00000007   -0.00000394    0.00000597
     atom   18 type  1   force =    -0.00000372   -0.00000545   -0.00000383
     atom   19 type  1   force =    -0.00000224   -0.00001450    0.00000283
     atom   20 type  1   force =     0.00000593    0.00000948    0.00000593
     atom   21 type  1   force =     0.00000665    0.00001341   -0.00001537
     atom   22 type  1   force =    -0.00000053    0.00000231    0.00001165
     atom   23 type  1   force =    -0.00000203    0.00000128   -0.00001253
     atom   24 type  1   force =    -0.00000477    0.00000666    0.00001064
     atom   25 type  1   force =    -0.00000359   -0.00001330    0.00000586
     atom   26 type  1   force =    -0.00001347   -0.00001173   -0.00001347
     atom   27 type  1   force =    -0.00000520   -0.00000366    0.00001144
     atom   28 type  1   force =    -0.00000450   -0.00000214   -0.00001137
     atom   29 type  1   force =    -0.00000508   -0.00000059    0.00000715
     atom   30 type  1   force =    -0.00000436   -0.00000741   -0.00000388
     atom   31 type  1   force =    -0.00000626   -0.00000844   -0.00000626
     atom   32 type  1   force =    -0.00001011   -0.00001012    0.00001118
     atom   33 type  1   force =    -0.00000748   -0.00000622   -0.00001102
     atom   34 type  1   force =    -0.00001249   -0.00001225    0.00001112
     atom   35 type  1   force =    -0.00000466    0.00001822   -0.00000212
     atom   36 type  1   force =    -0.00001090    0.00001498   -0.00001090
     atom   37 type  1   force =    -0.00002937    0.00000077   -0.00000059
     atom   38 type  1   force =    -0.00002841   -0.00000138    0.00000614
     atom   39 type  1   force =    -0.00000801    0.00001660    0.00000631
     atom   40 type  1   force =    -0.00000440   -0.00001111   -0.00000039
     atom   41 type  1   force =    -0.00000821   -0.00001023   -0.00000821
     atom   42 type  1   force =    -0.00002932    0.00000652   -0.00000452
     atom   43 type  1   force =    -0.00003023    0.00000270    0.00000377
     atom   44 type  1   force =    -0.00001094   -0.00001036    0.00001042
     atom   45 type  1   force =    -0.00001537    0.00001341    0.00000665
     atom   46 type  1   force =    -0.00001742    0.00001491   -0.00001742
     atom   47 type  1   force =    -0.00000829    0.00000531    0.00001161
     atom   48 type  1   force =    -0.00001039    0.00000812   -0.00000995
     atom   49 type  1   force =    -0.00000698    0.00000569    0.00000911
     atom   50 type  1   force =     0.00000785   -0.00000359   -0.00000101
     atom   51 type  1   force =     0.00001144   -0.00000366   -0.00000520
     atom   52 type  1   force =     0.00000622   -0.00000397    0.00000622
     atom   53 type  1   force =     0.00000770   -0.00000052   -0.00000401
     atom   54 type  1   force =     0.00001373   -0.00000219    0.00000409
     atom   55 type  1   force =     0.00001423   -0.00000420   -0.00000198
     atom   56 type  1   force =     0.00001118   -0.00001012   -0.00001011
     atom   57 type  1   force =    -0.00000046   -0.00002835   -0.00000046
     atom   58 type  1   force =    -0.00000163   -0.00002662    0.00000576
     atom   59 type  1   force =     0.00001512   -0.00000637    0.00000583
     atom   60 type  1   force =     0.00000739    0.00000926   -0.00000365
[...]
     atom  985 type  1   force =     0.00000491    0.00001368   -0.00000489
     atom  986 type  1   force =     0.00000569    0.00001517   -0.00000120
     atom  987 type  1   force =     0.00001848   -0.00000137    0.00000392
     atom  988 type  1   force =     0.00001474    0.00000694   -0.00000278
     atom  989 type  1   force =     0.00000473    0.00001455    0.00000473
     atom  990 type  1   force =     0.00000399   -0.00000873   -0.00000506
     atom  991 type  1   force =     0.00001244   -0.00000711   -0.00000719
     atom  992 type  1   force =     0.00002810    0.00000171    0.00000160
     atom  993 type  1   force =     0.00001953   -0.00000027    0.00000623
     atom  994 type  1   force =     0.00000446   -0.00000812    0.00000446
     atom  995 type  1   force =     0.00001591    0.00000551   -0.00000466
     atom  996 type  1   force =     0.00001002    0.00000215   -0.00000261
     atom  997 type  1   force =     0.00001222    0.00000517    0.00000994
     atom  998 type  1   force =     0.00000575   -0.00000096   -0.00001107
     atom  999 type  1   force =     0.00001263    0.00000969    0.00001263

     Total force =     0.004096     Total SCF correction =     0.000630
     SCF correction compared to forces is large: reduce conv_thr to get better values

     Computing stress (Cartesian axis) and pressure

     Non-local corr. energy    =      34.16110221 Ry

          total   stress  (Ry/bohr**3)                   (kbar)     P=        5.36
   0.00003670   0.00000004  -0.00000003            5.40        0.01       -0.00
   0.00000004   0.00003595   0.00000004            0.01        5.29        0.01
  -0.00000003   0.00000004   0.00003670           -0.00        0.01        5.40

     kinetic stress (kbar)  18983.72      0.01     -0.01
                                0.01  18983.61      0.01
                               -0.01      0.01  18983.72

     local   stress (kbar)  -3508.29     -0.04     -0.02
                               -0.04  -3508.51     -0.04
                               -0.02     -0.04  -3508.29

     nonloc. stress (kbar)   4319.98      0.00     -0.00
                                0.00   4319.98      0.00
                               -0.00      0.00   4319.98

     hartree stress (kbar)   1276.53      0.00      0.02
                                0.00   1276.62      0.00
                                0.02      0.00   1276.53

     exc-cor stress (kbar)   -414.82      0.00     -0.00
                                0.00   -414.81      0.00
                               -0.00      0.00   -414.82

     corecor stress (kbar)  -4430.74     -0.00      0.00
                               -0.00  -4430.76     -0.00
                                0.00     -0.00  -4430.74

     ewald   stress (kbar) -16245.80      0.04      0.00
                                0.04 -16245.66      0.04
                                0.00      0.04 -16245.80

     hubbard stress (kbar)      0.00      0.00      0.00
                                0.00      0.00      0.00
                                0.00      0.00      0.00

     DFT-D   stress (kbar)      0.00      0.00      0.00
                                0.00      0.00      0.00
                                0.00      0.00      0.00

     XDM     stress (kbar)      0.00      0.00      0.00
                                0.00      0.00      0.00
                                0.00      0.00      0.00

     dft-nl  stress (kbar)     24.82     -0.00      0.00
                               -0.00     24.82     -0.00
                                0.00     -0.00     24.82

     TS-vdW  stress (kbar)      0.00      0.00      0.00
                                0.00      0.00      0.00
                                0.00      0.00      0.00

     MDB     stress (kbar)      0.00      0.00      0.00
                                0.00      0.00      0.00
                                0.00      0.00      0.00

     3D-RISM stress (kbar)      0.00      0.00      0.00
                                0.00      0.00      0.00
                                0.00      0.00      0.00

     Energy error            =      4.5E-05 Ry
     Gradient error          =      7.9E-04 Ry/Bohr

     bfgs converged in   4 scf cycles and   3 bfgs steps
     (criteria: energy <  1.0E-04 Ry, force <  1.0E-03 Ry/Bohr)

     End of BFGS Geometry Optimization

     Final energy             =  -18972.2306747777 Ry

     File ./diamond.bfgs deleted, as requested
Begin final coordinates

ATOMIC_POSITIONS (angstrom)
C             0.8927666363        2.6793946002        4.4611681508
C             0.8927715074        2.6793769662        8.0376442891
C             0.8929191173        2.6793945055       11.6104190632
C             0.8930492256        2.6792831888       15.1863225340
C             0.8929700694        6.2467252714        0.8929700694
C             0.8917007379        6.2546484313        4.4688967744
C             0.8927430022        6.2512244274        8.0378252771
C             0.8929463171        6.2512921615       11.6102464642
C             0.8939389679        6.2545482091       15.1789580074
C             0.8927033247        9.8231685861        0.8927033247
C             0.8926376598        9.8233461547        4.4651490939
C             0.8926392107        9.8237991657        8.0382682455
C             0.8928478468        9.8238466152       11.6099452119
C             0.8928050197        9.8234318917       15.1822223805
C             0.8926725560       13.3963613747        0.8926725560
C             0.8927320050       13.3962797263        4.4652629940
C             0.8927485353       13.3959870993        8.0383151586
C             0.8925718724       13.3959245499       11.6099090968
C             0.8926132735       13.3962400378       15.1821425999
C             0.8928732292       16.9735008681        0.8928732292
C             0.8936785071       16.9653335069        4.4690957947
C             0.8927314794       16.9688882202        8.0379060540
C             0.8927449034       16.9688168438       11.6101948991
C             0.8917794634       16.9652463641       15.1787889421
C             4.4611681508        2.6793946002        0.8927666363
C             4.4691138489        2.6784172167        4.4691138489
C             4.4652266720        2.6794249953        8.0379642823
C             4.4652592460        2.6794953904       11.6102770393
C             4.4689841947        2.6804559682       15.1786781016
C             4.4688967744        6.2546484313        0.8917007379
C             4.4640172315        6.2500633362        4.4640172315
C             4.4653034865        6.2512384064        8.0379310951
C             4.4654894343        6.2514418815       11.6099911719
C             4.4654367964        6.2513895303       15.1819663846
C             4.4651490939        9.8233461547        0.8926376598
C             4.4652479495        9.8233556910        4.4652479495
C             4.4654367357        9.8233915176        8.0379643092
C             4.4654020326        9.8234715254       11.6101520750
C             4.4654154770        9.8236358003       15.1819429813
C             4.4652629940       13.3962797263        0.8927320050
C             4.4654691885       13.3959616857        4.4654691885
C             4.4653510585       13.3961322101        8.0380328174
C             4.4653222020       13.3962324801       11.6102406741
C             4.4652509413       13.3962938224       15.1821618031
C             4.4690957947       16.9653335069        0.8936785071
C             4.4654733132       16.9687129478        4.4654733132
C             4.4653598540       16.9687243205        8.0382378709
C             4.4652003853       16.9689639266       11.6103154597
C             4.4640782895       16.9701845989       15.1833252792
C             8.0376442891        2.6793769662        0.8927715074
C             8.0379642823        2.6794249953        4.4652266720
C             8.0382147929        2.6794087985        8.0382147929
C             8.0380738791        2.6794988467       11.6098620742
C             8.0376819315        2.6794276454       15.1821942995
C             8.0378252771        6.2512244274        0.8927430022
C             8.0379310951        6.2512384064        4.4653034865
C             8.0378626638        6.2513822357        8.0378626638
C             8.0378169124        6.2513955719       11.6100888778
C             8.0379903434        6.2514876559       15.1819763297
C             8.0382682455        9.8237991657        0.8926392107
[...]
C            16.0756706490        8.9305541163        1.7857389182
C            16.0756022392        8.9311089949        5.3581984168
C            16.0755646796        8.9308301071        8.9308396656
C            16.0755588132        8.9306615161       12.5036047225
C            16.0755757789        8.9304963178       16.0755757789
C            16.0755457470       12.5033038285        1.7859867620
C            16.0755654975       12.5034086529        5.3581346363
C            16.0755687552       12.5035148323        8.9307496295
C            16.0754970700       12.5032546904       12.5032663140
C            16.0755484362       12.5032350363       16.0755484362
C            16.0760132456       16.0764819131        1.7857584116
C            16.0757278036       16.0761940860        5.3576341626
C            16.0755402032       16.0756183177        8.9307018800
C            16.0755394636       16.0753602884       12.5027770815
C            16.0752108802       16.0743313436       16.0752108802
End final coordinates

     Writing all to output data dir ./diamond.save/

     General routines

     Parallel routines

     PAW routines

   This run was terminated on:   5:42:17  26Feb2024

   JOB DONE.