     Program PWSCF v.7.2 starts on 19Feb2024 at 16:21:56

     Reading input from espresso.pwi
Warning: card &CELL ignored
Warning: card    CELL_DYNAMICS    = 'BFGS' ignored
Warning: card / ignored

     Current dimensions of program PWSCF are:
     Max number of different atomic species (ntypx) = 10
     Max number of k-points (npk) =  40000
     Max angular momentum in pseudopotentials (lmaxx) =  4
     file C.pbe-n-kjpaw_psl.1.0.0.UPF: wavefunction(s)  2S 2P renormalized

     IMPORTANT: XC functional enforced from input :
     Exchange-correlation= BEEF-VDW
                           (   1   4  43  14   2   0   0)
     Any further DFT definition will be discarded
     Please, verify this is what you really want

     Found identity + (  0.0000  0.0000  0.5000) symmetry
     This is a supercell, fractional translations are disabled

     K-points division:     npool     =       4
     R & G space division:  proc/nbgrp/npool/nimage =      32
     Subspace diagonalization in iterative solution of the eigenvalue problem:
     a serial algorithm will be used

     Using Slab Decomposition

     bravais-lattice index     =            1
     lattice parameter (alat)  =      13.5013  a.u.
     unit-cell volume          =    2461.1121 (a.u.)^3
     number of atoms/cell      =           64
     number of atomic types    =            1
     number of electrons       =       256.00
     number of Kohn-Sham states=          154
     kinetic-energy cutoff     =      70.0000  Ry
     charge density cutoff     =     350.0000  Ry
     scf convergence threshold =      1.0E-07
     mixing beta               =       0.7000
     number of iterations used =            8  plain     mixing
     Exchange-correlation= BEEF-VDW
                           (   1   4  43  14   2   0   0)

     celldm(1)=  13.501348  celldm(2)=   0.000000  celldm(3)=   0.000000
     celldm(4)=   0.000000  celldm(5)=   0.000000  celldm(6)=   0.000000

     crystal axes: (cart. coord. in units of alat)
               a(1) = (   1.000000   0.000000   0.000000 )
               a(2) = (   0.000000   1.000000   0.000000 )
               a(3) = (   0.000000   0.000000   1.000000 )

     reciprocal axes: (cart. coord. in units 2 pi/alat)
               b(1) = (  1.000000  0.000000  0.000000 )
               b(2) = (  0.000000  1.000000  0.000000 )
               b(3) = (  0.000000  0.000000  1.000000 )

     PseudoPot. # 1 for C  read from file:
     /trace/group/acmegroup/atimmins/packages/espresso/pseudo/psl_1.0.0/pslibrary.1.0.0/pbe/PSEUDOPOTENTIALS/C.pbe-n-kjpaw_psl.1.0.0.UPF
     MD5 check sum: 5459cf7f2c8c37df2f7cde8914797f4d
     Pseudo is Projector augmented-wave + core cor, Zval =  4.0
     Generated using 'atomic' code by A. Dal Corso  v.7.1
     Shape of augmentation charge: PSQ
     Using radial grid of 1073 points,  4 beta functions with:
                l(1) =   0
                l(2) =   0
                l(3) =   1
                l(4) =   1
     Q(r) pseudized with 0 coefficients

     atomic species   valence    mass     pseudopotential
        C              4.00    12.01100     C ( 1.00)

     24 Sym. Ops. (no inversion) found

                                    s                        frac. trans.

      isym =  1     identity

 cryst.   s( 1) = (     1          0          0      )
                  (     0          1          0      )
                  (     0          0          1      )

 cart.    s( 1) = (  1.0000000  0.0000000  0.0000000 )
                  (  0.0000000  1.0000000  0.0000000 )
                  (  0.0000000  0.0000000  1.0000000 )

      isym =  2     180 deg rotation - cart. axis [0,0,1]

[...]

 cryst.   s( 9) = (     0          1          0      )
                  (     0          0          1      )
                  (     1          0          0      )

 cart.    s( 9) = (  0.0000000  0.0000000  1.0000000 )
                  (  1.0000000  0.0000000  0.0000000 )
                  (  0.0000000  1.0000000  0.0000000 )

[...]

 cryst.   s(10) = (     0         -1          0      )
                  (     0          0         -1      )
                  (     1          0          0      )

 cart.    s(10) = (  0.0000000  0.0000000  1.0000000 )
                  ( -1.0000000  0.0000000  0.0000000 )
                  (  0.0000000 -1.0000000  0.0000000 )

[...]

      isym = 12     120 deg rotation - cart. axis [-1,-1,1]

[...]

      isym = 13     inv. 180 deg rotation - cart. axis [1,1,0]

[...]

      isym = 24     inv.  90 deg rotation - cart. axis [1,0,0]

 cryst.   s(24) = (    -1          0          0      )
                  (     0          0         -1      )
                  (     0          1          0      )

 cart.    s(24) = ( -1.0000000  0.0000000  0.0000000 )
                  (  0.0000000  0.0000000  1.0000000 )
                  (  0.0000000 -1.0000000  0.0000000 )

     point group T_d (-43m)
     there are  5 classes
     the character table:

       E     8C3   3C2   6S4   6s_d
A_1    1.00  1.00  1.00  1.00  1.00
A_2    1.00  1.00  1.00 -1.00 -1.00
E      2.00 -1.00  2.00  0.00  0.00
T_1    3.00  0.00 -1.00  1.00 -1.00
T_2    3.00  0.00 -1.00 -1.00  1.00

     the symmetry operations in each class and the name of the first element:

     E        1
          identity
     8C3      5    7    8    6   12    9   10   11
          120 deg rotation - cart. axis [-1,-1,-1]
     3C2      2    3    4
          180 deg rotation - cart. axis [0,0,1]
     6S4     15   16   20   19   23   24
          inv.  90 deg rotation - cart. axis [0,0,-1]
     6s_d    13   14   17   18   21   22
          inv. 180 deg rotation - cart. axis [1,1,0]

   Cartesian axes

     site n.     atom                  positions (alat units)
         1           C   tau(   1) = (   0.1250031   0.3749969   0.1250031  )
         2           C   tau(   2) = (   0.1250031   0.3749969   0.6250031  )
         3           C   tau(   3) = (   0.1250031   0.8749969   0.1250031  )
         4           C   tau(   4) = (   0.1250031   0.8749969   0.6250031  )
         5           C   tau(   5) = (   0.6250031   0.3749969   0.1250031  )
         6           C   tau(   6) = (   0.6250031   0.3749969   0.6250031  )
         7           C   tau(   7) = (   0.6250031   0.8749969   0.1250031  )
         8           C   tau(   8) = (   0.6250031   0.8749969   0.6250031  )
         9           C   tau(   9) = (   0.0000000   0.0000000   0.2500000  )
        10           C   tau(  10) = (   0.0000000   0.0000000   0.7500000  )
        11           C   tau(  11) = (   0.0000000   0.5000000   0.2500000  )
        12           C   tau(  12) = (   0.0000000   0.5000000   0.7500000  )
        13           C   tau(  13) = (   0.5000000   0.0000000   0.2500000  )
        14           C   tau(  14) = (   0.5000000   0.0000000   0.7500000  )
        15           C   tau(  15) = (   0.5000000   0.5000000   0.2500000  )
        16           C   tau(  16) = (   0.5000000   0.5000000   0.7500000  )
        17           C   tau(  17) = (   0.1250031   0.1250031   0.3749969  )
        18           C   tau(  18) = (   0.1250031   0.1250031   0.8749969  )
        19           C   tau(  19) = (   0.1250031   0.6250031   0.3749969  )
        20           C   tau(  20) = (   0.1250031   0.6250031   0.8749969  )
        21           C   tau(  21) = (   0.6250031   0.1250031   0.3749969  )
        22           C   tau(  22) = (   0.6250031   0.1250031   0.8749969  )
        23           C   tau(  23) = (   0.6250031   0.6250031   0.3749969  )
        24           C   tau(  24) = (   0.6250031   0.6250031   0.8749969  )
        25           C   tau(  25) = (   0.0000000   0.2500000   0.0000000  )
        26           C   tau(  26) = (   0.0000000   0.2500000   0.5000000  )
        27           C   tau(  27) = (   0.0000000   0.7500000   0.0000000  )
        28           C   tau(  28) = (   0.0000000   0.7500000   0.5000000  )
        29           C   tau(  29) = (   0.5000000   0.2500000   0.0000000  )
        30           C   tau(  30) = (   0.5000000   0.2500000   0.5000000  )
        31           C   tau(  31) = (   0.5000000   0.7500000   0.0000000  )
        32           C   tau(  32) = (   0.5000000   0.7500000   0.5000000  )
        33           C   tau(  33) = (   0.3749969   0.3749969   0.3749969  )
        34           C   tau(  34) = (   0.3749969   0.3749969   0.8749969  )
        35           C   tau(  35) = (   0.3749969   0.8749969   0.3749969  )
        36           C   tau(  36) = (   0.3749969   0.8749969   0.8749969  )
        37           C   tau(  37) = (   0.8749969   0.3749969   0.3749969  )
        38           C   tau(  38) = (   0.8749969   0.3749969   0.8749969  )
        39           C   tau(  39) = (   0.8749969   0.8749969   0.3749969  )
        40           C   tau(  40) = (   0.8749969   0.8749969   0.8749969  )
        41           C   tau(  41) = (   0.2500000   0.0000000   0.0000000  )
        42           C   tau(  42) = (   0.2500000   0.0000000   0.5000000  )
        43           C   tau(  43) = (   0.2500000   0.5000000   0.0000000  )
        44           C   tau(  44) = (   0.2500000   0.5000000   0.5000000  )
        45           C   tau(  45) = (   0.7500000   0.0000000   0.0000000  )
        46           C   tau(  46) = (   0.7500000   0.0000000   0.5000000  )
        47           C   tau(  47) = (   0.7500000   0.5000000   0.0000000  )
        48           C   tau(  48) = (   0.7500000   0.5000000   0.5000000  )
        49           C   tau(  49) = (   0.3749969   0.1250031   0.1250031  )
        50           C   tau(  50) = (   0.3749969   0.1250031   0.6250031  )
        51           C   tau(  51) = (   0.3749969   0.6250031   0.1250031  )
        52           C   tau(  52) = (   0.3749969   0.6250031   0.6250031  )
        53           C   tau(  53) = (   0.8749969   0.1250031   0.1250031  )
        54           C   tau(  54) = (   0.8749969   0.1250031   0.6250031  )
        55           C   tau(  55) = (   0.8749969   0.6250031   0.1250031  )
        56           C   tau(  56) = (   0.8749969   0.6250031   0.6250031  )
        57           C   tau(  57) = (   0.2500000   0.2500000   0.2500000  )
        58           C   tau(  58) = (   0.2500000   0.2500000   0.7500000  )
        59           C   tau(  59) = (   0.2500000   0.7500000   0.2500000  )
        60           C   tau(  60) = (   0.2500000   0.7500000   0.7500000  )
        61           C   tau(  61) = (   0.7500000   0.2500000   0.2500000  )
        62           C   tau(  62) = (   0.7500000   0.2500000   0.7500000  )
        63           C   tau(  63) = (   0.7500000   0.7500000   0.2500000  )
        64           C   tau(  64) = (   0.7500000   0.7500000   0.7500000  )

   Crystallographic axes

     site n.     atom                  positions (cryst. coord.)
         1           C   tau(   1) = (  0.1250031  0.3749969  0.1250031  )
         2           C   tau(   2) = (  0.1250031  0.3749969  0.6250031  )
         3           C   tau(   3) = (  0.1250031  0.8749969  0.1250031  )
         4           C   tau(   4) = (  0.1250031  0.8749969  0.6250031  )
         5           C   tau(   5) = (  0.6250031  0.3749969  0.1250031  )
[...]
     atom    2 type  1   force =     0.00000000    0.00000000    0.00000000
     atom    3 type  1   force =     0.00000000    0.00000000    0.00000000
     atom    4 type  1   force =     0.00000000    0.00000000    0.00000000
     atom    5 type  1   force =     0.00000000    0.00000000    0.00000000
     atom    6 type  1   force =     0.00000000    0.00000000    0.00000000
     atom    7 type  1   force =     0.00000000    0.00000000    0.00000000
     atom    8 type  1   force =     0.00000000    0.00000000    0.00000000
     atom    9 type  1   force =     0.00000000    0.00000000    0.00000000
     atom   10 type  1   force =     0.00000000    0.00000000    0.00000000
     atom   11 type  1   force =     0.00000000    0.00000000    0.00000000
     atom   12 type  1   force =     0.00000000    0.00000000    0.00000000
     atom   13 type  1   force =     0.00000000    0.00000000    0.00000000
     atom   14 type  1   force =     0.00000000    0.00000000    0.00000000
     atom   15 type  1   force =     0.00000000    0.00000000    0.00000000
     atom   16 type  1   force =     0.00000000    0.00000000    0.00000000
     atom   17 type  1   force =     0.00000000    0.00000000    0.00000000
     atom   18 type  1   force =     0.00000000    0.00000000    0.00000000
     atom   19 type  1   force =     0.00000000    0.00000000    0.00000000
     atom   20 type  1   force =     0.00000000    0.00000000    0.00000000
     atom   21 type  1   force =     0.00000000    0.00000000    0.00000000
     atom   22 type  1   force =     0.00000000    0.00000000    0.00000000
     atom   23 type  1   force =     0.00000000    0.00000000    0.00000000
     atom   24 type  1   force =     0.00000000    0.00000000    0.00000000
     atom   25 type  1   force =     0.00000000    0.00000000    0.00000000
     atom   26 type  1   force =     0.00000000    0.00000000    0.00000000
     atom   27 type  1   force =     0.00000000    0.00000000    0.00000000
     atom   28 type  1   force =     0.00000000    0.00000000    0.00000000
     atom   29 type  1   force =     0.00000000    0.00000000    0.00000000
     atom   30 type  1   force =     0.00000000    0.00000000    0.00000000
     atom   31 type  1   force =     0.00000000    0.00000000    0.00000000
     atom   32 type  1   force =     0.00000000    0.00000000    0.00000000
     atom   33 type  1   force =     0.00000000    0.00000000    0.00000000
     atom   34 type  1   force =     0.00000000    0.00000000    0.00000000
     atom   35 type  1   force =     0.00000000    0.00000000    0.00000000
     atom   36 type  1   force =     0.00000000    0.00000000    0.00000000
     atom   37 type  1   force =     0.00000000    0.00000000    0.00000000
     atom   38 type  1   force =     0.00000000    0.00000000    0.00000000
     atom   39 type  1   force =     0.00000000    0.00000000    0.00000000
     atom   40 type  1   force =     0.00000000    0.00000000    0.00000000
     atom   41 type  1   force =     0.00000000    0.00000000    0.00000000
     atom   42 type  1   force =     0.00000000    0.00000000    0.00000000
     atom   43 type  1   force =     0.00000000    0.00000000    0.00000000
     atom   44 type  1   force =     0.00000000    0.00000000    0.00000000
     atom   45 type  1   force =     0.00000000    0.00000000    0.00000000
     atom   46 type  1   force =     0.00000000    0.00000000    0.00000000
     atom   47 type  1   force =     0.00000000    0.00000000    0.00000000
     atom   48 type  1   force =     0.00000000    0.00000000    0.00000000
     atom   49 type  1   force =     0.00000000    0.00000000    0.00000000
     atom   50 type  1   force =     0.00000000    0.00000000    0.00000000
     atom   51 type  1   force =     0.00000000    0.00000000    0.00000000
     atom   52 type  1   force =     0.00000000    0.00000000    0.00000000
     atom   53 type  1   force =     0.00000000    0.00000000    0.00000000
     atom   54 type  1   force =     0.00000000    0.00000000    0.00000000
     atom   55 type  1   force =     0.00000000    0.00000000    0.00000000
     atom   56 type  1   force =     0.00000000    0.00000000    0.00000000
     atom   57 type  1   force =     0.00000000    0.00000000    0.00000000
     atom   58 type  1   force =     0.00000000    0.00000000    0.00000000
     atom   59 type  1   force =     0.00000000    0.00000000    0.00000000
     atom   60 type  1   force =     0.00000000    0.00000000    0.00000000
     atom   61 type  1   force =     0.00000000    0.00000000    0.00000000
     atom   62 type  1   force =     0.00000000    0.00000000    0.00000000
     atom   63 type  1   force =     0.00000000    0.00000000    0.00000000
     atom   64 type  1   force =     0.00000000    0.00000000    0.00000000
     The SCF correction term to forces
     atom    1 type  1   force =     0.00002789    0.00002365    0.00002789
     atom    2 type  1   force =     0.00001184    0.00001286   -0.00001286
     atom    3 type  1   force =     0.00003574   -0.00003574    0.00003574
     atom    4 type  1   force =     0.00002789   -0.00002789   -0.00002365
     atom    5 type  1   force =    -0.00001286    0.00001286    0.00001184
     atom    6 type  1   force =     0.00000100   -0.00000100    0.00000100
     atom    7 type  1   force =    -0.00002365   -0.00002789    0.00002789
     atom    8 type  1   force =    -0.00001286   -0.00001184   -0.00001286
     atom    9 type  1   force =     0.00000000    0.00000000    0.00004545
     atom   10 type  1   force =    -0.00000000   -0.00000000   -0.00004545
     atom   11 type  1   force =    -0.00000000    0.00000000    0.00003195
     atom   12 type  1   force =     0.00000000    0.00000000   -0.00003195
     atom   13 type  1   force =     0.00000000   -0.00000000    0.00003195
     atom   14 type  1   force =     0.00000000    0.00000000   -0.00003195
     atom   15 type  1   force =    -0.00000000   -0.00000000    0.00000356
     atom   16 type  1   force =     0.00000000    0.00000000   -0.00000356
     atom   17 type  1   force =     0.00002789    0.00002789    0.00002365
     atom   18 type  1   force =     0.00003574    0.00003574   -0.00003574
     atom   19 type  1   force =     0.00001184   -0.00001286    0.00001286
     atom   20 type  1   force =     0.00002789   -0.00002365   -0.00002789
     atom   21 type  1   force =    -0.00001286    0.00001184    0.00001286
     atom   22 type  1   force =    -0.00002365    0.00002789   -0.00002789
     atom   23 type  1   force =     0.00000100    0.00000100   -0.00000100
     atom   24 type  1   force =    -0.00001286   -0.00001286   -0.00001184
     atom   25 type  1   force =     0.00000000    0.00004545    0.00000000
     atom   26 type  1   force =    -0.00000000    0.00003195    0.00000000
     atom   27 type  1   force =    -0.00000000   -0.00004545   -0.00000000
     atom   28 type  1   force =     0.00000000   -0.00003195    0.00000000
     atom   29 type  1   force =     0.00000000    0.00003195   -0.00000000
     atom   30 type  1   force =    -0.00000000    0.00000356   -0.00000000
     atom   31 type  1   force =     0.00000000   -0.00003195    0.00000000
     atom   32 type  1   force =     0.00000000   -0.00000356    0.00000000
     atom   33 type  1   force =    -0.00000100   -0.00000100   -0.00000100
     atom   34 type  1   force =     0.00001286    0.00001286   -0.00001184
     atom   35 type  1   force =     0.00001286   -0.00001184    0.00001286
     atom   36 type  1   force =     0.00002365   -0.00002789   -0.00002789
     atom   37 type  1   force =    -0.00001184    0.00001286    0.00001286
     atom   38 type  1   force =    -0.00002789    0.00002365   -0.00002789
     atom   39 type  1   force =    -0.00002789   -0.00002789    0.00002365
     atom   40 type  1   force =    -0.00003574   -0.00003574   -0.00003574
     atom   41 type  1   force =     0.00004545    0.00000000    0.00000000
     atom   42 type  1   force =     0.00003195   -0.00000000    0.00000000
     atom   43 type  1   force =     0.00003195    0.00000000   -0.00000000
     atom   44 type  1   force =     0.00000356   -0.00000000   -0.00000000
     atom   45 type  1   force =    -0.00004545   -0.00000000   -0.00000000
     atom   46 type  1   force =    -0.00003195    0.00000000    0.00000000
     atom   47 type  1   force =    -0.00003195    0.00000000    0.00000000
     atom   48 type  1   force =    -0.00000356    0.00000000    0.00000000
     atom   49 type  1   force =     0.00002365    0.00002789    0.00002789
     atom   50 type  1   force =     0.00001286    0.00001184   -0.00001286
     atom   51 type  1   force =     0.00001286   -0.00001286    0.00001184
     atom   52 type  1   force =    -0.00000100    0.00000100    0.00000100
     atom   53 type  1   force =    -0.00003574    0.00003574    0.00003574
     atom   54 type  1   force =    -0.00002789    0.00002789   -0.00002365
     atom   55 type  1   force =    -0.00002789   -0.00002365    0.00002789
     atom   56 type  1   force =    -0.00001184   -0.00001286   -0.00001286
     atom   57 type  1   force =     0.00002925    0.00002925    0.00002925
     atom   58 type  1   force =     0.00002763    0.00002763   -0.00002763
     atom   59 type  1   force =     0.00002763   -0.00002763    0.00002763
     atom   60 type  1   force =     0.00002925   -0.00002925   -0.00002925
     atom   61 type  1   force =    -0.00002763    0.00002763    0.00002763
     atom   62 type  1   force =    -0.00002925    0.00002925   -0.00002925
     atom   63 type  1   force =    -0.00002925   -0.00002925    0.00002925
     atom   64 type  1   force =    -0.00002763   -0.00002763   -0.00002763

     Total force =     0.004151     Total SCF correction =     0.000301

     Computing stress (Cartesian axis) and pressure

[...]

          total   stress  (Ry/bohr**3)                   (kbar)     P=        0.02
   0.00000015   0.00000000   0.00000000            0.02        0.00        0.00
   0.00000000   0.00000015   0.00000000            0.00        0.02        0.00
   0.00000000   0.00000000   0.00000015            0.00        0.00        0.02

     kinetic stress (kbar)  18999.87      0.00      0.00
                                0.00  18999.87      0.00
                                0.00      0.00  18999.87

     local   stress (kbar)  -3484.16     -0.00     -0.00
                               -0.00  -3484.16     -0.00
                               -0.00     -0.00  -3484.16

     nonloc. stress (kbar)   4322.10      0.00      0.00
                                0.00   4322.10      0.00
                                0.00      0.00   4322.10

     hartree stress (kbar)   1267.23     -0.00     -0.00
                               -0.00   1267.23      0.00
                               -0.00      0.00   1267.23

     exc-cor stress (kbar)   -414.52      0.00      0.00
                                0.00   -414.52      0.00
                                0.00      0.00   -414.52

     corecor stress (kbar)  -4435.15     -0.00     -0.00
                               -0.00  -4435.15     -0.00
                               -0.00     -0.00  -4435.15

     ewald   stress (kbar) -16280.16      0.00      0.00
                                0.00 -16280.16      0.00
                                0.00      0.00 -16280.16

     hubbard stress (kbar)      0.00      0.00      0.00
                                0.00      0.00      0.00
                                0.00      0.00      0.00

     DFT-D   stress (kbar)      0.00      0.00      0.00
                                0.00      0.00      0.00
                                0.00      0.00      0.00

     XDM     stress (kbar)      0.00      0.00      0.00
                                0.00      0.00      0.00
                                0.00      0.00      0.00

     dft-nl  stress (kbar)     24.82     -0.00     -0.00
                               -0.00     24.82     -0.00
                               -0.00     -0.00     24.82

     TS-vdW  stress (kbar)      0.00      0.00      0.00
                                0.00      0.00      0.00
                                0.00      0.00      0.00

     MDB     stress (kbar)      0.00      0.00      0.00
                                0.00      0.00      0.00
                                0.00      0.00      0.00

     3D-RISM stress (kbar)      0.00      0.00      0.00
                                0.00      0.00      0.00
                                0.00      0.00      0.00

[...]

     Non-local corr. energy    =       2.18792124 Ry

 BEEFens 2000 ensemble energies
             -0.227404105923629E+02
             -0.152574464380259E+01
             -0.513592536917244E+01
              0.156670833709095E+02
             -0.688703946494813E+01
             -0.586809509280936E+01
             -0.158251315891710E+02
             -0.341042383376782E+02
             -0.126910131481207E+02
             -0.132443417468026E+02
             -0.136199959798057E+02
              0.189514561923910E+01
              0.198167280722572E+01
             -0.169292705348587E+01
              0.150058535366391E+01
              0.167935125135047E+02
             -0.677717215196736E+01
             -0.441091431279430E+01
              0.859335748579326E+01
             -0.388672049967852E+02
              0.203400860118130E+02
             -0.708516929612080E+01
             -0.208800955293925E+01
             -0.276176609486907E+01
             -0.173226024346889E-01
             -0.207725374302107E+01
              0.305373932802858E+02
             -0.821144179207347E+01
             -0.317773119615708E+01
             -0.203834569352304E+02
              0.247365497929554E+02
             -0.229675448513369E+01
             -0.148056803707513E+02
              0.709088463950745E+01
             -0.819367499521448E+00
              0.101192187962885E+02
              0.822764429955754E+00
              0.511628776734625E-01
              0.130087975615831E+02
             -0.354001957193488E+02
              0.187705596777937E+02
              0.454016637504637E+01
             -0.362079012652515E+01
             -0.114492782847555E+02
              0.407894277504465E+01
             -0.594006210466307E+01
              0.177530484485133E+02
              0.123329802121777E+02
             -0.682554737062381E+01
             -0.117124767805375E+02
             -0.113596020345543E+02
             -0.126136057422833E+02
              0.671632883036689E+01
             -0.188012733900418E+02
              0.547714213879385E+01
              0.216531428975318E+02
              0.265083921464718E+02
              0.107459499116950E+02
              0.562962000972971E+01
              0.110893226496998E+02
[...]
             -0.266169750583622E+02
              0.745182226191190E+00
              0.354683476558262E+00
             -0.397927471758103E+01
              0.174715962684071E+01
             -0.228477757305962E+02
             -0.385275542814311E+01
              0.404988251262763E+01
              0.434769655006788E+01
              0.178432375057850E+02
             -0.154674532218939E+02
              0.186479081324093E+02
             -0.138345572959879E+02
              0.924589110280208E+01
              0.153126692325175E+02

 BEEF-vdW xc energy contributions
            1 :    -262.0511994717872
            2 :     231.2265638728832
            3 :    -178.0686573720644
            4 :     116.3567738007089
            5 :    -60.16156162022401
            6 :     19.19746786879710
            7 :     3.613084173340496
            8 :    -11.61674711842392
            9 :     11.57340350628635
           10 :    -10.04979381643312
           11 :     10.76205839947636
           12 :    -13.87001067500404
           13 :     17.14418557393191
           14 :    -18.03922216233099
           15 :     15.43290951524978
           16 :    -10.18640356262591
           17 :     4.450623207591036
           18 :   -0.3304966056633134
           19 :    -1.231625015036002
           20 :    0.7525458910498060
           21 :    0.3602853751520456
           22 :   -0.7868618087420032
           23 :    5.6270427039009974E-002
           24 :     1.320753023203054
           25 :    -2.336029729318682
           26 :     2.209385273853172
           27 :   -0.8837944492498764
           28 :   -0.9849780011252847
           29 :     2.480877219921524
           30 :    -2.996360815615674
           31 :    -34.28112648766108
           32 :    -24.87741305015703

     Writing all to output data dir ./diamond.save/

     General routines

     Parallel routines

     PAW routines

   This run was terminated on:  16:22:23  19Feb2024

   JOB DONE.