     Program PWSCF v.7.1 starts on 10Feb2024 at 16: 7:42

     Reading input from espresso.pwi
Warning: card &CELL ignored
Warning: card    CELL_DYNAMICS    = 'BFGS' ignored
Warning: card / ignored

     Current dimensions of program PWSCF are:
     Max number of different atomic species (ntypx) = 10
     Max number of k-points (npk) =  40000
     Max angular momentum in pseudopotentials (lmaxx) =  4
     file Pb.pbe-dn-kjpaw_psl.1.0.0.UPF: wavefunction(s)  6S 6P 5D renormalized
     file I.pbe-dn-kjpaw_psl.1.0.0.UPF: wavefunction(s)  5S 5P renormalized

     IMPORTANT: XC functional enforced from input :
     Exchange-correlation= BEEF-VDW
                           (   1   4  43  14   2   0   0)
     Any further DFT definition will be discarded
     Please, verify this is what you really want

     R & G space division:  proc/nbgrp/npool/nimage =     128
     Subspace diagonalization in iterative solution of the eigenvalue problem:
     a serial algorithm will be used

     Using Slab Decomposition

     bravais-lattice index     =            4
     lattice parameter (alat)  =      35.6120  a.u.
     unit-cell volume          =   30624.9051 (a.u.)^3
     number of atoms/cell      =           95
     number of atomic types    =            2
     number of electrons       =      1522.00
     number of Kohn-Sham states=          913
     kinetic-energy cutoff     =      70.0000  Ry
     charge density cutoff     =     350.0000  Ry
     scf convergence threshold =      1.0E-07
     mixing beta               =       0.7000
     number of iterations used =            8  plain     mixing
     energy convergence thresh.=      1.0E-04
     force convergence thresh. =      1.0E-03
     Exchange-correlation= BEEF-VDW
                           (   1   4  43  14   2   0   0)
     nstep                     =           50

     celldm(1)=  35.612033  celldm(2)=   0.000000  celldm(3)=   0.782986
     celldm(4)=   0.000000  celldm(5)=   0.000000  celldm(6)=   0.000000

     crystal axes: (cart. coord. in units of alat)
               a(1) = (   1.000000   0.000000   0.000000 )
               a(2) = (  -0.500000   0.866025   0.000000 )
               a(3) = (   0.000000   0.000000   0.782986 )

     reciprocal axes: (cart. coord. in units 2 pi/alat)
               b(1) = (  1.000000  0.577350 -0.000000 )
               b(2) = (  0.000000  1.154701  0.000000 )
               b(3) = (  0.000000 -0.000000  1.277163 )

     PseudoPot. # 1 for Pb read from file:
     /trace/group/acmegroup/atimmins/packages/espresso/pseudo/psl_1.0.0/pslibrary.1.0.0/pbe/PSEUDOPOTENTIALS/Pb.pbe-dn-kjpaw_psl.1.0.0.UPF
     MD5 check sum: 39ab5b8a6bbd56b7735ad9f188aac93a
     Pseudo is Projector augmented-wave + core cor, Zval = 14.0
     Generated using 'atomic' code by A. Dal Corso  v.7.1
     Shape of augmentation charge: PSQ
     Using radial grid of 1281 points,  6 beta functions with:
                l(1) =   0
                l(2) =   0
                l(3) =   1
                l(4) =   1
                l(5) =   2
                l(6) =   2
     Q(r) pseudized with 0 coefficients

     PseudoPot. # 2 for I  read from file:
     /trace/group/acmegroup/atimmins/packages/espresso/pseudo/psl_1.0.0/pslibrary.1.0.0/pbe/PSEUDOPOTENTIALS/I.pbe-dn-kjpaw_psl.1.0.0.UPF
     MD5 check sum: bfa8781bc1224d19af3f3980e3fab11e
     Pseudo is Projector augmented-wave + core cor, Zval = 17.0
     Generated using 'atomic' code by A. Dal Corso  v.7.1
     Shape of augmentation charge: PSQ
     Using radial grid of 1247 points,  6 beta functions with:
                l(1) =   0
                l(2) =   0
                l(3) =   1
                l(4) =   1
                l(5) =   2
                l(6) =   2
     Q(r) pseudized with 0 coefficients

     atomic species   valence    mass     pseudopotential
        Pb            14.00   207.20000     Pb( 1.00)
        I             17.00   126.90447     I ( 1.00)

     No symmetry found

                                    s                        frac. trans.

      isym =  1     identity

 cryst.   s( 1) = (     1          0          0      )
                  (     0          1          0      )
                  (     0          0          1      )

 cart.    s( 1) = (  1.0000000  0.0000000  0.0000000 )
                  (  0.0000000  1.0000000  0.0000000 )
                  (  0.0000000  0.0000000  1.0000000 )

     point group C_1 (1)
     there are  1 classes
     the character table:

       E
A      1.00

     the symmetry operations in each class and the name of the first element:

     E        1
          identity

   Cartesian axes

     site n.     atom                  positions (alat units)
         1           Pb  tau(   1) = (   0.1250034   0.2164918   0.3914896  )
         2           Pb  tau(   2) = (   0.0000077   0.4329926   0.7829784  )
         3           Pb  tau(   3) = (   0.0000026   0.4329971   0.3914855  )
         4           Pb  tau(   4) = (  -0.1249932   0.6494980   0.7829742  )
         5           Pb  tau(   5) = (  -0.1249983   0.6495025   0.3914814  )
         6           Pb  tau(   6) = (  -0.2499940   0.8660033   0.7829701  )
         7           Pb  tau(   7) = (  -0.2499991   0.8660078   0.3914773  )
         8           Pb  tau(   8) = (   0.3750085   0.2164863   0.7829857  )
         9           Pb  tau(   9) = (   0.3750034   0.2164908   0.3914929  )
        10           Pb  tau(  10) = (   0.2500077   0.4329916   0.7829816  )
        11           Pb  tau(  11) = (   0.2500026   0.4329962   0.3914888  )
        12           Pb  tau(  12) = (   0.1250068   0.6494970   0.7829775  )
        13           Pb  tau(  13) = (   0.1250017   0.6495015   0.3914847  )
        14           Pb  tau(  14) = (   0.0000060   0.8660024   0.7829734  )
        15           Pb  tau(  15) = (   0.0000009   0.8660069   0.3914805  )
        16           Pb  tau(  16) = (   0.6250085   0.2164853   0.7829890  )
        17           Pb  tau(  17) = (   0.6250034   0.2164898   0.3914962  )
        18           Pb  tau(  18) = (   0.5000077   0.4329907   0.7829849  )
        19           Pb  tau(  19) = (   0.5000026   0.4329952   0.3914920  )
        20           Pb  tau(  20) = (   0.3750068   0.6494960   0.7829808  )
        21           Pb  tau(  21) = (   0.3750017   0.6495006   0.3914879  )
        22           Pb  tau(  22) = (   0.2500060   0.8660014   0.7829766  )
        23           Pb  tau(  23) = (   0.2500009   0.8660059   0.3914838  )
        24           Pb  tau(  24) = (   0.8750085   0.2164844   0.7829923  )
        25           Pb  tau(  25) = (   0.8750034   0.2164889   0.3914994  )
        26           Pb  tau(  26) = (   0.7500077   0.4329897   0.7829881  )
        27           Pb  tau(  27) = (   0.7500026   0.4329942   0.3914953  )
        28           Pb  tau(  28) = (   0.6250068   0.6494951   0.7829840  )
        29           Pb  tau(  29) = (   0.6250017   0.6494996   0.3914912  )
        30           Pb  tau(  30) = (   0.5000060   0.8660004   0.7829799  )
        31           Pb  tau(  31) = (   0.5000009   0.8660050   0.3914870  )
        32           I   tau(  32) = (   0.1250054   0.0721550   0.2909325  )
        33           I   tau(  33) = (   0.1250105   0.0721505   0.6824253  )
        34           I   tau(  34) = (   0.0000045   0.2886603   0.2909283  )
        35           I   tau(  35) = (   0.0000096   0.2886558   0.6824212  )
        36           I   tau(  36) = (  -0.1249963   0.5051657   0.2909242  )
        37           I   tau(  37) = (  -0.1249912   0.5051612   0.6824171  )
        38           I   tau(  38) = (  -0.2499971   0.7216710   0.2909201  )
        39           I   tau(  39) = (  -0.2499920   0.7216665   0.6824129  )
        40           I   tau(  40) = (   0.3750054   0.0721540   0.2909357  )
        41           I   tau(  41) = (   0.3750105   0.0721495   0.6824286  )
        42           I   tau(  42) = (   0.2500045   0.2886594   0.2909316  )
        43           I   tau(  43) = (   0.2500096   0.2886548   0.6824244  )
        44           I   tau(  44) = (   0.1250037   0.5051647   0.2909275  )
        45           I   tau(  45) = (   0.1250088   0.5051602   0.6824203  )
        46           I   tau(  46) = (   0.0000029   0.7216701   0.2909233  )
        47           I   tau(  47) = (   0.0000080   0.7216656   0.6824162  )
        48           I   tau(  48) = (   0.6250054   0.0721530   0.2909390  )
        49           I   tau(  49) = (   0.6250105   0.0721485   0.6824318  )
        50           I   tau(  50) = (   0.5000045   0.2886584   0.2909348  )
        51           I   tau(  51) = (   0.5000096   0.2886539   0.6824277  )
        52           I   tau(  52) = (   0.3750037   0.5051638   0.2909307  )
        53           I   tau(  53) = (   0.3750088   0.5051592   0.6824236  )
        54           I   tau(  54) = (   0.2500029   0.7216691   0.2909266  )
        55           I   tau(  55) = (   0.2500080   0.7216646   0.6824194  )
        56           I   tau(  56) = (   0.8750054   0.0721521   0.2909422  )
        57           I   tau(  57) = (   0.8750105   0.0721476   0.6824351  )
        58           I   tau(  58) = (   0.7500045   0.2886574   0.2909381  )
        59           I   tau(  59) = (   0.7500096   0.2886529   0.6824310  )
        60           I   tau(  60) = (   0.6250037   0.5051628   0.2909340  )
[...]
        81           I   tau(  81) = (   0.5000034   0.1443233   0.4920548  )
        82           I   tau(  82) = (   0.3749975   0.3608332   0.1005579  )
        83           I   tau(  83) = (   0.3750026   0.3608286   0.4920507  )
        84           I   tau(  84) = (   0.2499966   0.5773385   0.1005537  )
        85           I   tau(  85) = (   0.2500017   0.5773340   0.4920466  )
        86           I   tau(  86) = (   0.1249958   0.7938439   0.1005496  )
        87           I   tau(  87) = (   0.1250009   0.7938394   0.4920425  )
        88           I   tau(  88) = (   0.7499983   0.1443268   0.1005653  )
        89           I   tau(  89) = (   0.7500034   0.1443223   0.4920581  )
        90           I   tau(  90) = (   0.6249975   0.3608322   0.1005611  )
        91           I   tau(  91) = (   0.6250026   0.3608277   0.4920540  )
        92           I   tau(  92) = (   0.4999966   0.5773376   0.1005570  )
        93           I   tau(  93) = (   0.5000017   0.5773330   0.4920499  )
        94           I   tau(  94) = (   0.3749958   0.7938429   0.1005529  )
        95           I   tau(  95) = (   0.3750009   0.7938384   0.4920457  )

   Crystallographic axes

     site n.     atom                  positions (cryst. coord.)
         1           Pb  tau(   1) = (  0.2499950  0.2499832  0.4999959  )
         2           Pb  tau(   2) = (  0.2499961  0.4999768  0.9999906  )
         3           Pb  tau(   3) = (  0.2499936  0.4999820  0.4999906  )
         4           Pb  tau(   4) = (  0.2499947  0.7499757  0.9999854  )
         5           Pb  tau(   5) = (  0.2499922  0.7499809  0.4999854  )
         6           Pb  tau(   6) = (  0.2499932  0.9999745  0.9999801  )
         7           Pb  tau(   7) = (  0.2499908  0.9999797  0.4999801  )
[...]
     atom   44 type  2   force =     0.00000000    0.00000000    0.00000000
     atom   45 type  2   force =     0.00000000    0.00000000    0.00000000
     atom   46 type  2   force =     0.00000000    0.00000000    0.00000000
     atom   47 type  2   force =     0.00000000    0.00000000    0.00000000
     atom   48 type  2   force =     0.00000000    0.00000000    0.00000000
     atom   49 type  2   force =     0.00000000    0.00000000    0.00000000
     atom   50 type  2   force =     0.00000000    0.00000000    0.00000000
     atom   51 type  2   force =     0.00000000    0.00000000    0.00000000
     atom   52 type  2   force =     0.00000000    0.00000000    0.00000000
     atom   53 type  2   force =     0.00000000    0.00000000    0.00000000
     atom   54 type  2   force =     0.00000000    0.00000000    0.00000000
     atom   55 type  2   force =     0.00000000    0.00000000    0.00000000
     atom   56 type  2   force =     0.00000000    0.00000000    0.00000000
     atom   57 type  2   force =     0.00000000    0.00000000    0.00000000
     atom   58 type  2   force =     0.00000000    0.00000000    0.00000000
     atom   59 type  2   force =     0.00000000    0.00000000    0.00000000
     atom   60 type  2   force =     0.00000000    0.00000000    0.00000000
[...]
     atom   81 type  2   force =     0.00000000    0.00000000    0.00000000
     atom   82 type  2   force =     0.00000000    0.00000000    0.00000000
     atom   83 type  2   force =     0.00000000    0.00000000    0.00000000
     atom   84 type  2   force =     0.00000000    0.00000000    0.00000000
     atom   85 type  2   force =     0.00000000    0.00000000    0.00000000
     atom   86 type  2   force =     0.00000000    0.00000000    0.00000000
     atom   87 type  2   force =     0.00000000    0.00000000    0.00000000
     atom   88 type  2   force =     0.00000000    0.00000000    0.00000000
     atom   89 type  2   force =     0.00000000    0.00000000    0.00000000
     atom   90 type  2   force =     0.00000000    0.00000000    0.00000000
     atom   91 type  2   force =     0.00000000    0.00000000    0.00000000
     atom   92 type  2   force =     0.00000000    0.00000000    0.00000000
     atom   93 type  2   force =     0.00000000    0.00000000    0.00000000
     atom   94 type  2   force =     0.00000000    0.00000000    0.00000000
     atom   95 type  2   force =     0.00000000    0.00000000    0.00000000
     The SCF correction term to forces
     atom    1 type  1   force =     0.00000173   -0.00000205   -0.00000388
     atom    2 type  1   force =    -0.00000644    0.00001121    0.00000327
     atom    3 type  1   force =    -0.00000253    0.00000428   -0.00000263
     atom    4 type  1   force =    -0.00000246    0.00000415    0.00000265
     atom    5 type  1   force =    -0.00000115    0.00000210   -0.00000256
     atom    6 type  1   force =     0.00000699   -0.00000815    0.00000535
     atom    7 type  1   force =     0.00000293   -0.00000371   -0.00000391
     atom    8 type  1   force =     0.00001144   -0.00000429    0.00000568
     atom    9 type  1   force =     0.00000505   -0.00000159   -0.00000396
     atom   10 type  1   force =     0.00000917    0.00000915    0.00000349
     atom   11 type  1   force =     0.00000392    0.00000327   -0.00000317
     atom   12 type  1   force =    -0.00000008    0.00000737   -0.00000048
     atom   13 type  1   force =    -0.00000011    0.00000254    0.00000021
     atom   14 type  1   force =     0.00000083   -0.00000014    0.00000041
     atom   15 type  1   force =    -0.00000051    0.00000057   -0.00000043
     atom   16 type  1   force =    -0.00000336   -0.00000051    0.00000246
     atom   17 type  1   force =    -0.00000155   -0.00000046   -0.00000252
     atom   18 type  1   force =     0.00000433    0.00000116    0.00000576
     atom   19 type  1   force =     0.00000099    0.00000011   -0.00000537
     atom   20 type  1   force =     0.00000194    0.00000048    0.00000267
     atom   21 type  1   force =     0.00000119    0.00000023   -0.00000270
     atom   22 type  1   force =    -0.00000483   -0.00000223   -0.00000045
     atom   23 type  1   force =    -0.00000147   -0.00000043    0.00000010
     atom   24 type  1   force =    -0.00001288   -0.00000271    0.00000355
     atom   25 type  1   force =    -0.00000529   -0.00000103   -0.00000263
     atom   26 type  1   force =    -0.00000702    0.00000336    0.00000544
     atom   27 type  1   force =    -0.00000242    0.00000099   -0.00000484
     atom   28 type  1   force =     0.00000061   -0.00000281    0.00000583
     atom   29 type  1   force =     0.00000013   -0.00000019   -0.00000538
     atom   30 type  1   force =    -0.00000314   -0.00001134    0.00000352
     atom   31 type  1   force =    -0.00000107   -0.00000480   -0.00000318
     atom   32 type  2   force =     0.00000323   -0.00000565   -0.00000264
     atom   33 type  2   force =     0.00000386   -0.00000947   -0.00000280
     atom   34 type  2   force =    -0.00000316    0.00000054    0.00000015
     atom   35 type  2   force =    -0.00000588    0.00000121   -0.00000613
     atom   36 type  2   force =    -0.00000414    0.00000230   -0.00000189
     atom   37 type  2   force =    -0.00000244    0.00000742   -0.00000067
     atom   38 type  2   force =    -0.00000086    0.00000002   -0.00000356
     atom   39 type  2   force =     0.00000412    0.00000049    0.00000175
     atom   40 type  2   force =     0.00000134   -0.00000087   -0.00000233
     atom   41 type  2   force =     0.00000596   -0.00000364   -0.00000052
     atom   42 type  2   force =     0.00000641   -0.00000126   -0.00000224
     atom   43 type  2   force =     0.00000954   -0.00000103   -0.00000387
     atom   44 type  2   force =     0.00000093    0.00000346    0.00000165
     atom   45 type  2   force =     0.00000111    0.00000951   -0.00000531
     atom   46 type  2   force =    -0.00000219    0.00000259   -0.00000078
     atom   47 type  2   force =    -0.00000078    0.00000432   -0.00000201
     atom   48 type  2   force =    -0.00000233    0.00000091   -0.00000096
     atom   49 type  2   force =    -0.00000265   -0.00000067   -0.00000167
     atom   50 type  2   force =     0.00000059    0.00000020   -0.00000364
     atom   51 type  2   force =     0.00000369   -0.00000461    0.00000149
     atom   52 type  2   force =     0.00000403   -0.00000005   -0.00000268
     atom   53 type  2   force =     0.00000225    0.00000458    0.00000040
     atom   54 type  2   force =     0.00000086    0.00000070   -0.00000037
     atom   55 type  2   force =    -0.00000093    0.00000208   -0.00000253
     atom   56 type  2   force =    -0.00000228   -0.00000242    0.00000097
     atom   57 type  2   force =    -0.00000687   -0.00000538   -0.00000382
     atom   58 type  2   force =    -0.00000391    0.00000134   -0.00000208
     atom   59 type  2   force =    -0.00000766   -0.00000310   -0.00000044
     atom   60 type  2   force =    -0.00000088    0.00000069   -0.00000441
[...]
     atom   81 type  2   force =     0.00000095   -0.00000236   -0.00000111
     atom   82 type  2   force =     0.00000830   -0.00000024    0.00000841
     atom   83 type  2   force =     0.00000441    0.00000011   -0.00000544
     atom   84 type  2   force =     0.00000647    0.00000301    0.00000460
     atom   85 type  2   force =     0.00000045    0.00000349   -0.00000200
     atom   86 type  2   force =    -0.00000187    0.00000222    0.00000181
     atom   87 type  2   force =    -0.00000109    0.00000147    0.00000039
     atom   88 type  2   force =    -0.00000641    0.00000190    0.00000384
     atom   89 type  2   force =    -0.00000377   -0.00000241   -0.00000163
     atom   90 type  2   force =    -0.00000254    0.00000081    0.00000586
     atom   91 type  2   force =    -0.00000125   -0.00000086   -0.00000289
     atom   92 type  2   force =     0.00000250   -0.00000049    0.00000593
     atom   93 type  2   force =     0.00000052    0.00000041   -0.00000344
     atom   94 type  2   force =     0.00000175   -0.00000501    0.00000392
     atom   95 type  2   force =    -0.00000204   -0.00000089   -0.00000181

     Total force =     0.004755     Total SCF correction =     0.000069

     Computing stress (Cartesian axis) and pressure

     Non-local corr. energy    =      45.78351674 Ry

          total   stress  (Ry/bohr**3)                   (kbar)     P=        0.88
   0.00000443   0.00000000  -0.00000000            0.65        0.00       -0.00
   0.00000000   0.00000443   0.00000000            0.00        0.65        0.00
  -0.00000000   0.00000000   0.00000903           -0.00        0.00        1.33

     kinetic stress (kbar)  14785.28      0.00     -0.00
                                0.00  14785.28      0.00
                               -0.00      0.00  14796.47

     local   stress (kbar)  -7489.35     -0.03      0.05
                               -0.03  -7489.37     -0.06
                                0.05     -0.06   1096.51

     nonloc. stress (kbar)   -989.92      0.00     -0.00
                                0.00   -989.92      0.00
                               -0.00      0.00   -995.17

     hartree stress (kbar)  11973.00      0.01     -0.02
                                0.01  11973.00      0.02
                               -0.02      0.02   8104.46

     exc-cor stress (kbar)   6898.77      0.00     -0.00
                                0.00   6898.77      0.00
                               -0.00      0.00   6897.72

     corecor stress (kbar) -11226.63     -0.00      0.00
                               -0.00 -11226.63     -0.00
                                0.00     -0.00 -11226.62

     ewald   stress (kbar) -14033.34      0.02     -0.03
                                0.02 -14033.32      0.04
                               -0.03      0.04 -18756.17

     hubbard stress (kbar)      0.00      0.00      0.00
                                0.00      0.00      0.00
                                0.00      0.00      0.00

     DFT-D   stress (kbar)      0.00      0.00      0.00
                                0.00      0.00      0.00
                                0.00      0.00      0.00

     XDM     stress (kbar)      0.00      0.00      0.00
                                0.00      0.00      0.00
                                0.00      0.00      0.00

     dft-nl  stress (kbar)     82.85     -0.00      0.00
                               -0.00     82.85     -0.00
                                0.00     -0.00     84.12

     TS-vdW  stress (kbar)      0.00      0.00      0.00
                                0.00      0.00      0.00
                                0.00      0.00      0.00

     MDB     stress (kbar)      0.00      0.00      0.00
                                0.00      0.00      0.00
                                0.00      0.00      0.00

     3D-RISM stress (kbar)      0.00      0.00      0.00
                                0.00      0.00      0.00
                                0.00      0.00      0.00

     Energy error            =      5.8E-05 Ry
     Gradient error          =      9.5E-04 Ry/Bohr

     bfgs converged in  14 scf cycles and  13 bfgs steps
     (criteria: energy <  1.0E-04 Ry, force <  1.0E-03 Ry/Bohr)

     End of BFGS Geometry Optimization

     Final energy             =  -63859.6904605161 Ry

     File ./PbI2.bfgs deleted, as requested
Begin final coordinates

ATOMIC_POSITIONS (angstrom)
Pb            2.3556355369        4.0797813258        7.3776817924
Pb            0.0689107143        8.0405530986       14.7552575419
Pb            0.0009119222        8.1583198014        7.3775748980
Pb           -2.3555692500       12.2398436139       14.7551794863
Pb           -2.3555688107       12.2398449465        7.3774459514
Pb           -4.7800988117       16.4392734366       14.7552480652
Pb           -4.7121037366       16.3214444171        7.3775235440
Pb            6.9292221250        4.0797157596       14.7554365162
Pb            7.0652746432        4.0797731042        7.3777553411
Pb            4.6424828462        8.0405290619       14.7553548831
Pb            4.7104403612        8.1583680622        7.3776812429
Pb            2.3557299848       12.2222409822       14.7773906286
Pb            2.3556990158       12.2376540643        7.3755591502
Pb           -0.0151549728       16.3287266755       14.7774244696
Pb           -0.0018062396       16.3210411488        7.3756123997
Pb           11.7783145242        4.0797068365       14.7554968362
Pb           11.7782990490        4.0797318820        7.3777840727
Pb            9.4074176392        8.1509794729       14.7333019150
Pb            9.4206906816        8.1587156130        7.3796863105
Pb            7.0669984142       12.2398601158       14.7553744758
Pb            7.0669412655       12.2398765458        7.3776117257
Pb            4.7266299089       16.3287190927       14.7775236875
Pb            4.7132734977       16.3210587413        7.3756636730
Pb           16.6272493725        4.0797154115       14.7554586771
Pb           16.4912391874        4.0797403744        7.3777594679
Pb           14.1491582551        8.1509697461       14.7332655274
Pb           14.1358311411        8.1586754174        7.3796439970
Pb           11.7782643937       12.2574343212       14.7331866447
Pb           11.7782084767       12.2420679207        7.3795352736
Pb            9.4914815634       16.4392193613       14.7553637892
Pb            9.4233956534       16.3214542151        7.3776375708
I             2.3555720983        1.3623986300        5.4863863461
I             2.3555675458        1.3294704841       12.9082999924
I             0.0022595799        5.4384612814        5.4864075336
I            -0.0260515079        5.4547090821       12.9083578776
I            -2.3540133554        9.5200895658        5.4943242780
I            -2.3673791806        9.5272225680       12.8806946949
I            -4.7102486058       13.6012206152        5.4943103651
I            -4.7107094529       13.5859209600       12.8806582398
I             7.0671768721        1.3596742802        5.4949939122
I             7.0605171509        1.3634634670       12.8601657283
I             4.7090540315        5.4385345889        5.4864874111
I             4.7374718755        5.4548304957       12.9083000367
I             2.3556959759        9.5201291239        5.4949028720
I             2.3556649431        9.5124258737       12.8601045655
I             0.0000448988       13.5999548122        5.4951327454
I            -0.0015938464       13.5989803366       12.8686588811
I            11.7782847084        1.3598388974        5.4953160834
I            11.7783047606        1.3617129790       12.8688549225
I             9.4220785243        5.4383196720        5.4945751732
I             9.4350898927        5.4463251261       12.8809182765
I             7.0653795456        9.5201532264        5.4944596996
I             7.0788035623        9.5273539828       12.8808121364
I             4.7113852851       13.5999769638        5.4952118776
I             4.7130430394       13.5990143748       12.8687549936
I            16.4892914071        1.3596741456        5.4949915352
I            16.4959950446        1.3635253727       12.8602996561
I            14.1344538911        5.4382807326        5.4945205622
I            14.1216057027        5.4462819698       12.8809140542
I            11.7782202416        9.5198437387        5.4960003228
[...]
I             9.4220409775        2.7212042272        9.2608753358
I             7.0605270872        6.7961719874        1.8951952011
I             7.0671514318        6.8000213850        9.2603459892
I             4.7118594346       10.8938992347        1.8744886182
I             4.7122913043       10.8787400294        9.2608255285
I             2.3557200382       14.9599087310        1.8807930736
I             2.3556900913       14.9599460685        9.2592403920
I            14.1216293117        2.7131792526        1.8745918198
I            14.1344791242        2.7212252115        9.2609515164
I            11.7783253362        6.7979181241        1.8866240296
I            11.7782769332        6.7998351621        9.2600979920
I             9.4209472001       10.8809239130        1.8865285326
I             9.4225452759       10.8800043309        9.2600049581
I             7.0551769997       14.9525008885        1.8745025831
I             7.0685406740       14.9597227832        9.2608680319
End final coordinates

     Writing all to output data dir ./PbI2.save/

     General routines

     Parallel routines

     PAW routines

   This run was terminated on:   7: 6:47  11Feb2024

   JOB DONE.