     Program PWSCF v.7.1 starts on 20Feb2024 at 16:49:37

     Reading input from espresso.pwi
Warning: card &CELL ignored
Warning: card    CELL_DYNAMICS    = 'BFGS' ignored
Warning: card / ignored

     Current dimensions of program PWSCF are:
     Max number of different atomic species (ntypx) = 10
     Max number of k-points (npk) =  40000
     Max angular momentum in pseudopotentials (lmaxx) =  4
     file Pb.pbe-dn-kjpaw_psl.1.0.0.UPF: wavefunction(s)  6S 6P 5D renormalized
     file I.pbe-dn-kjpaw_psl.1.0.0.UPF: wavefunction(s)  5S 5P renormalized

     IMPORTANT: XC functional enforced from input :
     Exchange-correlation= BEEF-VDW
                           (   1   4  43  14   2   0   0)
     Any further DFT definition will be discarded
     Please, verify this is what you really want

     R & G space division:  proc/nbgrp/npool/nimage =     128
     Subspace diagonalization in iterative solution of the eigenvalue problem:
     a serial algorithm will be used

     Using Slab Decomposition

     bravais-lattice index     =            4
     lattice parameter (alat)  =       8.9080  a.u.
     unit-cell volume          =    4821.7539 (a.u.)^3
     number of atoms/cell      =           15
     number of atomic types    =            2
     number of electrons       =       240.00
     number of Kohn-Sham states=          144
     kinetic-energy cutoff     =      70.0000  Ry
     charge density cutoff     =     350.0000  Ry
     scf convergence threshold =      1.0E-07
     mixing beta               =       0.7000
     number of iterations used =            8  plain     mixing
     energy convergence thresh.=      1.0E-04
     force convergence thresh. =      1.0E-03
     Exchange-correlation= BEEF-VDW
                           (   1   4  43  14   2   0   0)
     nstep                     =           50

     celldm(1)=   8.908012  celldm(2)=   0.000000  celldm(3)=   7.876477
     celldm(4)=   0.000000  celldm(5)=   0.000000  celldm(6)=   0.000000

     crystal axes: (cart. coord. in units of alat)
               a(1) = (   1.000000   0.000000   0.000000 )
               a(2) = (  -0.500000   0.866025   0.000000 )
               a(3) = (   0.000000   0.000000   7.876477 )

     reciprocal axes: (cart. coord. in units 2 pi/alat)
               b(1) = (  1.000000  0.577350 -0.000000 )
               b(2) = (  0.000000  1.154701  0.000000 )
               b(3) = (  0.000000 -0.000000  0.126960 )

     PseudoPot. # 1 for Pb read from file:
     /trace/group/acmegroup/atimmins/packages/espresso/pseudo/psl_1.0.0/pslibrary.1.0.0/pbe/PSEUDOPOTENTIALS/Pb.pbe-dn-kjpaw_psl.1.0.0.UPF
     MD5 check sum: 39ab5b8a6bbd56b7735ad9f188aac93a
     Pseudo is Projector augmented-wave + core cor, Zval = 14.0
     Generated using 'atomic' code by A. Dal Corso  v.7.1
     Shape of augmentation charge: PSQ
     Using radial grid of 1281 points,  6 beta functions with:
                l(1) =   0
                l(2) =   0
                l(3) =   1
                l(4) =   1
                l(5) =   2
                l(6) =   2
     Q(r) pseudized with 0 coefficients

     PseudoPot. # 2 for I  read from file:
     /trace/group/acmegroup/atimmins/packages/espresso/pseudo/psl_1.0.0/pslibrary.1.0.0/pbe/PSEUDOPOTENTIALS/I.pbe-dn-kjpaw_psl.1.0.0.UPF
     MD5 check sum: bfa8781bc1224d19af3f3980e3fab11e
     Pseudo is Projector augmented-wave + core cor, Zval = 17.0
     Generated using 'atomic' code by A. Dal Corso  v.7.1
     Shape of augmentation charge: PSQ
     Using radial grid of 1247 points,  6 beta functions with:
                l(1) =   0
                l(2) =   0
                l(3) =   1
                l(4) =   1
                l(5) =   2
                l(6) =   2
     Q(r) pseudized with 0 coefficients

     atomic species   valence    mass     pseudopotential
        Pb            14.00   207.20000     Pb( 1.00)
        I             17.00   126.90447     I ( 1.00)

      6 Sym. Ops. (no inversion) found

                                    s                        frac. trans.

      isym =  1     identity

 cryst.   s( 1) = (     1          0          0      )
                  (     0          1          0      )
                  (     0          0          1      )

 cart.    s( 1) = (  1.0000000  0.0000000  0.0000000 )
                  (  0.0000000  1.0000000  0.0000000 )
                  (  0.0000000  0.0000000  1.0000000 )

      isym =  2     120 deg rotation - cryst. axis [0,0,1]

[...]

      isym =  3     120 deg rotation - cryst. axis [0,0,-1]

[...]

      isym =  4     inv. 180 deg rotation - cart. axis [1,0,0]

[...]

      isym =  5     inv. 180 deg rotation - cryst. axis [0,1,0]

[...]

      isym =  6     inv. 180 deg rotation - cryst. axis [1,1,0]

 cryst.   s( 6) = (     0         -1          0      )
                  (    -1          0          0      )
                  (     0          0          1      )

 cart.    s( 6) = (  0.5000000 -0.8660254  0.0000000 )
                  ( -0.8660254 -0.5000000  0.0000000 )
                  (  0.0000000  0.0000000  1.0000000 )

     point group C_3v (3m)
     there are  3 classes
     the character table:

       E     2C3   3s_v
A_1    1.00  1.00  1.00
A_2    1.00  1.00 -1.00
E      2.00 -1.00  0.00

     the symmetry operations in each class and the name of the first element:

     E        1
          identity
     2C3      2    3
          120 deg rotation - cryst. axis [0,0,1]
     3s_v     4    5    6
          inv. 180 deg rotation - cart. axis [1,0,0]

   Cartesian axes

     site n.     atom                  positions (alat units)
         1           Pb  tau(   1) = (   0.0000000   0.0000000   6.7169394  )
         2           Pb  tau(   2) = (  -0.0000006   0.5773506   3.5676416  )
         3           Pb  tau(   3) = (  -0.0000006   0.5773506   5.1457685  )
         4           Pb  tau(   4) = (  -0.0000006   0.5773506   1.9929510  )
         5           Pb  tau(   5) = (  -0.0000006   0.5773506   0.4166615  )
         6           I   tau(   6) = (   0.5000005   0.2886749   0.8182415  )
         7           I   tau(   7) = (   0.5000005   0.2886749   5.5467051  )
         8           I   tau(   8) = (   0.0000000   0.0000000   1.5923797  )
         9           I   tau(   9) = (  -0.0000006   0.5773506   6.3173089  )
        10           I   tau(  10) = (   0.5000005   0.2886749   3.9682524  )
        11           I   tau(  11) = (   0.0000000   0.0000000   0.0156811  )
        12           I   tau(  12) = (   0.5000005   0.2886749   2.3932701  )
        13           I   tau(  13) = (   0.5000005   0.2886749   7.1168251  )
        14           I   tau(  14) = (   0.0000000   0.0000000   3.1674806  )
        15           I   tau(  15) = (   0.0000000   0.0000000   4.7445292  )

   Crystallographic axes

     site n.     atom                  positions (cryst. coord.)
         1           Pb  tau(   1) = (  0.0000000  0.0000000  0.8527848  )
         2           Pb  tau(   2) = (  0.3333330  0.6666671  0.4529489  )
         3           Pb  tau(   3) = (  0.3333330  0.6666671  0.6533084  )
         4           Pb  tau(   4) = (  0.3333330  0.6666671  0.2530257  )
         5           Pb  tau(   5) = (  0.3333330  0.6666671  0.0528995  )
         6           I   tau(   6) = (  0.6666670  0.3333330  0.1038842  )
         7           I   tau(   7) = (  0.6666670  0.3333330  0.7042114  )
         8           I   tau(   8) = (  0.0000000  0.0000000  0.2021690  )
         9           I   tau(   9) = (  0.3333330  0.6666671  0.8020476  )
        10           I   tau(  10) = (  0.6666670  0.3333330  0.5038106  )
        11           I   tau(  11) = (  0.0000000  0.0000000  0.0019909  )
        12           I   tau(  12) = (  0.6666670  0.3333330  0.3038503  )
        13           I   tau(  13) = (  0.6666670  0.3333330  0.9035544  )
        14           I   tau(  14) = (  0.0000000  0.0000000  0.4021444  )
        15           I   tau(  15) = (  0.0000000  0.0000000  0.6023669  )

     number of k points=     4  Gaussian smearing, width (Ry)=  0.0100
                       cart. coord. in units 2pi/alat
        k(    1) = (   0.0000000   0.0000000   0.0000000), wk =   0.1250000
        k(    2) = (   0.0000000   0.2886751   0.0000000), wk =   0.7500000
        k(    3) = (   0.0000000  -0.5773503   0.0000000), wk =   0.3750000
        k(    4) = (   0.2500000   0.4330127   0.0000000), wk =   0.7500000

                       cryst. coord.
        k(    1) = (   0.0000000   0.0000000   0.0000000), wk =   0.1250000
        k(    2) = (   0.0000000   0.2500000   0.0000000), wk =   0.7500000
        k(    3) = (   0.0000000  -0.5000000   0.0000000), wk =   0.3750000
        k(    4) = (   0.2500000   0.2500000   0.0000000), wk =   0.7500000

     Check: negative core charge=   -0.000001

     Initial potential from superposition of free atoms

     starting charge     239.9875, renormalised to     240.0000

     %%%%%%%%%%%%%%%%%%%%%%%%%%%%%%%%%%%%%%%%%%%%%%%%%%%%%%%%%%%%%%%%%%%%%%%%
     %                                                                      %
     % You are using vdW-DF, which was implemented by the Thonhauser group. %
     % Please cite the following two papers that made this development      %
     % possible and the two reviews that describe the various versions:     %
     %                                                                      %
     %   T. Thonhauser et al., PRL 115, 136402 (2015).                      %
     %   T. Thonhauser et al., PRB 76, 125112 (2007).                       %
     %   K. Berland et al., Rep. Prog. Phys. 78, 066501 (2015).             %
     %   D.C. Langreth et al., J. Phys.: Condens. Matter 21, 084203 (2009). %
     %                                                                      %
     % If you are calculating stress with vdW-DF, please also cite:         %
     %                                                                      %
     %   R. Sabatini et al., J. Phys.: Condens. Matter 24, 424209 (2012).   %
     %                                                                      %
     %%%%%%%%%%%%%%%%%%%%%%%%%%%%%%%%%%%%%%%%%%%%%%%%%%%%%%%%%%%%%%%%%%%%%%%%

     %%%%%%%%%%%%%%%%%%%%%%%%%%%%%%%%%%%%%%%%%%%%%%%%%%%%%%%%%%%%%%%%%%%%%%%%
     %                                                                      %
     %  vdW-DF NEWS:                                                        %
     %                                                                      %
     %  * vdW-DF3 is now available. DOI: 10.1021/acs.jctc.0c00471           %
     %    use with input_dft = 'vdW-DF3-opt1' or 'vdW-DF3-opt2'             %
     %                                                                      %
     %  * Unscreened and range-separated vdW-DF hybrid functionals          %
     %    DOI: 10.1063/1.4986522 and 10.1088/1361-648X/ac2ad2               %
     %    use with input_dft = 'vdW-DF-cx0' (etc) and 'vdW-DF-ahcx'         %
     %                                                                      %
     %%%%%%%%%%%%%%%%%%%%%%%%%%%%%%%%%%%%%%%%%%%%%%%%%%%%%%%%%%%%%%%%%%%%%%%%

     Carrying out vdW-DF run using the following parameters:
[...]
     0.0000   0.0000   0.0000   0.0000   0.0000   0.0000   0.0000   0.0000

[...]

          k = 0.2500 0.4330 0.0000 ( 47760 PWs)   bands (ev):

   -40.8487 -40.8487 -40.8483 -40.8481 -40.8481 -40.8479 -40.8479 -40.8473
   -40.8471 -40.8471 -40.8455 -40.8455 -40.8454 -40.8453 -40.8449 -40.8448
   -40.8448 -40.8448 -40.8447 -40.8447 -40.8436 -40.8436 -40.8434 -40.8434
   -40.8432 -40.8430 -40.8429 -40.8429 -40.8428 -40.8427 -40.8424 -40.8424
   -40.8424 -40.8423 -40.8423 -40.8421 -40.8420 -40.8419 -40.8419 -40.8419
   -40.8417 -40.8417 -40.8414 -40.8414 -40.8414 -40.8414 -40.8410 -40.8410
   -40.8409 -40.8409 -13.0213 -13.0191 -13.0152 -13.0147 -13.0143 -13.0097
   -13.0074 -13.0035 -13.0030 -13.0026 -12.9996 -12.9990 -12.9972 -12.9968
   -12.9933 -12.9930 -12.9927 -12.9925 -12.9921 -12.9917 -12.9917 -12.9909
   -12.9867 -12.9862 -12.9854  -7.7087  -7.6998  -7.6963  -7.6777  -7.6766
    -7.5725  -7.5708  -7.5516  -7.5497  -7.5402  -3.7031  -3.6997  -3.6988
    -3.6980  -3.6970   1.1286   1.1342   1.1928   1.1938   1.3090   1.3434
     1.3653   1.3840   1.4437   1.4491   1.7649   1.7993   1.8630   1.8674
     1.9435   2.2692   2.3506   2.3521   2.5959   2.6328   2.7005   2.7950
     2.7967   2.8314   2.8687   3.1434   3.2055   3.2105   3.3034   3.3164
     6.9148   6.9360   7.0506   7.0710   7.2203   7.2353   7.2626   7.3210
     7.3407   7.3490   7.5490   7.5715   7.6216   7.6599   7.6657  10.0136
    10.1072  10.2215  10.2726  10.3584  10.3800  10.4348  10.5163  10.7315

     occupation numbers
     1.0000   1.0000   1.0000   1.0000   1.0000   1.0000   1.0000   1.0000
     1.0000   1.0000   1.0000   1.0000   1.0000   1.0000   1.0000   1.0000
     1.0000   1.0000   1.0000   1.0000   1.0000   1.0000   1.0000   1.0000
     1.0000   1.0000   1.0000   1.0000   1.0000   1.0000   1.0000   1.0000
     1.0000   1.0000   1.0000   1.0000   1.0000   1.0000   1.0000   1.0000
     1.0000   1.0000   1.0000   1.0000   1.0000   1.0000   1.0000   1.0000
     1.0000   1.0000   1.0000   1.0000   1.0000   1.0000   1.0000   1.0000
     1.0000   1.0000   1.0000   1.0000   1.0000   1.0000   1.0000   1.0000
     1.0000   1.0000   1.0000   1.0000   1.0000   1.0000   1.0000   1.0000
     1.0000   1.0000   1.0000   1.0000   1.0000   1.0000   1.0000   1.0000
     1.0000   1.0000   1.0000   1.0000   1.0000   1.0000   1.0000   1.0000
     1.0000   1.0000   1.0000   1.0000   1.0000   1.0000   1.0000   1.0000
     1.0000   1.0000   1.0000   1.0000   1.0000   1.0000   1.0000   1.0000
     1.0000   1.0000   1.0000   1.0000   1.0000   1.0000   1.0000   1.0000
     1.0000   1.0000   1.0000   1.0000   1.0000   1.0000   1.0000   1.0000
     0.0000   0.0000   0.0000   0.0000   0.0000   0.0000   0.0000   0.0000
     0.0000   0.0000   0.0000   0.0000   0.0000   0.0000   0.0000   0.0000
     0.0000   0.0000   0.0000   0.0000   0.0000   0.0000   0.0000   0.0000

     the Fermi energy is     4.1127 ev

!    total energy              =  -10118.16520958 Ry
     total all-electron energy =   -351401.617420 Ry
     estimated scf accuracy    <       0.00000007 Ry
     smearing contrib. (-TS)   =      -0.00000000 Ry
     internal energy E=F+TS    =  -10118.16520958 Ry

     The total energy is F=E-TS. E is the sum of the following terms:
     one-electron contribution =   -1878.43611998 Ry
     hartree contribution      =    1048.04987158 Ry
     xc contribution           =    -708.83193223 Ry
     ewald contribution        =   -1536.66439635 Ry
     one-center paw contrib.   =   -7042.28263259 Ry
      -> PAW hartree energy AE =      95.90856646 Ry
      -> PAW hartree energy PS =     -96.14531322 Ry
      -> PAW xc energy AE      =    -798.43043578 Ry
      -> PAW xc energy PS      =      33.31036083 Ry
      -> total E_H with PAW    =    1047.81312482 Ry
      -> total E_XC with PAW   =   -1473.95200718 Ry

     convergence has been achieved in  12 iterations

[...]

     Forces acting on atoms (cartesian axes, Ry/au):

     atom    1 type  1   force =     0.00000000    0.00000000    0.00005747
     atom    2 type  1   force =     0.00000000    0.00000000    0.00020836
     atom    3 type  1   force =     0.00000000    0.00000000   -0.00021801
     atom    4 type  1   force =     0.00000000    0.00000000   -0.00021118
     atom    5 type  1   force =     0.00000000    0.00000000    0.00019954
     atom    6 type  2   force =     0.00000000    0.00000000   -0.00097015
     atom    7 type  2   force =     0.00000000    0.00000000   -0.00030947
     atom    8 type  2   force =     0.00000000    0.00000000    0.00057903
     atom    9 type  2   force =     0.00000000    0.00000000    0.00003259
     atom   10 type  2   force =     0.00000000    0.00000000   -0.00063529
     atom   11 type  2   force =     0.00000000    0.00000000    0.00034366
     atom   12 type  2   force =     0.00000000    0.00000000    0.00024012
     atom   13 type  2   force =     0.00000000    0.00000000    0.00039779
     atom   14 type  2   force =     0.00000000    0.00000000   -0.00056114
     atom   15 type  2   force =     0.00000000    0.00000000    0.00084668
     The non-local contrib.  to forces
     atom    1 type  1   force =     0.00000000    0.00000000   -0.00031067
     atom    2 type  1   force =     0.00000000    0.00000000   -0.00007764
     atom    3 type  1   force =     0.00000000   -0.00000000   -0.00032296
     atom    4 type  1   force =     0.00000000    0.00000000    0.00000486
     atom    5 type  1   force =     0.00000000    0.00000000   -0.00003711
     atom    6 type  2   force =     0.00000000    0.00000000   -0.24668596
     atom    7 type  2   force =     0.00000000    0.00000000   -0.24607589
     atom    8 type  2   force =     0.00000000    0.00000000    0.24632645
     atom    9 type  2   force =     0.00000000   -0.00000000    0.24562483
     atom   10 type  2   force =     0.00000000    0.00000000   -0.24621960
     atom   11 type  2   force =     0.00000000    0.00000000    0.24525273
     atom   12 type  2   force =     0.00000000    0.00000000   -0.24576675
     atom   13 type  2   force =     0.00000000    0.00000000   -0.24567783
     atom   14 type  2   force =     0.00000000    0.00000000    0.24564093
     atom   15 type  2   force =     0.00000000    0.00000000    0.24660775
     The ionic contribution  to forces
     atom    1 type  1   force =    -0.00000213    0.00000216    0.17674458
     atom    2 type  1   force =     0.00003027   -0.00001850    0.04576109
     atom    3 type  1   force =     0.00003012   -0.00001840   -0.44256372
     atom    4 type  1   force =     0.00003028   -0.00001850   -0.02188772
     atom    5 type  1   force =     0.00003012   -0.00001841    0.09828789
     atom    6 type  2   force =    -0.00002100    0.00001244   14.70413632
     atom    7 type  2   force =    -0.00002222    0.00001321   14.20557028
     atom    8 type  2   force =    -0.00000913    0.00000597  -14.73982233
     atom    9 type  2   force =     0.00001465   -0.00000918  -14.45423373
     atom   10 type  2   force =    -0.00002110    0.00001250   14.76316049
     atom   11 type  2   force =    -0.00000907    0.00000594  -14.41757647
     atom   12 type  2   force =    -0.00002115    0.00001253   14.70198629
     atom   13 type  2   force =    -0.00001136    0.00000629   15.11816563
     atom   14 type  2   force =    -0.00000916    0.00000599  -14.68708101
     atom   15 type  2   force =    -0.00000911    0.00000596  -15.05064760
     The local contribution  to forces
     atom    1 type  1   force =     0.00000000    0.00000000   -0.17643000
     atom    2 type  1   force =     0.00028214   -0.00017984   -0.04509975
     atom    3 type  1   force =     0.00028238   -0.00017999    0.44255818
     atom    4 type  1   force =     0.00028215   -0.00017984    0.02174401
     atom    5 type  1   force =     0.00028224   -0.00017990   -0.09827994
     atom    6 type  2   force =    -0.00064564    0.00035218  -14.46388555
     atom    7 type  2   force =    -0.00064559    0.00035215  -13.96524745
     atom    8 type  2   force =     0.00000000   -0.00000000   14.49929220
     atom    9 type  2   force =     0.00080705   -0.00051442   14.21382695
     atom   10 type  2   force =    -0.00064561    0.00035216  -14.52242691
     atom   11 type  2   force =     0.00000000   -0.00000000   14.17782548
     atom   12 type  2   force =    -0.00064558    0.00035215  -14.46111251
     atom   13 type  2   force =    -0.00064557    0.00035214  -14.87729128
     atom   14 type  2   force =     0.00000000   -0.00000000   14.44654328
     atom   15 type  2   force =     0.00000000   -0.00000000   14.81011101
     The core correction contribution to forces
     atom    1 type  1   force =     0.00000000   -0.00000000   -0.00001160
     atom    2 type  1   force =     0.00001899   -0.00001211   -0.00001019
     atom    3 type  1   force =     0.00001899   -0.00001211    0.00001353
     atom    4 type  1   force =     0.00001899   -0.00001211    0.00000361
     atom    5 type  1   force =     0.00001899   -0.00001211   -0.00002255
     atom    6 type  2   force =    -0.00005316    0.00002900    0.00527548
     atom    7 type  2   force =    -0.00005316    0.00002900    0.00544564
     atom    8 type  2   force =    -0.00000000    0.00000000   -0.00523396
     atom    9 type  2   force =     0.00006646   -0.00004236   -0.00529778
     atom   10 type  2   force =    -0.00005316    0.00002900    0.00523266
     atom   11 type  2   force =    -0.00000000    0.00000000   -0.00540255
     atom   12 type  2   force =    -0.00005316    0.00002900    0.00540837
     atom   13 type  2   force =    -0.00005317    0.00002900    0.00539393
     atom   14 type  2   force =    -0.00000000    0.00000000   -0.00539406
     atom   15 type  2   force =    -0.00000000    0.00000000   -0.00523770
     The Hubbard contrib.    to forces
     atom    1 type  1   force =     0.00000000    0.00000000    0.00000000
     atom    2 type  1   force =     0.00000000    0.00000000    0.00000000
     atom    3 type  1   force =     0.00000000    0.00000000    0.00000000
     atom    4 type  1   force =     0.00000000    0.00000000    0.00000000
     atom    5 type  1   force =     0.00000000    0.00000000    0.00000000
     atom    6 type  2   force =     0.00000000    0.00000000    0.00000000
     atom    7 type  2   force =     0.00000000    0.00000000    0.00000000
     atom    8 type  2   force =     0.00000000    0.00000000    0.00000000
     atom    9 type  2   force =     0.00000000    0.00000000    0.00000000
     atom   10 type  2   force =     0.00000000    0.00000000    0.00000000
     atom   11 type  2   force =     0.00000000    0.00000000    0.00000000
     atom   12 type  2   force =     0.00000000    0.00000000    0.00000000
     atom   13 type  2   force =     0.00000000    0.00000000    0.00000000
     atom   14 type  2   force =     0.00000000    0.00000000    0.00000000
     atom   15 type  2   force =     0.00000000    0.00000000    0.00000000
     The SCF correction term to forces
     atom    1 type  1   force =    -0.00000000    0.00000000    0.00009685
     atom    2 type  1   force =     0.00000002   -0.00000001   -0.00033346
     atom    3 type  1   force =     0.00000002   -0.00000001    0.00012865
     atom    4 type  1   force =     0.00000002   -0.00000001   -0.00004426
     atom    5 type  1   force =     0.00000002   -0.00000001    0.00028293
     atom    6 type  2   force =    -0.00000005    0.00000003    0.00022124
     atom    7 type  2   force =    -0.00000005    0.00000003    0.00002964
     atom    8 type  2   force =    -0.00000000    0.00000000    0.00004835
     atom    9 type  2   force =     0.00000005   -0.00000003    0.00014401
     atom   10 type  2   force =    -0.00000005    0.00000003   -0.00035023
     atom   11 type  2   force =    -0.00000000    0.00000000    0.00027616
     atom   12 type  2   force =    -0.00000005    0.00000003   -0.00024358
     atom   13 type  2   force =    -0.00000004    0.00000002   -0.00016098
     atom   14 type  2   force =    -0.00000000    0.00000000   -0.00023859
     atom   15 type  2   force =    -0.00000000    0.00000000    0.00004491

     Total force =     0.001822     Total SCF correction =     0.000797
     SCF correction compared to forces is large: reduce conv_thr to get better values

     Computing stress (Cartesian axis) and pressure

     Non-local corr. energy    =       7.19507391 Ry

          total   stress  (Ry/bohr**3)                   (kbar)     P=        0.68
   0.00000447  -0.00000000   0.00000000            0.66       -0.00        0.00
  -0.00000000   0.00000447  -0.00000000           -0.00        0.66       -0.00
   0.00000000   0.00000000   0.00000500            0.00        0.00        0.74

     kinetic stress (kbar)  14876.83     -0.00      0.00
                                0.00  14876.83      0.00
                                0.00      0.00  14887.47

     local   stress (kbar)  -7749.79     -0.00      0.00
                               -0.00  -7749.79     -0.00
                                0.00     -0.00   1709.37

     nonloc. stress (kbar)  -1064.43      0.00      0.00
                                0.00  -1064.43     -0.00
                                0.00     -0.00  -1070.54

     hartree stress (kbar)  12081.92     -0.00      0.00
                               -0.00  12081.92     -0.00
                                0.00     -0.00   7810.71

     exc-cor stress (kbar)   6893.88      0.00     -0.00
                                0.00   6893.88      0.00
                               -0.00      0.00   6892.72

     corecor stress (kbar) -11224.14     -0.00     -0.00
                               -0.00 -11224.14      0.00
                               -0.00      0.00 -11224.08

     ewald   stress (kbar) -13896.28      0.00     -0.01
                                0.00 -13896.28      0.00
                               -0.01      0.00 -19088.96

     hubbard stress (kbar)      0.00      0.00      0.00
                                0.00      0.00      0.00
                                0.00      0.00      0.00

     DFT-D   stress (kbar)      0.00      0.00      0.00
                                0.00      0.00      0.00
                                0.00      0.00      0.00

     XDM     stress (kbar)      0.00      0.00      0.00
                                0.00      0.00      0.00
                                0.00      0.00      0.00

     dft-nl  stress (kbar)     82.66     -0.00      0.00
                               -0.00     82.66     -0.00
                                0.00     -0.00     84.05

     TS-vdW  stress (kbar)      0.00      0.00      0.00
                                0.00      0.00      0.00
                                0.00      0.00      0.00

     MDB     stress (kbar)      0.00      0.00      0.00
                                0.00      0.00      0.00
                                0.00      0.00      0.00

     3D-RISM stress (kbar)      0.00      0.00      0.00
                                0.00      0.00      0.00
                                0.00      0.00      0.00

     BFGS Geometry Optimization
     Energy error            =      0.0E+00 Ry
     Gradient error          =      9.7E-04 Ry/Bohr

     bfgs converged in   1 scf cycles and   0 bfgs steps
     (criteria: energy <  1.0E-04 Ry, force <  1.0E-03 Ry/Bohr)

     End of BFGS Geometry Optimization

     Final energy             =  -10118.1652095782 Ry
Begin final coordinates

ATOMIC_POSITIONS (angstrom)
Pb            0.0000000000        0.0000000000       31.6630953265
Pb           -0.0000027101        2.7215830081       16.8175665274
Pb           -0.0000027101        2.7215830081       24.2567261165
Pb           -0.0000027101        2.7215830081        9.3946056566
Pb           -0.0000027101        2.7215830081        1.9641078560
I             2.3569606956        1.3607894577        3.8571224350
I             2.3569606956        1.3607894577       26.1467076024
I             0.0000000000        0.0000000000        7.5063460029
I            -0.0000027101        2.7215830081       29.7792702733
I             2.3569606956        1.3607894577       18.7060126161
I             0.0000000000        0.0000000000        0.0739194250
I             2.3569606956        1.3607894577       11.2816766443
I             2.3569606956        1.3607894577       33.5481231743
I             0.0000000000        0.0000000000       14.9312410434
I             0.0000000000        0.0000000000       22.3653170150
End final coordinates

     Writing all to output data dir ./PbI2.save/

     General routines

     Parallel routines

     PAW routines

   This run was terminated on:  16:51: 5  20Feb2024

   JOB DONE.