     Program PWSCF v.7.1 starts on 21Feb2024 at  8: 6:31

     Reading input from espresso.pwi
Warning: card &CELL ignored
Warning: card    CELL_DYNAMICS    = 'BFGS' ignored
Warning: card / ignored

     Current dimensions of program PWSCF are:
     Max number of different atomic species (ntypx) = 10
     Max number of k-points (npk) =  40000
     Max angular momentum in pseudopotentials (lmaxx) =  4
     file Pb.pbe-dn-kjpaw_psl.1.0.0.UPF: wavefunction(s)  6S 6P 5D renormalized
     file I.pbe-dn-kjpaw_psl.1.0.0.UPF: wavefunction(s)  5S 5P renormalized

     IMPORTANT: XC functional enforced from input :
     Exchange-correlation= BEEF-VDW
                           (   1   4  43  14   2   0   0)
     Any further DFT definition will be discarded
     Please, verify this is what you really want

     R & G space division:  proc/nbgrp/npool/nimage =     128
     Subspace diagonalization in iterative solution of the eigenvalue problem:
     a serial algorithm will be used

     Using Slab Decomposition

     bravais-lattice index     =            4
     lattice parameter (alat)  =       8.9080  a.u.
     unit-cell volume          =    4821.7539 (a.u.)^3
     number of atoms/cell      =           15
     number of atomic types    =            2
     number of electrons       =       240.00
     number of Kohn-Sham states=          144
     kinetic-energy cutoff     =      70.0000  Ry
     charge density cutoff     =     350.0000  Ry
     scf convergence threshold =      1.0E-07
     mixing beta               =       0.7000
     number of iterations used =            8  plain     mixing
     Exchange-correlation= BEEF-VDW
                           (   1   4  43  14   2   0   0)

     celldm(1)=   8.908012  celldm(2)=   0.000000  celldm(3)=   7.876477
     celldm(4)=   0.000000  celldm(5)=   0.000000  celldm(6)=   0.000000

     crystal axes: (cart. coord. in units of alat)
               a(1) = (   1.000000   0.000000   0.000000 )
               a(2) = (  -0.500000   0.866025   0.000000 )
               a(3) = (   0.000000   0.000000   7.876477 )

     reciprocal axes: (cart. coord. in units 2 pi/alat)
               b(1) = (  1.000000  0.577350 -0.000000 )
               b(2) = (  0.000000  1.154701  0.000000 )
               b(3) = (  0.000000 -0.000000  0.126960 )

     PseudoPot. # 1 for Pb read from file:
     /trace/group/acmegroup/atimmins/packages/espresso/pseudo/psl_1.0.0/pslibrary.1.0.0/pbe/PSEUDOPOTENTIALS/Pb.pbe-dn-kjpaw_psl.1.0.0.UPF
     MD5 check sum: 39ab5b8a6bbd56b7735ad9f188aac93a
     Pseudo is Projector augmented-wave + core cor, Zval = 14.0
     Generated using 'atomic' code by A. Dal Corso  v.7.1
     Shape of augmentation charge: PSQ
     Using radial grid of 1281 points,  6 beta functions with:
                l(1) =   0
                l(2) =   0
                l(3) =   1
                l(4) =   1
                l(5) =   2
                l(6) =   2
     Q(r) pseudized with 0 coefficients

     PseudoPot. # 2 for I  read from file:
     /trace/group/acmegroup/atimmins/packages/espresso/pseudo/psl_1.0.0/pslibrary.1.0.0/pbe/PSEUDOPOTENTIALS/I.pbe-dn-kjpaw_psl.1.0.0.UPF
     MD5 check sum: bfa8781bc1224d19af3f3980e3fab11e
     Pseudo is Projector augmented-wave + core cor, Zval = 17.0
     Generated using 'atomic' code by A. Dal Corso  v.7.1
     Shape of augmentation charge: PSQ
     Using radial grid of 1247 points,  6 beta functions with:
                l(1) =   0
                l(2) =   0
                l(3) =   1
                l(4) =   1
                l(5) =   2
                l(6) =   2
     Q(r) pseudized with 0 coefficients

     atomic species   valence    mass     pseudopotential
        Pb            14.00   207.20000     Pb( 1.00)
        I             17.00   126.90447     I ( 1.00)

      6 Sym. Ops. (no inversion) found

                                    s                        frac. trans.

      isym =  1     identity

 cryst.   s( 1) = (     1          0          0      )
                  (     0          1          0      )
                  (     0          0          1      )

 cart.    s( 1) = (  1.0000000  0.0000000  0.0000000 )
                  (  0.0000000  1.0000000  0.0000000 )
                  (  0.0000000  0.0000000  1.0000000 )

      isym =  2     120 deg rotation - cryst. axis [0,0,1]

[...]

      isym =  3     120 deg rotation - cryst. axis [0,0,-1]

[...]

      isym =  4     inv. 180 deg rotation - cart. axis [1,0,0]

[...]

      isym =  5     inv. 180 deg rotation - cryst. axis [0,1,0]

[...]

      isym =  6     inv. 180 deg rotation - cryst. axis [1,1,0]

 cryst.   s( 6) = (     0         -1          0      )
                  (    -1          0          0      )
                  (     0          0          1      )

 cart.    s( 6) = (  0.5000000 -0.8660254  0.0000000 )
                  ( -0.8660254 -0.5000000  0.0000000 )
                  (  0.0000000  0.0000000  1.0000000 )

     point group C_3v (3m)
     there are  3 classes
     the character table:

       E     2C3   3s_v
A_1    1.00  1.00  1.00
A_2    1.00  1.00 -1.00
E      2.00 -1.00  0.00

     the symmetry operations in each class and the name of the first element:

     E        1
          identity
     2C3      2    3
          120 deg rotation - cryst. axis [0,0,1]
     3s_v     4    5    6
          inv. 180 deg rotation - cart. axis [1,0,0]

   Cartesian axes

     site n.     atom                  positions (alat units)
         1           Pb  tau(   1) = (   0.0000000   0.0000000   6.7169394  )
         2           Pb  tau(   2) = (  -0.0000006   0.5773506   3.5676416  )
         3           Pb  tau(   3) = (  -0.0000006   0.5773506   5.1457685  )
         4           Pb  tau(   4) = (  -0.0000006   0.5773506   1.9929510  )
         5           Pb  tau(   5) = (  -0.0000006   0.5773506   0.4166615  )
         6           I   tau(   6) = (   0.5000005   0.2886749   0.8182415  )
         7           I   tau(   7) = (   0.5000005   0.2886749   5.5467051  )
         8           I   tau(   8) = (   0.0000000   0.0000000   1.5923797  )
         9           I   tau(   9) = (  -0.0000006   0.5773506   6.3173089  )
        10           I   tau(  10) = (   0.5000005   0.2886749   3.9682524  )
        11           I   tau(  11) = (   0.0000000   0.0000000   0.0156811  )
        12           I   tau(  12) = (   0.5000005   0.2886749   2.3932701  )
        13           I   tau(  13) = (   0.5000005   0.2886749   7.1168251  )
        14           I   tau(  14) = (   0.0000000   0.0000000   3.1674806  )
        15           I   tau(  15) = (   0.0000000   0.0000000   4.7445292  )

   Crystallographic axes

     site n.     atom                  positions (cryst. coord.)
         1           Pb  tau(   1) = (  0.0000000  0.0000000  0.8527848  )
         2           Pb  tau(   2) = (  0.3333330  0.6666671  0.4529489  )
         3           Pb  tau(   3) = (  0.3333330  0.6666671  0.6533084  )
         4           Pb  tau(   4) = (  0.3333330  0.6666671  0.2530257  )
         5           Pb  tau(   5) = (  0.3333330  0.6666671  0.0528995  )
         6           I   tau(   6) = (  0.6666670  0.3333330  0.1038842  )
         7           I   tau(   7) = (  0.6666670  0.3333330  0.7042114  )
         8           I   tau(   8) = (  0.0000000  0.0000000  0.2021690  )
         9           I   tau(   9) = (  0.3333330  0.6666671  0.8020476  )
        10           I   tau(  10) = (  0.6666670  0.3333330  0.5038106  )
        11           I   tau(  11) = (  0.0000000  0.0000000  0.0019909  )
        12           I   tau(  12) = (  0.6666670  0.3333330  0.3038503  )
        13           I   tau(  13) = (  0.6666670  0.3333330  0.9035544  )
        14           I   tau(  14) = (  0.0000000  0.0000000  0.4021444  )
        15           I   tau(  15) = (  0.0000000  0.0000000  0.6023669  )

     number of k points=     4  Gaussian smearing, width (Ry)=  0.0100
                       cart. coord. in units 2pi/alat
        k(    1) = (   0.0000000   0.0000000   0.0000000), wk =   0.1250000
        k(    2) = (   0.0000000   0.2886751   0.0000000), wk =   0.7500000
        k(    3) = (   0.0000000  -0.5773503   0.0000000), wk =   0.3750000
        k(    4) = (   0.2500000   0.4330127   0.0000000), wk =   0.7500000

                       cryst. coord.
        k(    1) = (   0.0000000   0.0000000   0.0000000), wk =   0.1250000
        k(    2) = (   0.0000000   0.2500000   0.0000000), wk =   0.7500000
        k(    3) = (   0.0000000  -0.5000000   0.0000000), wk =   0.3750000
        k(    4) = (   0.2500000   0.2500000   0.0000000), wk =   0.7500000

     Atomic positions and unit cell read from directory:
     ./PbI2.save/

     Check: negative core charge=   -0.000001

     The initial density is read from file :
     ./PbI2.save/charge-density

     %%%%%%%%%%%%%%%%%%%%%%%%%%%%%%%%%%%%%%%%%%%%%%%%%%%%%%%%%%%%%%%%%%%%%%%%
     %                                                                      %
     % You are using vdW-DF, which was implemented by the Thonhauser group. %
     % Please cite the following two papers that made this development      %
     % possible and the two reviews that describe the various versions:     %
     %                                                                      %
     %   T. Thonhauser et al., PRL 115, 136402 (2015).                      %
     %   T. Thonhauser et al., PRB 76, 125112 (2007).                       %
     %   K. Berland et al., Rep. Prog. Phys. 78, 066501 (2015).             %
     %   D.C. Langreth et al., J. Phys.: Condens. Matter 21, 084203 (2009). %
     %                                                                      %
     % If you are calculating stress with vdW-DF, please also cite:         %
     %                                                                      %
     %   R. Sabatini et al., J. Phys.: Condens. Matter 24, 424209 (2012).   %
     %                                                                      %
     %%%%%%%%%%%%%%%%%%%%%%%%%%%%%%%%%%%%%%%%%%%%%%%%%%%%%%%%%%%%%%%%%%%%%%%%

     %%%%%%%%%%%%%%%%%%%%%%%%%%%%%%%%%%%%%%%%%%%%%%%%%%%%%%%%%%%%%%%%%%%%%%%%
     %                                                                      %
     %  vdW-DF NEWS:                                                        %
     %                                                                      %
     %  * vdW-DF3 is now available. DOI: 10.1021/acs.jctc.0c00471           %
     %    use with input_dft = 'vdW-DF3-opt1' or 'vdW-DF3-opt2'             %
     %                                                                      %
     %  * Unscreened and range-separated vdW-DF hybrid functionals          %
     %    DOI: 10.1063/1.4986522 and 10.1088/1361-648X/ac2ad2               %
     %    use with input_dft = 'vdW-DF-cx0' (etc) and 'vdW-DF-ahcx'         %
     %                                                                      %
     %%%%%%%%%%%%%%%%%%%%%%%%%%%%%%%%%%%%%%%%%%%%%%%%%%%%%%%%%%%%%%%%%%%%%%%%

     Carrying out vdW-DF run using the following parameters:
     Nqs    =  20  Npoints =  1024  r_max =  100.000
     q_mesh =  0.00001000  0.04494208  0.09755937  0.15916263
[...]
     1.0000   1.0000   1.0000   1.0000   1.0000   1.0000   1.0000   1.0000
     0.0000   0.0000   0.0000   0.0000   0.0000   0.0000   0.0000   0.0000
     0.0000   0.0000   0.0000   0.0000   0.0000   0.0000   0.0000   0.0000
     0.0000   0.0000   0.0000   0.0000   0.0000   0.0000   0.0000   0.0000

     the Fermi energy is     4.1127 ev

!    total energy              =  -10118.16520960 Ry
     total all-electron energy =   -351401.617420 Ry
     estimated scf accuracy    <          3.7E-09 Ry
     smearing contrib. (-TS)   =      -0.00000000 Ry
     internal energy E=F+TS    =  -10118.16520960 Ry

     The total energy is F=E-TS. E is the sum of the following terms:
     one-electron contribution =   -1878.43647767 Ry
     hartree contribution      =    1048.05041958 Ry
     xc contribution           =    -708.83202838 Ry
     ewald contribution        =   -1536.66439635 Ry
     one-center paw contrib.   =   -7042.28272677 Ry
      -> PAW hartree energy AE =      95.90821469 Ry
      -> PAW hartree energy PS =     -96.14495931 Ry
      -> PAW xc energy AE      =    -798.43040141 Ry
      -> PAW xc energy PS      =      33.31032969 Ry
      -> total E_H with PAW    =    1047.81367495 Ry
      -> total E_XC with PAW   =   -1473.95210011 Ry

     convergence has been achieved in   3 iterations

[...]

     Forces acting on atoms (cartesian axes, Ry/au):

     atom    1 type  1   force =     0.00000000    0.00000000   -0.00002056
     atom    2 type  1   force =     0.00000000    0.00000000    0.00023631
     atom    3 type  1   force =     0.00000000    0.00000000   -0.00027500
     atom    4 type  1   force =     0.00000000    0.00000000   -0.00011012
     atom    5 type  1   force =     0.00000000    0.00000000    0.00015783
     atom    6 type  2   force =     0.00000000    0.00000000   -0.00106491
     atom    7 type  2   force =     0.00000000    0.00000000   -0.00029486
     atom    8 type  2   force =     0.00000000    0.00000000    0.00059163
     atom    9 type  2   force =     0.00000000    0.00000000   -0.00001648
     atom   10 type  2   force =     0.00000000    0.00000000   -0.00048753
     atom   11 type  2   force =     0.00000000    0.00000000    0.00017464
     atom   12 type  2   force =     0.00000000    0.00000000    0.00028335
     atom   13 type  2   force =     0.00000000    0.00000000    0.00041740
     atom   14 type  2   force =     0.00000000    0.00000000   -0.00041066
     atom   15 type  2   force =     0.00000000    0.00000000    0.00081896
     The non-local contrib.  to forces
     atom    1 type  1   force =     0.00000000    0.00000000   -0.00037332
     atom    2 type  1   force =     0.00000000    0.00000000   -0.00007048
     atom    3 type  1   force =     0.00000000    0.00000000   -0.00036495
     atom    4 type  1   force =     0.00000000    0.00000000    0.00009176
     atom    5 type  1   force =     0.00000000    0.00000000   -0.00005323
     atom    6 type  2   force =     0.00000000   -0.00000000   -0.24671453
     atom    7 type  2   force =     0.00000000   -0.00000000   -0.24607606
     atom    8 type  2   force =     0.00000000    0.00000000    0.24633090
     atom    9 type  2   force =     0.00000000    0.00000000    0.24562767
     atom   10 type  2   force =     0.00000000    0.00000000   -0.24613151
     atom   11 type  2   force =     0.00000000    0.00000000    0.24517520
     atom   12 type  2   force =     0.00000000   -0.00000000   -0.24575361
     atom   13 type  2   force =     0.00000000    0.00000000   -0.24567424
     atom   14 type  2   force =     0.00000000   -0.00000000    0.24568369
     atom   15 type  2   force =     0.00000000    0.00000000    0.24655424
     The ionic contribution  to forces
     atom    1 type  1   force =    -0.00000213    0.00000216    0.17674458
     atom    2 type  1   force =     0.00003027   -0.00001850    0.04576109
     atom    3 type  1   force =     0.00003012   -0.00001840   -0.44256372
     atom    4 type  1   force =     0.00003028   -0.00001850   -0.02188772
     atom    5 type  1   force =     0.00003012   -0.00001841    0.09828789
     atom    6 type  2   force =    -0.00002100    0.00001244   14.70413632
     atom    7 type  2   force =    -0.00002222    0.00001321   14.20557028
     atom    8 type  2   force =    -0.00000913    0.00000597  -14.73982233
     atom    9 type  2   force =     0.00001465   -0.00000918  -14.45423373
     atom   10 type  2   force =    -0.00002110    0.00001250   14.76316049
     atom   11 type  2   force =    -0.00000907    0.00000594  -14.41757647
     atom   12 type  2   force =    -0.00002115    0.00001253   14.70198629
     atom   13 type  2   force =    -0.00001136    0.00000629   15.11816563
     atom   14 type  2   force =    -0.00000916    0.00000599  -14.68708101
     atom   15 type  2   force =    -0.00000911    0.00000596  -15.05064760
     The local contribution  to forces
     atom    1 type  1   force =     0.00000000    0.00000000   -0.17626520
     atom    2 type  1   force =     0.00028214   -0.00017984   -0.04554311
     atom    3 type  1   force =     0.00028238   -0.00017999    0.44263972
     atom    4 type  1   force =     0.00028215   -0.00017984    0.02163709
     atom    5 type  1   force =     0.00028224   -0.00017990   -0.09794730
     atom    6 type  2   force =    -0.00064565    0.00035218  -14.46370819
     atom    7 type  2   force =    -0.00064559    0.00035215  -13.96522956
     atom    8 type  2   force =    -0.00000000   -0.00000000   14.49917221
     atom    9 type  2   force =     0.00080705   -0.00051442   14.21388940
     atom   10 type  2   force =    -0.00064561    0.00035216  -14.52274773
     atom   11 type  2   force =    -0.00000000   -0.00000000   14.17810907
     atom   12 type  2   force =    -0.00064558    0.00035215  -14.46120288
     atom   13 type  2   force =    -0.00064556    0.00035214  -14.87719282
     atom   14 type  2   force =     0.00000000   -0.00000000   14.44629770
     atom   15 type  2   force =    -0.00000000   -0.00000000   14.81022764
     The core correction contribution to forces
     atom    1 type  1   force =     0.00000000   -0.00000000   -0.00001183
     atom    2 type  1   force =     0.00001899   -0.00001211   -0.00001496
     atom    3 type  1   force =     0.00001899   -0.00001211    0.00001247
     atom    4 type  1   force =     0.00001899   -0.00001211    0.00000592
     atom    5 type  1   force =     0.00001899   -0.00001211   -0.00001912
     atom    6 type  2   force =    -0.00005316    0.00002900    0.00527442
     atom    7 type  2   force =    -0.00005316    0.00002900    0.00544352
     atom    8 type  2   force =    -0.00000000    0.00000000   -0.00523245
     atom    9 type  2   force =     0.00006646   -0.00004236   -0.00529900
     atom   10 type  2   force =    -0.00005317    0.00002900    0.00523409
     atom   11 type  2   force =    -0.00000000    0.00000000   -0.00540179
     atom   12 type  2   force =    -0.00005316    0.00002900    0.00540978
     atom   13 type  2   force =    -0.00005316    0.00002900    0.00539023
     atom   14 type  2   force =    -0.00000000    0.00000000   -0.00539220
     atom   15 type  2   force =    -0.00000000    0.00000000   -0.00523746
     The Hubbard contrib.    to forces
     atom    1 type  1   force =     0.00000000    0.00000000    0.00000000
     atom    2 type  1   force =     0.00000000    0.00000000    0.00000000
     atom    3 type  1   force =     0.00000000    0.00000000    0.00000000
     atom    4 type  1   force =     0.00000000    0.00000000    0.00000000
     atom    5 type  1   force =     0.00000000    0.00000000    0.00000000
     atom    6 type  2   force =     0.00000000    0.00000000    0.00000000
     atom    7 type  2   force =     0.00000000    0.00000000    0.00000000
     atom    8 type  2   force =     0.00000000    0.00000000    0.00000000
     atom    9 type  2   force =     0.00000000    0.00000000    0.00000000
     atom   10 type  2   force =     0.00000000    0.00000000    0.00000000
     atom   11 type  2   force =     0.00000000    0.00000000    0.00000000
     atom   12 type  2   force =     0.00000000    0.00000000    0.00000000
     atom   13 type  2   force =     0.00000000    0.00000000    0.00000000
     atom   14 type  2   force =     0.00000000    0.00000000    0.00000000
     atom   15 type  2   force =     0.00000000    0.00000000    0.00000000
     The SCF correction term to forces
     atom    1 type  1   force =     0.00000000   -0.00000000   -0.00007974
     atom    2 type  1   force =    -0.00000000    0.00000000    0.00013882
     atom    3 type  1   force =    -0.00000000    0.00000000    0.00003653
     atom    4 type  1   force =     0.00000000   -0.00000000    0.00007788
     atom    5 type  1   force =    -0.00000000    0.00000000   -0.00007537
     atom    6 type  2   force =    -0.00000000    0.00000000   -0.00001787
     atom    7 type  2   force =    -0.00000000    0.00000000    0.00003201
     atom    8 type  2   force =     0.00000000   -0.00000000    0.00017835
     atom    9 type  2   force =    -0.00000000    0.00000000    0.00003423
     atom   10 type  2   force =    -0.00000000    0.00000000    0.00003219
     atom   11 type  2   force =    -0.00000000    0.00000000   -0.00009632
     atom   12 type  2   force =     0.00000000   -0.00000000   -0.00012117
     atom   13 type  2   force =     0.00000000   -0.00000000   -0.00023636
     atom   14 type  2   force =    -0.00000000    0.00000000    0.00011621
     atom   15 type  2   force =    -0.00000000    0.00000000   -0.00004281

     Total force =     0.001761     Total SCF correction =     0.000411
     SCF correction compared to forces is large: reduce conv_thr to get better values

     Computing stress (Cartesian axis) and pressure

[...]

          total   stress  (Ry/bohr**3)                   (kbar)     P=        0.68
   0.00000444  -0.00000000   0.00000000            0.65       -0.00        0.00
  -0.00000000   0.00000444   0.00000000           -0.00        0.65        0.00
   0.00000000   0.00000000   0.00000497            0.00        0.00        0.73

     kinetic stress (kbar)  14876.84     -0.00      0.00
                               -0.00  14876.84      0.00
                                0.00      0.00  14887.48

     local   stress (kbar)  -7749.79     -0.00      0.00
                               -0.00  -7749.79     -0.00
                                0.00     -0.00   1709.37

     nonloc. stress (kbar)  -1064.45      0.00      0.00
                                0.00  -1064.45     -0.00
                                0.00     -0.00  -1070.56

     hartree stress (kbar)  12081.93     -0.00      0.00
                               -0.00  12081.93     -0.00
                                0.00     -0.00   7810.72

     exc-cor stress (kbar)   6893.88      0.00     -0.00
                                0.00   6893.88      0.00
                               -0.00      0.00   6892.71

     corecor stress (kbar) -11224.14     -0.00     -0.00
                               -0.00 -11224.14      0.00
                               -0.00      0.00 -11224.08

     ewald   stress (kbar) -13896.28      0.00     -0.01
                                0.00 -13896.28      0.00
                               -0.01      0.00 -19088.96

     hubbard stress (kbar)      0.00      0.00      0.00
                                0.00      0.00      0.00
                                0.00      0.00      0.00

     DFT-D   stress (kbar)      0.00      0.00      0.00
                                0.00      0.00      0.00
                                0.00      0.00      0.00

     XDM     stress (kbar)      0.00      0.00      0.00
                                0.00      0.00      0.00
                                0.00      0.00      0.00

     dft-nl  stress (kbar)     82.66     -0.00      0.00
                               -0.00     82.66     -0.00
                                0.00     -0.00     84.05

     TS-vdW  stress (kbar)      0.00      0.00      0.00
                                0.00      0.00      0.00
                                0.00      0.00      0.00

     MDB     stress (kbar)      0.00      0.00      0.00
                                0.00      0.00      0.00
                                0.00      0.00      0.00

     3D-RISM stress (kbar)      0.00      0.00      0.00
                                0.00      0.00      0.00
                                0.00      0.00      0.00

[...]

     Non-local corr. energy    =       7.19507827 Ry

 BEEFens 2000 ensemble energies
             -0.604375924853130E+01
             -0.608216766646372E+02
             -0.276793503791593E+02
              0.212422014153079E+02
             -0.464862689219075E+02
             -0.569142533209886E+02
              0.292137066472947E+02
              0.122457214881564E+00
              0.492344592842442E+02
             -0.311714870639281E+01
              0.252111705357901E+02
              0.257293150016298E+01
             -0.193258310359823E+01
             -0.156171862336862E+01
              0.314183487101754E+02
             -0.236644519002783E+02
             -0.464484417517759E+02
             -0.149930029597478E+02
              0.134310053942500E+02
             -0.286769561385199E+00
              0.684929054466034E+02
              0.571697377914697E+02
             -0.352122507124560E+02
              0.121709877436283E+02
             -0.733633898426532E+02
              0.602213556974264E+02
              0.205967084812271E+02
              0.543766666100752E+02
              0.366480275293694E+02
             -0.170150470919512E+02
              0.134101458090830E+02
             -0.239759753085697E+02
              0.100149851319301E+02
              0.364628689447397E+02
              0.392352446669669E+02
             -0.170546954288880E+02
              0.865515498758271E+02
             -0.348289175845035E+02
             -0.231991083307001E+02
              0.346190026149396E+02
              0.152640060323046E+02
              0.263018827247594E+02
             -0.508097148826099E+02
             -0.330444407685548E+01
              0.487446314606152E+02
              0.637134900674418E+02
             -0.646902953304425E+02
              0.415230989673647E+01
              0.224399238248059E+02
              0.144893144737462E+02
              0.252955829056254E+02
              0.555469773064694E+02
             -0.360723092515460E+02
             -0.350068103012244E+02
             -0.487705504865147E+02
             -0.707236458998921E+01
             -0.416083161864819E+02
              0.537383337054757E+01
             -0.600025100155966E+01
             -0.330057648105092E+02
[...]
              0.412166933735404E+02
              0.264035545169613E+02
              0.269151933776182E+02
             -0.498144130721242E+02
             -0.514443781828358E+02
             -0.115969843290008E+02
             -0.459839512540179E+02
              0.730079685755215E+02
              0.615002759103743E+02
              0.290094411952731E+02
              0.799613971548176E+02
             -0.399572825866319E+02
             -0.172116241171843E+02
             -0.248102201560631E+02
              0.691784342885426E+02

 BEEF-vdW xc energy contributions
            1 :    -625.2920385097721
            2 :     572.9479344182945
            3 :    -483.7211962519455
            4 :     381.4125233512343
            5 :    -288.4009238022621
            6 :     218.4480551593866
            7 :    -174.4748104704215
            8 :     150.6284249492010
            9 :    -136.7078389336668
           10 :     123.0663290192850
           11 :    -104.3026891914324
           12 :     80.43934097386011
           13 :    -55.39501856249649
           14 :     33.96850315027382
           15 :    -19.15923859366046
           16 :     11.04758025185515
           17 :    -7.327693987424936
           18 :     4.812042378519209
           19 :    -1.048180571651983
           20 :    -4.654692360948729
           21 :     11.19006880138318
           22 :    -16.55928065555111
           23 :     19.17721106746399
           24 :    -18.82219333494368
           25 :     16.72720939757028
           26 :    -14.85067881258897
           27 :     14.80693139708501
           28 :    -17.04397311899993
           29 :     20.66269796769438
           30 :    -23.93268736539267
           31 :    -53.82892177278563
           32 :    -38.72535389982545

     Writing all to output data dir ./PbI2.save/

     General routines

     Parallel routines

     PAW routines

   This run was terminated on:   8: 7:14  21Feb2024

   JOB DONE.