     Program PWSCF v.7.1 starts on  1Oct2023 at  7:18:14

     Reading input from espresso.pwi
Warning: card &CELL ignored
Warning: card    CELL_DYNAMICS    = 'BFGS' ignored
Warning: card / ignored

     Current dimensions of program PWSCF are:
     Max number of different atomic species (ntypx) = 10
     Max number of k-points (npk) =  40000
     Max angular momentum in pseudopotentials (lmaxx) =  4
     file C.pbe-n-kjpaw_psl.1.0.0.UPF: wavefunction(s)  2S 2P renormalized

     IMPORTANT: XC functional enforced from input :
     Exchange-correlation= BEEF-VDW
                           (   1   4  43  14   2   0   0)
     Any further DFT definition will be discarded
     Please, verify this is what you really want

     R & G space division:  proc/nbgrp/npool/nimage =     256
     wavefunctions fft division:  task group distribution
                                  #TG    x Z-proc =       8     32
     Subspace diagonalization in iterative solution of the eigenvalue problem:
     a serial algorithm will be used

     Using Pencil Decomposition

     bravais-lattice index     =            1
     lattice parameter (alat)  =      27.0027  a.u.
     unit-cell volume          =   19688.9026 (a.u.)^3
     number of atoms/cell      =          511
     number of atomic types    =            1
     number of electrons       =      2044.00
     number of Kohn-Sham states=         1226
     kinetic-energy cutoff     =      70.0000  Ry
     charge density cutoff     =     350.0000  Ry
     scf convergence threshold =      1.0E-08
     mixing beta               =       0.7000
     number of iterations used =            8  plain     mixing
     Exchange-correlation= BEEF-VDW
                           (   1   4  43  14   2   0   0)

     celldm(1)=  27.002699  celldm(2)=   0.000000  celldm(3)=   0.000000
     celldm(4)=   0.000000  celldm(5)=   0.000000  celldm(6)=   0.000000

     crystal axes: (cart. coord. in units of alat)
               a(1) = (   1.000000   0.000000   0.000000 )
               a(2) = (   0.000000   1.000000   0.000000 )
               a(3) = (   0.000000   0.000000   1.000000 )

     reciprocal axes: (cart. coord. in units 2 pi/alat)
               b(1) = (  1.000000  0.000000  0.000000 )
               b(2) = (  0.000000  1.000000  0.000000 )
               b(3) = (  0.000000  0.000000  1.000000 )

     PseudoPot. # 1 for C  read from file:
     /trace/group/acmegroup/atimmins/packages/espresso/pseudo/psl_1.0.0/pslibrary.1.0.0/pbe/PSEUDOPOTENTIALS/C.pbe-n-kjpaw_psl.1.0.0.UPF
     MD5 check sum: 5459cf7f2c8c37df2f7cde8914797f4d
     Pseudo is Projector augmented-wave + core cor, Zval =  4.0
     Generated using 'atomic' code by A. Dal Corso  v.7.1
     Shape of augmentation charge: PSQ
     Using radial grid of 1073 points,  4 beta functions with:
                l(1) =   0
                l(2) =   0
                l(3) =   1
                l(4) =   1
     Q(r) pseudized with 0 coefficients

     atomic species   valence    mass     pseudopotential
        C              4.00    12.01100     C ( 1.00)

      6 Sym. Ops. (no inversion) found ( 4 have fractional translation)

                                    s                        frac. trans.

      isym =  1     identity

 cryst.   s( 1) = (     1          0          0      )
                  (     0          1          0      )
                  (     0          0          1      )

 cart.    s( 1) = (  1.0000000  0.0000000  0.0000000 )
                  (  0.0000000  1.0000000  0.0000000 )
                  (  0.0000000  0.0000000  1.0000000 )

      isym =  2     120 deg rotation - cart. axis [1,-1,1]

 cryst.   s( 2) = (     0          0          1      )    f =( -0.2500000 )
                  (    -1          0          0      )       ( -0.2500000 )
                  (     0         -1          0      )       (  0.0000000 )

 cart.    s( 2) = (  0.0000000 -1.0000000  0.0000000 )    f =( -0.2500000 )
                  (  0.0000000  0.0000000 -1.0000000 )       ( -0.2500000 )
                  (  1.0000000  0.0000000  0.0000000 )       (  0.0000000 )

      isym =  3     120 deg rotation - cart. axis [-1,1,-1]

[...]

      isym =  4     inv. 180 deg rotation - cart. axis [1,1,0]

[...]

 cryst.   s( 5) = (     0          0          1      )
                  (     0          1          0      )
                  (     1          0          0      )

 cart.    s( 5) = (  0.0000000  0.0000000  1.0000000 )
                  (  0.0000000  1.0000000  0.0000000 )
                  (  1.0000000  0.0000000  0.0000000 )

      isym =  6     inv. 180 deg rotation - cart. axis [0,1,1]

 cryst.   s( 6) = (     1          0          0      )    f =(  0.0000000 )
                  (     0          0         -1      )       ( -0.2500000 )
                  (     0         -1          0      )       ( -0.2500000 )

 cart.    s( 6) = (  1.0000000  0.0000000  0.0000000 )    f =(  0.0000000 )
                  (  0.0000000  0.0000000 -1.0000000 )       ( -0.2500000 )
                  (  0.0000000 -1.0000000  0.0000000 )       ( -0.2500000 )

     point group C_3v (3m)
     there are  3 classes
     the character table:

       E     2C3   3s_v
A_1    1.00  1.00  1.00
A_2    1.00  1.00 -1.00
E      2.00 -1.00  0.00

     the symmetry operations in each class and the name of the first element:

     E        1
          identity
     2C3      2    3
          120 deg rotation - cart. axis [1,-1,1]
     3s_v     4    5    6
          inv. 180 deg rotation - cart. axis [1,1,0]

   Cartesian axes

     site n.     atom                  positions (alat units)
         1           C   tau(   1) = (   0.0625015   0.1874985   0.3125015  )
         2           C   tau(   2) = (   0.0625015   0.1874985   0.5625015  )
         3           C   tau(   3) = (   0.0625015   0.1874985   0.8125015  )
         4           C   tau(   4) = (   0.0625015   0.4374985   0.0625015  )
         5           C   tau(   5) = (   0.0625015   0.4374985   0.3125015  )
         6           C   tau(   6) = (   0.0625015   0.4374985   0.5625015  )
         7           C   tau(   7) = (   0.0625015   0.4374985   0.8125015  )
         8           C   tau(   8) = (   0.0625015   0.6874985   0.0625015  )
         9           C   tau(   9) = (   0.0625015   0.6874985   0.3125015  )
        10           C   tau(  10) = (   0.0625015   0.6874985   0.5625015  )
        11           C   tau(  11) = (   0.0625015   0.6874985   0.8125015  )
        12           C   tau(  12) = (   0.0625015   0.9374985   0.0625015  )
        13           C   tau(  13) = (   0.0625015   0.9374985   0.3125015  )
        14           C   tau(  14) = (   0.0625015   0.9374985   0.5625015  )
        15           C   tau(  15) = (   0.0625015   0.9374985   0.8125015  )
        16           C   tau(  16) = (   0.3125015   0.1874985   0.0625015  )
        17           C   tau(  17) = (   0.3125015   0.1874985   0.3125015  )
        18           C   tau(  18) = (   0.3125015   0.1874985   0.5625015  )
        19           C   tau(  19) = (   0.3125015   0.1874985   0.8125015  )
        20           C   tau(  20) = (   0.3125015   0.4374985   0.0625015  )
        21           C   tau(  21) = (   0.3125015   0.4374985   0.3125015  )
        22           C   tau(  22) = (   0.3125015   0.4374985   0.5625015  )
        23           C   tau(  23) = (   0.3125015   0.4374985   0.8125015  )
        24           C   tau(  24) = (   0.3125015   0.6874985   0.0625015  )
        25           C   tau(  25) = (   0.3125015   0.6874985   0.3125015  )
        26           C   tau(  26) = (   0.3125015   0.6874985   0.5625015  )
        27           C   tau(  27) = (   0.3125015   0.6874985   0.8125015  )
        28           C   tau(  28) = (   0.3125015   0.9374985   0.0625015  )
        29           C   tau(  29) = (   0.3125015   0.9374985   0.3125015  )
        30           C   tau(  30) = (   0.3125015   0.9374985   0.5625015  )
        31           C   tau(  31) = (   0.3125015   0.9374985   0.8125015  )
        32           C   tau(  32) = (   0.5625015   0.1874985   0.0625015  )
        33           C   tau(  33) = (   0.5625015   0.1874985   0.3125015  )
        34           C   tau(  34) = (   0.5625015   0.1874985   0.5625015  )
        35           C   tau(  35) = (   0.5625015   0.1874985   0.8125015  )
        36           C   tau(  36) = (   0.5625015   0.4374985   0.0625015  )
        37           C   tau(  37) = (   0.5625015   0.4374985   0.3125015  )
        38           C   tau(  38) = (   0.5625015   0.4374985   0.5625015  )
        39           C   tau(  39) = (   0.5625015   0.4374985   0.8125015  )
        40           C   tau(  40) = (   0.5625015   0.6874985   0.0625015  )
        41           C   tau(  41) = (   0.5625015   0.6874985   0.3125015  )
        42           C   tau(  42) = (   0.5625015   0.6874985   0.5625015  )
        43           C   tau(  43) = (   0.5625015   0.6874985   0.8125015  )
        44           C   tau(  44) = (   0.5625015   0.9374985   0.0625015  )
        45           C   tau(  45) = (   0.5625015   0.9374985   0.3125015  )
        46           C   tau(  46) = (   0.5625015   0.9374985   0.5625015  )
        47           C   tau(  47) = (   0.5625015   0.9374985   0.8125015  )
        48           C   tau(  48) = (   0.8125015   0.1874985   0.0625015  )
        49           C   tau(  49) = (   0.8125015   0.1874985   0.3125015  )
        50           C   tau(  50) = (   0.8125015   0.1874985   0.5625015  )
        51           C   tau(  51) = (   0.8125015   0.1874985   0.8125015  )
        52           C   tau(  52) = (   0.8125015   0.4374985   0.0625015  )
        53           C   tau(  53) = (   0.8125015   0.4374985   0.3125015  )
        54           C   tau(  54) = (   0.8125015   0.4374985   0.5625015  )
        55           C   tau(  55) = (   0.8125015   0.4374985   0.8125015  )
        56           C   tau(  56) = (   0.8125015   0.6874985   0.0625015  )
        57           C   tau(  57) = (   0.8125015   0.6874985   0.3125015  )
        58           C   tau(  58) = (   0.8125015   0.6874985   0.5625015  )
        59           C   tau(  59) = (   0.8125015   0.6874985   0.8125015  )
        60           C   tau(  60) = (   0.8125015   0.9374985   0.0625015  )
[...]
       497           C   tau( 497) = (   0.8750000   0.1250000   0.3750000  )
       498           C   tau( 498) = (   0.8750000   0.1250000   0.6250000  )
       499           C   tau( 499) = (   0.8750000   0.1250000   0.8750000  )
       500           C   tau( 500) = (   0.8750000   0.3750000   0.1250000  )
       501           C   tau( 501) = (   0.8750000   0.3750000   0.3750000  )
       502           C   tau( 502) = (   0.8750000   0.3750000   0.6250000  )
       503           C   tau( 503) = (   0.8750000   0.3750000   0.8750000  )
       504           C   tau( 504) = (   0.8750000   0.6250000   0.1250000  )
       505           C   tau( 505) = (   0.8750000   0.6250000   0.3750000  )
       506           C   tau( 506) = (   0.8750000   0.6250000   0.6250000  )
       507           C   tau( 507) = (   0.8750000   0.6250000   0.8750000  )
[...]
     atom   25 type  1   force =     0.00000000    0.00000000    0.00000000
     atom   26 type  1   force =     0.00000000    0.00000000    0.00000000
     atom   27 type  1   force =     0.00000000    0.00000000    0.00000000
     atom   28 type  1   force =     0.00000000    0.00000000    0.00000000
     atom   29 type  1   force =     0.00000000    0.00000000    0.00000000
     atom   30 type  1   force =     0.00000000    0.00000000    0.00000000
     atom   31 type  1   force =     0.00000000    0.00000000    0.00000000
     atom   32 type  1   force =     0.00000000    0.00000000    0.00000000
     atom   33 type  1   force =     0.00000000    0.00000000    0.00000000
     atom   34 type  1   force =     0.00000000    0.00000000    0.00000000
     atom   35 type  1   force =     0.00000000    0.00000000    0.00000000
     atom   36 type  1   force =     0.00000000    0.00000000    0.00000000
     atom   37 type  1   force =     0.00000000    0.00000000    0.00000000
     atom   38 type  1   force =     0.00000000    0.00000000    0.00000000
     atom   39 type  1   force =     0.00000000    0.00000000    0.00000000
     atom   40 type  1   force =     0.00000000    0.00000000    0.00000000
     atom   41 type  1   force =     0.00000000    0.00000000    0.00000000
     atom   42 type  1   force =     0.00000000    0.00000000    0.00000000
     atom   43 type  1   force =     0.00000000    0.00000000    0.00000000
     atom   44 type  1   force =     0.00000000    0.00000000    0.00000000
     atom   45 type  1   force =     0.00000000    0.00000000    0.00000000
     atom   46 type  1   force =     0.00000000    0.00000000    0.00000000
     atom   47 type  1   force =     0.00000000    0.00000000    0.00000000
     atom   48 type  1   force =     0.00000000    0.00000000    0.00000000
     atom   49 type  1   force =     0.00000000    0.00000000    0.00000000
     atom   50 type  1   force =     0.00000000    0.00000000    0.00000000
     atom   51 type  1   force =     0.00000000    0.00000000    0.00000000
     atom   52 type  1   force =     0.00000000    0.00000000    0.00000000
     atom   53 type  1   force =     0.00000000    0.00000000    0.00000000
     atom   54 type  1   force =     0.00000000    0.00000000    0.00000000
     atom   55 type  1   force =     0.00000000    0.00000000    0.00000000
     atom   56 type  1   force =     0.00000000    0.00000000    0.00000000
     atom   57 type  1   force =     0.00000000    0.00000000    0.00000000
     atom   58 type  1   force =     0.00000000    0.00000000    0.00000000
     atom   59 type  1   force =     0.00000000    0.00000000    0.00000000
     atom   60 type  1   force =     0.00000000    0.00000000    0.00000000
[...]
     atom  497 type  1   force =     0.00000000    0.00000000    0.00000000
     atom  498 type  1   force =     0.00000000    0.00000000    0.00000000
     atom  499 type  1   force =     0.00000000    0.00000000    0.00000000
     atom  500 type  1   force =     0.00000000    0.00000000    0.00000000
     atom  501 type  1   force =     0.00000000    0.00000000    0.00000000
     atom  502 type  1   force =     0.00000000    0.00000000    0.00000000
     atom  503 type  1   force =     0.00000000    0.00000000    0.00000000
     atom  504 type  1   force =     0.00000000    0.00000000    0.00000000
     atom  505 type  1   force =     0.00000000    0.00000000    0.00000000
     atom  506 type  1   force =     0.00000000    0.00000000    0.00000000
     atom  507 type  1   force =     0.00000000    0.00000000    0.00000000
     atom  508 type  1   force =     0.00000000    0.00000000    0.00000000
     atom  509 type  1   force =     0.00000000    0.00000000    0.00000000
     atom  510 type  1   force =     0.00000000    0.00000000    0.00000000
     atom  511 type  1   force =     0.00000000    0.00000000    0.00000000
     The SCF correction term to forces
     atom    1 type  1   force =    -0.00000235    0.00000235    0.00000216
     atom    2 type  1   force =    -0.00000215    0.00000215    0.00000203
     atom    3 type  1   force =    -0.00000194    0.00000194   -0.00000171
     atom    4 type  1   force =    -0.00000194    0.00000171   -0.00000194
     atom    5 type  1   force =    -0.00000243   -0.00000188   -0.00000178
     atom    6 type  1   force =    -0.00000205   -0.00000273    0.00000198
     atom    7 type  1   force =    -0.00000155   -0.00000172    0.00000172
     atom    8 type  1   force =    -0.00000215   -0.00000203   -0.00000215
     atom    9 type  1   force =    -0.00000239   -0.00000225   -0.00000285
     atom   10 type  1   force =    -0.00000221   -0.00000225    0.00000225
     atom   11 type  1   force =    -0.00000205   -0.00000198    0.00000273
     atom   12 type  1   force =    -0.00000235   -0.00000216   -0.00000235
     atom   13 type  1   force =    -0.00000256    0.00000167   -0.00000167
     atom   14 type  1   force =    -0.00000239    0.00000285    0.00000225
     atom   15 type  1   force =    -0.00000243    0.00000178    0.00000188
     atom   16 type  1   force =     0.00000216    0.00000235   -0.00000235
     atom   17 type  1   force =    -0.00000167    0.00000256   -0.00000167
     atom   18 type  1   force =    -0.00000285    0.00000239    0.00000225
     atom   19 type  1   force =    -0.00000178    0.00000243    0.00000188
     atom   20 type  1   force =    -0.00000178   -0.00000188   -0.00000243
     atom   21 type  1   force =     0.00000048    0.00000039    0.00000048
     atom   22 type  1   force =     0.00000103    0.00000103    0.00000125
     atom   23 type  1   force =    -0.00000070   -0.00000081    0.00000081
     atom   24 type  1   force =    -0.00000285   -0.00000225   -0.00000239
     atom   25 type  1   force =     0.00000099   -0.00000354    0.00000099
     atom   26 type  1   force =     0.00000390   -0.00000240    0.00000240
     atom   27 type  1   force =     0.00000103   -0.00000125   -0.00000103
     atom   28 type  1   force =    -0.00000167    0.00000167   -0.00000256
     atom   29 type  1   force =    -0.00000098    0.00000098   -0.00000098
     atom   30 type  1   force =     0.00000099   -0.00000099    0.00000354
     atom   31 type  1   force =     0.00000048   -0.00000048   -0.00000039
     atom   32 type  1   force =     0.00000203    0.00000215   -0.00000215
     atom   33 type  1   force =     0.00000225    0.00000239   -0.00000285
     atom   34 type  1   force =     0.00000225    0.00000221    0.00000225
     atom   35 type  1   force =     0.00000198    0.00000205    0.00000273
     atom   36 type  1   force =     0.00000198   -0.00000273   -0.00000205
     atom   37 type  1   force =     0.00000125    0.00000103    0.00000103
     atom   38 type  1   force =     0.00000207    0.00000395    0.00000207
     atom   39 type  1   force =     0.00000272    0.00000108   -0.00000108
     atom   40 type  1   force =     0.00000225   -0.00000225   -0.00000221
     atom   41 type  1   force =     0.00000240   -0.00000240    0.00000390
     atom   42 type  1   force =     0.00000225   -0.00000225    0.00000225
     atom   43 type  1   force =     0.00000207   -0.00000207   -0.00000395
     atom   44 type  1   force =     0.00000225    0.00000285   -0.00000239
     atom   45 type  1   force =     0.00000354   -0.00000099    0.00000099
     atom   46 type  1   force =     0.00000240   -0.00000390    0.00000240
     atom   47 type  1   force =     0.00000125   -0.00000103   -0.00000103
     atom   48 type  1   force =    -0.00000171    0.00000194   -0.00000194
     atom   49 type  1   force =     0.00000188    0.00000243   -0.00000178
     atom   50 type  1   force =     0.00000273    0.00000205    0.00000198
     atom   51 type  1   force =     0.00000172    0.00000155    0.00000172
     atom   52 type  1   force =     0.00000172   -0.00000172   -0.00000155
     atom   53 type  1   force =     0.00000081   -0.00000081   -0.00000070
     atom   54 type  1   force =    -0.00000108    0.00000108    0.00000272
     atom   55 type  1   force =    -0.00000055    0.00000055   -0.00000055
     atom   56 type  1   force =     0.00000273   -0.00000198   -0.00000205
     atom   57 type  1   force =    -0.00000103   -0.00000125    0.00000103
     atom   58 type  1   force =    -0.00000395   -0.00000207    0.00000207
     atom   59 type  1   force =    -0.00000108   -0.00000272   -0.00000108
     atom   60 type  1   force =     0.00000188    0.00000178   -0.00000243
[...]
     atom  497 type  1   force =     0.00000146    0.00000275    0.00000026
     atom  498 type  1   force =     0.00000187    0.00000248    0.00000152
     atom  499 type  1   force =     0.00000004    0.00000242    0.00000004
     atom  500 type  1   force =     0.00000004   -0.00000004   -0.00000242
     atom  501 type  1   force =     0.00000095   -0.00000095    0.00000051
     atom  502 type  1   force =    -0.00000037    0.00000037    0.00000147
     atom  503 type  1   force =     0.00000028   -0.00000028    0.00000028
     atom  504 type  1   force =     0.00000187   -0.00000152   -0.00000248
     atom  505 type  1   force =    -0.00000257   -0.00000060    0.00000091
     atom  506 type  1   force =    -0.00000447   -0.00000207    0.00000207
     atom  507 type  1   force =    -0.00000037   -0.00000147   -0.00000037
     atom  508 type  1   force =     0.00000146   -0.00000026   -0.00000275
     atom  509 type  1   force =    -0.00000201   -0.00000124    0.00000124
     atom  510 type  1   force =    -0.00000257   -0.00000091    0.00000060
     atom  511 type  1   force =     0.00000095   -0.00000051    0.00000095

     Total force =     0.004408     Total SCF correction =     0.000082

     Computing stress (Cartesian axis) and pressure

[...]

          total   stress  (Ry/bohr**3)                   (kbar)     P=        0.87
   0.00000592   0.00000002  -0.00000002            0.87        0.00       -0.00
   0.00000002   0.00000592   0.00000002            0.00        0.87        0.00
  -0.00000002   0.00000002   0.00000592           -0.00        0.00        0.87

     kinetic stress (kbar)  18958.17      0.00     -0.00
                                0.00  18958.17      0.00
                               -0.00      0.00  18958.17

     local   stress (kbar)  -3531.94      0.05     -0.05
                                0.05  -3531.94      0.05
                               -0.05      0.05  -3531.94

     nonloc. stress (kbar)   4316.45     -0.00      0.00
                               -0.00   4316.45     -0.00
                                0.00     -0.00   4316.45

     hartree stress (kbar)   1285.74     -0.02      0.02
                               -0.02   1285.74     -0.02
                                0.02     -0.02   1285.74

     exc-cor stress (kbar)   -412.74      0.00     -0.00
                                0.00   -412.74      0.00
                               -0.00      0.00   -412.74

     corecor stress (kbar)  -4426.45     -0.00      0.00
                               -0.00  -4426.45     -0.00
                                0.00     -0.00  -4426.45

     ewald   stress (kbar) -16213.18     -0.03      0.03
                               -0.03 -16213.18     -0.03
                                0.03     -0.03 -16213.18

     hubbard stress (kbar)      0.00      0.00      0.00
                                0.00      0.00      0.00
                                0.00      0.00      0.00

     DFT-D   stress (kbar)      0.00      0.00      0.00
                                0.00      0.00      0.00
                                0.00      0.00      0.00

     XDM     stress (kbar)      0.00      0.00      0.00
                                0.00      0.00      0.00
                                0.00      0.00      0.00

     dft-nl  stress (kbar)     24.81      0.00     -0.00
                                0.00     24.81      0.00
                               -0.00      0.00     24.81

     TS-vdW  stress (kbar)      0.00      0.00      0.00
                                0.00      0.00      0.00
                                0.00      0.00      0.00

     MDB     stress (kbar)      0.00      0.00      0.00
                                0.00      0.00      0.00
                                0.00      0.00      0.00

     3D-RISM stress (kbar)      0.00      0.00      0.00
                                0.00      0.00      0.00
                                0.00      0.00      0.00

[...]

     Non-local corr. energy    =      17.48208029 Ry

 BEEFens 2000 ensemble energies
             -0.309279543113892E+02
             -0.215386681424376E+03
             -0.764607916231205E+02
              0.845967759168642E+02
             -0.142467481119689E+03
             -0.199325381086978E+03
              0.118008008445588E+03
             -0.244987775100968E+02
              0.163737866427100E+03
             -0.268820441167736E+01
              0.665742785234711E+02
              0.333510981374690E+01
              0.919830483550754E+01
             -0.194484860249928E+02
              0.110838537572656E+03
             -0.829013399868761E+02
             -0.190201981601079E+03
             -0.527097396567958E+02
              0.429724028226976E+02
              0.462361335079117E+01
              0.227595482450781E+03
              0.206381720292572E+03
             -0.101391108016534E+03
              0.569520754994360E+02
             -0.258574659521686E+03
              0.208263808973814E+03
              0.745671494321123E+02
              0.219256327909866E+03
              0.138304058818652E+03
             -0.864016473523120E+02
              0.539684632411603E+02
             -0.112235708923184E+03
              0.328679064820923E+01
              0.110310051199075E+03
              0.142381754194807E+03
             -0.350291689694506E+02
              0.306866915756781E+03
             -0.107447330256965E+03
             -0.776707103605725E+02
              0.118933892667694E+03
              0.409381457123308E+02
              0.100106431037775E+03
             -0.174911967119783E+03
             -0.718822874532771E+01
              0.185380760939928E+03
              0.226136889936982E+03
             -0.204908662917100E+03
              0.169660338387802E+02
              0.807765590118256E+02
              0.188654510755043E+02
              0.988067662702369E+02
              0.198231188973815E+03
             -0.132819567774274E+03
             -0.139753302486397E+03
             -0.177121181582200E+03
             -0.488358006781094E+02
             -0.147870188337906E+03
              0.789536883657559E+01
             -0.393076192702299E+02
             -0.134155413432759E+03
[...]
              0.174014467317942E+03
              0.711506530193582E+02
              0.121294517472888E+03
             -0.173664922063299E+03
             -0.135321854581633E+03
             -0.550840526107897E+02
             -0.148829300695735E+03
              0.268256969902535E+03
              0.230109428969457E+03
              0.100000174943876E+03
              0.271271736961097E+03
             -0.145510351352942E+03
             -0.700015102882606E+02
             -0.722472621211667E+02
              0.214051228261114E+03

 BEEF-vdW xc energy contributions
            1 :    -2091.894964634861
            2 :     1845.694672554850
            3 :    -1421.141031475145
            4 :     928.3250967537092
            5 :    -479.6505466994377
            6 :     152.6971905642349
            7 :     29.23311239519808
            8 :    -92.92181682155024
            9 :     92.39941457886789
           10 :    -80.12402240266692
           11 :     85.75593850068117
           12 :    -110.5374013902024
           13 :     136.6371430967729
           14 :    -143.7273948747165
           15 :     122.8748232701300
           16 :    -81.00007520005784
           17 :     35.31491285950869
           18 :    -2.633470975137243
           19 :    -9.554707783032882
           20 :     5.448543978515772
           21 :     3.621393746167996
           22 :    -7.028076346572561
           23 :    0.9579690910272802
           24 :     10.50443719194936
           25 :    -19.22652201186202
           26 :     18.82400906246767
           27 :    -8.648354016541816
           28 :    -6.232403336166954
           29 :     18.57038229977570
           30 :    -23.42354389474895
           31 :    -273.6842121340069
           32 :    -198.5784613419937

     Writing all to output data dir ./diamond.save/

     General routines

     Parallel routines

     PAW routines

   This run was terminated on:   7:30:29   1Oct2023

   JOB DONE.