     Program PWSCF v.7.1 starts on 22Apr2024 at  7:47:30

     Reading input from espresso.pwi
Warning: card &CELL ignored
Warning: card    CELL_DYNAMICS    = 'BFGS' ignored
Warning: card / ignored

     Current dimensions of program PWSCF are:
     Max number of different atomic species (ntypx) = 10
     Max number of k-points (npk) =  40000
     Max angular momentum in pseudopotentials (lmaxx) =  4
     file Ga.pbe-dn-kjpaw_psl.1.0.0.UPF: wavefunction(s)  4S renormalized
     file N.pbe-n-kjpaw_psl.1.0.0.UPF: wavefunction(s)  2S renormalized

     IMPORTANT: XC functional enforced from input :
     Exchange-correlation= BEEF-VDW
                           (   1   4  43  14   2   0   0)
     Any further DFT definition will be discarded
     Please, verify this is what you really want

     K-points division:     npool     =       3
     R & G space division:  proc/nbgrp/npool/nimage =      60
     Subspace diagonalization in iterative solution of the eigenvalue problem:
     a serial algorithm will be used

     Using Slab Decomposition

     bravais-lattice index     =            4
     lattice parameter (alat)  =      30.6565  a.u.
     unit-cell volume          =   24400.9461 (a.u.)^3
     number of atoms/cell      =          300
     number of atomic types    =            2
     number of electrons       =      2691.00
     number of Kohn-Sham states=         1615
     kinetic-energy cutoff     =      70.0000  Ry
     charge density cutoff     =     350.0000  Ry
     scf convergence threshold =      1.0E-07
     mixing beta               =       0.7000
     number of iterations used =            8  plain     mixing
     Exchange-correlation= BEEF-VDW
                           (   1   4  43  14   2   0   0)

     celldm(1)=  30.656540  celldm(2)=   0.000000  celldm(3)=   0.977927
     celldm(4)=   0.000000  celldm(5)=   0.000000  celldm(6)=   0.000000

     crystal axes: (cart. coord. in units of alat)
               a(1) = (   1.000000   0.000000   0.000000 )
               a(2) = (  -0.500000   0.866025   0.000000 )
               a(3) = (   0.000000   0.000000   0.977927 )

     reciprocal axes: (cart. coord. in units 2 pi/alat)
               b(1) = (  1.000000  0.577350 -0.000000 )
               b(2) = (  0.000000  1.154701  0.000000 )
               b(3) = (  0.000000 -0.000000  1.022571 )

     PseudoPot. # 1 for Ga read from file:
     //group///packages/espresso/pseudo/psl_1.0.0/pslibrary.1.0.0/pbe/PSEUDOPOTENTIALS/Ga.pbe-dn-kjpaw_psl.1.0.0.UPF
     MD5 check sum: cd2a01e492f15b435d17032472d8505c
     Pseudo is Projector augmented-wave + core cor, Zval = 13.0
     Generated using 'atomic' code by A. Dal Corso  v.7.1
     Shape of augmentation charge: PSQ
     Using radial grid of 1205 points,  6 beta functions with:
                l(1) =   0
                l(2) =   0
                l(3) =   1
                l(4) =   1
                l(5) =   2
                l(6) =   2
     Q(r) pseudized with 0 coefficients

     PseudoPot. # 2 for N  read from file:
     //group///packages/espresso/pseudo/psl_1.0.0/pslibrary.1.0.0/pbe/PSEUDOPOTENTIALS/N.pbe-n-kjpaw_psl.1.0.0.UPF
     MD5 check sum: f77f775694dac7e2c3fe1c82443d1a16
     Pseudo is Projector augmented-wave + core cor, Zval =  5.0
     Generated using 'atomic' code by A. Dal Corso  v.7.1
     Shape of augmentation charge: PSQ
     Using radial grid of 1085 points,  4 beta functions with:
                l(1) =   0
                l(2) =   0
                l(3) =   1
                l(4) =   1
     Q(r) pseudized with 0 coefficients

     atomic species   valence    mass     pseudopotential
        Ga            13.00    69.72300     Ga( 1.00)
        N              5.00    14.00700     N ( 1.00)

      2 Sym. Ops. (no inversion) found

                                    s                        frac. trans.

      isym =  1     identity

 cryst.   s( 1) = (     1          0          0      )
                  (     0          1          0      )
                  (     0          0          1      )

 cart.    s( 1) = (  1.0000000  0.0000000  0.0000000 )
                  (  0.0000000  1.0000000  0.0000000 )
                  (  0.0000000  0.0000000  1.0000000 )

      isym =  2     inv. 180 deg rotation - cryst. axis [0,1,0]

 cryst.   s( 2) = (     1          1          0      )
                  (     0         -1          0      )
                  (     0          0          1      )

 cart.    s( 2) = (  0.5000000  0.8660254  0.0000000 )
                  (  0.8660254 -0.5000000  0.0000000 )
                  (  0.0000000  0.0000000  1.0000000 )

     point group C_s (m)
     there are  2 classes
     the character table:

       E     s
A'     1.00  1.00
A''    1.00 -1.00

     the symmetry operations in each class and the name of the first element:

     E        1
          identity
     s        2
          inv. 180 deg rotation - cryst. axis [0,1,0]

   Cartesian axes

     site n.     atom                  positions (alat units)
         1           Ga  tau(   1) = (   0.1000001   0.0577350   0.4886906  )
         2           Ga  tau(   2) = (   0.1000001   0.0577350   0.8146665  )
         3           Ga  tau(   3) = (   0.0000001   0.2309401   0.1627148  )
         4           Ga  tau(   4) = (   0.0000001   0.2309401   0.4886906  )
         5           Ga  tau(   5) = (   0.0000001   0.2309401   0.8146665  )
         6           Ga  tau(   6) = (  -0.0999999   0.4041451   0.1627148  )
         7           Ga  tau(   7) = (  -0.0999999   0.4041451   0.4886906  )
         8           Ga  tau(   8) = (  -0.0999999   0.4041451   0.8146665  )
         9           Ga  tau(   9) = (  -0.1999999   0.5773502   0.1627148  )
        10           Ga  tau(  10) = (  -0.1999999   0.5773502   0.4886906  )
        11           Ga  tau(  11) = (  -0.1999999   0.5773502   0.8146665  )
        12           Ga  tau(  12) = (  -0.2999999   0.7505553   0.1627148  )
        13           Ga  tau(  13) = (  -0.2999999   0.7505553   0.4886906  )
        14           Ga  tau(  14) = (  -0.2999999   0.7505553   0.8146665  )
        15           Ga  tau(  15) = (   0.3000001   0.0577350   0.1627148  )
        16           Ga  tau(  16) = (   0.3000001   0.0577350   0.4886906  )
        17           Ga  tau(  17) = (   0.3000001   0.0577350   0.8146665  )
        18           Ga  tau(  18) = (   0.2000001   0.2309401   0.1627148  )
        19           Ga  tau(  19) = (   0.2000001   0.2309401   0.4886906  )
        20           Ga  tau(  20) = (   0.2000001   0.2309401   0.8146665  )
        21           Ga  tau(  21) = (   0.1000001   0.4041451   0.1627148  )
        22           Ga  tau(  22) = (   0.1000001   0.4041451   0.4886906  )
        23           Ga  tau(  23) = (   0.1000001   0.4041451   0.8146665  )
        24           Ga  tau(  24) = (   0.0000001   0.5773502   0.1627148  )
        25           Ga  tau(  25) = (   0.0000001   0.5773502   0.4886906  )
        26           Ga  tau(  26) = (   0.0000001   0.5773502   0.8146665  )
        27           Ga  tau(  27) = (  -0.0999999   0.7505553   0.1627148  )
        28           Ga  tau(  28) = (  -0.0999999   0.7505553   0.4886906  )
        29           Ga  tau(  29) = (  -0.0999999   0.7505553   0.8146665  )
        30           Ga  tau(  30) = (   0.5000001   0.0577350   0.1627148  )
        31           Ga  tau(  31) = (   0.5000001   0.0577350   0.4886906  )
        32           Ga  tau(  32) = (   0.5000001   0.0577350   0.8146665  )
        33           Ga  tau(  33) = (   0.4000001   0.2309401   0.1627148  )
        34           Ga  tau(  34) = (   0.4000001   0.2309401   0.4886906  )
        35           Ga  tau(  35) = (   0.4000001   0.2309401   0.8146665  )
        36           Ga  tau(  36) = (   0.3000001   0.4041451   0.1627148  )
        37           Ga  tau(  37) = (   0.3000001   0.4041451   0.4886906  )
        38           Ga  tau(  38) = (   0.3000001   0.4041451   0.8146665  )
        39           Ga  tau(  39) = (   0.2000001   0.5773502   0.1627148  )
        40           Ga  tau(  40) = (   0.2000001   0.5773502   0.4886906  )
        41           Ga  tau(  41) = (   0.2000001   0.5773502   0.8146665  )
        42           Ga  tau(  42) = (   0.1000001   0.7505553   0.1627148  )
        43           Ga  tau(  43) = (   0.1000001   0.7505553   0.4886906  )
        44           Ga  tau(  44) = (   0.1000001   0.7505553   0.8146665  )
        45           Ga  tau(  45) = (   0.7000001   0.0577350   0.1627148  )
        46           Ga  tau(  46) = (   0.7000001   0.0577350   0.4886906  )
        47           Ga  tau(  47) = (   0.7000001   0.0577350   0.8146665  )
        48           Ga  tau(  48) = (   0.6000001   0.2309401   0.1627148  )
        49           Ga  tau(  49) = (   0.6000001   0.2309401   0.4886906  )
        50           Ga  tau(  50) = (   0.6000001   0.2309401   0.8146665  )
        51           Ga  tau(  51) = (   0.5000001   0.4041451   0.1627148  )
        52           Ga  tau(  52) = (   0.5000001   0.4041451   0.4886906  )
        53           Ga  tau(  53) = (   0.5000001   0.4041451   0.8146665  )
        54           Ga  tau(  54) = (   0.4000001   0.5773502   0.1627148  )
        55           Ga  tau(  55) = (   0.4000001   0.5773502   0.4886906  )
        56           Ga  tau(  56) = (   0.4000001   0.5773502   0.8146665  )
        57           Ga  tau(  57) = (   0.3000001   0.7505553   0.1627148  )
        58           Ga  tau(  58) = (   0.3000001   0.7505553   0.4886906  )
        59           Ga  tau(  59) = (   0.3000001   0.7505553   0.8146665  )
        60           Ga  tau(  60) = (   0.9000001   0.0577350   0.1627148  )
[...]
       286           N   tau( 286) = (   0.7999999   0.1154701   0.4484898  )
       287           N   tau( 287) = (   0.7999999   0.1154701   0.7744656  )
       288           N   tau( 288) = (   0.6999999   0.2886752   0.1225140  )
       289           N   tau( 289) = (   0.6999999   0.2886752   0.4484898  )
       290           N   tau( 290) = (   0.6999999   0.2886752   0.7744656  )
       291           N   tau( 291) = (   0.5999999   0.4618803   0.1225140  )
       292           N   tau( 292) = (   0.5999999   0.4618803   0.4484898  )
       293           N   tau( 293) = (   0.5999999   0.4618803   0.7744656  )
       294           N   tau( 294) = (   0.4999999   0.6350854   0.1225140  )
       295           N   tau( 295) = (   0.4999999   0.6350854   0.4484898  )
       296           N   tau( 296) = (   0.4999999   0.6350854   0.7744656  )
       297           N   tau( 297) = (   0.3999999   0.8082905   0.1225140  )
       298           N   tau( 298) = (   0.3999999   0.8082905   0.4484898  )
       299           N   tau( 299) = (   0.3999999   0.8082905   0.7744656  )
       300           N   tau( 300) = (   0.1000001   0.0577350   0.1627148  )

   Crystallographic axes

     site n.     atom                  positions (cryst. coord.)
         1           Ga  tau(   1) = (  0.1333334  0.0666666  0.4997208  )
         2           Ga  tau(   2) = (  0.1333334  0.0666666  0.8330541  )
         3           Ga  tau(   3) = (  0.1333334  0.2666666  0.1663874  )
[...]
     atom   26 type  1   force =     0.00000000    0.00000000    0.00000000
     atom   27 type  1   force =     0.00000000    0.00000000    0.00000000
     atom   28 type  1   force =     0.00000000    0.00000000    0.00000000
     atom   29 type  1   force =     0.00000000    0.00000000    0.00000000
     atom   30 type  1   force =     0.00000000    0.00000000    0.00000000
     atom   31 type  1   force =     0.00000000    0.00000000    0.00000000
     atom   32 type  1   force =     0.00000000    0.00000000    0.00000000
     atom   33 type  1   force =     0.00000000    0.00000000    0.00000000
     atom   34 type  1   force =     0.00000000    0.00000000    0.00000000
     atom   35 type  1   force =     0.00000000    0.00000000    0.00000000
     atom   36 type  1   force =     0.00000000    0.00000000    0.00000000
     atom   37 type  1   force =     0.00000000    0.00000000    0.00000000
     atom   38 type  1   force =     0.00000000    0.00000000    0.00000000
     atom   39 type  1   force =     0.00000000    0.00000000    0.00000000
     atom   40 type  1   force =     0.00000000    0.00000000    0.00000000
     atom   41 type  1   force =     0.00000000    0.00000000    0.00000000
     atom   42 type  1   force =     0.00000000    0.00000000    0.00000000
     atom   43 type  1   force =     0.00000000    0.00000000    0.00000000
     atom   44 type  1   force =     0.00000000    0.00000000    0.00000000
     atom   45 type  1   force =     0.00000000    0.00000000    0.00000000
     atom   46 type  1   force =     0.00000000    0.00000000    0.00000000
     atom   47 type  1   force =     0.00000000    0.00000000    0.00000000
     atom   48 type  1   force =     0.00000000    0.00000000    0.00000000
     atom   49 type  1   force =     0.00000000    0.00000000    0.00000000
     atom   50 type  1   force =     0.00000000    0.00000000    0.00000000
     atom   51 type  1   force =     0.00000000    0.00000000    0.00000000
     atom   52 type  1   force =     0.00000000    0.00000000    0.00000000
     atom   53 type  1   force =     0.00000000    0.00000000    0.00000000
     atom   54 type  1   force =     0.00000000    0.00000000    0.00000000
     atom   55 type  1   force =     0.00000000    0.00000000    0.00000000
     atom   56 type  1   force =     0.00000000    0.00000000    0.00000000
     atom   57 type  1   force =     0.00000000    0.00000000    0.00000000
     atom   58 type  1   force =     0.00000000    0.00000000    0.00000000
     atom   59 type  1   force =     0.00000000    0.00000000    0.00000000
     atom   60 type  1   force =     0.00000000    0.00000000    0.00000000
[...]
     atom  286 type  2   force =     0.00000000    0.00000000    0.00000000
     atom  287 type  2   force =     0.00000000    0.00000000    0.00000000
     atom  288 type  2   force =     0.00000000    0.00000000    0.00000000
     atom  289 type  2   force =     0.00000000    0.00000000    0.00000000
     atom  290 type  2   force =     0.00000000    0.00000000    0.00000000
     atom  291 type  2   force =     0.00000000    0.00000000    0.00000000
     atom  292 type  2   force =     0.00000000    0.00000000    0.00000000
     atom  293 type  2   force =     0.00000000    0.00000000    0.00000000
     atom  294 type  2   force =     0.00000000    0.00000000    0.00000000
     atom  295 type  2   force =     0.00000000    0.00000000    0.00000000
     atom  296 type  2   force =     0.00000000    0.00000000    0.00000000
     atom  297 type  2   force =     0.00000000    0.00000000    0.00000000
     atom  298 type  2   force =     0.00000000    0.00000000    0.00000000
     atom  299 type  2   force =     0.00000000    0.00000000    0.00000000
     atom  300 type  2   force =     0.00000000    0.00000000    0.00000000
     The SCF correction term to forces
     atom    1 type  1   force =    -0.00000134   -0.00000077   -0.00002897
     atom    2 type  1   force =     0.00000011    0.00000006    0.00001305
     atom    3 type  1   force =     0.00001751   -0.00001984    0.00001321
     atom    4 type  1   force =     0.00000946   -0.00000753   -0.00000524
     atom    5 type  1   force =    -0.00001947    0.00003060    0.00001002
     atom    6 type  1   force =    -0.00000933    0.00001797   -0.00003338
     atom    7 type  1   force =    -0.00000695    0.00000386    0.00001878
     atom    8 type  1   force =    -0.00001976    0.00002668    0.00001356
     atom    9 type  1   force =     0.00001090   -0.00001707   -0.00003338
     atom   10 type  1   force =    -0.00000014   -0.00000795    0.00001878
     atom   11 type  1   force =     0.00001323   -0.00003045    0.00001356
     atom   12 type  1   force =    -0.00000843    0.00002509    0.00001321
     atom   13 type  1   force =    -0.00000179    0.00001196   -0.00000524
     atom   14 type  1   force =     0.00001677   -0.00003216    0.00001002
     atom   15 type  1   force =    -0.00002487   -0.00000588    0.00001379
     atom   16 type  1   force =    -0.00000933   -0.00000516   -0.00000417
     atom   17 type  1   force =     0.00003816    0.00000267    0.00000961
     atom   18 type  1   force =    -0.00001753   -0.00001860    0.00001379
     atom   19 type  1   force =    -0.00000913   -0.00000550   -0.00000417
     atom   20 type  1   force =     0.00002140    0.00003171    0.00000961
     atom   21 type  1   force =     0.00000095    0.00003642   -0.00002912
     atom   22 type  1   force =     0.00000156    0.00001166    0.00001237
     atom   23 type  1   force =     0.00000175    0.00004935    0.00001529
     atom   24 type  1   force =     0.00002150    0.00001241   -0.00003778
     atom   25 type  1   force =     0.00000669    0.00000386    0.00001385
     atom   26 type  1   force =     0.00001142    0.00000659    0.00002785
     atom   27 type  1   force =     0.00003202   -0.00001739   -0.00002912
     atom   28 type  1   force =     0.00001088   -0.00000447    0.00001237
     atom   29 type  1   force =     0.00004362   -0.00002316    0.00001529
     atom   30 type  1   force =     0.00002156   -0.00000163   -0.00003360
     atom   31 type  1   force =     0.00000864    0.00000390    0.00001996
     atom   32 type  1   force =     0.00003374    0.00000475    0.00001247
     atom   33 type  1   force =     0.00002181    0.00001259   -0.00002523
     atom   34 type  1   force =     0.00001140    0.00000658    0.00001826
     atom   35 type  1   force =     0.00004331    0.00002501    0.00000817
     atom   36 type  1   force =     0.00000937    0.00001949   -0.00003360
     atom   37 type  1   force =     0.00000770    0.00000554    0.00001996
     atom   38 type  1   force =     0.00002098    0.00002684    0.00001247
     atom   39 type  1   force =    -0.00001867    0.00001271   -0.00003731
     atom   40 type  1   force =    -0.00000343    0.00000392    0.00001369
     atom   41 type  1   force =    -0.00000872    0.00000602    0.00002741
     atom   42 type  1   force =     0.00000167   -0.00002252   -0.00003731
     atom   43 type  1   force =     0.00000168   -0.00000493    0.00001369
     atom   44 type  1   force =     0.00000085   -0.00001056    0.00002741
     atom   45 type  1   force =    -0.00001982   -0.00000212   -0.00003287
     atom   46 type  1   force =    -0.00000760    0.00000288    0.00001869
     atom   47 type  1   force =    -0.00003434    0.00000354    0.00001250
     atom   48 type  1   force =     0.00000038    0.00001411   -0.00004694
     atom   49 type  1   force =    -0.00000026    0.00000656    0.00002548
     atom   50 type  1   force =    -0.00000113    0.00001397    0.00001102
     atom   51 type  1   force =     0.00001241   -0.00000673   -0.00004694
     atom   52 type  1   force =     0.00000554   -0.00000351    0.00002548
     atom   53 type  1   force =     0.00001154   -0.00000796    0.00001102
     atom   54 type  1   force =    -0.00001175   -0.00001610   -0.00003287
     atom   55 type  1   force =    -0.00000131   -0.00000802    0.00001869
     atom   56 type  1   force =    -0.00001411   -0.00003151    0.00001250
     atom   57 type  1   force =    -0.00003045   -0.00001758   -0.00002840
     atom   58 type  1   force =    -0.00000983   -0.00000568    0.00001090
     atom   59 type  1   force =    -0.00004295   -0.00002480    0.00001466
     atom   60 type  1   force =     0.00002392   -0.00000716    0.00001502
[...]
     atom  286 type  2   force =    -0.00000159   -0.00000069    0.00000505
     atom  287 type  2   force =    -0.00002011    0.00000434    0.00000449
     atom  288 type  2   force =    -0.00000862    0.00000445   -0.00001680
     atom  289 type  2   force =    -0.00000354    0.00000127    0.00000911
     atom  290 type  2   force =    -0.00000963    0.00000453    0.00000784
     atom  291 type  2   force =    -0.00000046   -0.00000969   -0.00001680
     atom  292 type  2   force =    -0.00000067   -0.00000371    0.00000911
     atom  293 type  2   force =    -0.00000089   -0.00001060    0.00000784
     atom  294 type  2   force =    -0.00000384   -0.00000904   -0.00000734
     atom  295 type  2   force =    -0.00000139   -0.00000104    0.00000505
     atom  296 type  2   force =    -0.00000630   -0.00001958    0.00000449
     atom  297 type  2   force =     0.00000010    0.00000006    0.00000109
     atom  298 type  2   force =     0.00000583    0.00000337   -0.00000160
     atom  299 type  2   force =    -0.00001565   -0.00000904    0.00000299
     atom  300 type  2   force =    -0.00000019   -0.00000011    0.00001906

     Total force =     0.003976     Total SCF correction =     0.000459
     SCF correction compared to forces is large: reduce conv_thr to get better values

     Computing stress (Cartesian axis) and pressure

[...]

          total   stress  (Ry/bohr**3)                   (kbar)     P=       -8.39
  -0.00007944   0.00000001  -0.00000004          -11.69        0.00       -0.01
   0.00000001  -0.00007946  -0.00000003            0.00      -11.69       -0.00
  -0.00000004  -0.00000003  -0.00001228           -0.01       -0.00       -1.81

     kinetic stress (kbar)  18384.03      0.01     -0.00
                                0.01  18384.02     -0.00
                               -0.00     -0.00  18406.27

     local   stress (kbar)   5206.39      0.36     -0.04
                                0.36   5205.80     -0.02
                               -0.04     -0.02   3832.53

     nonloc. stress (kbar)     86.57      0.00      0.00
                                0.00     86.57      0.00
                                0.00      0.00     95.47

     hartree stress (kbar)  19551.39     -0.16      0.03
                               -0.16  19551.58      0.02
                                0.03      0.02  20197.21

     exc-cor stress (kbar)   5173.20     -0.00     -0.00
                               -0.00   5173.20     -0.00
                               -0.00     -0.00   5172.67

     corecor stress (kbar) -14024.51     -0.00      0.00
                               -0.00 -14024.51      0.00
                                0.00      0.00 -14024.32

     ewald   stress (kbar) -34549.88     -0.19     -0.00
                               -0.19 -34549.43     -0.00
                               -0.00     -0.00 -33842.14

     hubbard stress (kbar)      0.00      0.00      0.00
                                0.00      0.00      0.00
                                0.00      0.00      0.00

     DFT-D   stress (kbar)      0.00      0.00      0.00
                                0.00      0.00      0.00
                                0.00      0.00      0.00

     XDM     stress (kbar)      0.00      0.00      0.00
                                0.00      0.00      0.00
                                0.00      0.00      0.00

     dft-nl  stress (kbar)    161.12      0.00      0.00
                                0.00    161.12      0.00
                                0.00      0.00    160.50

     TS-vdW  stress (kbar)      0.00      0.00      0.00
                                0.00      0.00      0.00
                                0.00      0.00      0.00

     MDB     stress (kbar)      0.00      0.00      0.00
                                0.00      0.00      0.00
                                0.00      0.00      0.00

     3D-RISM stress (kbar)      0.00      0.00      0.00
                                0.00      0.00      0.00
                                0.00      0.00      0.00

[...]

     Non-local corr. energy    =      81.33556678 Ry

 BEEFens 2000 ensemble energies
             -0.658493525201047E+02
             -0.592545999514280E+03
             -0.254835934404869E+03
              0.208562969421842E+03
             -0.425962990480400E+03
             -0.547935546101789E+03
              0.281639065495239E+03
             -0.297963661339622E+02
              0.469313246240975E+03
             -0.202614631373690E+02
              0.230217075491879E+03
              0.951152637300720E+01
              0.951562826704753E+01
             -0.201872314933562E+02
              0.307175845960192E+03
             -0.223700237304342E+03
             -0.461098652601228E+03
             -0.150687298708840E+03
              0.112529478545780E+03
             -0.100875272717667E+02
              0.672845681108493E+03
              0.572688677495005E+03
             -0.327694536976034E+03
              0.118781006210194E+03
             -0.718734700429106E+03
              0.576298718794882E+03
              0.188257332016648E+03
              0.560370091094711E+03
              0.368149512629863E+03
             -0.179267403231369E+03
              0.135668089838587E+03
             -0.264851923296302E+03
              0.739727003476306E+02
              0.360134522032067E+03
              0.382041743534508E+03
             -0.137926901406131E+03
              0.848479674297319E+03
             -0.321982110288683E+03
             -0.231814387303334E+03
              0.340056511493723E+03
              0.152026941505655E+03
              0.254561853214188E+03
             -0.485133332735875E+03
             -0.135939012547433E+02
              0.476289411820012E+03
              0.618633668396839E+03
             -0.615750750450625E+03
              0.438760913737600E+02
              0.232191529102716E+03
              0.112933605918621E+03
              0.257586053706218E+03
              0.545438155614045E+03
             -0.329732862671747E+03
             -0.361466993997422E+03
             -0.469956545162942E+03
             -0.728138106106503E+02
             -0.428663434206656E+03
              0.419292249350060E+02
             -0.794230831583795E+02
             -0.334120320676137E+03
[...]
              0.417078179444885E+03
              0.230285498909725E+03
              0.292699553962897E+03
             -0.472975249366694E+03
             -0.452659781557806E+03
             -0.114597529066463E+03
             -0.443770388899189E+03
              0.710591532559929E+03
              0.609041086584004E+03
              0.291028710585778E+03
              0.788008101109615E+03
             -0.410161201395559E+03
             -0.167168076882787E+03
             -0.232464010297555E+03
              0.651774260878175E+03

 BEEF-vdW xc energy contributions
            1 :    -5973.328093264450
            2 :     5379.763764663813
            3 :    -4385.463163450278
            4 :     3281.639134230367
            5 :    -2324.403215608332
            6 :     1637.322141116347
            7 :    -1197.724800019828
            8 :     900.1531682294963
            9 :    -645.8381366433741
           10 :     399.9942616026638
           11 :    -189.4891776956210
           12 :     57.15179091358368
           13 :    -14.73321296126232
           14 :     29.34530163463751
           15 :    -47.79318568224880
           16 :     34.44171937667397
           17 :     8.351933196740902
           18 :    -50.77707014968018
           19 :     65.20340781418872
           20 :    -49.74799380570767
           21 :     28.15803178310671
           22 :    -28.71156856163725
           23 :     60.94847912096884
           24 :    -108.9066286516827
           25 :     144.8357806698859
           26 :    -150.9193416972739
           27 :     131.3578173040733
           28 :    -106.3050519735116
           29 :     94.16942535676299
           30 :    -97.36712592294771
           31 :    -512.1908237384050
           32 :    -350.9298090653665

     Writing all to output data dir ./GaN.save/

     General routines

     Parallel routines

     PAW routines

   This run was terminated on:   9: 4:56  22Apr2024

   JOB DONE.