     Program PWSCF v.7.1 starts on 22Mar2024 at 10: 7: 1

     Reading input from espresso.pwi
Warning: card &CELL ignored
Warning: card    CELL_DYNAMICS    = 'BFGS' ignored
Warning: card / ignored

     Current dimensions of program PWSCF are:
     Max number of different atomic species (ntypx) = 10
     Max number of k-points (npk) =  40000
     Max angular momentum in pseudopotentials (lmaxx) =  4
     file Ga.pbe-dn-kjpaw_psl.1.0.0.UPF: wavefunction(s)  4S renormalized
     file N.pbe-n-kjpaw_psl.1.0.0.UPF: wavefunction(s)  2S renormalized

     IMPORTANT: XC functional enforced from input :
     Exchange-correlation= BEEF-VDW
                           (   1   4  43  14   2   0   0)
     Any further DFT definition will be discarded
     Please, verify this is what you really want

     K-points division:     npool     =       4
     R & G space division:  proc/nbgrp/npool/nimage =      64
     Subspace diagonalization in iterative solution of the eigenvalue problem:
     a serial algorithm will be used

     Using Slab Decomposition

     bravais-lattice index     =            4
     lattice parameter (alat)  =      30.6565  a.u.
     unit-cell volume          =   24400.9461 (a.u.)^3
     number of atoms/cell      =          300
     number of atomic types    =            2
     number of electrons       =      2692.00
     number of Kohn-Sham states=         1615
     kinetic-energy cutoff     =      70.0000  Ry
     charge density cutoff     =     350.0000  Ry
     scf convergence threshold =      1.0E-07
     mixing beta               =       0.7000
     number of iterations used =            8  plain     mixing
     energy convergence thresh.=      1.0E-04
     force convergence thresh. =      1.0E-03
     Exchange-correlation= BEEF-VDW
                           (   1   4  43  14   2   0   0)
     nstep                     =           50

     celldm(1)=  30.656540  celldm(2)=   0.000000  celldm(3)=   0.977927
     celldm(4)=   0.000000  celldm(5)=   0.000000  celldm(6)=   0.000000

     crystal axes: (cart. coord. in units of alat)
               a(1) = (   1.000000   0.000000   0.000000 )
               a(2) = (  -0.500000   0.866025   0.000000 )
               a(3) = (   0.000000   0.000000   0.977927 )

     reciprocal axes: (cart. coord. in units 2 pi/alat)
               b(1) = (  1.000000  0.577350 -0.000000 )
               b(2) = (  0.000000  1.154701  0.000000 )
               b(3) = (  0.000000 -0.000000  1.022571 )

     PseudoPot. # 1 for Ga read from file:
     //group///packages/espresso/pseudo/psl_1.0.0/pslibrary.1.0.0/pbe/PSEUDOPOTENTIALS/Ga.pbe-dn-kjpaw_psl.1.0.0.UPF
     MD5 check sum: cd2a01e492f15b435d17032472d8505c
     Pseudo is Projector augmented-wave + core cor, Zval = 13.0
     Generated using 'atomic' code by A. Dal Corso  v.7.1
     Shape of augmentation charge: PSQ
     Using radial grid of 1205 points,  6 beta functions with:
                l(1) =   0
                l(2) =   0
                l(3) =   1
                l(4) =   1
                l(5) =   2
                l(6) =   2
     Q(r) pseudized with 0 coefficients

     PseudoPot. # 2 for N  read from file:
     //group///packages/espresso/pseudo/psl_1.0.0/pslibrary.1.0.0/pbe/PSEUDOPOTENTIALS/N.pbe-n-kjpaw_psl.1.0.0.UPF
     MD5 check sum: f77f775694dac7e2c3fe1c82443d1a16
     Pseudo is Projector augmented-wave + core cor, Zval =  5.0
     Generated using 'atomic' code by A. Dal Corso  v.7.1
     Shape of augmentation charge: PSQ
     Using radial grid of 1085 points,  4 beta functions with:
                l(1) =   0
                l(2) =   0
                l(3) =   1
                l(4) =   1
     Q(r) pseudized with 0 coefficients

     atomic species   valence    mass     pseudopotential
        Ga            13.00    69.72300     Ga( 1.00)
        N              5.00    14.00700     N ( 1.00)

      2 Sym. Ops. (no inversion) found

                                    s                        frac. trans.

      isym =  1     identity

 cryst.   s( 1) = (     1          0          0      )
                  (     0          1          0      )
                  (     0          0          1      )

 cart.    s( 1) = (  1.0000000  0.0000000  0.0000000 )
                  (  0.0000000  1.0000000  0.0000000 )
                  (  0.0000000  0.0000000  1.0000000 )

      isym =  2     inv. 180 deg rotation - cryst. axis [0,1,0]

 cryst.   s( 2) = (     1          1          0      )
                  (     0         -1          0      )
                  (     0          0          1      )

 cart.    s( 2) = (  0.5000000  0.8660254  0.0000000 )
                  (  0.8660254 -0.5000000  0.0000000 )
                  (  0.0000000  0.0000000  1.0000000 )

     point group C_s (m)
     there are  2 classes
     the character table:

       E     s
A'     1.00  1.00
A''    1.00 -1.00

     the symmetry operations in each class and the name of the first element:

     E        1
          identity
     s        2
          inv. 180 deg rotation - cryst. axis [0,1,0]

   Cartesian axes

     site n.     atom                  positions (alat units)
         1           Ga  tau(   1) = (   0.1000001   0.0577350   0.4886906  )
         2           Ga  tau(   2) = (   0.1000001   0.0577350   0.8146665  )
         3           Ga  tau(   3) = (   0.0000001   0.2309401   0.1627148  )
         4           Ga  tau(   4) = (   0.0000001   0.2309401   0.4886906  )
         5           Ga  tau(   5) = (   0.0000001   0.2309401   0.8146665  )
         6           Ga  tau(   6) = (  -0.0999999   0.4041451   0.1627148  )
         7           Ga  tau(   7) = (  -0.0999999   0.4041451   0.4886906  )
         8           Ga  tau(   8) = (  -0.0999999   0.4041451   0.8146665  )
         9           Ga  tau(   9) = (  -0.1999999   0.5773502   0.1627148  )
        10           Ga  tau(  10) = (  -0.1999999   0.5773502   0.4886906  )
        11           Ga  tau(  11) = (  -0.1999999   0.5773502   0.8146665  )
        12           Ga  tau(  12) = (  -0.2999999   0.7505553   0.1627148  )
        13           Ga  tau(  13) = (  -0.2999999   0.7505553   0.4886906  )
        14           Ga  tau(  14) = (  -0.2999999   0.7505553   0.8146665  )
        15           Ga  tau(  15) = (   0.3000001   0.0577350   0.1627148  )
        16           Ga  tau(  16) = (   0.3000001   0.0577350   0.4886906  )
        17           Ga  tau(  17) = (   0.3000001   0.0577350   0.8146665  )
        18           Ga  tau(  18) = (   0.2000001   0.2309401   0.1627148  )
        19           Ga  tau(  19) = (   0.2000001   0.2309401   0.4886906  )
        20           Ga  tau(  20) = (   0.2000001   0.2309401   0.8146665  )
        21           Ga  tau(  21) = (   0.1000001   0.4041451   0.1627148  )
        22           Ga  tau(  22) = (   0.1000001   0.4041451   0.4886906  )
        23           Ga  tau(  23) = (   0.1000001   0.4041451   0.8146665  )
        24           Ga  tau(  24) = (   0.0000001   0.5773502   0.1627148  )
        25           Ga  tau(  25) = (   0.0000001   0.5773502   0.4886906  )
        26           Ga  tau(  26) = (   0.0000001   0.5773502   0.8146665  )
        27           Ga  tau(  27) = (  -0.0999999   0.7505553   0.1627148  )
        28           Ga  tau(  28) = (  -0.0999999   0.7505553   0.4886906  )
        29           Ga  tau(  29) = (  -0.0999999   0.7505553   0.8146665  )
        30           Ga  tau(  30) = (   0.5000001   0.0577350   0.1627148  )
        31           Ga  tau(  31) = (   0.5000001   0.0577350   0.4886906  )
        32           Ga  tau(  32) = (   0.5000001   0.0577350   0.8146665  )
        33           Ga  tau(  33) = (   0.4000001   0.2309401   0.1627148  )
        34           Ga  tau(  34) = (   0.4000001   0.2309401   0.4886906  )
        35           Ga  tau(  35) = (   0.4000001   0.2309401   0.8146665  )
        36           Ga  tau(  36) = (   0.3000001   0.4041451   0.1627148  )
        37           Ga  tau(  37) = (   0.3000001   0.4041451   0.4886906  )
        38           Ga  tau(  38) = (   0.3000001   0.4041451   0.8146665  )
        39           Ga  tau(  39) = (   0.2000001   0.5773502   0.1627148  )
        40           Ga  tau(  40) = (   0.2000001   0.5773502   0.4886906  )
        41           Ga  tau(  41) = (   0.2000001   0.5773502   0.8146665  )
        42           Ga  tau(  42) = (   0.1000001   0.7505553   0.1627148  )
        43           Ga  tau(  43) = (   0.1000001   0.7505553   0.4886906  )
        44           Ga  tau(  44) = (   0.1000001   0.7505553   0.8146665  )
        45           Ga  tau(  45) = (   0.7000001   0.0577350   0.1627148  )
        46           Ga  tau(  46) = (   0.7000001   0.0577350   0.4886906  )
        47           Ga  tau(  47) = (   0.7000001   0.0577350   0.8146665  )
        48           Ga  tau(  48) = (   0.6000001   0.2309401   0.1627148  )
        49           Ga  tau(  49) = (   0.6000001   0.2309401   0.4886906  )
        50           Ga  tau(  50) = (   0.6000001   0.2309401   0.8146665  )
        51           Ga  tau(  51) = (   0.5000001   0.4041451   0.1627148  )
        52           Ga  tau(  52) = (   0.5000001   0.4041451   0.4886906  )
        53           Ga  tau(  53) = (   0.5000001   0.4041451   0.8146665  )
        54           Ga  tau(  54) = (   0.4000001   0.5773502   0.1627148  )
        55           Ga  tau(  55) = (   0.4000001   0.5773502   0.4886906  )
        56           Ga  tau(  56) = (   0.4000001   0.5773502   0.8146665  )
        57           Ga  tau(  57) = (   0.3000001   0.7505553   0.1627148  )
        58           Ga  tau(  58) = (   0.3000001   0.7505553   0.4886906  )
        59           Ga  tau(  59) = (   0.3000001   0.7505553   0.8146665  )
        60           Ga  tau(  60) = (   0.9000001   0.0577350   0.1627148  )
[...]
       286           N   tau( 286) = (   0.7999999   0.1154701   0.4484898  )
       287           N   tau( 287) = (   0.7999999   0.1154701   0.7744656  )
       288           N   tau( 288) = (   0.6999999   0.2886752   0.1225140  )
       289           N   tau( 289) = (   0.6999999   0.2886752   0.4484898  )
       290           N   tau( 290) = (   0.6999999   0.2886752   0.7744656  )
       291           N   tau( 291) = (   0.5999999   0.4618803   0.1225140  )
       292           N   tau( 292) = (   0.5999999   0.4618803   0.4484898  )
       293           N   tau( 293) = (   0.5999999   0.4618803   0.7744656  )
       294           N   tau( 294) = (   0.4999999   0.6350854   0.1225140  )
       295           N   tau( 295) = (   0.4999999   0.6350854   0.4484898  )
       296           N   tau( 296) = (   0.4999999   0.6350854   0.7744656  )
       297           N   tau( 297) = (   0.3999999   0.8082905   0.1225140  )
       298           N   tau( 298) = (   0.3999999   0.8082905   0.4484898  )
       299           N   tau( 299) = (   0.3999999   0.8082905   0.7744656  )
       300           N   tau( 300) = (   0.1000001   0.0577350   0.1627148  )

   Crystallographic axes

     site n.     atom                  positions (cryst. coord.)
         1           Ga  tau(   1) = (  0.1333334  0.0666666  0.4997208  )
[...]
Ga           -0.0003001405        9.3660297530        7.9316315041
Ga           -0.0013017560        9.3654514700       13.2143790328
Ga           -1.6156758588       12.1737703978        2.6473476555
Ga           -1.6219776989       12.1764806484        7.9328171735
Ga           -1.6274821840       12.1796392229       13.2124157976
Ga            8.0889083043        0.9323448942        2.6381406836
Ga            8.1142315388        0.9395238401        7.9273488429
Ga            8.1070734323        0.9394998043       13.2232522830
Ga            6.4740232129        3.7377775739        2.6448887386
Ga            6.4869047889        3.7452147552        7.9203906186
Ga            6.4851041303        3.7441751445       13.2199972764
Ga            4.8518897895        6.5390254272        2.6381406836
Ga            4.8707685563        6.5573665186        7.9273488429
Ga            4.8671686875        6.5511794344       13.2232522830
Ga            3.2463027238        9.3654676534        2.6376832240
Ga            3.2452939464        9.3657630091        7.9322603516
Ga            3.2463521102        9.3654233573       13.2150880604
Ga            1.6225144991       12.1779513595        2.6376832240
Ga            1.6222658960       12.1769300547        7.9322603516
Ga            1.6225008307       12.1780162774       13.2150880604
Ga           11.3785777353        0.9320493051        2.6380983931
Ga           11.3520920497        0.9393168154        7.9275275521
Ga           11.3596074913        0.9389620211       13.2223042272
Ga            9.7334273142        3.7454147267        2.6388424924
Ga            9.7331226133        3.7465547141        7.9269501399
Ga            9.7331725188        3.7478125951       13.2214121050
Ga            8.1103392318        6.5566857504        2.6388424924
Ga            8.1111741395        6.5558518780        7.9269501399
Ga            8.1122884491        6.5552661570       13.2214121050
Ga            6.4964685173        9.3881105190        2.6380983931
Ga            6.4895195230        9.3615394873        7.9275275521
Ga            6.4929699830        9.3682254478       13.2223042272
Ga            4.8622274306       12.1734113552        2.6478300740
Ga            4.8665648102       12.1759155425        7.9329745999
Ga            4.8727334330       12.1794769985       13.2129791447
Ga           14.6916029625        0.9086131122        2.6563774169
[...]
N            12.9674050932        1.8720806459        7.2695205610
N            12.9797401999        1.8731694077       12.5682721917
N            11.3646662186        4.6780735180        1.9865408812
N            11.3548133466        4.6835627603        7.2730796672
N            11.3578768023        4.6818755919       12.5697432117
N             9.7336612966        7.5030569105        1.9865408812
N             9.7334886839        7.4917794519        7.2730796672
N             9.7335592810        7.4952760665       12.5697432117
N             8.1359404405       10.3722781182        1.9974183548
N             8.1049696239       10.2940659275        7.2695205610
N             8.1120800726       10.3042040623       12.5682721917
N             6.4872385776       13.1116161283        1.9816412004
N             6.4858972771       13.1108417280        7.2774507215
N             6.4916040579       13.1141365395       12.5610082000
N             1.6499919430        0.9526218215        2.4263529408

     Writing config-only to output data dir ./GaN.save/
     NEW-OLD atomic charge density approx. for the potential

     Check: negative core charge=   -0.000003

[...]

     Self-consistent Calculation

[...]

     ethr =  3.85E-12,  avg # of iterations = 17.0

[...]

     total energy              =  -46588.56320986 Ry
     estimated scf accuracy    <       0.00000002 Ry

     iteration # 12     ecut=    70.00 Ry     beta= 0.70
     Davidson diagonalization with overlap

     c_bands:  1 eigenvalues not converged
     ethr =  7.52E-13,  avg # of iterations = 18.0

     Non-local corr. energy    =      81.33760797 Ry

     End of self-consistent calculation

[...]

          k = 0.0000-0.5774-0.5113 (241436 PWs)   bands (ev):

[...]

          k =-0.5000-0.2887-0.5113 (241436 PWs)   bands (ev):

    -9.5814  -6.7824  -6.7706  -6.7492  -6.7350  -6.6869  -6.6731  -6.6407
    -6.6358  -6.6006  -6.5908  -6.5893  -6.5621  -6.5327  -6.5225  -6.5155
    -6.5140  -6.5112  -6.5076  -6.5042  -6.5023  -6.4985  -6.4976  -6.4932
    -6.4923  -6.4821  -6.4706  -6.4684  -6.4675  -6.4646  -6.4622  -6.4553
    -6.4530  -6.4520  -6.4453  -6.4424  -6.4370  -6.4350  -6.4345  -6.4317
    -6.4289  -6.4263  -6.4249  -6.4248  -6.4216  -6.4209  -6.4188  -6.4187
    -6.4169  -6.4148  -6.4130  -6.4118  -6.4094  -6.4090  -6.4073  -6.4050
    -6.4041  -6.4019  -6.4013  -6.3999  -6.3992  -6.3988  -6.3979  -6.3966
    -6.3961  -6.3956  -6.3933  -6.3928  -6.3927  -6.3923  -6.3896  -6.3888
    -6.3877  -6.3876  -6.3862  -6.3843  -6.3841  -6.3831  -6.3828  -6.3802
    -6.3790  -6.3777  -6.3777  -6.3766  -6.3752  -6.3749  -6.3749  -6.3732
    -6.3731  -6.3724  -6.3715  -6.3703  -6.3693  -6.3683  -6.3682  -6.3678
    -6.3672  -6.3643  -6.3638  -6.3618  -6.3613  -6.3608  -6.3599  -6.3595
    -6.3585  -6.3565  -6.3552  -6.3533  -6.3527  -6.3525  -6.3513  -6.3507
    -6.3502  -6.3501  -6.3483  -6.3477  -6.3459  -6.3433  -6.3428  -6.3406
    -6.3392  -6.3390  -6.3367  -6.3362  -6.3352  -6.3344  -6.3326  -6.3309
    -6.3306  -6.3293  -6.3282  -6.3271  -6.3268  -6.3239  -6.3229  -6.3225
    -6.3194  -6.3173  -6.3128  -6.3098  -6.3085  -6.3027  -6.3022  -6.2986
    -6.2713  -6.2518  -6.1858  -6.1821  -6.1707  -5.7900  -5.5551  -5.4846
    -5.4803  -5.4802  -5.4647  -5.4513  -5.4478  -5.4452  -5.4293  -5.4249
    -5.4201  -5.4158  -5.4032  -5.4011  -5.3978  -5.3923  -5.3877  -5.3821
    -5.3706  -5.3674  -5.3652  -5.3596  -5.3567  -5.3525  -5.3500  -5.3456
    -5.3436  -5.3334  -5.3305  -5.3294  -5.3247  -5.3211  -5.3180  -5.3147
    -5.3132  -5.3102  -5.3098  -5.3075  -5.3034  -5.3022  -5.3011  -5.2983
    -5.2983  -5.2979  -5.2946  -5.2944  -5.2921  -5.2915  -5.2895  -5.2890
    -5.2887  -5.2842  -5.2837  -5.2835  -5.2830  -5.2807  -5.2797  -5.2789
    -5.2775  -5.2774  -5.2769  -5.2760  -5.2758  -5.2735  -5.2729  -5.2725
    -5.2712  -5.2709  -5.2706  -5.2700  -5.2687  -5.2681  -5.2677  -5.2672
    -5.2665  -5.2660  -5.2647  -5.2640  -5.2637  -5.2632  -5.2619  -5.2615
    -5.2611  -5.2609  -5.2600  -5.2600  -5.2588  -5.2574  -5.2571  -5.2569
    -5.2560  -5.2554  -5.2547  -5.2544  -5.2539  -5.2531  -5.2529  -5.2516
    -5.2514  -5.2501  -5.2498  -5.2495  -5.2487  -5.2469  -5.2466  -5.2460
    -5.2453  -5.2452  -5.2442  -5.2437  -5.2418  -5.2415  -5.2414  -5.2411
    -5.2408  -5.2404  -5.2398  -5.2390  -5.2385  -5.2382  -5.2379  -5.2370
    -5.2367  -5.2366  -5.2364  -5.2362  -5.2354  -5.2347  -5.2337  -5.2337
    -5.2330  -5.2329  -5.2327  -5.2317  -5.2313  -5.2310  -5.2303  -5.2303
    -5.2286  -5.2280  -5.2271  -5.2264  -5.2262  -5.2259  -5.2256  -5.2251
    -5.2246  -5.2237  -5.2234  -5.2228  -5.2210  -5.2209  -5.2204  -5.2199
    -5.2197  -5.2192  -5.2188  -5.2176  -5.2174  -5.2164  -5.2158  -5.2156
    -5.2148  -5.2140  -5.2133  -5.2130  -5.2122  -5.2116  -5.2107  -5.2098
    -5.2095  -5.2085  -5.2083  -5.2071  -5.2065  -5.2063  -5.2057  -5.2054
    -5.2048  -5.2031  -5.2028  -5.2021  -5.2020  -5.2015  -5.2001  -5.2000
    -5.1996  -5.1996  -5.1981  -5.1971  -5.1962  -5.1956  -5.1949  -5.1946
    -5.1937  -5.1931  -5.1926  -5.1923  -5.1913  -5.1913  -5.1911  -5.1901
    -5.1899  -5.1889  -5.1882  -5.1875  -5.1869  -5.1868  -5.1864  -5.1859
    -5.1854  -5.1853  -5.1849  -5.1847  -5.1840  -5.1836  -5.1829  -5.1822
    -5.1821  -5.1815  -5.1814  -5.1805  -5.1803  -5.1794  -5.1792  -5.1788
    -5.1787  -5.1781  -5.1761  -5.1759  -5.1758  -5.1747  -5.1744  -5.1738
    -5.1730  -5.1727  -5.1722  -5.1717  -5.1712  -5.1710  -5.1703  -5.1692
    -5.1689  -5.1685  -5.1683  -5.1673  -5.1669  -5.1667  -5.1660  -5.1658
    -5.1653  -5.1641  -5.1637  -5.1634  -5.1626  -5.1619  -5.1618  -5.1608
    -5.1607  -5.1606  -5.1604  -5.1593  -5.1586  -5.1581  -5.1577  -5.1571
    -5.1567  -5.1557  -5.1551  -5.1538  -5.1537  -5.1527  -5.1527  -5.1520
    -5.1515  -5.1510  -5.1502  -5.1496  -5.1495  -5.1483  -5.1480  -5.1477
    -5.1471  -5.1468  -5.1465  -5.1448  -5.1445  -5.1443  -5.1442  -5.1430
    -5.1430  -5.1418  -5.1411  -5.1407  -5.1400  -5.1396  -5.1381  -5.1378
    -5.1369  -5.1367  -5.1366  -5.1355  -5.1354  -5.1349  -5.1348  -5.1337
    -5.1326  -5.1324  -5.1318  -5.1316  -5.1313  -5.1311  -5.1302  -5.1296
    -5.1292  -5.1286  -5.1285  -5.1284  -5.1276  -5.1274  -5.1272  -5.1263
    -5.1258  -5.1251  -5.1249  -5.1249  -5.1245  -5.1235  -5.1233  -5.1227
[...]
    15.4062  15.4127  15.4403  15.4581  15.4715  15.4981  15.5055  15.5100
    15.5162  15.5254  15.5391  15.5429  15.5513  15.5606  15.5624  15.5968
    15.6037  15.6190  15.6227  15.6460  15.6740  15.6772  15.7490  15.7531
    15.7882  15.7931  15.8155  15.8367  15.8377  15.8526  15.8589  15.8738
    15.8913  15.9117  15.9499  15.9553  15.9597  15.9866  15.9907  16.0027
    16.0127  16.0434  16.0499  16.0552  16.0703  16.0768  16.1055  16.1073
    16.1088  16.1159  16.1341  16.1368  16.1501  16.1503  16.1621  16.1806
    16.1841  16.1946  16.2143  16.2396  16.2453  16.2540  16.2713  16.2734
    16.2760  16.2872  16.2887  16.2940  16.3049  16.3075  16.3103  16.3222
    16.3297  16.3327  16.3340  16.3461  16.3549  16.3597  16.3665  16.3736
    16.4110  16.4219  16.4323  16.4545  16.4597  16.4791  16.4810  16.4901
    16.5025  16.5025  16.5097  16.5151  16.5230  16.5295  16.5423  16.5452
    16.5510  16.5513  16.5559  16.5596  16.5716  16.5791  16.5852  16.5998
    16.6009  16.6111  16.6175  16.6257  16.6323  16.6360  16.6501  16.6506
    16.6552  16.6635  16.6723  16.6761  16.6832  16.6876  16.6930

     occupation numbers
     1.0000   1.0000   1.0000   1.0000   1.0000   1.0000   1.0000   1.0000
     1.0000   1.0000   1.0000   1.0000   1.0000   1.0000   1.0000   1.0000
     1.0000   1.0000   1.0000   1.0000   1.0000   1.0000   1.0000   1.0000
     1.0000   1.0000   1.0000   1.0000   1.0000   1.0000   1.0000   1.0000
     1.0000   1.0000   1.0000   1.0000   1.0000   1.0000   1.0000   1.0000
     1.0000   1.0000   1.0000   1.0000   1.0000   1.0000   1.0000   1.0000
     1.0000   1.0000   1.0000   1.0000   1.0000   1.0000   1.0000   1.0000
     1.0000   1.0000   1.0000   1.0000   1.0000   1.0000   1.0000   1.0000
     1.0000   1.0000   1.0000   1.0000   1.0000   1.0000   1.0000   1.0000
     1.0000   1.0000   1.0000   1.0000   1.0000   1.0000   1.0000   1.0000
     1.0000   1.0000   1.0000   1.0000   1.0000   1.0000   1.0000   1.0000
     1.0000   1.0000   1.0000   1.0000   1.0000   1.0000   1.0000   1.0000
     1.0000   1.0000   1.0000   1.0000   1.0000   1.0000   1.0000   1.0000
     1.0000   1.0000   1.0000   1.0000   1.0000   1.0000   1.0000   1.0000
     1.0000   1.0000   1.0000   1.0000   1.0000   1.0000   1.0000   1.0000
     1.0000   1.0000   1.0000   1.0000   1.0000   1.0000   1.0000   1.0000
     1.0000   1.0000   1.0000   1.0000   1.0000   1.0000   1.0000   1.0000
     1.0000   1.0000   1.0000   1.0000   1.0000   1.0000   1.0000   1.0000
     1.0000   1.0000   1.0000   1.0000   1.0000   1.0000   1.0000   1.0000
     1.0000   1.0000   1.0000   1.0000   1.0000   1.0000   1.0000   1.0000
     1.0000   1.0000   1.0000   1.0000   1.0000   1.0000   1.0000   1.0000
     1.0000   1.0000   1.0000   1.0000   1.0000   1.0000   1.0000   1.0000
     1.0000   1.0000   1.0000   1.0000   1.0000   1.0000   1.0000   1.0000
     1.0000   1.0000   1.0000   1.0000   1.0000   1.0000   1.0000   1.0000
     1.0000   1.0000   1.0000   1.0000   1.0000   1.0000   1.0000   1.0000
     1.0000   1.0000   1.0000   1.0000   1.0000   1.0000   1.0000   1.0000
     1.0000   1.0000   1.0000   1.0000   1.0000   1.0000   1.0000   1.0000
     1.0000   1.0000   1.0000   1.0000   1.0000   1.0000   1.0000   1.0000
     1.0000   1.0000   1.0000   1.0000   1.0000   1.0000   1.0000   1.0000
     1.0000   1.0000   1.0000   1.0000   1.0000   1.0000   1.0000   1.0000
     1.0000   1.0000   1.0000   1.0000   1.0000   1.0000   1.0000   1.0000
     1.0000   1.0000   1.0000   1.0000   1.0000   1.0000   1.0000   1.0000
     1.0000   1.0000   1.0000   1.0000   1.0000   1.0000   1.0000   1.0000
     1.0000   1.0000   1.0000   1.0000   1.0000   1.0000   1.0000   1.0000
     1.0000   1.0000   1.0000   1.0000   1.0000   1.0000   1.0000   1.0000
     1.0000   1.0000   1.0000   1.0000   1.0000   1.0000   1.0000   1.0000
     1.0000   1.0000   1.0000   1.0000   1.0000   1.0000   1.0000   1.0000
     1.0000   1.0000   1.0000   1.0000   1.0000   1.0000   1.0000   1.0000
     1.0000   1.0000   1.0000   1.0000   1.0000   1.0000   1.0000   1.0000
     1.0000   1.0000   1.0000   1.0000   1.0000   1.0000   1.0000   1.0000
     1.0000   1.0000   1.0000   1.0000   1.0000   1.0000   1.0000   1.0000
     1.0000   1.0000   1.0000   1.0000   1.0000   1.0000   1.0000   1.0000
     1.0000   1.0000   1.0000   1.0000   1.0000   1.0000   1.0000   1.0000
     1.0000   1.0000   1.0000   1.0000   1.0000   1.0000   1.0000   1.0000
     1.0000   1.0000   1.0000   1.0000   1.0000   1.0000   1.0000   1.0000
     1.0000   1.0000   1.0000   1.0000   1.0000   1.0000   1.0000   1.0000
     1.0000   1.0000   1.0000   1.0000   1.0000   1.0000   1.0000   1.0000
     1.0000   1.0000   1.0000   1.0000   1.0000   1.0000   1.0000   1.0000
     1.0000   1.0000   1.0000   1.0000   1.0000   1.0000   1.0000   1.0000
     1.0000   1.0000   1.0000   1.0000   1.0000   1.0000   1.0000   1.0000
     1.0000   1.0000   1.0000   1.0000   1.0000   1.0000   1.0000   1.0000
     1.0000   1.0000   1.0000   1.0000   1.0000   1.0000   1.0000   1.0000
     1.0000   1.0000   1.0000   1.0000   1.0000   1.0000   1.0000   1.0000
     1.0000   1.0000   1.0000   1.0000   1.0000   1.0000   1.0000   1.0000
     1.0000   1.0000   1.0000   1.0000   1.0000   1.0000   1.0000   1.0000
     1.0000   1.0000   1.0000   1.0000   1.0000   1.0000   1.0000   1.0000
     1.0000   1.0000   1.0000   1.0000   1.0000   1.0000   1.0000   1.0000
     1.0000   1.0000   1.0000   1.0000   1.0000   1.0000   1.0000   1.0000
     1.0000   1.0000   1.0000   1.0000   1.0000   1.0000   1.0000   1.0000
     1.0000   1.0000   1.0000   1.0000   1.0000   1.0000   1.0000   1.0000
[...]
     0.0000   0.0000   0.0000   0.0000   0.0000   0.0000   0.0000   0.0000
     0.0000   0.0000   0.0000   0.0000   0.0000   0.0000   0.0000   0.0000
     0.0000   0.0000   0.0000   0.0000   0.0000   0.0000   0.0000   0.0000
     0.0000   0.0000   0.0000   0.0000   0.0000   0.0000   0.0000   0.0000
     0.0000   0.0000   0.0000   0.0000   0.0000   0.0000   0.0000   0.0000
     0.0000   0.0000   0.0000   0.0000   0.0000   0.0000   0.0000   0.0000
     0.0000   0.0000   0.0000   0.0000   0.0000   0.0000   0.0000   0.0000
     0.0000   0.0000   0.0000   0.0000   0.0000   0.0000   0.0000   0.0000
     0.0000   0.0000   0.0000   0.0000   0.0000   0.0000   0.0000   0.0000
     0.0000   0.0000   0.0000   0.0000   0.0000   0.0000   0.0000   0.0000
     0.0000   0.0000   0.0000   0.0000   0.0000   0.0000   0.0000   0.0000
     0.0000   0.0000   0.0000   0.0000   0.0000   0.0000   0.0000   0.0000
     0.0000   0.0000   0.0000   0.0000   0.0000   0.0000   0.0000   0.0000
     0.0000   0.0000   0.0000   0.0000   0.0000   0.0000   0.0000   0.0000
     0.0000   0.0000   0.0000   0.0000   0.0000   0.0000   0.0000

     the Fermi energy is    10.1478 ev

!    total energy              =  -46588.56320986 Ry
     total all-electron energy =   -596779.216239 Ry
     estimated scf accuracy    <          5.6E-09 Ry
     smearing contrib. (-TS)   =      -0.00085384 Ry
     internal energy E=F+TS    =  -46588.56235602 Ry

     The total energy is F=E-TS. E is the sum of the following terms:
     one-electron contribution =  -14026.99637464 Ry
     hartree contribution      =    9837.48096902 Ry
     xc contribution           =   -6792.64135691 Ry
     ewald contribution        =  -17075.08475063 Ry
     one-center paw contrib.   =  -18531.32084285 Ry
      -> PAW hartree energy AE =     288.98949674 Ry
      -> PAW hartree energy PS =    -286.18873402 Ry
      -> PAW xc energy AE      =    -313.88167647 Ry
      -> PAW xc energy PS      =      79.46147382 Ry
      -> total E_H with PAW    =    9840.28173174 Ry
      -> total E_XC with PAW   =   -7027.06155955 Ry

     convergence has been achieved in  12 iterations

     max_seconds     =  154800.00

     Writing config to output data dir ./GaN.save/

     General routines

     Parallel routines

     PAW routines

   This run was terminated on:   5:39:14  24Mar2024

   JOB DONE.