     Program PWSCF v.7.1 starts on 12Apr2024 at 11:29:34

     Reading input from espresso.pwi
Warning: card &CELL ignored
Warning: card    CELL_DYNAMICS    = 'BFGS' ignored
Warning: card / ignored

     Current dimensions of program PWSCF are:
     Max number of different atomic species (ntypx) = 10
     Max number of k-points (npk) =  40000
     Max angular momentum in pseudopotentials (lmaxx) =  4
     file Ga.pbe-dn-kjpaw_psl.1.0.0.UPF: wavefunction(s)  4S renormalized
     file N.pbe-n-kjpaw_psl.1.0.0.UPF: wavefunction(s)  2S renormalized

     IMPORTANT: XC functional enforced from input :
     Exchange-correlation= BEEF-VDW
                           (   1   4  43  14   2   0   0)
     Any further DFT definition will be discarded
     Please, verify this is what you really want

     K-points division:     npool     =       3
     R & G space division:  proc/nbgrp/npool/nimage =      60
     Subspace diagonalization in iterative solution of the eigenvalue problem:
     a serial algorithm will be used

     Using Slab Decomposition

     bravais-lattice index     =            4
     lattice parameter (alat)  =      30.6565  a.u.
     unit-cell volume          =   24400.9461 (a.u.)^3
     number of atoms/cell      =          300
     number of atomic types    =            2
     number of electrons       =      2691.00
     number of Kohn-Sham states=         1615
     kinetic-energy cutoff     =      70.0000  Ry
     charge density cutoff     =     350.0000  Ry
     scf convergence threshold =      1.0E-07
     mixing beta               =       0.7000
     number of iterations used =            8  plain     mixing
     energy convergence thresh.=      1.0E-04
     force convergence thresh. =      1.0E-03
     Exchange-correlation= BEEF-VDW
                           (   1   4  43  14   2   0   0)
     nstep                     =           50

     celldm(1)=  30.656540  celldm(2)=   0.000000  celldm(3)=   0.977927
     celldm(4)=   0.000000  celldm(5)=   0.000000  celldm(6)=   0.000000

     crystal axes: (cart. coord. in units of alat)
               a(1) = (   1.000000   0.000000   0.000000 )
               a(2) = (  -0.500000   0.866025   0.000000 )
               a(3) = (   0.000000   0.000000   0.977927 )

     reciprocal axes: (cart. coord. in units 2 pi/alat)
               b(1) = (  1.000000  0.577350 -0.000000 )
               b(2) = (  0.000000  1.154701  0.000000 )
               b(3) = (  0.000000 -0.000000  1.022571 )

     PseudoPot. # 1 for Ga read from file:
     //group///packages/espresso/pseudo/psl_1.0.0/pslibrary.1.0.0/pbe/PSEUDOPOTENTIALS/Ga.pbe-dn-kjpaw_psl.1.0.0.UPF
     MD5 check sum: cd2a01e492f15b435d17032472d8505c
     Pseudo is Projector augmented-wave + core cor, Zval = 13.0
     Generated using 'atomic' code by A. Dal Corso  v.7.1
     Shape of augmentation charge: PSQ
     Using radial grid of 1205 points,  6 beta functions with:
                l(1) =   0
                l(2) =   0
                l(3) =   1
                l(4) =   1
                l(5) =   2
                l(6) =   2
     Q(r) pseudized with 0 coefficients

     PseudoPot. # 2 for N  read from file:
     //group///packages/espresso/pseudo/psl_1.0.0/pslibrary.1.0.0/pbe/PSEUDOPOTENTIALS/N.pbe-n-kjpaw_psl.1.0.0.UPF
     MD5 check sum: f77f775694dac7e2c3fe1c82443d1a16
     Pseudo is Projector augmented-wave + core cor, Zval =  5.0
     Generated using 'atomic' code by A. Dal Corso  v.7.1
     Shape of augmentation charge: PSQ
     Using radial grid of 1085 points,  4 beta functions with:
                l(1) =   0
                l(2) =   0
                l(3) =   1
                l(4) =   1
     Q(r) pseudized with 0 coefficients

     atomic species   valence    mass     pseudopotential
        Ga            13.00    69.72300     Ga( 1.00)
        N              5.00    14.00700     N ( 1.00)

      2 Sym. Ops. (no inversion) found

                                    s                        frac. trans.

      isym =  1     identity

 cryst.   s( 1) = (     1          0          0      )
                  (     0          1          0      )
                  (     0          0          1      )

 cart.    s( 1) = (  1.0000000  0.0000000  0.0000000 )
                  (  0.0000000  1.0000000  0.0000000 )
                  (  0.0000000  0.0000000  1.0000000 )

      isym =  2     inv. 180 deg rotation - cryst. axis [0,1,0]

 cryst.   s( 2) = (     1          1          0      )
                  (     0         -1          0      )
                  (     0          0          1      )

 cart.    s( 2) = (  0.5000000  0.8660254  0.0000000 )
                  (  0.8660254 -0.5000000  0.0000000 )
                  (  0.0000000  0.0000000  1.0000000 )

     point group C_s (m)
     there are  2 classes
     the character table:

       E     s
A'     1.00  1.00
A''    1.00 -1.00

     the symmetry operations in each class and the name of the first element:

     E        1
          identity
     s        2
          inv. 180 deg rotation - cryst. axis [0,1,0]

   Cartesian axes

     site n.     atom                  positions (alat units)
         1           Ga  tau(   1) = (   0.1000001   0.0577350   0.4886906  )
         2           Ga  tau(   2) = (   0.1000001   0.0577350   0.8146665  )
         3           Ga  tau(   3) = (   0.0000001   0.2309401   0.1627148  )
         4           Ga  tau(   4) = (   0.0000001   0.2309401   0.4886906  )
         5           Ga  tau(   5) = (   0.0000001   0.2309401   0.8146665  )
         6           Ga  tau(   6) = (  -0.0999999   0.4041451   0.1627148  )
         7           Ga  tau(   7) = (  -0.0999999   0.4041451   0.4886906  )
         8           Ga  tau(   8) = (  -0.0999999   0.4041451   0.8146665  )
         9           Ga  tau(   9) = (  -0.1999999   0.5773502   0.1627148  )
        10           Ga  tau(  10) = (  -0.1999999   0.5773502   0.4886906  )
        11           Ga  tau(  11) = (  -0.1999999   0.5773502   0.8146665  )
        12           Ga  tau(  12) = (  -0.2999999   0.7505553   0.1627148  )
        13           Ga  tau(  13) = (  -0.2999999   0.7505553   0.4886906  )
        14           Ga  tau(  14) = (  -0.2999999   0.7505553   0.8146665  )
        15           Ga  tau(  15) = (   0.3000001   0.0577350   0.1627148  )
        16           Ga  tau(  16) = (   0.3000001   0.0577350   0.4886906  )
        17           Ga  tau(  17) = (   0.3000001   0.0577350   0.8146665  )
        18           Ga  tau(  18) = (   0.2000001   0.2309401   0.1627148  )
        19           Ga  tau(  19) = (   0.2000001   0.2309401   0.4886906  )
        20           Ga  tau(  20) = (   0.2000001   0.2309401   0.8146665  )
        21           Ga  tau(  21) = (   0.1000001   0.4041451   0.1627148  )
        22           Ga  tau(  22) = (   0.1000001   0.4041451   0.4886906  )
        23           Ga  tau(  23) = (   0.1000001   0.4041451   0.8146665  )
        24           Ga  tau(  24) = (   0.0000001   0.5773502   0.1627148  )
        25           Ga  tau(  25) = (   0.0000001   0.5773502   0.4886906  )
        26           Ga  tau(  26) = (   0.0000001   0.5773502   0.8146665  )
        27           Ga  tau(  27) = (  -0.0999999   0.7505553   0.1627148  )
        28           Ga  tau(  28) = (  -0.0999999   0.7505553   0.4886906  )
        29           Ga  tau(  29) = (  -0.0999999   0.7505553   0.8146665  )
        30           Ga  tau(  30) = (   0.5000001   0.0577350   0.1627148  )
        31           Ga  tau(  31) = (   0.5000001   0.0577350   0.4886906  )
        32           Ga  tau(  32) = (   0.5000001   0.0577350   0.8146665  )
        33           Ga  tau(  33) = (   0.4000001   0.2309401   0.1627148  )
        34           Ga  tau(  34) = (   0.4000001   0.2309401   0.4886906  )
        35           Ga  tau(  35) = (   0.4000001   0.2309401   0.8146665  )
        36           Ga  tau(  36) = (   0.3000001   0.4041451   0.1627148  )
        37           Ga  tau(  37) = (   0.3000001   0.4041451   0.4886906  )
        38           Ga  tau(  38) = (   0.3000001   0.4041451   0.8146665  )
        39           Ga  tau(  39) = (   0.2000001   0.5773502   0.1627148  )
        40           Ga  tau(  40) = (   0.2000001   0.5773502   0.4886906  )
        41           Ga  tau(  41) = (   0.2000001   0.5773502   0.8146665  )
        42           Ga  tau(  42) = (   0.1000001   0.7505553   0.1627148  )
        43           Ga  tau(  43) = (   0.1000001   0.7505553   0.4886906  )
        44           Ga  tau(  44) = (   0.1000001   0.7505553   0.8146665  )
        45           Ga  tau(  45) = (   0.7000001   0.0577350   0.1627148  )
        46           Ga  tau(  46) = (   0.7000001   0.0577350   0.4886906  )
        47           Ga  tau(  47) = (   0.7000001   0.0577350   0.8146665  )
        48           Ga  tau(  48) = (   0.6000001   0.2309401   0.1627148  )
        49           Ga  tau(  49) = (   0.6000001   0.2309401   0.4886906  )
        50           Ga  tau(  50) = (   0.6000001   0.2309401   0.8146665  )
        51           Ga  tau(  51) = (   0.5000001   0.4041451   0.1627148  )
        52           Ga  tau(  52) = (   0.5000001   0.4041451   0.4886906  )
        53           Ga  tau(  53) = (   0.5000001   0.4041451   0.8146665  )
        54           Ga  tau(  54) = (   0.4000001   0.5773502   0.1627148  )
        55           Ga  tau(  55) = (   0.4000001   0.5773502   0.4886906  )
        56           Ga  tau(  56) = (   0.4000001   0.5773502   0.8146665  )
        57           Ga  tau(  57) = (   0.3000001   0.7505553   0.1627148  )
        58           Ga  tau(  58) = (   0.3000001   0.7505553   0.4886906  )
        59           Ga  tau(  59) = (   0.3000001   0.7505553   0.8146665  )
        60           Ga  tau(  60) = (   0.9000001   0.0577350   0.1627148  )
[...]
       286           N   tau( 286) = (   0.7999999   0.1154701   0.4484898  )
       287           N   tau( 287) = (   0.7999999   0.1154701   0.7744656  )
       288           N   tau( 288) = (   0.6999999   0.2886752   0.1225140  )
       289           N   tau( 289) = (   0.6999999   0.2886752   0.4484898  )
       290           N   tau( 290) = (   0.6999999   0.2886752   0.7744656  )
       291           N   tau( 291) = (   0.5999999   0.4618803   0.1225140  )
       292           N   tau( 292) = (   0.5999999   0.4618803   0.4484898  )
       293           N   tau( 293) = (   0.5999999   0.4618803   0.7744656  )
       294           N   tau( 294) = (   0.4999999   0.6350854   0.1225140  )
       295           N   tau( 295) = (   0.4999999   0.6350854   0.4484898  )
       296           N   tau( 296) = (   0.4999999   0.6350854   0.7744656  )
       297           N   tau( 297) = (   0.3999999   0.8082905   0.1225140  )
       298           N   tau( 298) = (   0.3999999   0.8082905   0.4484898  )
       299           N   tau( 299) = (   0.3999999   0.8082905   0.7744656  )
       300           N   tau( 300) = (   0.1000001   0.0577350   0.1627148  )

   Crystallographic axes

     site n.     atom                  positions (cryst. coord.)
         1           Ga  tau(   1) = (  0.1333334  0.0666666  0.4997208  )
[...]
     atom   54 type  1   force =     0.00000000    0.00000000    0.00000000
     atom   55 type  1   force =     0.00000000    0.00000000    0.00000000
     atom   56 type  1   force =     0.00000000    0.00000000    0.00000000
     atom   57 type  1   force =     0.00000000    0.00000000    0.00000000
     atom   58 type  1   force =     0.00000000    0.00000000    0.00000000
     atom   59 type  1   force =     0.00000000    0.00000000    0.00000000
     atom   60 type  1   force =     0.00000000    0.00000000    0.00000000
[...]
     atom  286 type  2   force =     0.00000000    0.00000000    0.00000000
     atom  287 type  2   force =     0.00000000    0.00000000    0.00000000
     atom  288 type  2   force =     0.00000000    0.00000000    0.00000000
     atom  289 type  2   force =     0.00000000    0.00000000    0.00000000
     atom  290 type  2   force =     0.00000000    0.00000000    0.00000000
     atom  291 type  2   force =     0.00000000    0.00000000    0.00000000
     atom  292 type  2   force =     0.00000000    0.00000000    0.00000000
     atom  293 type  2   force =     0.00000000    0.00000000    0.00000000
     atom  294 type  2   force =     0.00000000    0.00000000    0.00000000
     atom  295 type  2   force =     0.00000000    0.00000000    0.00000000
     atom  296 type  2   force =     0.00000000    0.00000000    0.00000000
     atom  297 type  2   force =     0.00000000    0.00000000    0.00000000
     atom  298 type  2   force =     0.00000000    0.00000000    0.00000000
     atom  299 type  2   force =     0.00000000    0.00000000    0.00000000
     atom  300 type  2   force =     0.00000000    0.00000000    0.00000000
     The SCF correction term to forces
     atom    1 type  1   force =     0.00000093    0.00000054   -0.00004302
     atom    2 type  1   force =     0.00000006    0.00000004    0.00000544
     atom    3 type  1   force =     0.00000398    0.00001432    0.00000363
     atom    4 type  1   force =    -0.00000245    0.00001838    0.00000015
     atom    5 type  1   force =     0.00000144   -0.00000119   -0.00000866
     atom    6 type  1   force =    -0.00001058    0.00001265    0.00001311
     atom    7 type  1   force =    -0.00000782    0.00000913   -0.00001769
     atom    8 type  1   force =    -0.00000339    0.00000411    0.00000486
     atom    9 type  1   force =     0.00000566   -0.00001549    0.00001311
     atom   10 type  1   force =     0.00000400   -0.00001134   -0.00001769
     atom   11 type  1   force =     0.00000187   -0.00000499    0.00000486
     atom   12 type  1   force =     0.00001439   -0.00000372    0.00000363
     atom   13 type  1   force =     0.00001470   -0.00001131    0.00000015
     atom   14 type  1   force =    -0.00000031    0.00000185   -0.00000866
     atom   15 type  1   force =     0.00000808   -0.00001040    0.00000414
     atom   16 type  1   force =     0.00001655   -0.00000579   -0.00000017
     atom   17 type  1   force =    -0.00000289   -0.00000004   -0.00000766
     atom   18 type  1   force =    -0.00000497    0.00001220    0.00000414
     atom   19 type  1   force =     0.00000326    0.00001723   -0.00000017
     atom   20 type  1   force =    -0.00000148   -0.00000249   -0.00000766
     atom   21 type  1   force =    -0.00000047   -0.00000070    0.00000173
     atom   22 type  1   force =    -0.00000024    0.00000587   -0.00002027
     atom   23 type  1   force =    -0.00000001    0.00000758    0.00000310
     atom   24 type  1   force =     0.00001026    0.00000592    0.00001584
     atom   25 type  1   force =     0.00000399    0.00000231   -0.00002673
     atom   26 type  1   force =     0.00000351    0.00000203    0.00001077
     atom   27 type  1   force =    -0.00000084   -0.00000006    0.00000173
     atom   28 type  1   force =     0.00000496   -0.00000315   -0.00002027
     atom   29 type  1   force =     0.00000655   -0.00000380    0.00000310
     atom   30 type  1   force =     0.00001465    0.00000270    0.00001268
     atom   31 type  1   force =     0.00001087    0.00000240   -0.00001758
     atom   32 type  1   force =     0.00000441    0.00000124    0.00000535
     atom   33 type  1   force =     0.00003050    0.00001761    0.00001743
     atom   34 type  1   force =     0.00001461    0.00000843   -0.00001423
     atom   35 type  1   force =     0.00000701    0.00000405    0.00001001
     atom   36 type  1   force =     0.00000966    0.00001133    0.00001268
     atom   37 type  1   force =     0.00000751    0.00000821   -0.00001758
     atom   38 type  1   force =     0.00000327    0.00000320    0.00000535
     atom   39 type  1   force =    -0.00001031    0.00000564    0.00001592
     atom   40 type  1   force =    -0.00000483    0.00000209   -0.00002688
     atom   41 type  1   force =    -0.00000437    0.00000173    0.00001100
     atom   42 type  1   force =    -0.00000027   -0.00001175    0.00001592
     atom   43 type  1   force =    -0.00000061   -0.00000522   -0.00002688
     atom   44 type  1   force =    -0.00000068   -0.00000465    0.00001100
     atom   45 type  1   force =    -0.00001553    0.00000355    0.00001242
     atom   46 type  1   force =    -0.00001184    0.00000268   -0.00001795
     atom   47 type  1   force =    -0.00000557    0.00000125    0.00000540
     atom   48 type  1   force =    -0.00000062    0.00001599    0.00001499
     atom   49 type  1   force =    -0.00000004    0.00000957   -0.00002404
     atom   50 type  1   force =    -0.00000011    0.00000439    0.00000983
     atom   51 type  1   force =     0.00001354   -0.00000853    0.00001499
     atom   52 type  1   force =     0.00000826   -0.00000482   -0.00002404
     atom   53 type  1   force =     0.00000375   -0.00000229    0.00000983
     atom   54 type  1   force =    -0.00000469   -0.00001523    0.00001242
     atom   55 type  1   force =    -0.00000360   -0.00001160   -0.00001795
     atom   56 type  1   force =    -0.00000170   -0.00000545    0.00000540
     atom   57 type  1   force =     0.00000285    0.00000164    0.00000148
     atom   58 type  1   force =    -0.00000488   -0.00000282   -0.00002084
     atom   59 type  1   force =    -0.00000709   -0.00000409    0.00000349
     atom   60 type  1   force =    -0.00000409   -0.00000667    0.00000287
[...]
     atom  286 type  2   force =    -0.00000599    0.00000057   -0.00000613
     atom  287 type  2   force =    -0.00000151    0.00000114    0.00000095
     atom  288 type  2   force =    -0.00000852    0.00000501    0.00000915
     atom  289 type  2   force =    -0.00000650    0.00000405   -0.00000953
     atom  290 type  2   force =    -0.00000103    0.00000079    0.00000288
     atom  291 type  2   force =     0.00000008   -0.00000988    0.00000915
     atom  292 type  2   force =     0.00000026   -0.00000766   -0.00000953
     atom  293 type  2   force =     0.00000017   -0.00000128    0.00000288
     atom  294 type  2   force =    -0.00000683   -0.00001026    0.00000567
     atom  295 type  2   force =    -0.00000250   -0.00000547   -0.00000613
     atom  296 type  2   force =     0.00000023   -0.00000188    0.00000095
     atom  297 type  2   force =    -0.00000759   -0.00000438    0.00000335
     atom  298 type  2   force =    -0.00000428   -0.00000247   -0.00000444
     atom  299 type  2   force =     0.00000040    0.00000023   -0.00000033
     atom  300 type  2   force =    -0.00000001   -0.00000001    0.00000198

     Total force =     0.011114     Total SCF correction =     0.000265

     Computing stress (Cartesian axis) and pressure

[...]

          total   stress  (Ry/bohr**3)                   (kbar)     P=       -8.35
  -0.00007894   0.00000001  -0.00000004          -11.61        0.00       -0.01
   0.00000001  -0.00007895  -0.00000002            0.00      -11.61       -0.00
  -0.00000004  -0.00000002  -0.00001236           -0.01       -0.00       -1.82

     kinetic stress (kbar)  18383.99      0.01     -0.00
                                0.01  18383.98     -0.00
                               -0.00     -0.00  18406.47

     local   stress (kbar)   5202.15      0.31     -0.02
                                0.31   5201.62     -0.01
                               -0.02     -0.01   3838.29

     nonloc. stress (kbar)     86.58      0.00      0.00
                                0.00     86.57      0.00
                                0.00      0.00     95.58

     hartree stress (kbar)  19552.93     -0.14      0.03
                               -0.14  19553.10      0.02
                                0.03      0.02  20195.34

     exc-cor stress (kbar)   5173.19     -0.00     -0.00
                               -0.00   5173.20     -0.00
                               -0.00     -0.00   5172.63

     corecor stress (kbar) -14024.52      0.00      0.00
                                0.00 -14024.52      0.00
                                0.00      0.00 -14024.32

     ewald   stress (kbar) -34547.07     -0.16     -0.01
                               -0.16 -34546.66     -0.01
                               -0.01     -0.01 -33846.31

     hubbard stress (kbar)      0.00      0.00      0.00
                                0.00      0.00      0.00
                                0.00      0.00      0.00

     DFT-D   stress (kbar)      0.00      0.00      0.00
                                0.00      0.00      0.00
                                0.00      0.00      0.00

     XDM     stress (kbar)      0.00      0.00      0.00
                                0.00      0.00      0.00
                                0.00      0.00      0.00

     dft-nl  stress (kbar)    161.11      0.00      0.00
                                0.00    161.11      0.00
                                0.00      0.00    160.51

     TS-vdW  stress (kbar)      0.00      0.00      0.00
                                0.00      0.00      0.00
                                0.00      0.00      0.00

     MDB     stress (kbar)      0.00      0.00      0.00
                                0.00      0.00      0.00
                                0.00      0.00      0.00

     3D-RISM stress (kbar)      0.00      0.00      0.00
                                0.00      0.00      0.00
                                0.00      0.00      0.00

     Energy error            =      5.2E-04 Ry
     Gradient error          =      3.1E-03 Ry/Bohr

     number of scf cycles    =   9
     number of bfgs steps    =   8

     energy             old  =  -46589.2916841371 Ry
     energy             new  =  -46589.2922028404 Ry

     CASE: energy            _new < energy            _old

     new trust radius        =       0.0095566958 bohr
     new conv_thr            =       0.0000000031 Ry

ATOMIC_POSITIONS (angstrom)
Ga            1.6214122677        0.9361213383        7.9210065196
Ga            1.6216428412        0.9362544600       13.1157579836
Ga            0.0802674484        3.7076279945        2.6745446237
Ga           -0.0056072525        3.7555045804        7.9463185500
Ga           -0.0018764085        3.7453144675       13.2006391435
Ga           -1.6086346133        6.5377989381        2.6379962401
Ga           -1.6248366908        6.5580143981        7.9260842950
Ga           -1.6233114018        6.5564045549       13.2215095359
Ga           -3.2537871104        9.3872866493        2.6379962401
Ga           -3.2443810472        9.3631475086        7.9260842950
Ga           -3.2450125678        9.3652733692       13.2215095359
Ga           -4.8603360136       12.2650042110        2.6745446237
Ga           -4.8618110245       12.1666962455        7.9463185500
Ga           -4.8687704990       12.1750223077       13.2006391435
Ga            4.7922243318        0.8877931499        2.6742428629
Ga            4.8779340905        0.9365599857        7.9462894510
Ga            4.8665420665        0.9382778922       13.2006908505
Ga            3.1649648608        3.7062892307        2.6742428629
Ga            3.2500530589        3.7561326412        7.9462894510
Ga            3.2458447975        3.7454079057       13.2006908505
Ga            1.6230626730        6.5634643203        2.6468058396
Ga            1.6224889287        6.5605743733        7.9312044061
Ga            1.6225474424        6.5605011218       13.2146281126
Ga           -0.0016189605        9.3652683319        2.6406392967
Ga            0.0002356805        9.3663391094        7.9270727644
Ga            0.0002081715        9.3663232271       13.2148975696
Ga           -1.6157115943       12.1731859055        2.6468058396
Ga           -1.6185012340       12.1741340019        7.9312044061
Ga           -1.6185354147       12.1742213020       13.2146281126
Ga            8.0894805970        0.9340462405        2.6381116301
Ga            8.1137707323        0.9373035153        7.9261227930
Ga            8.1117656147        0.9368794948       13.2216423901
Ga            6.4696724487        3.7352656590        2.6462803621
Ga            6.4891826648        3.7465298875        7.9257324096
Ga            6.4919330849        3.7481178433       13.2179907251
Ga            4.8536493450        6.5386703740        2.6381116301
Ga            4.8686152954        6.5580776108        7.9261227930
Ga            4.8672455241        6.5565531383       13.2216423901
Ga            3.2471388579        9.3654620103        2.6407930157
Ga            3.2445422405        9.3662758838        7.9271951050
Ga            3.2446530526        9.3663443999       13.2151600891
Ga            1.6229276791       12.1786782944        2.6407930157
Ga            1.6223342055       12.1760226210        7.9271951050
Ga            1.6224489483       12.1760843290       13.2151600891
Ga           11.3800872315        0.9343501484        2.6378983104
Ga           11.3522788996        0.9370917357        7.9260563782
Ga           11.3546730650        0.9365799115       13.2211604031
Ga            9.7332216343        3.7462918321        2.6410341996
Ga            9.7330376317        3.7458556612        7.9248814089
Ga            9.7329043391        3.7474246818       13.2164950879
Ga            8.1109959875        6.5560690738        2.6410341996
Ga            8.1105262511        6.5561278083        7.9248814089
Ga            8.1118184165        6.5552278632       13.2164950879
Ga            6.4992158541        9.3882673594        2.6378983104
Ga            6.4876859725        9.3628138439        7.9260563782
Ga            6.4884398024        9.3651431640       13.2211604031
Ga            4.8609398446       12.1726679671        2.6464008730
Ga            4.8624840517       12.1735595155        7.9312791236
Ga            4.8630492992       12.1738858613       13.2148320561
Ga           14.6739930141        0.8877309644        2.6739622627
[...]
N            12.9752058128        1.8715427441        7.2723155139
N            12.9753683482        1.8745484369       12.5697937169
N            11.3695232000        4.6752058935        1.9893088350
N            11.3560628960        4.6827656646        7.2726715431
N            11.3551374964        4.6832430951       12.5638542974
N             9.7336063517        7.5086969920        1.9893088350
N             9.7334231535        7.4932601413        7.2726715431
N             9.7333739206        7.4922200065       12.5638542974
N             8.1419916798       10.3835285066        1.9917054875
N             8.1084041471       10.3010904997        7.2723155139
N             8.1110884211       10.2997284131       12.5697937169
N             6.4881247213       13.1121277435        1.9764777279
N             6.4880472979       13.1120830431        7.2856658351
N             6.4874255888       13.1117240992       12.5702873150
N             1.6224086225        0.9366965840        2.3108351160

     Writing config-only to output data dir ./GaN.save/
     NEW-OLD atomic charge density approx. for the potential

     Check: negative core charge=   -0.000003

[...]

     Self-consistent Calculation

[...]

     Threshold (ethr) on eigenvalues was too large:
     Diagonalizing with lowered threshold

     Davidson diagonalization with overlap

     ethr =  3.10E-08,  avg # of iterations = 17.7

     Non-local corr. energy    =      81.33532269 Ry

     total energy              =  -46589.29206283 Ry
     estimated scf accuracy    <       0.00087847 Ry

     iteration #  2     ecut=    70.00 Ry     beta= 0.70
     Davidson diagonalization with overlap

     max_seconds     =  154800.00
     Calculation stopped in k-point loop, point #     2
     Calculation stopped in scf loop at iteration #     1

     Writing config to output data dir ./GaN.save/

     General routines

     Parallel routines

     PAW routines

   This run was terminated on:   6:35:20  14Apr2024

   JOB DONE.