     Program PWSCF v.7.1 starts on 24Mar2024 at 10:44:46

     Reading input from espresso.pwi
Warning: card &CELL ignored
Warning: card    CELL_DYNAMICS    = 'BFGS' ignored
Warning: card / ignored

     Current dimensions of program PWSCF are:
     Max number of different atomic species (ntypx) = 10
     Max number of k-points (npk) =  40000
     Max angular momentum in pseudopotentials (lmaxx) =  4
     file Ga.pbe-dn-kjpaw_psl.1.0.0.UPF: wavefunction(s)  4S renormalized
     file N.pbe-n-kjpaw_psl.1.0.0.UPF: wavefunction(s)  2S renormalized

     IMPORTANT: XC functional enforced from input :
     Exchange-correlation= BEEF-VDW
                           (   1   4  43  14   2   0   0)
     Any further DFT definition will be discarded
     Please, verify this is what you really want

     K-points division:     npool     =       4
     R & G space division:  proc/nbgrp/npool/nimage =      64
     Subspace diagonalization in iterative solution of the eigenvalue problem:
     a serial algorithm will be used

     Using Slab Decomposition

     bravais-lattice index     =            4
     lattice parameter (alat)  =      30.6565  a.u.
     unit-cell volume          =   24400.9461 (a.u.)^3
     number of atoms/cell      =          300
     number of atomic types    =            2
     number of electrons       =      2692.00
     number of Kohn-Sham states=         1615
     kinetic-energy cutoff     =      70.0000  Ry
     charge density cutoff     =     350.0000  Ry
     scf convergence threshold =      1.0E-07
     mixing beta               =       0.7000
     number of iterations used =            8  plain     mixing
     energy convergence thresh.=      1.0E-04
     force convergence thresh. =      1.0E-03
     Exchange-correlation= BEEF-VDW
                           (   1   4  43  14   2   0   0)
     nstep                     =           50

     celldm(1)=  30.656540  celldm(2)=   0.000000  celldm(3)=   0.977927
     celldm(4)=   0.000000  celldm(5)=   0.000000  celldm(6)=   0.000000

     crystal axes: (cart. coord. in units of alat)
               a(1) = (   1.000000   0.000000   0.000000 )
               a(2) = (  -0.500000   0.866025   0.000000 )
               a(3) = (   0.000000   0.000000   0.977927 )

     reciprocal axes: (cart. coord. in units 2 pi/alat)
               b(1) = (  1.000000  0.577350 -0.000000 )
               b(2) = (  0.000000  1.154701  0.000000 )
               b(3) = (  0.000000 -0.000000  1.022571 )

     PseudoPot. # 1 for Ga read from file:
     //group///packages/espresso/pseudo/psl_1.0.0/pslibrary.1.0.0/pbe/PSEUDOPOTENTIALS/Ga.pbe-dn-kjpaw_psl.1.0.0.UPF
     MD5 check sum: cd2a01e492f15b435d17032472d8505c
     Pseudo is Projector augmented-wave + core cor, Zval = 13.0
     Generated using 'atomic' code by A. Dal Corso  v.7.1
     Shape of augmentation charge: PSQ
     Using radial grid of 1205 points,  6 beta functions with:
                l(1) =   0
                l(2) =   0
                l(3) =   1
                l(4) =   1
                l(5) =   2
                l(6) =   2
     Q(r) pseudized with 0 coefficients

     PseudoPot. # 2 for N  read from file:
     //group///packages/espresso/pseudo/psl_1.0.0/pslibrary.1.0.0/pbe/PSEUDOPOTENTIALS/N.pbe-n-kjpaw_psl.1.0.0.UPF
     MD5 check sum: f77f775694dac7e2c3fe1c82443d1a16
     Pseudo is Projector augmented-wave + core cor, Zval =  5.0
     Generated using 'atomic' code by A. Dal Corso  v.7.1
     Shape of augmentation charge: PSQ
     Using radial grid of 1085 points,  4 beta functions with:
                l(1) =   0
                l(2) =   0
                l(3) =   1
                l(4) =   1
     Q(r) pseudized with 0 coefficients

     atomic species   valence    mass     pseudopotential
        Ga            13.00    69.72300     Ga( 1.00)
        N              5.00    14.00700     N ( 1.00)

      2 Sym. Ops. (no inversion) found

                                    s                        frac. trans.

      isym =  1     identity

 cryst.   s( 1) = (     1          0          0      )
                  (     0          1          0      )
                  (     0          0          1      )

 cart.    s( 1) = (  1.0000000  0.0000000  0.0000000 )
                  (  0.0000000  1.0000000  0.0000000 )
                  (  0.0000000  0.0000000  1.0000000 )

      isym =  2     inv. 180 deg rotation - cryst. axis [0,1,0]

 cryst.   s( 2) = (     1          1          0      )
                  (     0         -1          0      )
                  (     0          0          1      )

 cart.    s( 2) = (  0.5000000  0.8660254  0.0000000 )
                  (  0.8660254 -0.5000000  0.0000000 )
                  (  0.0000000  0.0000000  1.0000000 )

     point group C_s (m)
     there are  2 classes
     the character table:

       E     s
A'     1.00  1.00
A''    1.00 -1.00

     the symmetry operations in each class and the name of the first element:

     E        1
          identity
     s        2
          inv. 180 deg rotation - cryst. axis [0,1,0]

   Cartesian axes

     site n.     atom                  positions (alat units)
         1           Ga  tau(   1) = (   0.1000001   0.0577350   0.4886906  )
         2           Ga  tau(   2) = (   0.1000001   0.0577350   0.8146665  )
         3           Ga  tau(   3) = (   0.0000001   0.2309401   0.1627148  )
         4           Ga  tau(   4) = (   0.0000001   0.2309401   0.4886906  )
         5           Ga  tau(   5) = (   0.0000001   0.2309401   0.8146665  )
         6           Ga  tau(   6) = (  -0.0999999   0.4041451   0.1627148  )
         7           Ga  tau(   7) = (  -0.0999999   0.4041451   0.4886906  )
         8           Ga  tau(   8) = (  -0.0999999   0.4041451   0.8146665  )
         9           Ga  tau(   9) = (  -0.1999999   0.5773502   0.1627148  )
        10           Ga  tau(  10) = (  -0.1999999   0.5773502   0.4886906  )
        11           Ga  tau(  11) = (  -0.1999999   0.5773502   0.8146665  )
        12           Ga  tau(  12) = (  -0.2999999   0.7505553   0.1627148  )
        13           Ga  tau(  13) = (  -0.2999999   0.7505553   0.4886906  )
        14           Ga  tau(  14) = (  -0.2999999   0.7505553   0.8146665  )
        15           Ga  tau(  15) = (   0.3000001   0.0577350   0.1627148  )
        16           Ga  tau(  16) = (   0.3000001   0.0577350   0.4886906  )
        17           Ga  tau(  17) = (   0.3000001   0.0577350   0.8146665  )
        18           Ga  tau(  18) = (   0.2000001   0.2309401   0.1627148  )
        19           Ga  tau(  19) = (   0.2000001   0.2309401   0.4886906  )
        20           Ga  tau(  20) = (   0.2000001   0.2309401   0.8146665  )
        21           Ga  tau(  21) = (   0.1000001   0.4041451   0.1627148  )
        22           Ga  tau(  22) = (   0.1000001   0.4041451   0.4886906  )
        23           Ga  tau(  23) = (   0.1000001   0.4041451   0.8146665  )
        24           Ga  tau(  24) = (   0.0000001   0.5773502   0.1627148  )
        25           Ga  tau(  25) = (   0.0000001   0.5773502   0.4886906  )
        26           Ga  tau(  26) = (   0.0000001   0.5773502   0.8146665  )
        27           Ga  tau(  27) = (  -0.0999999   0.7505553   0.1627148  )
        28           Ga  tau(  28) = (  -0.0999999   0.7505553   0.4886906  )
        29           Ga  tau(  29) = (  -0.0999999   0.7505553   0.8146665  )
        30           Ga  tau(  30) = (   0.5000001   0.0577350   0.1627148  )
        31           Ga  tau(  31) = (   0.5000001   0.0577350   0.4886906  )
        32           Ga  tau(  32) = (   0.5000001   0.0577350   0.8146665  )
        33           Ga  tau(  33) = (   0.4000001   0.2309401   0.1627148  )
        34           Ga  tau(  34) = (   0.4000001   0.2309401   0.4886906  )
        35           Ga  tau(  35) = (   0.4000001   0.2309401   0.8146665  )
        36           Ga  tau(  36) = (   0.3000001   0.4041451   0.1627148  )
        37           Ga  tau(  37) = (   0.3000001   0.4041451   0.4886906  )
        38           Ga  tau(  38) = (   0.3000001   0.4041451   0.8146665  )
        39           Ga  tau(  39) = (   0.2000001   0.5773502   0.1627148  )
        40           Ga  tau(  40) = (   0.2000001   0.5773502   0.4886906  )
        41           Ga  tau(  41) = (   0.2000001   0.5773502   0.8146665  )
        42           Ga  tau(  42) = (   0.1000001   0.7505553   0.1627148  )
        43           Ga  tau(  43) = (   0.1000001   0.7505553   0.4886906  )
        44           Ga  tau(  44) = (   0.1000001   0.7505553   0.8146665  )
        45           Ga  tau(  45) = (   0.7000001   0.0577350   0.1627148  )
        46           Ga  tau(  46) = (   0.7000001   0.0577350   0.4886906  )
        47           Ga  tau(  47) = (   0.7000001   0.0577350   0.8146665  )
        48           Ga  tau(  48) = (   0.6000001   0.2309401   0.1627148  )
        49           Ga  tau(  49) = (   0.6000001   0.2309401   0.4886906  )
        50           Ga  tau(  50) = (   0.6000001   0.2309401   0.8146665  )
        51           Ga  tau(  51) = (   0.5000001   0.4041451   0.1627148  )
        52           Ga  tau(  52) = (   0.5000001   0.4041451   0.4886906  )
        53           Ga  tau(  53) = (   0.5000001   0.4041451   0.8146665  )
        54           Ga  tau(  54) = (   0.4000001   0.5773502   0.1627148  )
        55           Ga  tau(  55) = (   0.4000001   0.5773502   0.4886906  )
        56           Ga  tau(  56) = (   0.4000001   0.5773502   0.8146665  )
        57           Ga  tau(  57) = (   0.3000001   0.7505553   0.1627148  )
        58           Ga  tau(  58) = (   0.3000001   0.7505553   0.4886906  )
        59           Ga  tau(  59) = (   0.3000001   0.7505553   0.8146665  )
        60           Ga  tau(  60) = (   0.9000001   0.0577350   0.1627148  )
[...]
       286           N   tau( 286) = (   0.7999999   0.1154701   0.4484898  )
       287           N   tau( 287) = (   0.7999999   0.1154701   0.7744656  )
       288           N   tau( 288) = (   0.6999999   0.2886752   0.1225140  )
       289           N   tau( 289) = (   0.6999999   0.2886752   0.4484898  )
       290           N   tau( 290) = (   0.6999999   0.2886752   0.7744656  )
       291           N   tau( 291) = (   0.5999999   0.4618803   0.1225140  )
       292           N   tau( 292) = (   0.5999999   0.4618803   0.4484898  )
       293           N   tau( 293) = (   0.5999999   0.4618803   0.7744656  )
       294           N   tau( 294) = (   0.4999999   0.6350854   0.1225140  )
       295           N   tau( 295) = (   0.4999999   0.6350854   0.4484898  )
       296           N   tau( 296) = (   0.4999999   0.6350854   0.7744656  )
       297           N   tau( 297) = (   0.3999999   0.8082905   0.1225140  )
       298           N   tau( 298) = (   0.3999999   0.8082905   0.4484898  )
       299           N   tau( 299) = (   0.3999999   0.8082905   0.7744656  )
       300           N   tau( 300) = (   0.1000001   0.0577350   0.1627148  )

   Crystallographic axes

     site n.     atom                  positions (cryst. coord.)
         1           Ga  tau(   1) = (  0.1333334  0.0666666  0.4997208  )
[...]
     atom   54 type  1   force =     0.00000000    0.00000000    0.00000000
     atom   55 type  1   force =     0.00000000    0.00000000    0.00000000
     atom   56 type  1   force =     0.00000000    0.00000000    0.00000000
     atom   57 type  1   force =     0.00000000    0.00000000    0.00000000
     atom   58 type  1   force =     0.00000000    0.00000000    0.00000000
     atom   59 type  1   force =     0.00000000    0.00000000    0.00000000
     atom   60 type  1   force =     0.00000000    0.00000000    0.00000000
[...]
     atom  286 type  2   force =     0.00000000    0.00000000    0.00000000
     atom  287 type  2   force =     0.00000000    0.00000000    0.00000000
     atom  288 type  2   force =     0.00000000    0.00000000    0.00000000
     atom  289 type  2   force =     0.00000000    0.00000000    0.00000000
     atom  290 type  2   force =     0.00000000    0.00000000    0.00000000
     atom  291 type  2   force =     0.00000000    0.00000000    0.00000000
     atom  292 type  2   force =     0.00000000    0.00000000    0.00000000
     atom  293 type  2   force =     0.00000000    0.00000000    0.00000000
     atom  294 type  2   force =     0.00000000    0.00000000    0.00000000
     atom  295 type  2   force =     0.00000000    0.00000000    0.00000000
     atom  296 type  2   force =     0.00000000    0.00000000    0.00000000
     atom  297 type  2   force =     0.00000000    0.00000000    0.00000000
     atom  298 type  2   force =     0.00000000    0.00000000    0.00000000
     atom  299 type  2   force =     0.00000000    0.00000000    0.00000000
     atom  300 type  2   force =     0.00000000    0.00000000    0.00000000
     The SCF correction term to forces
     atom    1 type  1   force =     0.00000550    0.00000317    0.00000359
     atom    2 type  1   force =     0.00000466    0.00000269    0.00000296
     atom    3 type  1   force =    -0.00000137    0.00000673   -0.00000424
     atom    4 type  1   force =     0.00000727   -0.00001136    0.00000772
     atom    5 type  1   force =    -0.00000383    0.00001244    0.00000402
     atom    6 type  1   force =    -0.00000287    0.00000382   -0.00000485
     atom    7 type  1   force =     0.00000509    0.00000493    0.00001837
     atom    8 type  1   force =     0.00000245    0.00000277   -0.00000573
     atom    9 type  1   force =     0.00000187   -0.00000440   -0.00000485
     atom   10 type  1   force =     0.00000681    0.00000195    0.00001837
     atom   11 type  1   force =     0.00000362    0.00000074   -0.00000573
     atom   12 type  1   force =     0.00000514   -0.00000455   -0.00000424
     atom   13 type  1   force =    -0.00000621    0.00001197    0.00000772
     atom   14 type  1   force =     0.00000886   -0.00000954    0.00000402
     atom   15 type  1   force =    -0.00000218   -0.00000267   -0.00000766
     atom   16 type  1   force =    -0.00001334    0.00000621    0.00001221
     atom   17 type  1   force =     0.00001215    0.00000549    0.00000799
     atom   18 type  1   force =    -0.00000340   -0.00000055   -0.00000766
     atom   19 type  1   force =    -0.00000129   -0.00001466    0.00001221
     atom   20 type  1   force =     0.00001083    0.00000777    0.00000799
     atom   21 type  1   force =    -0.00000122    0.00001340   -0.00001010
     atom   22 type  1   force =    -0.00000038    0.00000047    0.00001636
     atom   23 type  1   force =     0.00000062    0.00000587   -0.00000648
     atom   24 type  1   force =     0.00000327    0.00000189   -0.00000080
     atom   25 type  1   force =     0.00000113    0.00000065    0.00001484
     atom   26 type  1   force =     0.00000448    0.00000259   -0.00000818
     atom   27 type  1   force =     0.00001099   -0.00000776   -0.00001010
     atom   28 type  1   force =     0.00000021   -0.00000057    0.00001636
     atom   29 type  1   force =     0.00000539   -0.00000240   -0.00000648
     atom   30 type  1   force =     0.00000634    0.00000379   -0.00000823
     atom   31 type  1   force =    -0.00000202   -0.00000214    0.00001931
     atom   32 type  1   force =    -0.00000159    0.00000235   -0.00000377
     atom   33 type  1   force =     0.00000456    0.00000263   -0.00001423
     atom   34 type  1   force =    -0.00000777   -0.00000449    0.00001841
     atom   35 type  1   force =    -0.00000168   -0.00000097    0.00000331
     atom   36 type  1   force =     0.00000646    0.00000360   -0.00000823
     atom   37 type  1   force =    -0.00000287   -0.00000068    0.00001931
     atom   38 type  1   force =     0.00000124   -0.00000256   -0.00000377
     atom   39 type  1   force =    -0.00000147    0.00000470   -0.00000272
     atom   40 type  1   force =    -0.00000634   -0.00000142    0.00001224
     atom   41 type  1   force =    -0.00000720    0.00000112   -0.00000555
     atom   42 type  1   force =     0.00000333   -0.00000362   -0.00000272
     atom   43 type  1   force =    -0.00000440   -0.00000478    0.00001224
     atom   44 type  1   force =    -0.00000262   -0.00000679   -0.00000555
     atom   45 type  1   force =    -0.00000561   -0.00000142   -0.00000450
     atom   46 type  1   force =    -0.00000475   -0.00000175    0.00001568
     atom   47 type  1   force =    -0.00000534    0.00000112   -0.00000088
     atom   48 type  1   force =    -0.00000131   -0.00000641   -0.00000824
     atom   49 type  1   force =    -0.00000442   -0.00000119    0.00001949
     atom   50 type  1   force =    -0.00000497    0.00000206   -0.00000658
     atom   51 type  1   force =    -0.00000621    0.00000207   -0.00000824
     atom   52 type  1   force =    -0.00000324   -0.00000323    0.00001949
     atom   53 type  1   force =    -0.00000070   -0.00000533   -0.00000658
     atom   54 type  1   force =    -0.00000403   -0.00000415   -0.00000450
     atom   55 type  1   force =    -0.00000389   -0.00000324    0.00001568
     atom   56 type  1   force =    -0.00000170   -0.00000519   -0.00000088
     atom   57 type  1   force =    -0.00001539   -0.00000888   -0.00000555
     atom   58 type  1   force =    -0.00000291   -0.00000168    0.00000910
     atom   59 type  1   force =    -0.00000853   -0.00000493    0.00000038
     atom   60 type  1   force =    -0.00000745    0.00000121   -0.00000109
[...]
     atom  286 type  2   force =     0.00000214    0.00000017    0.00000603
     atom  287 type  2   force =    -0.00000228    0.00000241   -0.00000150
     atom  288 type  2   force =     0.00000328   -0.00000276   -0.00000393
     atom  289 type  2   force =     0.00000106   -0.00000060    0.00000569
     atom  290 type  2   force =    -0.00000128    0.00000024   -0.00000297
     atom  291 type  2   force =    -0.00000075    0.00000422   -0.00000393
     atom  292 type  2   force =     0.00000001    0.00000122    0.00000569
     atom  293 type  2   force =    -0.00000043   -0.00000122   -0.00000297
     atom  294 type  2   force =     0.00000113   -0.00000380   -0.00000256
     atom  295 type  2   force =     0.00000122    0.00000177    0.00000603
     atom  296 type  2   force =     0.00000095   -0.00000318   -0.00000150
     atom  297 type  2   force =    -0.00000342   -0.00000197   -0.00000235
     atom  298 type  2   force =     0.00000213    0.00000123    0.00000710
     atom  299 type  2   force =    -0.00000277   -0.00000160   -0.00000102
     atom  300 type  2   force =     0.00001417    0.00000818    0.00000159

     Total force =     0.007008     Total SCF correction =     0.000173

     Computing stress (Cartesian axis) and pressure

[...]

          total   stress  (Ry/bohr**3)                   (kbar)     P=       -1.32
  -0.00003427  -0.00000019  -0.00000004           -5.04       -0.03       -0.01
  -0.00000019  -0.00003405  -0.00000002           -0.03       -5.01       -0.00
  -0.00000004  -0.00000002   0.00004144           -0.01       -0.00        6.10

     kinetic stress (kbar)  18393.98     -0.09     -0.01
                               -0.09  18394.08     -0.01
                               -0.01     -0.01  18424.06

     local   stress (kbar)   5198.94     -3.72      1.42
                               -3.72   5203.06      0.82
                                1.42      0.82   3838.98

     nonloc. stress (kbar)     79.65     -0.02      0.03
                               -0.02     79.68      0.02
                                0.03      0.02     86.47

     hartree stress (kbar)  19558.45      1.35     -0.43
                                1.35  19556.89     -0.25
                               -0.43     -0.25  20194.84

     exc-cor stress (kbar)   5171.44      0.01     -0.01
                                0.01   5171.43     -0.00
                               -0.01     -0.00   5171.11

     corecor stress (kbar) -14024.51     -0.00      0.00
                               -0.00 -14024.51      0.00
                                0.00      0.00 -14024.47

     ewald   stress (kbar) -34544.14      2.46     -1.01
                                2.46 -34546.75     -0.58
                               -1.01     -0.58 -33845.39

     hubbard stress (kbar)      0.00      0.00      0.00
                                0.00      0.00      0.00
                                0.00      0.00      0.00

     DFT-D   stress (kbar)      0.00      0.00      0.00
                                0.00      0.00      0.00
                                0.00      0.00      0.00

     XDM     stress (kbar)      0.00      0.00      0.00
                                0.00      0.00      0.00
                                0.00      0.00      0.00

     dft-nl  stress (kbar)    161.13     -0.00      0.00
                               -0.00    161.13      0.00
                                0.00      0.00    160.50

     TS-vdW  stress (kbar)      0.00      0.00      0.00
                                0.00      0.00      0.00
                                0.00      0.00      0.00

     MDB     stress (kbar)      0.00      0.00      0.00
                                0.00      0.00      0.00
                                0.00      0.00      0.00

     3D-RISM stress (kbar)      0.00      0.00      0.00
                                0.00      0.00      0.00
                                0.00      0.00      0.00

     Energy error            =      1.2E-04 Ry
     Gradient error          =      1.5E-03 Ry/Bohr

     number of scf cycles    =  31
     number of bfgs steps    =  29

     energy             old  =  -46588.5651850948 Ry
     energy             new  =  -46588.5653096510 Ry

     CASE: energy            _new < energy            _old

     new trust radius        =       0.0053364928 bohr
     new conv_thr            =       0.0000000012 Ry

ATOMIC_POSITIONS (angstrom)
Ga            1.6214494272        0.9361427923        7.8370627704
Ga            1.6201122140        0.9353707519       13.1206693179
Ga            0.0758720070        3.6830615422        2.6596288755
Ga           -0.0096417370        3.7587207330        7.9522489735
Ga           -0.0017595811        3.7438438912       13.1976501089
Ga           -1.6078876110        6.5352945232        2.6380479921
Ga           -1.6257108159        6.5581883263        7.9259792958
Ga           -1.6233892174        6.5553990545       13.2216908372
Ga           -3.2555824961        9.3891857797        2.6380479921
Ga           -3.2446674835        9.3623035299        7.9259792958
Ga           -3.2459222645        9.3657087291       13.2216908372
Ga           -4.8838089061       12.2734808732        2.6596288755
Ga           -4.8610429968       12.1615942032        7.9522489735
Ga           -4.8699856418       12.1758587713       13.1976501089
Ga            4.7693498294        0.9025747209        2.6604787052
Ga            4.8828665395        0.9389512212        7.9522334645
Ga            4.8643191330        0.9389099782       13.1984296555
Ga            3.1663288256        3.6790885450        2.6604787052
Ga            3.2545901541        3.7592086496        7.9522334645
Ga            3.2452807333        3.7431667459       13.1984296555
Ga            1.6226881006        6.5530248395        2.6454438334
Ga            1.6223913242        6.5563673172        7.9272610335
Ga            1.6226008926        6.5581410988       13.2153528409
Ga           -0.0021146010        9.3649821737        2.6407905324
Ga            0.0002575298        9.3663517241        7.9304013059
Ga           -0.0006885431        9.3658055087       13.2144497435
Ga           -1.6249397360       12.1780812567        2.6454438334
Ga           -1.6221934537       12.1761530020        7.9272610335
Ga           -1.6205525296       12.1754476027       13.2153528409
Ga            8.0855740462        0.9344302464        2.6377080142
Ga            8.1144466903        0.9381250518        7.9262160535
Ga            8.1106649272        0.9378479298       13.2220642781
Ga            6.4671981207        3.7338371050        2.6439604183
Ga            6.4887690776        3.7462911028        7.9226034447
Ga            6.4912160646        3.7477038714       13.2192083529
Ga            4.8520286284        6.5350951988        2.6377080142
Ga            4.8696647459        6.5582522393        7.9262160535
Ga            4.8675338696        6.5551156975       13.2220642781
Ga            3.2479595781        9.3656062197        2.6408412254
Ga            3.2446401741        9.3662655191        7.9304330534
Ga            3.2456273998        9.3657826632       13.2145547162
Ga            1.6234629282       12.1793169543        2.6408412254
Ga            1.6223741962       12.1761126163        7.9304330534
Ga            1.6224496437       12.1772090068       13.2145547162
Ga           11.3834577951        0.9348767403        2.6378814943
Ga           11.3519303929        0.9380277287        7.9257465216
Ga           11.3556650116        0.9376139910       13.2217099347
Ga            9.7328265011        3.7452796156        2.6407738808
Ga            9.7333080339        3.7460804797        7.9270012145
Ga            9.7331330091        3.7472941728       13.2171682335
Ga            8.1099218157        6.5562329866        2.6407738808
Ga            8.1108561508        6.5562495742        7.9270012145
Ga            8.1118197274        6.5554911517       13.2171682335
Ga            6.5013571780        9.3909230571        2.6378814943
Ga            6.4883223129        9.3620440317        7.9257465216
Ga            6.4898313148        9.3654851752       13.2217099347
Ga            4.8730981601       12.1796875738        2.6447340503
Ga            4.8666760520       12.1759797680        7.9269265402
Ga            4.8652545114       12.1751590412       13.2157138945
Ga           14.6999567788        0.9062742793        2.6586573299
[...]
N            12.9683193953        1.8719335820        7.2700806127
N            12.9731050182        1.8763655621       12.5683278697
N            11.3677526669        4.6760507093        1.9895010493
N            11.3544709797        4.6839764314        7.2743602043
N            11.3553111652        4.6834369108       12.5648978753
N             9.7334527170        7.5067412574        1.9895010493
N             9.7336757501        7.4912761179        7.2743602043
N             9.7336286043        7.4922735001       12.5648978753
N             8.1396789609       10.3798240083        1.9910268628
N             8.1052994139       10.2949312683        7.2700806127
N             8.1115304327       10.2968597492       12.5683278697
N             6.4957642598       13.1165384332        1.9760832544
N             6.4889031322       13.1125771593        7.2816830443
N             6.4858158532       13.1107947179       12.5679833232
N             1.6259708216        0.9387532206        2.4090659841

     Writing config-only to output data dir ./GaN.save/
     NEW-OLD atomic charge density approx. for the potential

     Check: negative core charge=   -0.000003

[...]

     Self-consistent Calculation

[...]

     Threshold (ethr) on eigenvalues was too large:
     Diagonalizing with lowered threshold

     Davidson diagonalization with overlap

[...]

     iteration #  3     ecut=    70.00 Ry     beta= 0.70
     Davidson diagonalization with overlap

     ethr =  1.35E-08,  avg # of iterations = 15.8

     Non-local corr. energy    =      81.33722063 Ry

     total energy              =  -46588.56532523 Ry
     estimated scf accuracy    <       0.00023370 Ry

     max_seconds     =  154800.00
     Calculation stopped in scf loop at iteration #     3

     Writing config to output data dir ./GaN.save/

     General routines

     Parallel routines

     PAW routines

   This run was terminated on:   5:58: 6  26Mar2024

   JOB DONE.