     Program PWSCF v.7.1 starts on 17Feb2024 at 22:19: 5

     Reading input from espresso.pwi
Warning: card &CELL ignored
Warning: card    CELL_DYNAMICS    = 'BFGS' ignored
Warning: card / ignored

     Current dimensions of program PWSCF are:
     Max number of different atomic species (ntypx) = 10
     Max number of k-points (npk) =  40000
     Max angular momentum in pseudopotentials (lmaxx) =  4
     file Ga.pbe-dn-kjpaw_psl.1.0.0.UPF: wavefunction(s)  4S renormalized
     file N.pbe-n-kjpaw_psl.1.0.0.UPF: wavefunction(s)  2S renormalized

     IMPORTANT: XC functional enforced from input :
     Exchange-correlation= BEEF-VDW
                           (   1   4  43  14   2   0   0)
     Any further DFT definition will be discarded
     Please, verify this is what you really want

     K-points division:     npool     =       4
     R & G space division:  proc/nbgrp/npool/nimage =      64
     Subspace diagonalization in iterative solution of the eigenvalue problem:
     a serial algorithm will be used

     Using Slab Decomposition

     bravais-lattice index     =            4
     lattice parameter (alat)  =      30.6565  a.u.
     unit-cell volume          =   24400.9461 (a.u.)^3
     number of atoms/cell      =          300
     number of atomic types    =            2
     number of electrons       =      2707.00
     number of Kohn-Sham states=         1625
     kinetic-energy cutoff     =      70.0000  Ry
     charge density cutoff     =     350.0000  Ry
     scf convergence threshold =      1.0E-07
     mixing beta               =       0.7000
     number of iterations used =            8  plain     mixing
     energy convergence thresh.=      1.0E-04
     force convergence thresh. =      1.0E-03
     Exchange-correlation= BEEF-VDW
                           (   1   4  43  14   2   0   0)
     nstep                     =           50

     celldm(1)=  30.656540  celldm(2)=   0.000000  celldm(3)=   0.977927
     celldm(4)=   0.000000  celldm(5)=   0.000000  celldm(6)=   0.000000

     crystal axes: (cart. coord. in units of alat)
               a(1) = (   1.000000   0.000000   0.000000 )
               a(2) = (  -0.500000   0.866025   0.000000 )
               a(3) = (   0.000000   0.000000   0.977927 )

     reciprocal axes: (cart. coord. in units 2 pi/alat)
               b(1) = (  1.000000  0.577350 -0.000000 )
               b(2) = (  0.000000  1.154701  0.000000 )
               b(3) = (  0.000000 -0.000000  1.022571 )

     PseudoPot. # 1 for Ga read from file:
     /trace/group/acmegroup/atimmins/packages/espresso/pseudo/psl_1.0.0/pslibrary.1.0.0/pbe/PSEUDOPOTENTIALS/Ga.pbe-dn-kjpaw_psl.1.0.0.UPF
     MD5 check sum: cd2a01e492f15b435d17032472d8505c
     Pseudo is Projector augmented-wave + core cor, Zval = 13.0
     Generated using 'atomic' code by A. Dal Corso  v.7.1
     Shape of augmentation charge: PSQ
     Using radial grid of 1205 points,  6 beta functions with:
                l(1) =   0
                l(2) =   0
                l(3) =   1
                l(4) =   1
                l(5) =   2
                l(6) =   2
     Q(r) pseudized with 0 coefficients

     PseudoPot. # 2 for N  read from file:
     /trace/group/acmegroup/atimmins/packages/espresso/pseudo/psl_1.0.0/pslibrary.1.0.0/pbe/PSEUDOPOTENTIALS/N.pbe-n-kjpaw_psl.1.0.0.UPF
     MD5 check sum: f77f775694dac7e2c3fe1c82443d1a16
     Pseudo is Projector augmented-wave + core cor, Zval =  5.0
     Generated using 'atomic' code by A. Dal Corso  v.7.1
     Shape of augmentation charge: PSQ
     Using radial grid of 1085 points,  4 beta functions with:
                l(1) =   0
                l(2) =   0
                l(3) =   1
                l(4) =   1
     Q(r) pseudized with 0 coefficients

     atomic species   valence    mass     pseudopotential
        Ga            13.00    69.72300     Ga( 1.00)
        N              5.00    14.00700     N ( 1.00)

      2 Sym. Ops. (no inversion) found

                                    s                        frac. trans.

      isym =  1     identity

 cryst.   s( 1) = (     1          0          0      )
                  (     0          1          0      )
                  (     0          0          1      )

 cart.    s( 1) = (  1.0000000  0.0000000  0.0000000 )
                  (  0.0000000  1.0000000  0.0000000 )
                  (  0.0000000  0.0000000  1.0000000 )

      isym =  2     inv. 180 deg rotation - cryst. axis [0,1,0]

 cryst.   s( 2) = (     1          1          0      )
                  (     0         -1          0      )
                  (     0          0          1      )

 cart.    s( 2) = (  0.5000000  0.8660254  0.0000000 )
                  (  0.8660254 -0.5000000  0.0000000 )
                  (  0.0000000  0.0000000  1.0000000 )

     point group C_s (m)
     there are  2 classes
     the character table:

       E     s
A'     1.00  1.00
A''    1.00 -1.00

     the symmetry operations in each class and the name of the first element:

     E        1
          identity
     s        2
          inv. 180 deg rotation - cryst. axis [0,1,0]

   Cartesian axes

     site n.     atom                  positions (alat units)
         1           Ga  tau(   1) = (   0.1000001   0.0577350   0.1627148  )
         2           Ga  tau(   2) = (   0.1000001   0.0577350   0.4886906  )
         3           Ga  tau(   3) = (   0.1000001   0.0577350   0.8146665  )
         4           Ga  tau(   4) = (   0.0000001   0.2309401   0.1627148  )
         5           Ga  tau(   5) = (   0.0000001   0.2309401   0.4886906  )
         6           Ga  tau(   6) = (   0.0000001   0.2309401   0.8146665  )
         7           Ga  tau(   7) = (  -0.0999999   0.4041451   0.1627148  )
         8           Ga  tau(   8) = (  -0.0999999   0.4041451   0.4886906  )
         9           Ga  tau(   9) = (  -0.0999999   0.4041451   0.8146665  )
        10           Ga  tau(  10) = (  -0.1999999   0.5773502   0.1627148  )
        11           Ga  tau(  11) = (  -0.1999999   0.5773502   0.4886906  )
        12           Ga  tau(  12) = (  -0.1999999   0.5773502   0.8146665  )
        13           Ga  tau(  13) = (  -0.2999999   0.7505553   0.1627148  )
        14           Ga  tau(  14) = (  -0.2999999   0.7505553   0.4886906  )
        15           Ga  tau(  15) = (  -0.2999999   0.7505553   0.8146665  )
        16           Ga  tau(  16) = (   0.3000001   0.0577350   0.1627148  )
        17           Ga  tau(  17) = (   0.3000001   0.0577350   0.4886906  )
        18           Ga  tau(  18) = (   0.3000001   0.0577350   0.8146665  )
        19           Ga  tau(  19) = (   0.2000001   0.2309401   0.1627148  )
        20           Ga  tau(  20) = (   0.2000001   0.2309401   0.4886906  )
        21           Ga  tau(  21) = (   0.2000001   0.2309401   0.8146665  )
        22           Ga  tau(  22) = (   0.1000001   0.4041451   0.1627148  )
        23           Ga  tau(  23) = (   0.1000001   0.4041451   0.4886906  )
        24           Ga  tau(  24) = (   0.1000001   0.4041451   0.8146665  )
        25           Ga  tau(  25) = (   0.0000001   0.5773502   0.1627148  )
        26           Ga  tau(  26) = (   0.0000001   0.5773502   0.4886906  )
        27           Ga  tau(  27) = (   0.0000001   0.5773502   0.8146665  )
        28           Ga  tau(  28) = (  -0.0999999   0.7505553   0.1627148  )
        29           Ga  tau(  29) = (  -0.0999999   0.7505553   0.4886906  )
        30           Ga  tau(  30) = (  -0.0999999   0.7505553   0.8146665  )
        31           Ga  tau(  31) = (   0.5000001   0.0577350   0.1627148  )
        32           Ga  tau(  32) = (   0.5000001   0.0577350   0.4886906  )
        33           Ga  tau(  33) = (   0.5000001   0.0577350   0.8146665  )
        34           Ga  tau(  34) = (   0.4000001   0.2309401   0.1627148  )
        35           Ga  tau(  35) = (   0.4000001   0.2309401   0.4886906  )
        36           Ga  tau(  36) = (   0.4000001   0.2309401   0.8146665  )
        37           Ga  tau(  37) = (   0.3000001   0.4041451   0.1627148  )
        38           Ga  tau(  38) = (   0.3000001   0.4041451   0.4886906  )
        39           Ga  tau(  39) = (   0.3000001   0.4041451   0.8146665  )
        40           Ga  tau(  40) = (   0.2000001   0.5773502   0.1627148  )
        41           Ga  tau(  41) = (   0.2000001   0.5773502   0.4886906  )
        42           Ga  tau(  42) = (   0.2000001   0.5773502   0.8146665  )
        43           Ga  tau(  43) = (   0.1000001   0.7505553   0.1627148  )
        44           Ga  tau(  44) = (   0.1000001   0.7505553   0.4886906  )
        45           Ga  tau(  45) = (   0.1000001   0.7505553   0.8146665  )
        46           Ga  tau(  46) = (   0.7000001   0.0577350   0.1627148  )
        47           Ga  tau(  47) = (   0.7000001   0.0577350   0.4886906  )
        48           Ga  tau(  48) = (   0.7000001   0.0577350   0.8146665  )
        49           Ga  tau(  49) = (   0.6000001   0.2309401   0.1627148  )
        50           Ga  tau(  50) = (   0.6000001   0.2309401   0.4886906  )
        51           Ga  tau(  51) = (   0.6000001   0.2309401   0.8146665  )
        52           Ga  tau(  52) = (   0.5000001   0.4041451   0.1627148  )
        53           Ga  tau(  53) = (   0.5000001   0.4041451   0.4886906  )
        54           Ga  tau(  54) = (   0.5000001   0.4041451   0.8146665  )
        55           Ga  tau(  55) = (   0.4000001   0.5773502   0.1627148  )
        56           Ga  tau(  56) = (   0.4000001   0.5773502   0.4886906  )
        57           Ga  tau(  57) = (   0.4000001   0.5773502   0.8146665  )
        58           Ga  tau(  58) = (   0.3000001   0.7505553   0.1627148  )
        59           Ga  tau(  59) = (   0.3000001   0.7505553   0.4886906  )
        60           Ga  tau(  60) = (   0.3000001   0.7505553   0.8146665  )
[...]
       286           N   tau( 286) = (   0.7999999   0.1154701   0.4484898  )
       287           N   tau( 287) = (   0.7999999   0.1154701   0.7744656  )
       288           N   tau( 288) = (   0.6999999   0.2886752   0.1225140  )
       289           N   tau( 289) = (   0.6999999   0.2886752   0.4484898  )
       290           N   tau( 290) = (   0.6999999   0.2886752   0.7744656  )
       291           N   tau( 291) = (   0.5999999   0.4618803   0.1225140  )
       292           N   tau( 292) = (   0.5999999   0.4618803   0.4484898  )
       293           N   tau( 293) = (   0.5999999   0.4618803   0.7744656  )
       294           N   tau( 294) = (   0.4999999   0.6350854   0.1225140  )
       295           N   tau( 295) = (   0.4999999   0.6350854   0.4484898  )
       296           N   tau( 296) = (   0.4999999   0.6350854   0.7744656  )
       297           N   tau( 297) = (   0.3999999   0.8082905   0.1225140  )
       298           N   tau( 298) = (   0.3999999   0.8082905   0.4484898  )
       299           N   tau( 299) = (   0.3999999   0.8082905   0.7744656  )
       300           Ga  tau( 300) = (   0.1000001   0.0577350   0.2855019  )

   Crystallographic axes

     site n.     atom                  positions (cryst. coord.)
[...]
     atom   44 type  1   force =     0.00000000    0.00000000    0.00000000
     atom   45 type  1   force =     0.00000000    0.00000000    0.00000000
     atom   46 type  1   force =     0.00000000    0.00000000    0.00000000
     atom   47 type  1   force =     0.00000000    0.00000000    0.00000000
     atom   48 type  1   force =     0.00000000    0.00000000    0.00000000
     atom   49 type  1   force =     0.00000000    0.00000000    0.00000000
     atom   50 type  1   force =     0.00000000    0.00000000    0.00000000
     atom   51 type  1   force =     0.00000000    0.00000000    0.00000000
     atom   52 type  1   force =     0.00000000    0.00000000    0.00000000
     atom   53 type  1   force =     0.00000000    0.00000000    0.00000000
     atom   54 type  1   force =     0.00000000    0.00000000    0.00000000
     atom   55 type  1   force =     0.00000000    0.00000000    0.00000000
     atom   56 type  1   force =     0.00000000    0.00000000    0.00000000
     atom   57 type  1   force =     0.00000000    0.00000000    0.00000000
     atom   58 type  1   force =     0.00000000    0.00000000    0.00000000
     atom   59 type  1   force =     0.00000000    0.00000000    0.00000000
     atom   60 type  1   force =     0.00000000    0.00000000    0.00000000
[...]
     atom  286 type  2   force =     0.00000000    0.00000000    0.00000000
     atom  287 type  2   force =     0.00000000    0.00000000    0.00000000
     atom  288 type  2   force =     0.00000000    0.00000000    0.00000000
     atom  289 type  2   force =     0.00000000    0.00000000    0.00000000
     atom  290 type  2   force =     0.00000000    0.00000000    0.00000000
     atom  291 type  2   force =     0.00000000    0.00000000    0.00000000
     atom  292 type  2   force =     0.00000000    0.00000000    0.00000000
     atom  293 type  2   force =     0.00000000    0.00000000    0.00000000
     atom  294 type  2   force =     0.00000000    0.00000000    0.00000000
     atom  295 type  2   force =     0.00000000    0.00000000    0.00000000
     atom  296 type  2   force =     0.00000000    0.00000000    0.00000000
     atom  297 type  2   force =     0.00000000    0.00000000    0.00000000
     atom  298 type  2   force =     0.00000000    0.00000000    0.00000000
     atom  299 type  2   force =     0.00000000    0.00000000    0.00000000
     atom  300 type  1   force =     0.00000000    0.00000000    0.00000000
     The SCF correction term to forces
     atom    1 type  1   force =     0.00001568    0.00000905   -0.00000962
     atom    2 type  1   force =     0.00000485    0.00000280   -0.00000612
     atom    3 type  1   force =     0.00000361    0.00000209   -0.00000878
     atom    4 type  1   force =     0.00000284    0.00001401    0.00000931
     atom    5 type  1   force =     0.00000396   -0.00000319    0.00000050
     atom    6 type  1   force =     0.00000139    0.00000126   -0.00000821
     atom    7 type  1   force =     0.00000015    0.00000281    0.00000242
     atom    8 type  1   force =     0.00000015   -0.00000157    0.00000256
     atom    9 type  1   force =    -0.00000021    0.00000240   -0.00000275
     atom   10 type  1   force =     0.00000251   -0.00000128    0.00000242
     atom   11 type  1   force =    -0.00000128    0.00000091    0.00000256
     atom   12 type  1   force =     0.00000197   -0.00000138   -0.00000275
     atom   13 type  1   force =     0.00001355   -0.00000455    0.00000931
     atom   14 type  1   force =    -0.00000078    0.00000502    0.00000050
     atom   15 type  1   force =     0.00000179    0.00000057   -0.00000821
     atom   16 type  1   force =     0.00001756    0.00001391    0.00002999
     atom   17 type  1   force =     0.00000058    0.00000861   -0.00001429
     atom   18 type  1   force =     0.00000474    0.00000412   -0.00000549
     atom   19 type  1   force =     0.00002082    0.00000825    0.00002999
     atom   20 type  1   force =     0.00000774   -0.00000380   -0.00001429
     atom   21 type  1   force =     0.00000594    0.00000205   -0.00000549
     atom   22 type  1   force =     0.00001417    0.00000237    0.00000693
     atom   23 type  1   force =     0.00000923   -0.00000083   -0.00000385
     atom   24 type  1   force =     0.00000435    0.00000317   -0.00000389
     atom   25 type  1   force =     0.00000762    0.00000440    0.00000354
     atom   26 type  1   force =     0.00000616    0.00000356   -0.00000062
     atom   27 type  1   force =     0.00000446    0.00000257   -0.00000300
     atom   28 type  1   force =     0.00000914    0.00001108    0.00000693
     atom   29 type  1   force =     0.00000390    0.00000841   -0.00000385
     atom   30 type  1   force =     0.00000492    0.00000219   -0.00000389
     atom   31 type  1   force =    -0.00000219    0.00000447    0.00001235
     atom   32 type  1   force =    -0.00000157    0.00000273   -0.00000830
     atom   33 type  1   force =     0.00000167    0.00000181   -0.00000149
     atom   34 type  1   force =    -0.00000392   -0.00000226    0.00001406
     atom   35 type  1   force =    -0.00000368   -0.00000212   -0.00001106
     atom   36 type  1   force =     0.00000243    0.00000140   -0.00000253
     atom   37 type  1   force =     0.00000278   -0.00000413    0.00001235
     atom   38 type  1   force =     0.00000158   -0.00000273   -0.00000830
     atom   39 type  1   force =     0.00000240    0.00000054   -0.00000149
     atom   40 type  1   force =     0.00000572    0.00000022    0.00000698
     atom   41 type  1   force =     0.00000499    0.00000080   -0.00000533
     atom   42 type  1   force =     0.00000098    0.00000087   -0.00000252
     atom   43 type  1   force =     0.00000305    0.00000485    0.00000698
     atom   44 type  1   force =     0.00000319    0.00000392   -0.00000533
     atom   45 type  1   force =     0.00000124    0.00000041   -0.00000252
     atom   46 type  1   force =    -0.00000571   -0.00000387    0.00001114
     atom   47 type  1   force =    -0.00000105   -0.00000200   -0.00000628
     atom   48 type  1   force =    -0.00000530   -0.00000104   -0.00000354
     atom   49 type  1   force =    -0.00000901   -0.00000460    0.00000763
     atom   50 type  1   force =    -0.00000436   -0.00000343   -0.00000461
     atom   51 type  1   force =    -0.00000356   -0.00000052   -0.00000169
     atom   52 type  1   force =    -0.00000849   -0.00000550    0.00000763
     atom   53 type  1   force =    -0.00000515   -0.00000206   -0.00000461
     atom   54 type  1   force =    -0.00000224   -0.00000283   -0.00000169
     atom   55 type  1   force =    -0.00000620   -0.00000301    0.00001114
     atom   56 type  1   force =    -0.00000226    0.00000009   -0.00000628
     atom   57 type  1   force =    -0.00000355   -0.00000407   -0.00000354
     atom   58 type  1   force =    -0.00000356   -0.00000205    0.00001210
     atom   59 type  1   force =     0.00000144    0.00000083   -0.00000820
     atom   60 type  1   force =    -0.00000483   -0.00000279   -0.00000534
[...]
     atom  286 type  2   force =    -0.00000155   -0.00000334   -0.00000240
     atom  287 type  2   force =    -0.00000246   -0.00000032   -0.00000328
     atom  288 type  2   force =    -0.00000386   -0.00000160    0.00000182
     atom  289 type  2   force =    -0.00000287   -0.00000227   -0.00000121
     atom  290 type  2   force =    -0.00000187   -0.00000070   -0.00000175
     atom  291 type  2   force =    -0.00000331   -0.00000254    0.00000182
     atom  292 type  2   force =    -0.00000340   -0.00000135   -0.00000121
     atom  293 type  2   force =    -0.00000154   -0.00000127   -0.00000175
     atom  294 type  2   force =    -0.00000504   -0.00000403    0.00000450
     atom  295 type  2   force =    -0.00000367    0.00000032   -0.00000240
     atom  296 type  2   force =    -0.00000151   -0.00000197   -0.00000328
     atom  297 type  2   force =    -0.00000768   -0.00000444    0.00000646
     atom  298 type  2   force =    -0.00000168   -0.00000097   -0.00000400
     atom  299 type  2   force =    -0.00000203   -0.00000117   -0.00000439
     atom  300 type  1   force =     0.00003365    0.00001943    0.00005991

     Total force =     0.004144     Total SCF correction =     0.000181

     Computing stress (Cartesian axis) and pressure

     Non-local corr. energy    =      82.12836813 Ry

          total   stress  (Ry/bohr**3)                   (kbar)     P=        3.70
   0.00001030  -0.00000001   0.00000027            1.52       -0.00        0.04
  -0.00000001   0.00001032   0.00000015           -0.00        1.52        0.02
   0.00000027   0.00000015   0.00005479            0.04        0.02        8.06

     kinetic stress (kbar)  18459.45      0.05      0.08
                                0.05  18459.39      0.05
                                0.08      0.05  18467.14

     local   stress (kbar)   5620.31      0.48     -1.38
                                0.48   5619.57     -0.79
                               -1.38     -0.79   3722.47

     nonloc. stress (kbar)     81.76     -0.01     -0.00
                               -0.01     81.78     -0.00
                               -0.00     -0.00     88.60

     hartree stress (kbar)  19666.10     -0.20      0.52
                               -0.20  19666.33      0.30
                                0.52      0.30  20513.55

     exc-cor stress (kbar)   5267.18     -0.00      0.01
                               -0.00   5267.18      0.00
                                0.01      0.00   5268.18

     corecor stress (kbar) -14196.08      0.01     -0.00
                                0.01 -14196.09     -0.00
                               -0.00     -0.00 -14195.79

     ewald   stress (kbar) -35060.19     -0.32      0.82
                               -0.32 -35059.60      0.47
                                0.82      0.47 -34017.98

     hubbard stress (kbar)      0.00      0.00      0.00
                                0.00      0.00      0.00
                                0.00      0.00      0.00

     DFT-D   stress (kbar)      0.00      0.00      0.00
                                0.00      0.00      0.00
                                0.00      0.00      0.00

     XDM     stress (kbar)      0.00      0.00      0.00
                                0.00      0.00      0.00
                                0.00      0.00      0.00

     dft-nl  stress (kbar)    162.97     -0.00     -0.00
                               -0.00    162.97     -0.00
                               -0.00     -0.00    161.90

     TS-vdW  stress (kbar)      0.00      0.00      0.00
                                0.00      0.00      0.00
                                0.00      0.00      0.00

     MDB     stress (kbar)      0.00      0.00      0.00
                                0.00      0.00      0.00
                                0.00      0.00      0.00

     3D-RISM stress (kbar)      0.00      0.00      0.00
                                0.00      0.00      0.00
                                0.00      0.00      0.00

     BFGS Geometry Optimization
     Energy error            =      0.0E+00 Ry
     Gradient error          =      7.8E-04 Ry/Bohr

     bfgs converged in   1 scf cycles and   0 bfgs steps
     (criteria: energy <  1.0E-04 Ry, force <  1.0E-03 Ry/Bohr)

     End of BFGS Geometry Optimization

     Final energy             =  -47098.2335244798 Ry
Begin final coordinates

ATOMIC_POSITIONS (angstrom)
Ga            1.6188790128        0.9346587629        2.2622531793
Ga            1.6212242897        0.9360128091        7.9097052046
Ga            1.6217436279        0.9363126492       13.1879602444
Ga           -0.0057206669        3.7381615938        2.6099008579
Ga           -0.0076131167        3.7936773244        7.9855427389
Ga           -0.0026530331        3.7598278038       13.1910389773
Ga           -1.6234440003        6.5594834005        2.6292172722
Ga           -1.6253654013        6.5669381849        7.9392170201
Ga           -1.6223699152        6.5607078828       13.2208844478
Ga           -3.2424125086        9.3636191127        2.6292172722
Ga           -3.2369171764        9.3582277384        7.9392170201
Ga           -3.2408150332        9.3639370566       13.2208844478
Ga           -4.8768871986       12.1752695191        2.6099008579
Ga           -4.8297553905       12.1458727442        7.9855427389
Ga           -4.8565898934       12.1670930629       13.1910389773
Ga            4.8622253066        0.9468131110        2.6108080606
Ga            4.9111138301        0.9193675666        7.9857939105
Ga            4.8800518961        0.9324629379       13.1913729302
Ga            3.2510781339        3.7374018726        2.6108080606
Ga            3.2517538569        3.7934633481        7.9857939105
Ga            3.2475638142        3.7600152385       13.1913729302
Ga            1.6225651988        6.5519334915        2.6371717712
Ga            1.6229027600        6.5705686507        7.9335890280
Ga            1.6229918232        6.5639671808       13.2246630399
Ga            0.0013619035        9.3669893346        2.6369072449
Ga            0.0017736504        9.3672270567        7.9301070123
Ga            0.0019087667        9.3673050662       13.2195601446
Ga           -1.6259463220       12.1785204947        2.6371717712
Ga           -1.6096390202       12.1694952517        7.9335890280
Ga           -1.6153115292       12.1728731176       13.2246630399
Ga            8.1143487622        0.9360752425        2.6291712933
Ga            8.1213109913        0.9337157381        7.9391267803
Ga            8.1152657749        0.9345670566       13.2210149926
Ga            6.4918953759        3.7480960720        2.6306742686
Ga            6.4963920888        3.7506922504        7.9412578739
Ga            6.4947916862        3.7497682575       13.2204254668
Ga            4.8678405949        6.5591923359        2.6291712933
Ga            4.8692783187        6.5664015553        7.9391267803
Ga            4.8669929740        6.5607405850       13.2210149926
Ga            3.2440918774        9.3669260282        2.6369426597
Ga            3.2433873356        9.3669166662        7.9302765493
Ga            3.2436990684        9.3671390055       13.2198358463
Ga            1.6226720655       12.1753075230        2.6369426597
Ga            1.6223116869       12.1747020528        7.9302765493
Ga            1.6226601048       12.1748608517       13.2198358463
Ga           11.3518929387        0.9356412282        2.6287234686
Ga           11.3435858257        0.9333439708        7.9395144350
Ga           11.3514080048        0.9342754892       13.2210268169
Ga            9.7335426683        3.7463578380        2.6345664559
Ga            9.7331390517        3.7473098622        7.9344225636
Ga            9.7333962925        3.7475037813       13.2179448290
Ga            8.1112136672        6.5563140944        2.6345664559
Ga            8.1118363361        6.5554885400        7.9344225636
Ga            8.1121328954        6.5556143576       13.2179448290
Ga            6.4862368156        9.3632048457        2.6287234686
Ga            6.4800937759        9.3571593035        7.9395144350
Ga            6.4848115841        9.3634677501       13.2210268169
Ga            4.8711865985       12.1785839333        2.6373008121
Ga            4.8536497453       12.1684590263        7.9338948565
Ga            4.8600923855       12.1721786864       13.2251200557
[...]
N            12.9653959347        1.8747549270        7.2826861870
N            12.9670206592        1.8790004334       12.5668823483
N            11.3550944638        4.6839799204        1.9854376463
N            11.3542229906        4.6843206932        7.2764199045
N            11.3537556999        4.6847168366       12.5656608414
N             9.7339905138        7.4918143264        1.9854376463
N             9.7338498951        7.4908892221        7.2764199045
N             9.7339593199        7.4902864648       12.5656608414
N             8.1088893641       10.2965084580        1.9823590042
N             8.1062810401       10.2909888046        7.2826861870
N             8.1107701187       10.2902731042       12.5668823483
N             6.4960780368       13.1167195924        1.9836314918
N             6.4866999750       13.1113051659        7.2910145469
N             6.4776216104       13.1060637697       12.5640284884
Ga            1.6192868858        0.9348942485        4.5275716664
End final coordinates

     Writing all to output data dir ./GaN.save/

     General routines

     Parallel routines

     PAW routines

   This run was terminated on:   0:43:47  18Feb2024

   JOB DONE.