     Program PWSCF v.7.1 starts on  3Mar2024 at  8:20:10

     Reading input from espresso.pwi
Warning: card &CELL ignored
Warning: card    CELL_DYNAMICS    = 'BFGS' ignored
Warning: card / ignored

     Current dimensions of program PWSCF are:
     Max number of different atomic species (ntypx) = 10
     Max number of k-points (npk) =  40000
     Max angular momentum in pseudopotentials (lmaxx) =  4
     file Pb.pbe-dn-kjpaw_psl.1.0.0.UPF: wavefunction(s)  6S 6P 5D renormalized
     file I.pbe-dn-kjpaw_psl.1.0.0.UPF: wavefunction(s)  5S 5P renormalized

     IMPORTANT: XC functional enforced from input :
     Exchange-correlation= BEEF-VDW
                           (   1   4  43  14   2   0   0)
     Any further DFT definition will be discarded
     Please, verify this is what you really want

     R & G space division:  proc/nbgrp/npool/nimage =     128
     Subspace diagonalization in iterative solution of the eigenvalue problem:
     a serial algorithm will be used

     Using Slab Decomposition

     bravais-lattice index     =            4
     lattice parameter (alat)  =      35.6073  a.u.
     unit-cell volume          =   30614.2220 (a.u.)^3
     number of atoms/cell      =           96
     number of atomic types    =            2
     number of electrons       =      1531.00
     number of Kohn-Sham states=          919
     kinetic-energy cutoff     =      70.0000  Ry
     charge density cutoff     =     350.0000  Ry
     scf convergence threshold =      1.0E-07
     mixing beta               =       0.7000
     number of iterations used =            8  plain     mixing
     Exchange-correlation= BEEF-VDW
                           (   1   4  43  14   2   0   0)

     celldm(1)=  35.607290  celldm(2)=   0.000000  celldm(3)=   0.783025
     celldm(4)=   0.000000  celldm(5)=   0.000000  celldm(6)=   0.000000

     crystal axes: (cart. coord. in units of alat)
               a(1) = (   1.000000   0.000000   0.000000 )
               a(2) = (  -0.500000   0.866025   0.000000 )
               a(3) = (   0.000000   0.000000   0.783025 )

     reciprocal axes: (cart. coord. in units 2 pi/alat)
               b(1) = (  1.000000  0.577350 -0.000000 )
               b(2) = (  0.000000  1.154701  0.000000 )
               b(3) = (  0.000000 -0.000000  1.277098 )

     PseudoPot. # 1 for Pb read from file:
     /trace/group/acmegroup/atimmins/packages/espresso/pseudo/psl_1.0.0/pslibrary.1.0.0/pbe/PSEUDOPOTENTIALS/Pb.pbe-dn-kjpaw_psl.1.0.0.UPF
     MD5 check sum: 39ab5b8a6bbd56b7735ad9f188aac93a
     Pseudo is Projector augmented-wave + core cor, Zval = 14.0
     Generated using 'atomic' code by A. Dal Corso  v.7.1
     Shape of augmentation charge: PSQ
     Using radial grid of 1281 points,  6 beta functions with:
                l(1) =   0
                l(2) =   0
                l(3) =   1
                l(4) =   1
                l(5) =   2
                l(6) =   2
     Q(r) pseudized with 0 coefficients

     PseudoPot. # 2 for I  read from file:
     /trace/group/acmegroup/atimmins/packages/espresso/pseudo/psl_1.0.0/pslibrary.1.0.0/pbe/PSEUDOPOTENTIALS/I.pbe-dn-kjpaw_psl.1.0.0.UPF
     MD5 check sum: bfa8781bc1224d19af3f3980e3fab11e
     Pseudo is Projector augmented-wave + core cor, Zval = 17.0
     Generated using 'atomic' code by A. Dal Corso  v.7.1
     Shape of augmentation charge: PSQ
     Using radial grid of 1247 points,  6 beta functions with:
                l(1) =   0
                l(2) =   0
                l(3) =   1
                l(4) =   1
                l(5) =   2
                l(6) =   2
     Q(r) pseudized with 0 coefficients

     atomic species   valence    mass     pseudopotential
        Pb            14.00   207.20000     Pb( 1.00)
        I             17.00   126.90447     I ( 1.00)

     No symmetry found

                                    s                        frac. trans.

      isym =  1     identity

 cryst.   s( 1) = (     1          0          0      )
                  (     0          1          0      )
                  (     0          0          1      )

 cart.    s( 1) = (  1.0000000  0.0000000  0.0000000 )
                  (  0.0000000  1.0000000  0.0000000 )
                  (  0.0000000  0.0000000  1.0000000 )

     point group C_1 (1)
     there are  1 classes
     the character table:

       E
A      1.00

     the symmetry operations in each class and the name of the first element:

     E        1
          identity

   Cartesian axes

     site n.     atom                  positions (alat units)
         1           Pb  tau(   1) = (   0.1250086   0.2164870   0.7830203  )
         2           Pb  tau(   2) = (   0.1250034   0.2164916   0.3915076  )
         3           Pb  tau(   3) = (   0.0000077   0.4329922   0.7830161  )
         4           Pb  tau(   4) = (   0.0000025   0.4329968   0.3915034  )
         5           Pb  tau(   5) = (  -0.1249932   0.6494975   0.7830119  )
         6           Pb  tau(   6) = (  -0.1249984   0.6495021   0.3914992  )
         7           Pb  tau(   7) = (  -0.2499941   0.8660028   0.7830077  )
         8           Pb  tau(   8) = (  -0.2499993   0.8660074   0.3914950  )
         9           Pb  tau(   9) = (   0.3750086   0.2164859   0.7830237  )
        10           Pb  tau(  10) = (   0.3750034   0.2164905   0.3915110  )
        11           Pb  tau(  11) = (   0.2500077   0.4329912   0.7830194  )
        12           Pb  tau(  12) = (   0.2500025   0.4329958   0.3915068  )
        13           Pb  tau(  13) = (   0.1250068   0.6494965   0.7830152  )
        14           Pb  tau(  14) = (   0.1250016   0.6495011   0.3915026  )
        15           Pb  tau(  15) = (   0.0000059   0.8660017   0.7830110  )
        16           Pb  tau(  16) = (   0.0000007   0.8660063   0.3914983  )
        17           Pb  tau(  17) = (   0.6250086   0.2164849   0.7830270  )
        18           Pb  tau(  18) = (   0.6250034   0.2164895   0.3915143  )
        19           Pb  tau(  19) = (   0.5000077   0.4329901   0.7830228  )
        20           Pb  tau(  20) = (   0.5000025   0.4329947   0.3915101  )
        21           Pb  tau(  21) = (   0.3750068   0.6494954   0.7830186  )
        22           Pb  tau(  22) = (   0.3750016   0.6495000   0.3915059  )
        23           Pb  tau(  23) = (   0.2500059   0.8660007   0.7830144  )
        24           Pb  tau(  24) = (   0.2500007   0.8660053   0.3915017  )
        25           Pb  tau(  25) = (   0.8750086   0.2164838   0.7830303  )
        26           Pb  tau(  26) = (   0.8750034   0.2164884   0.3915177  )
        27           Pb  tau(  27) = (   0.7500077   0.4329891   0.7830261  )
        28           Pb  tau(  28) = (   0.7500025   0.4329937   0.3915135  )
        29           Pb  tau(  29) = (   0.6250068   0.6494944   0.7830219  )
        30           Pb  tau(  30) = (   0.6250016   0.6494990   0.3915092  )
        31           Pb  tau(  31) = (   0.5000059   0.8659996   0.7830177  )
        32           Pb  tau(  32) = (   0.5000007   0.8660042   0.3915050  )
        33           I   tau(  33) = (   0.1250108   0.0721500   0.6824290  )
        34           I   tau(  34) = (   0.0000047   0.2886599   0.2909121  )
        35           I   tau(  35) = (   0.0000099   0.2886553   0.6824248  )
        36           I   tau(  36) = (  -0.1249962   0.5051652   0.2909079  )
        37           I   tau(  37) = (  -0.1249910   0.5051606   0.6824206  )
        38           I   tau(  38) = (  -0.2499972   0.7216704   0.2909037  )
        39           I   tau(  39) = (  -0.2499919   0.7216658   0.6824164  )
        40           I   tau(  40) = (   0.3750056   0.0721536   0.2909197  )
        41           I   tau(  41) = (   0.3750108   0.0721490   0.6824324  )
        42           I   tau(  42) = (   0.2500047   0.2886589   0.2909155  )
        43           I   tau(  43) = (   0.2500099   0.2886543   0.6824282  )
        44           I   tau(  44) = (   0.1250038   0.5051641   0.2909113  )
        45           I   tau(  45) = (   0.1250090   0.5051595   0.6824240  )
        46           I   tau(  46) = (   0.0000028   0.7216694   0.2909071  )
        47           I   tau(  47) = (   0.0000081   0.7216648   0.6824197  )
        48           I   tau(  48) = (   0.6250056   0.0721525   0.2909230  )
        49           I   tau(  49) = (   0.6250108   0.0721479   0.6824357  )
        50           I   tau(  50) = (   0.5000047   0.2886578   0.2909188  )
        51           I   tau(  51) = (   0.5000099   0.2886532   0.6824315  )
        52           I   tau(  52) = (   0.3750038   0.5051631   0.2909146  )
        53           I   tau(  53) = (   0.3750090   0.5051585   0.6824273  )
        54           I   tau(  54) = (   0.2500028   0.7216683   0.2909104  )
        55           I   tau(  55) = (   0.2500081   0.7216637   0.6824231  )
        56           I   tau(  56) = (   0.8750056   0.0721515   0.2909264  )
        57           I   tau(  57) = (   0.8750108   0.0721469   0.6824391  )
        58           I   tau(  58) = (   0.7500047   0.2886567   0.2909222  )
        59           I   tau(  59) = (   0.7500099   0.2886521   0.6824348  )
        60           I   tau(  60) = (   0.6250038   0.5051620   0.2909180  )
[...]
        82           I   tau(  82) = (   0.3749973   0.3608329   0.1005958  )
        83           I   tau(  83) = (   0.3750025   0.3608283   0.4921084  )
        84           I   tau(  84) = (   0.2499964   0.5773382   0.1005915  )
        85           I   tau(  85) = (   0.2500016   0.5773336   0.4921042  )
        86           I   tau(  86) = (   0.1249955   0.7938434   0.1005873  )
        87           I   tau(  87) = (   0.1250007   0.7938388   0.4921000  )
        88           I   tau(  88) = (   0.7499982   0.1443266   0.1006033  )
        89           I   tau(  89) = (   0.7500034   0.1443220   0.4921160  )
        90           I   tau(  90) = (   0.6249973   0.3608319   0.1005991  )
        91           I   tau(  91) = (   0.6250025   0.3608273   0.4921118  )
        92           I   tau(  92) = (   0.4999964   0.5773371   0.1005949  )
        93           I   tau(  93) = (   0.5000016   0.5773325   0.4921076  )
        94           I   tau(  94) = (   0.3749955   0.7938424   0.1005907  )
        95           I   tau(  95) = (   0.3750007   0.7938378   0.4921034  )
        96           Pb  tau(  96) = (   0.1250056   0.0721546   0.2909163  )

   Crystallographic axes

     site n.     atom                  positions (cryst. coord.)
         1           Pb  tau(   1) = (  0.2499975  0.2499776  0.9999935  )
         2           Pb  tau(   2) = (  0.2499949  0.2499829  0.4999935  )
         3           Pb  tau(   3) = (  0.2499959  0.4999764  0.9999882  )
         4           Pb  tau(   4) = (  0.2499933  0.4999817  0.4999882  )
         5           Pb  tau(   5) = (  0.2499944  0.7499751  0.9999828  )
         6           Pb  tau(   6) = (  0.2499918  0.7499804  0.4999828  )
         7           Pb  tau(   7) = (  0.2499928  0.9999739  0.9999774  )
         8           Pb  tau(   8) = (  0.2499903  0.9999792  0.4999774  )
         9           Pb  tau(   9) = (  0.4999968  0.2499764  0.9999978  )
[...]
     atom   26 type  1   force =     0.00000000    0.00000000    0.00000000
     atom   27 type  1   force =     0.00000000    0.00000000    0.00000000
     atom   28 type  1   force =     0.00000000    0.00000000    0.00000000
     atom   29 type  1   force =     0.00000000    0.00000000    0.00000000
     atom   30 type  1   force =     0.00000000    0.00000000    0.00000000
     atom   31 type  1   force =     0.00000000    0.00000000    0.00000000
     atom   32 type  1   force =     0.00000000    0.00000000    0.00000000
     atom   33 type  2   force =     0.00000000    0.00000000    0.00000000
     atom   34 type  2   force =     0.00000000    0.00000000    0.00000000
     atom   35 type  2   force =     0.00000000    0.00000000    0.00000000
     atom   36 type  2   force =     0.00000000    0.00000000    0.00000000
     atom   37 type  2   force =     0.00000000    0.00000000    0.00000000
     atom   38 type  2   force =     0.00000000    0.00000000    0.00000000
     atom   39 type  2   force =     0.00000000    0.00000000    0.00000000
     atom   40 type  2   force =     0.00000000    0.00000000    0.00000000
     atom   41 type  2   force =     0.00000000    0.00000000    0.00000000
     atom   42 type  2   force =     0.00000000    0.00000000    0.00000000
     atom   43 type  2   force =     0.00000000    0.00000000    0.00000000
     atom   44 type  2   force =     0.00000000    0.00000000    0.00000000
     atom   45 type  2   force =     0.00000000    0.00000000    0.00000000
     atom   46 type  2   force =     0.00000000    0.00000000    0.00000000
     atom   47 type  2   force =     0.00000000    0.00000000    0.00000000
     atom   48 type  2   force =     0.00000000    0.00000000    0.00000000
     atom   49 type  2   force =     0.00000000    0.00000000    0.00000000
     atom   50 type  2   force =     0.00000000    0.00000000    0.00000000
     atom   51 type  2   force =     0.00000000    0.00000000    0.00000000
     atom   52 type  2   force =     0.00000000    0.00000000    0.00000000
     atom   53 type  2   force =     0.00000000    0.00000000    0.00000000
     atom   54 type  2   force =     0.00000000    0.00000000    0.00000000
     atom   55 type  2   force =     0.00000000    0.00000000    0.00000000
     atom   56 type  2   force =     0.00000000    0.00000000    0.00000000
     atom   57 type  2   force =     0.00000000    0.00000000    0.00000000
     atom   58 type  2   force =     0.00000000    0.00000000    0.00000000
     atom   59 type  2   force =     0.00000000    0.00000000    0.00000000
     atom   60 type  2   force =     0.00000000    0.00000000    0.00000000
[...]
     atom   82 type  2   force =     0.00000000    0.00000000    0.00000000
     atom   83 type  2   force =     0.00000000    0.00000000    0.00000000
     atom   84 type  2   force =     0.00000000    0.00000000    0.00000000
     atom   85 type  2   force =     0.00000000    0.00000000    0.00000000
     atom   86 type  2   force =     0.00000000    0.00000000    0.00000000
     atom   87 type  2   force =     0.00000000    0.00000000    0.00000000
     atom   88 type  2   force =     0.00000000    0.00000000    0.00000000
     atom   89 type  2   force =     0.00000000    0.00000000    0.00000000
     atom   90 type  2   force =     0.00000000    0.00000000    0.00000000
     atom   91 type  2   force =     0.00000000    0.00000000    0.00000000
     atom   92 type  2   force =     0.00000000    0.00000000    0.00000000
     atom   93 type  2   force =     0.00000000    0.00000000    0.00000000
     atom   94 type  2   force =     0.00000000    0.00000000    0.00000000
     atom   95 type  2   force =     0.00000000    0.00000000    0.00000000
     atom   96 type  1   force =     0.00000000    0.00000000    0.00000000
     The SCF correction term to forces
     atom    1 type  1   force =     0.00000004    0.00002234    0.00000582
     atom    2 type  1   force =    -0.00000003    0.00002991    0.00000484
     atom    3 type  1   force =     0.00003824    0.00004516    0.00001569
     atom    4 type  1   force =     0.00004865    0.00002924   -0.00000454
     atom    5 type  1   force =     0.00005793    0.00001062    0.00001552
     atom    6 type  1   force =     0.00004936    0.00002727   -0.00000446
     atom    7 type  1   force =     0.00001912   -0.00001141    0.00000586
     atom    8 type  1   force =     0.00002575   -0.00001497    0.00000499
     atom    9 type  1   force =    -0.00002036   -0.00001148   -0.00001407
     atom   10 type  1   force =    -0.00002718   -0.00001545    0.00002118
     atom   11 type  1   force =    -0.00003795    0.00004517    0.00001548
     atom   12 type  1   force =    -0.00004824    0.00002917   -0.00000428
     atom   13 type  1   force =     0.00000026    0.00000005    0.00005609
     atom   14 type  1   force =     0.00000028    0.00000006   -0.00004004
     atom   15 type  1   force =     0.00001993   -0.00005579    0.00001556
     atom   16 type  1   force =     0.00000129   -0.00005654   -0.00000442
     atom   17 type  1   force =     0.00000002   -0.00004988   -0.00002997
     atom   18 type  1   force =    -0.00000009   -0.00004408    0.00004427
     atom   19 type  1   force =    -0.00004338    0.00002538   -0.00003018
     atom   20 type  1   force =    -0.00003824    0.00002248    0.00004447
     atom   21 type  1   force =    -0.00005784    0.00001063    0.00001558
     atom   22 type  1   force =    -0.00004912    0.00002744   -0.00000443
     atom   23 type  1   force =    -0.00001967   -0.00005585    0.00001572
     atom   24 type  1   force =    -0.00000084   -0.00005686   -0.00000460
     atom   25 type  1   force =     0.00002029   -0.00001190   -0.00001390
     atom   26 type  1   force =     0.00002727   -0.00001604    0.00002102
     atom   27 type  1   force =     0.00004308    0.00002528   -0.00003010
     atom   28 type  1   force =     0.00003782    0.00002239    0.00004433
     atom   29 type  1   force =    -0.00000034    0.00002355   -0.00001403
     atom   30 type  1   force =    -0.00000046    0.00003107    0.00002112
     atom   31 type  1   force =    -0.00001931   -0.00001171    0.00000586
     atom   32 type  1   force =    -0.00002620   -0.00001518    0.00000498
     atom   33 type  2   force =    -0.00000027   -0.00000035   -0.00001179
     atom   34 type  2   force =     0.00003840    0.00003303    0.00000547
     atom   35 type  2   force =     0.00000944    0.00002591   -0.00000122
     atom   36 type  2   force =     0.00008604    0.00004998    0.00000289
     atom   37 type  2   force =     0.00004952    0.00002893    0.00001283
     atom   38 type  2   force =     0.00004749    0.00001609    0.00000535
     atom   39 type  2   force =     0.00002697   -0.00000530   -0.00000124
     atom   40 type  2   force =     0.00000975   -0.00004942    0.00000555
     atom   41 type  2   force =     0.00001776   -0.00002122   -0.00000145
     atom   42 type  2   force =    -0.00003820    0.00003331    0.00000565
     atom   43 type  2   force =    -0.00000921    0.00002653   -0.00000123
     atom   44 type  2   force =     0.00000015    0.00005399   -0.00001389
     atom   45 type  2   force =     0.00000031    0.00003544    0.00004552
     atom   46 type  2   force =     0.00004678   -0.00002696   -0.00001410
     atom   47 type  2   force =     0.00003061   -0.00001778    0.00004564
     atom   48 type  2   force =     0.00000010   -0.00009965    0.00000308
     atom   49 type  2   force =     0.00000015   -0.00005761    0.00001265
     atom   50 type  2   force =    -0.00004932   -0.00002818    0.00002564
     atom   51 type  2   force =    -0.00002886   -0.00001611   -0.00001736
     atom   52 type  2   force =    -0.00008586    0.00005010    0.00000299
     atom   53 type  2   force =    -0.00004959    0.00002901    0.00001274
     atom   54 type  2   force =    -0.00004623   -0.00002692   -0.00001391
     atom   55 type  2   force =    -0.00003022   -0.00001799    0.00004562
     atom   56 type  2   force =    -0.00000963   -0.00005010    0.00000571
     atom   57 type  2   force =    -0.00001756   -0.00002148   -0.00000123
     atom   58 type  2   force =     0.00004897   -0.00002844    0.00002505
     atom   59 type  2   force =     0.00002873   -0.00001649   -0.00001714
     atom   60 type  2   force =    -0.00000041    0.00005711    0.00002537
[...]
     atom   82 type  2   force =    -0.00007421    0.00002490   -0.00002299
     atom   83 type  2   force =    -0.00003893    0.00001431    0.00001411
     atom   84 type  2   force =    -0.00007482    0.00004361   -0.00000640
     atom   85 type  2   force =    -0.00003738    0.00002196   -0.00002512
     atom   86 type  2   force =     0.00000029   -0.00008712   -0.00000629
     atom   87 type  2   force =     0.00000024   -0.00004346   -0.00002539
     atom   88 type  2   force =     0.00001613   -0.00007661   -0.00002296
     atom   89 type  2   force =     0.00000725   -0.00004090    0.00001372
     atom   90 type  2   force =    -0.00000014    0.00000039   -0.00003910
     atom   91 type  2   force =    -0.00000037    0.00000039    0.00003666
     atom   92 type  2   force =    -0.00005840    0.00005229   -0.00002307
     atom   93 type  2   force =    -0.00003162    0.00002664    0.00001385
     atom   94 type  2   force =    -0.00005970   -0.00003509    0.00000405
     atom   95 type  2   force =    -0.00003842   -0.00002270   -0.00001895
     atom   96 type  1   force =    -0.00000005   -0.00000038   -0.00002121

     Total force =     0.003776     Total SCF correction =     0.000531
     SCF correction compared to forces is large: reduce conv_thr to get better values

     Computing stress (Cartesian axis) and pressure

[...]

          total   stress  (Ry/bohr**3)                   (kbar)     P=       -5.73
  -0.00003926  -0.00000000  -0.00000000           -5.78       -0.00       -0.00
  -0.00000000  -0.00003926   0.00000000           -0.00       -5.78        0.00
  -0.00000000   0.00000000  -0.00003828           -0.00        0.00       -5.63

     kinetic stress (kbar)  15066.42     -0.00     -0.00
                               -0.00  15066.42      0.00
                               -0.00      0.00  15078.53

     local   stress (kbar)  -7336.84     -0.02     -0.01
                               -0.02  -7336.86     -0.01
                               -0.01     -0.01   1273.78

     nonloc. stress (kbar)  -1184.60     -0.00     -0.00
                               -0.00  -1184.60      0.00
                               -0.00      0.00  -1189.17

     hartree stress (kbar)  11900.97      0.01      0.00
                                0.01  11900.98      0.00
                                0.00      0.00   8026.30

     exc-cor stress (kbar)   6914.29      0.00     -0.00
                                0.00   6914.29      0.00
                               -0.00      0.00   6913.21

     corecor stress (kbar) -11262.20     -0.00      0.00
                               -0.00 -11262.20     -0.00
                                0.00     -0.00 -11262.14

     ewald   stress (kbar) -14186.59      0.01      0.00
                                0.01 -14186.57      0.01
                                0.00      0.01 -18930.19

     hubbard stress (kbar)      0.00      0.00      0.00
                                0.00      0.00      0.00
                                0.00      0.00      0.00

     DFT-D   stress (kbar)      0.00      0.00      0.00
                                0.00      0.00      0.00
                                0.00      0.00      0.00

     XDM     stress (kbar)      0.00      0.00      0.00
                                0.00      0.00      0.00
                                0.00      0.00      0.00

     dft-nl  stress (kbar)     82.76     -0.00      0.00
                               -0.00     82.76     -0.00
                                0.00     -0.00     84.04

     TS-vdW  stress (kbar)      0.00      0.00      0.00
                                0.00      0.00      0.00
                                0.00      0.00      0.00

     MDB     stress (kbar)      0.00      0.00      0.00
                                0.00      0.00      0.00
                                0.00      0.00      0.00

     3D-RISM stress (kbar)      0.00      0.00      0.00
                                0.00      0.00      0.00
                                0.00      0.00      0.00

[...]

     Non-local corr. energy    =      45.71849183 Ry

 BEEFens 2000 ensemble energies
             -0.384924441877458E+02
             -0.387322372250434E+03
             -0.176306577728088E+03
              0.135300734331416E+03
             -0.296122354346421E+03
             -0.362496494761793E+03
              0.186085291548993E+03
              0.716389013360640E+00
              0.313497440505957E+03
             -0.198495629023562E+02
              0.160660061192496E+03
              0.163164593275254E+02
             -0.123362880533804E+02
             -0.100205565065712E+02
              0.200007303507707E+03
             -0.150798687031756E+03
             -0.295788838877237E+03
             -0.954933837383223E+02
              0.854662212483209E+02
             -0.191560236822761E+01
              0.436244141161483E+03
              0.364066199294155E+03
             -0.224247984353474E+03
              0.774848331289281E+02
             -0.467240651247685E+03
              0.383502405077320E+03
              0.131195026986028E+03
              0.346255370923083E+03
              0.233330763358243E+03
             -0.108308888636783E+03
              0.854359893186354E+02
             -0.152554872991901E+03
              0.637881976625708E+02
              0.232244166873123E+03
              0.249975363890386E+03
             -0.108581435387157E+03
              0.551160279669611E+03
             -0.221926971640109E+03
             -0.147698122880480E+03
              0.220449028895042E+03
              0.972144388719760E+02
              0.167600756285026E+03
             -0.323605527728472E+03
             -0.210376112121066E+02
              0.310451713415608E+03
              0.405829755503483E+03
             -0.412119197075050E+03
              0.263745213783767E+02
              0.142880524563005E+03
              0.923114760844633E+02
              0.161048311408747E+03
              0.353753577741505E+03
             -0.229790932106739E+03
             -0.223038246489129E+03
             -0.310594514746879E+03
             -0.449518140367143E+02
             -0.264962079527986E+03
              0.341977525387626E+02
             -0.381952769185709E+02
             -0.210219423685889E+03
[...]
              0.262510294887356E+03
              0.168138255891623E+03
              0.171366657905151E+03
             -0.317259513345479E+03
             -0.327660471180242E+03
             -0.738548552255728E+02
             -0.292861373808365E+03
              0.464955240599448E+03
              0.391600457055402E+03
              0.184770463915915E+03
              0.509207954923387E+03
             -0.254396029569516E+03
             -0.109623095217287E+03
             -0.158059728353984E+03
              0.440629504716327E+03

 BEEF-vdW xc energy contributions
            1 :    -3982.246355329623
            2 :     3648.681618172495
            3 :    -3080.194412303204
            4 :     2428.685332949668
            5 :    -1836.934688425151
            6 :     1392.470067707968
            7 :    -1113.385809950852
            8 :     961.8888302743699
            9 :    -872.8879930238700
           10 :     785.2465930452563
           11 :    -664.9930006049144
           12 :     512.5489291630338
           13 :    -352.9424304544009
           14 :     216.6616633364711
           15 :    -122.6423366016279
           16 :     71.17868191126399
           17 :    -47.40876456409842
           18 :     31.00380888674408
           19 :    -6.484645632328466
           20 :    -30.34383516249272
           21 :     72.30455190823341
           22 :    -106.6786824129322
           23 :     123.4882625522869
           24 :    -121.4599875345893
           25 :     108.5194013874489
           26 :    -97.09318068181619
           27 :     97.29923924965988
           28 :    -111.7700108177132
           29 :     134.5972869655207
           30 :    -154.7142293082206
           31 :    -343.3327734300083
           32 :    -247.0598201406438

     Writing all to output data dir ./PbI2.save/

     General routines

     Parallel routines

     PAW routines

   This run was terminated on:   8:26:46   3Mar2024

   JOB DONE.