     Program PWSCF v.7.2 starts on 27Mar2024 at 21:35:42

     Reading input from espresso.pwi
Warning: card &CELL ignored
Warning: card    CELL_DYNAMICS    = 'BFGS' ignored
Warning: card / ignored

     Current dimensions of program PWSCF are:
     Max number of different atomic species (ntypx) = 10
     Max number of k-points (npk) =  40000
     Max angular momentum in pseudopotentials (lmaxx) =  4
     file C.pbe-n-kjpaw_psl.1.0.0.UPF: wavefunction(s)  2S 2P renormalized

     IMPORTANT: XC functional enforced from input :
     Exchange-correlation= BEEF-VDW
                           (   1   4  43  14   2   0   0)
     Any further DFT definition will be discarded
     Please, verify this is what you really want

     R & G space division:  proc/nbgrp/npool/nimage =      10
     Subspace diagonalization in iterative solution of the eigenvalue problem:
     a serial algorithm will be used

     Using Slab Decomposition

     bravais-lattice index     =            1
     lattice parameter (alat)  =       6.7507  a.u.
     unit-cell volume          =     307.6390 (a.u.)^3
     number of atoms/cell      =            7
     number of atomic types    =            1
     number of electrons       =        29.00
     number of Kohn-Sham states=           19
     kinetic-energy cutoff     =      70.0000  Ry
     charge density cutoff     =     350.0000  Ry
     scf convergence threshold =      1.0E-07
     mixing beta               =       0.7000
     number of iterations used =            8  plain     mixing
     energy convergence thresh.=      1.0E-04
     force convergence thresh. =      1.0E-03
     Exchange-correlation= BEEF-VDW
                           (   1   4  43  14   2   0   0)
     nstep                     =           50

     celldm(1)=   6.750674  celldm(2)=   0.000000  celldm(3)=   0.000000
     celldm(4)=   0.000000  celldm(5)=   0.000000  celldm(6)=   0.000000

     crystal axes: (cart. coord. in units of alat)
               a(1) = (   1.000000   0.000000   0.000000 )
               a(2) = (   0.000000   1.000000   0.000000 )
               a(3) = (   0.000000   0.000000   1.000000 )

     reciprocal axes: (cart. coord. in units 2 pi/alat)
               b(1) = (  1.000000  0.000000  0.000000 )
               b(2) = (  0.000000  1.000000  0.000000 )
               b(3) = (  0.000000  0.000000  1.000000 )

     PseudoPot. # 1 for C  read from file:
     /trace/group/acmegroup/atimmins/packages/espresso/pseudo/psl_1.0.0/pslibrary.1.0.0/pbe/PSEUDOPOTENTIALS/C.pbe-n-kjpaw_psl.1.0.0.UPF
     MD5 check sum: 5459cf7f2c8c37df2f7cde8914797f4d
     Pseudo is Projector augmented-wave + core cor, Zval =  4.0
     Generated using 'atomic' code by A. Dal Corso  v.7.1
     Shape of augmentation charge: PSQ
     Using radial grid of 1073 points,  4 beta functions with:
                l(1) =   0
                l(2) =   0
                l(3) =   1
                l(4) =   1
     Q(r) pseudized with 0 coefficients

     atomic species   valence    mass     pseudopotential
        C              4.00    12.01100     C ( 1.00)

      6 Sym. Ops. (no inversion) found

                                    s                        frac. trans.

      isym =  1     identity

 cryst.   s( 1) = (     1          0          0      )
                  (     0          1          0      )
                  (     0          0          1      )

 cart.    s( 1) = (  1.0000000  0.0000000  0.0000000 )
                  (  0.0000000  1.0000000  0.0000000 )
                  (  0.0000000  0.0000000  1.0000000 )

      isym =  2     120 deg rotation - cart. axis [1,-1,1]

[...]

      isym =  3     120 deg rotation - cart. axis [-1,1,-1]

[...]

      isym =  4     inv. 180 deg rotation - cart. axis [1,1,0]

[...]

      isym =  6     inv. 180 deg rotation - cart. axis [0,1,1]

 cryst.   s( 6) = (     1          0          0      )
                  (     0          0         -1      )
                  (     0         -1          0      )

 cart.    s( 6) = (  1.0000000  0.0000000  0.0000000 )
                  (  0.0000000  0.0000000 -1.0000000 )
                  (  0.0000000 -1.0000000  0.0000000 )

     point group C_3v (3m)
     there are  3 classes
     the character table:

       E     2C3   3s_v
A_1    1.00  1.00  1.00
A_2    1.00  1.00 -1.00
E      2.00 -1.00  0.00

     the symmetry operations in each class and the name of the first element:

     E        1
          identity
     2C3      2    3
          120 deg rotation - cart. axis [1,-1,1]
     3s_v     4    5    6
          inv. 180 deg rotation - cart. axis [1,1,0]

   Cartesian axes

     site n.     atom                  positions (alat units)
         1           C   tau(   1) = (   0.0000000   0.0000000   0.5000000  )
         2           C   tau(   2) = (   0.2500061   0.2500061   0.7499939  )
         3           C   tau(   3) = (   0.0000000   0.5000000   0.0000000  )
         4           C   tau(   4) = (   0.7499939   0.7499939   0.7499939  )
         5           C   tau(   5) = (   0.5000000   0.0000000   0.0000000  )
         6           C   tau(   6) = (   0.7499939   0.2500061   0.2500061  )
         7           C   tau(   7) = (   0.5000000   0.5000000   0.5000000  )

   Crystallographic axes

     site n.     atom                  positions (cryst. coord.)
         1           C   tau(   1) = (  0.0000000  0.0000000  0.5000000  )
         2           C   tau(   2) = (  0.2500061  0.2500061  0.7499939  )
         3           C   tau(   3) = (  0.0000000  0.5000000  0.0000000  )
         4           C   tau(   4) = (  0.7499939  0.7499939  0.7499939  )
         5           C   tau(   5) = (  0.5000000  0.0000000  0.0000000  )
         6           C   tau(   6) = (  0.7499939  0.2500061  0.2500061  )
         7           C   tau(   7) = (  0.5000000  0.5000000  0.5000000  )

     number of k points=    13  Gaussian smearing, width (Ry)=  0.0100
                       cart. coord. in units 2pi/alat
        k(    1) = (   0.0000000   0.0000000   0.0000000), wk =   0.0312500
        k(    2) = (   0.0000000   0.0000000   0.2500000), wk =   0.1875000
        k(    3) = (   0.0000000   0.0000000  -0.5000000), wk =   0.0937500
        k(    4) = (   0.0000000   0.2500000   0.2500000), wk =   0.1875000
        k(    5) = (   0.0000000   0.2500000  -0.5000000), wk =   0.3750000
        k(    6) = (   0.0000000  -0.5000000  -0.5000000), wk =   0.0937500
        k(    7) = (   0.2500000   0.2500000   0.2500000), wk =   0.1875000
        k(    8) = (   0.2500000   0.2500000  -0.5000000), wk =   0.1875000
        k(    9) = (   0.2500000  -0.5000000  -0.5000000), wk =   0.1875000
        k(   10) = (  -0.5000000  -0.5000000  -0.5000000), wk =   0.0312500
        k(   11) = (   0.2500000   0.0000000   0.2500000), wk =   0.1875000
        k(   12) = (   0.2500000  -0.2500000   0.2500000), wk =   0.0625000
        k(   13) = (   0.2500000  -0.2500000  -0.5000000), wk =   0.1875000

                       cryst. coord.
        k(    1) = (   0.0000000   0.0000000   0.0000000), wk =   0.0312500
        k(    2) = (   0.0000000   0.0000000   0.2500000), wk =   0.1875000
        k(    3) = (   0.0000000   0.0000000  -0.5000000), wk =   0.0937500
        k(    4) = (   0.0000000   0.2500000   0.2500000), wk =   0.1875000
        k(    5) = (   0.0000000   0.2500000  -0.5000000), wk =   0.3750000
        k(    6) = (   0.0000000  -0.5000000  -0.5000000), wk =   0.0937500
        k(    7) = (   0.2500000   0.2500000   0.2500000), wk =   0.1875000
        k(    8) = (   0.2500000   0.2500000  -0.5000000), wk =   0.1875000
        k(    9) = (   0.2500000  -0.5000000  -0.5000000), wk =   0.1875000
        k(   10) = (  -0.5000000  -0.5000000  -0.5000000), wk =   0.0312500
        k(   11) = (   0.2500000   0.0000000   0.2500000), wk =   0.1875000
        k(   12) = (   0.2500000  -0.2500000   0.2500000), wk =   0.0625000
        k(   13) = (   0.2500000  -0.2500000  -0.5000000), wk =   0.1875000

     Check: negative core charge=   -0.000014

     Initial potential from superposition of free atoms

     starting charge      27.9997, renormalised to      29.0000

     %%%%%%%%%%%%%%%%%%%%%%%%%%%%%%%%%%%%%%%%%%%%%%%%%%%%%%%%%%%%%%%%%%%%%%%%
     %                                                                      %
     % You are using vdW-DF, which was implemented by the Thonhauser group. %
     % Please cite the following two papers that made this development      %
     % possible and the two reviews that describe the various versions:     %
     %                                                                      %
     %   T. Thonhauser et al., PRL 115, 136402 (2015).                      %
     %   T. Thonhauser et al., PRB 76, 125112 (2007).                       %
     %   K. Berland et al., Rep. Prog. Phys. 78, 066501 (2015).             %
     %   D.C. Langreth et al., J. Phys.: Condens. Matter 21, 084203 (2009). %
     %                                                                      %
     % If you are calculating stress with vdW-DF, please also cite:         %
     %                                                                      %
     %   R. Sabatini et al., J. Phys.: Condens. Matter 24, 424209 (2012).   %
     %                                                                      %
     %%%%%%%%%%%%%%%%%%%%%%%%%%%%%%%%%%%%%%%%%%%%%%%%%%%%%%%%%%%%%%%%%%%%%%%%

     %%%%%%%%%%%%%%%%%%%%%%%%%%%%%%%%%%%%%%%%%%%%%%%%%%%%%%%%%%%%%%%%%%%%%%%%
     %                                                                      %
     %  vdW-DF NEWS:                                                        %
     %                                                                      %
     %  * vdW-DF3 is now available. DOI: 10.1021/acs.jctc.0c00471           %
     %    use with input_dft = 'vdW-DF3-opt1' or 'vdW-DF3-opt2'             %
     %                                                                      %
     %  * Unscreened and range-separated hybrid vdW-DF-cx functionals       %
     %    DOI: 10.1063/1.4986522 and 10.1088/1361-648X/ac2ad2               %
     %    use with input_dft = 'vdW-DF-cx0'    and 'vdW-DF-ahcx'            %
     %  * Unscreened and range-separated hybrid vdW-DF2-b86r functionals    %
     %    DOI: 10.1063/1.4986522 and DOI: 10.1103/PhysRevX.12.041003        %
     %    use with input_dft = 'vdW-DF2-br0' and 'vdW-DF2-ahbr'             %
     %                                                                      %
     %%%%%%%%%%%%%%%%%%%%%%%%%%%%%%%%%%%%%%%%%%%%%%%%%%%%%%%%%%%%%%%%%%%%%%%%

     Carrying out vdW-DF run using the following parameters:
     Nqs    =  20  Npoints =  1024  r_max =  100.000
     q_mesh =  0.00001000  0.04494208  0.09755937  0.15916263
               0.23128650  0.31572767  0.41458969  0.53033537
               0.66584808  0.82450364  1.01025438  1.22772762
               1.48234092  1.78043706  2.12944203  2.53805004
               3.01644009  3.57652955  4.23227104  5.00000000

     Non-local corr. energy    =       0.20099384 Ry

     Starting wfcs are   28 randomized atomic wfcs
     Checking if some PAW data can be deallocated...

     Self-consistent Calculation

[...]
     atom    6 type  1   force =    -0.00010613    0.00010612    0.00014185
     atom    7 type  1   force =    -0.00490130    0.00490130   -0.00490130
     The Hubbard contrib.    to forces
     atom    1 type  1   force =     0.00000000    0.00000000    0.00000000
     atom    2 type  1   force =     0.00000000    0.00000000    0.00000000
     atom    3 type  1   force =     0.00000000    0.00000000    0.00000000
     atom    4 type  1   force =     0.00000000    0.00000000    0.00000000
     atom    5 type  1   force =     0.00000000    0.00000000    0.00000000
     atom    6 type  1   force =     0.00000000    0.00000000    0.00000000
     atom    7 type  1   force =     0.00000000    0.00000000    0.00000000
     The SCF correction term to forces
     atom    1 type  1   force =     0.00001746   -0.00001746   -0.00001662
     atom    2 type  1   force =    -0.00003061   -0.00003210    0.00003210
     atom    3 type  1   force =     0.00001746    0.00001662    0.00001746
     atom    4 type  1   force =     0.00003210    0.00003061    0.00003210
     atom    5 type  1   force =    -0.00001662   -0.00001746    0.00001746
     atom    6 type  1   force =     0.00003210   -0.00003210   -0.00003061
     atom    7 type  1   force =    -0.00002107    0.00002107   -0.00002107

     Total force =     0.160983     Total SCF correction =     0.000114

     Computing stress (Cartesian axis) and pressure

[...]

          total   stress  (Ry/bohr**3)                   (kbar)     P=      466.60
   0.00317188  -0.00000002   0.00000002          466.60       -0.00        0.00
  -0.00000002   0.00317188  -0.00000002           -0.00      466.60       -0.00
   0.00000002  -0.00000002   0.00317188            0.00       -0.00      466.60

     kinetic stress (kbar)  16720.80     -0.08      0.08
                               -0.08  16720.80     -0.08
                                0.08     -0.08  16720.80

     local   stress (kbar)  -4181.35     -0.14      0.14
                               -0.14  -4181.35     -0.14
                                0.14     -0.14  -4181.35

     nonloc. stress (kbar)   4051.61      0.01     -0.01
                                0.01   4051.61      0.01
                               -0.01      0.01   4051.61

     hartree stress (kbar)   1435.57      0.04     -0.04
                                0.04   1435.57      0.04
                               -0.04      0.04   1435.57

     exc-cor stress (kbar)   -422.58     -0.01      0.01
                               -0.01   -422.58     -0.01
                                0.01     -0.01   -422.58

     corecor stress (kbar)  -3878.31      0.04     -0.04
                                0.04  -3878.31      0.04
                               -0.04      0.04  -3878.31

     ewald   stress (kbar) -13281.99      0.14     -0.14
                                0.14 -13281.99      0.14
                               -0.14      0.14 -13281.99

     hubbard stress (kbar)      0.00      0.00      0.00
                                0.00      0.00      0.00
                                0.00      0.00      0.00

     DFT-D   stress (kbar)      0.00      0.00      0.00
                                0.00      0.00      0.00
                                0.00      0.00      0.00

     XDM     stress (kbar)      0.00      0.00      0.00
                                0.00      0.00      0.00
                                0.00      0.00      0.00

     dft-nl  stress (kbar)     22.84     -0.00      0.00
                               -0.00     22.84     -0.00
                                0.00     -0.00     22.84

     TS-vdW  stress (kbar)      0.00      0.00      0.00
                                0.00      0.00      0.00
                                0.00      0.00      0.00

     MDB     stress (kbar)      0.00      0.00      0.00
                                0.00      0.00      0.00
                                0.00      0.00      0.00

     3D-RISM stress (kbar)      0.00      0.00      0.00
                                0.00      0.00      0.00
                                0.00      0.00      0.00

     BFGS Geometry Optimization
     Energy error            =      0.0E+00 Ry
     Gradient error          =      4.7E-02 Ry/Bohr

     number of scf cycles    =   1
     number of bfgs steps    =   0

     energy             new  =    -131.6378326478 Ry

     new trust radius        =       0.0805846087 bohr
     new conv_thr            =       0.0000001000 Ry

ATOMIC_POSITIONS (angstrom)
C            -0.0246080846        0.0246080846        1.8106819268
C             0.8931622267        0.8930972449        2.6792055735
C            -0.0246080846        1.7616208916       -0.0246080846
C             2.6792055735        2.6791405917        2.6792055735
C             1.8106819268        0.0246080846       -0.0246080846
C             2.6792055735        0.8930972449        0.8931622267
C             1.8107716676        1.7615311508        1.8107716676

     Writing config-only to output data dir ./diamond.save/
     NEW-OLD atomic charge density approx. for the potential

[...]

     c_bands:  1 eigenvalues not converged
     ethr =  6.69E-09,  avg # of iterations =  4.4

[...]

     Energy error            =      1.7E-02 Ry
     Gradient error          =      1.6E-02 Ry/Bohr

[...]

     energy             old  =    -131.6378326478 Ry
     energy             new  =    -131.6553274815 Ry

     CASE: energy            _new < energy            _old

[...]

     Total force =     0.000263     Total SCF correction =     0.000009

[...]

     number of scf cycles    =   3
     number of bfgs steps    =   2

     energy             old  =    -131.6553274815 Ry
     energy             new  =    -131.6577465190 Ry

     CASE: energy            _new < energy            _old

     new trust radius        =       0.0001802678 bohr
     new conv_thr            =       0.0000000010 Ry

ATOMIC_POSITIONS (angstrom)
C            -0.0377432484        0.0377432484        1.8239855701
C             0.8931444454        0.8931371827        2.6791656357
C            -0.0377432484        1.7483172483       -0.0377432484
C             2.6791656357        2.6791583730        2.6791656357
C             1.8239855701        0.0377432484       -0.0377432484
C             2.6791656357        0.8931371827        0.8931444454
C             1.8238360088        1.7484668096        1.8238360088

     Writing config-only to output data dir ./diamond.save/
     NEW-OLD atomic charge density approx. for the potential

     Check: negative core charge=   -0.000014

[...]

     Self-consistent Calculation

[...]

     Threshold (ethr) on eigenvalues was too large:
     Diagonalizing with lowered threshold

     Davidson diagonalization with overlap

[...]

     total energy              =    -131.65774657 Ry
     estimated scf accuracy    <          4.9E-09 Ry

     iteration #  4     ecut=    70.00 Ry     beta= 0.70
     Davidson diagonalization with overlap

     ethr =  1.69E-11,  avg # of iterations =  3.3

[...]

     End of self-consistent calculation

[...]

          k =-0.5000-0.5000-0.5000 (  3112 PWs)   bands (ev):

[...]

          k = 0.2500-0.2500-0.5000 (  3050 PWs)   bands (ev):

    -7.6454  -6.2374  -4.2806  -2.4709  -0.3570   0.2476   1.7462   3.9443
     5.7109   6.2220   6.5193   6.8346   7.0926  11.1035  12.2910  12.8158
    18.0170  19.6879  19.7985

     occupation numbers
     1.0000   1.0000   1.0000   1.0000   1.0000   1.0000   1.0000   1.0000
     1.0000   1.0000   1.0000   1.0000   1.0000   1.0000   0.4012   0.0000
     0.0000   0.0000   0.0000

     the Fermi energy is    12.2669 ev

!    total energy              =    -131.65774657 Ry
     total all-electron energy =      -536.006426 Ry
     estimated scf accuracy    <          5.5E-11 Ry
     smearing contrib. (-TS)   =      -0.00279530 Ry
     internal energy E=F+TS    =    -131.65495127 Ry

     The total energy is F=E-TS. E is the sum of the following terms:
     one-electron contribution =      20.53385420 Ry
     hartree contribution      =      10.15402609 Ry
     xc contribution           =     -34.67709962 Ry
     ewald contribution        =     -81.83381079 Ry
     one-center paw contrib.   =     -45.83192116 Ry
      -> PAW hartree energy AE =       8.71734224 Ry
      -> PAW hartree energy PS =      -8.70829802 Ry
      -> PAW xc energy AE      =     -11.05935013 Ry
      -> PAW xc energy PS      =       4.49939926 Ry
      -> total E_H with PAW    =      10.16307031 Ry
      -> total E_XC with PAW   =     -41.23705050 Ry

     convergence has been achieved in   4 iterations

[...]

     Forces acting on atoms (cartesian axes, Ry/au):

     atom    1 type  1   force =     0.00000593   -0.00000593   -0.00003803
     atom    2 type  1   force =    -0.00001613    0.00000337   -0.00000337
     atom    3 type  1   force =     0.00000593    0.00003803    0.00000593
     atom    4 type  1   force =    -0.00000337    0.00001613   -0.00000337
     atom    5 type  1   force =    -0.00003803   -0.00000593    0.00000593
     atom    6 type  1   force =    -0.00000337    0.00000337   -0.00001613
     atom    7 type  1   force =     0.00004904   -0.00004904    0.00004904
     The non-local contrib.  to forces
     atom    1 type  1   force =    -0.28165047    0.28165047    0.28166194
     atom    2 type  1   force =     0.00005247    0.00001503   -0.00001503
     atom    3 type  1   force =    -0.28165047   -0.28166194   -0.28165047
     atom    4 type  1   force =    -0.00001503   -0.00005247   -0.00001503
     atom    5 type  1   force =     0.28166194    0.28165047   -0.28165047
     atom    6 type  1   force =    -0.00001503    0.00001503    0.00005247
     atom    7 type  1   force =     0.28166040   -0.28166040    0.28166040
     The ionic contribution  to forces
     atom    1 type  1   force =     1.83444232   -1.83444247   -1.83471765
     atom    2 type  1   force =    -0.00005101   -0.00042266    0.00042268
     atom    3 type  1   force =     1.83444237    1.83471775    1.83444237
     atom    4 type  1   force =     0.00042268    0.00005105    0.00042268
     atom    5 type  1   force =    -1.83471765   -1.83444247    1.83444232
     atom    6 type  1   force =     0.00042268   -0.00042266   -0.00005101
     atom    7 type  1   force =    -1.83496140    1.83496146   -1.83496140
     The local contribution  to forces
     atom    1 type  1   force =    -1.55708761    1.55708761    1.55720849
     atom    2 type  1   force =    -0.00012439    0.00026947   -0.00026928
     atom    3 type  1   force =    -1.55708757   -1.55720832   -1.55708757
     atom    4 type  1   force =    -0.00026928    0.00012450   -0.00026928
     atom    5 type  1   force =     1.55720849    1.55708761   -1.55708761
     atom    6 type  1   force =    -0.00026928    0.00026947   -0.00012439
     atom    7 type  1   force =     1.55759579   -1.55759566    1.55759579
     The core correction contribution to forces
     atom    1 type  1   force =     0.00435416   -0.00435416   -0.00414429
     atom    2 type  1   force =     0.00015374    0.00009053   -0.00009054
     atom    3 type  1   force =     0.00435416    0.00414429    0.00435416
     atom    4 type  1   force =    -0.00009054   -0.00015375   -0.00009054
     atom    5 type  1   force =    -0.00414429   -0.00435416    0.00435416
     atom    6 type  1   force =    -0.00009054    0.00009053    0.00015374
     atom    7 type  1   force =    -0.00419866    0.00419865   -0.00419866
     The Hubbard contrib.    to forces
     atom    1 type  1   force =     0.00000000    0.00000000    0.00000000
     atom    2 type  1   force =     0.00000000    0.00000000    0.00000000
     atom    3 type  1   force =     0.00000000    0.00000000    0.00000000
     atom    4 type  1   force =     0.00000000    0.00000000    0.00000000
     atom    5 type  1   force =     0.00000000    0.00000000    0.00000000
     atom    6 type  1   force =     0.00000000    0.00000000    0.00000000
     atom    7 type  1   force =     0.00000000    0.00000000    0.00000000
     The SCF correction term to forces
     atom    1 type  1   force =    -0.00000324    0.00000324    0.00000288
     atom    2 type  1   force =     0.00000241    0.00000182   -0.00000182
     atom    3 type  1   force =    -0.00000324   -0.00000288   -0.00000324
     atom    4 type  1   force =    -0.00000182   -0.00000241   -0.00000182
     atom    5 type  1   force =     0.00000288    0.00000324   -0.00000324
     atom    6 type  1   force =    -0.00000182    0.00000182    0.00000241
     atom    7 type  1   force =     0.00000228   -0.00000228    0.00000228

     Total force =     0.000112     Total SCF correction =     0.000012
     SCF correction compared to forces is large: reduce conv_thr to get better values

     Computing stress (Cartesian axis) and pressure

     Non-local corr. energy    =       0.25009619 Ry

          total   stress  (Ry/bohr**3)                   (kbar)     P=      534.66
   0.00363456   0.00000039  -0.00000039          534.66        0.06       -0.06
   0.00000039   0.00363456   0.00000039            0.06      534.66        0.06
  -0.00000039   0.00000039   0.00363456           -0.06        0.06      534.66

     kinetic stress (kbar)  16896.24     -0.13      0.13
                               -0.13  16896.24     -0.13
                                0.13     -0.13  16896.24

     local   stress (kbar)  -4640.19     -0.80      0.80
                               -0.80  -4640.19     -0.80
                                0.80     -0.80  -4640.19

     nonloc. stress (kbar)   4007.27      0.03     -0.03
                                0.03   4007.27      0.03
                               -0.03      0.03   4007.27

     hartree stress (kbar)   1618.46      0.12     -0.12
                                0.12   1618.46      0.12
                               -0.12      0.12   1618.46

     exc-cor stress (kbar)   -442.85     -0.00      0.00
                               -0.00   -442.85     -0.00
                                0.00     -0.00   -442.85

     corecor stress (kbar)  -3884.68      0.02     -0.02
                                0.02  -3884.68      0.02
                               -0.02      0.02  -3884.68

     ewald   stress (kbar) -13043.61      0.81     -0.81
                                0.81 -13043.61      0.81
                               -0.81      0.81 -13043.61

     hubbard stress (kbar)      0.00      0.00      0.00
                                0.00      0.00      0.00
                                0.00      0.00      0.00

     DFT-D   stress (kbar)      0.00      0.00      0.00
                                0.00      0.00      0.00
                                0.00      0.00      0.00

     XDM     stress (kbar)      0.00      0.00      0.00
                                0.00      0.00      0.00
                                0.00      0.00      0.00

     dft-nl  stress (kbar)     24.02     -0.00      0.00
                               -0.00     24.02     -0.00
                                0.00     -0.00     24.02

     TS-vdW  stress (kbar)      0.00      0.00      0.00
                                0.00      0.00      0.00
                                0.00      0.00      0.00

     MDB     stress (kbar)      0.00      0.00      0.00
                                0.00      0.00      0.00
                                0.00      0.00      0.00

     3D-RISM stress (kbar)      0.00      0.00      0.00
                                0.00      0.00      0.00
                                0.00      0.00      0.00

     Energy error            =      5.2E-08 Ry
     Gradient error          =      4.9E-05 Ry/Bohr

     bfgs converged in   4 scf cycles and   3 bfgs steps
     (criteria: energy <  1.0E-04 Ry, force <  1.0E-03 Ry/Bohr)

     End of BFGS Geometry Optimization

     Final energy             =    -131.6577465715 Ry

     File ./diamond.bfgs deleted, as requested
Begin final coordinates

ATOMIC_POSITIONS (angstrom)
C            -0.0377432484        0.0377432484        1.8239855701
C             0.8931444454        0.8931371827        2.6791656357
C            -0.0377432484        1.7483172483       -0.0377432484
C             2.6791656357        2.6791583730        2.6791656357
C             1.8239855701        0.0377432484       -0.0377432484
C             2.6791656357        0.8931371827        0.8931444454
C             1.8238360088        1.7484668096        1.8238360088
End final coordinates

     Writing all to output data dir ./diamond.save/

     General routines

     Parallel routines

     PAW routines

   This run was terminated on:  21:35:54  27Mar2024

   JOB DONE.