     Program PWSCF v.7.2 starts on 27Mar2024 at 22:22:47

     Reading input from espresso.pwi
Warning: card &CELL ignored
Warning: card    CELL_DYNAMICS    = 'BFGS' ignored
Warning: card / ignored

     Current dimensions of program PWSCF are:
     Max number of different atomic species (ntypx) = 10
     Max number of k-points (npk) =  40000
     Max angular momentum in pseudopotentials (lmaxx) =  4
     file C.pbe-n-kjpaw_psl.1.0.0.UPF: wavefunction(s)  2S 2P renormalized

     IMPORTANT: XC functional enforced from input :
     Exchange-correlation= BEEF-VDW
                           (   1   4  43  14   2   0   0)
     Any further DFT definition will be discarded
     Please, verify this is what you really want

     R & G space division:  proc/nbgrp/npool/nimage =      10
     Subspace diagonalization in iterative solution of the eigenvalue problem:
     a serial algorithm will be used

     Using Slab Decomposition

     bravais-lattice index     =            1
     lattice parameter (alat)  =       6.7507  a.u.
     unit-cell volume          =     307.6390 (a.u.)^3
     number of atoms/cell      =            7
     number of atomic types    =            1
     number of electrons       =        29.00
     number of Kohn-Sham states=           19
     kinetic-energy cutoff     =      70.0000  Ry
     charge density cutoff     =     350.0000  Ry
     scf convergence threshold =      1.0E-07
     mixing beta               =       0.7000
     number of iterations used =            8  plain     mixing
     Exchange-correlation= BEEF-VDW
                           (   1   4  43  14   2   0   0)

     celldm(1)=   6.750674  celldm(2)=   0.000000  celldm(3)=   0.000000
     celldm(4)=   0.000000  celldm(5)=   0.000000  celldm(6)=   0.000000

     crystal axes: (cart. coord. in units of alat)
               a(1) = (   1.000000   0.000000   0.000000 )
               a(2) = (   0.000000   1.000000   0.000000 )
               a(3) = (   0.000000   0.000000   1.000000 )

     reciprocal axes: (cart. coord. in units 2 pi/alat)
               b(1) = (  1.000000  0.000000  0.000000 )
               b(2) = (  0.000000  1.000000  0.000000 )
               b(3) = (  0.000000  0.000000  1.000000 )

     PseudoPot. # 1 for C  read from file:
     /trace/group/acmegroup/atimmins/packages/espresso/pseudo/psl_1.0.0/pslibrary.1.0.0/pbe/PSEUDOPOTENTIALS/C.pbe-n-kjpaw_psl.1.0.0.UPF
     MD5 check sum: 5459cf7f2c8c37df2f7cde8914797f4d
     Pseudo is Projector augmented-wave + core cor, Zval =  4.0
     Generated using 'atomic' code by A. Dal Corso  v.7.1
     Shape of augmentation charge: PSQ
     Using radial grid of 1073 points,  4 beta functions with:
                l(1) =   0
                l(2) =   0
                l(3) =   1
                l(4) =   1
     Q(r) pseudized with 0 coefficients

     atomic species   valence    mass     pseudopotential
        C              4.00    12.01100     C ( 1.00)

      6 Sym. Ops. (no inversion) found

                                    s                        frac. trans.

      isym =  1     identity

 cryst.   s( 1) = (     1          0          0      )
                  (     0          1          0      )
                  (     0          0          1      )

 cart.    s( 1) = (  1.0000000  0.0000000  0.0000000 )
                  (  0.0000000  1.0000000  0.0000000 )
                  (  0.0000000  0.0000000  1.0000000 )

      isym =  2     120 deg rotation - cart. axis [1,-1,1]

[...]

      isym =  3     120 deg rotation - cart. axis [-1,1,-1]

[...]

      isym =  4     inv. 180 deg rotation - cart. axis [1,1,0]

[...]

      isym =  6     inv. 180 deg rotation - cart. axis [0,1,1]

 cryst.   s( 6) = (     1          0          0      )
                  (     0          0         -1      )
                  (     0         -1          0      )

 cart.    s( 6) = (  1.0000000  0.0000000  0.0000000 )
                  (  0.0000000  0.0000000 -1.0000000 )
                  (  0.0000000 -1.0000000  0.0000000 )

     point group C_3v (3m)
     there are  3 classes
     the character table:

       E     2C3   3s_v
A_1    1.00  1.00  1.00
A_2    1.00  1.00 -1.00
E      2.00 -1.00  0.00

     the symmetry operations in each class and the name of the first element:

     E        1
          identity
     2C3      2    3
          120 deg rotation - cart. axis [1,-1,1]
     3s_v     4    5    6
          inv. 180 deg rotation - cart. axis [1,1,0]

   Cartesian axes

     site n.     atom                  positions (alat units)
         1           C   tau(   1) = (   0.0000000   0.0000000   0.5000000  )
         2           C   tau(   2) = (   0.2500061   0.2500061   0.7499939  )
         3           C   tau(   3) = (   0.0000000   0.5000000   0.0000000  )
         4           C   tau(   4) = (   0.7499939   0.7499939   0.7499939  )
         5           C   tau(   5) = (   0.5000000   0.0000000   0.0000000  )
         6           C   tau(   6) = (   0.7499939   0.2500061   0.2500061  )
         7           C   tau(   7) = (   0.5000000   0.5000000   0.5000000  )

   Crystallographic axes

     site n.     atom                  positions (cryst. coord.)
         1           C   tau(   1) = (  0.0000000  0.0000000  0.5000000  )
         2           C   tau(   2) = (  0.2500061  0.2500061  0.7499939  )
         3           C   tau(   3) = (  0.0000000  0.5000000  0.0000000  )
         4           C   tau(   4) = (  0.7499939  0.7499939  0.7499939  )
         5           C   tau(   5) = (  0.5000000  0.0000000  0.0000000  )
         6           C   tau(   6) = (  0.7499939  0.2500061  0.2500061  )
         7           C   tau(   7) = (  0.5000000  0.5000000  0.5000000  )

     number of k points=    13  Gaussian smearing, width (Ry)=  0.0100
                       cart. coord. in units 2pi/alat
        k(    1) = (   0.0000000   0.0000000   0.0000000), wk =   0.0312500
        k(    2) = (   0.0000000   0.0000000   0.2500000), wk =   0.1875000
        k(    3) = (   0.0000000   0.0000000  -0.5000000), wk =   0.0937500
        k(    4) = (   0.0000000   0.2500000   0.2500000), wk =   0.1875000
        k(    5) = (   0.0000000   0.2500000  -0.5000000), wk =   0.3750000
        k(    6) = (   0.0000000  -0.5000000  -0.5000000), wk =   0.0937500
        k(    7) = (   0.2500000   0.2500000   0.2500000), wk =   0.1875000
        k(    8) = (   0.2500000   0.2500000  -0.5000000), wk =   0.1875000
        k(    9) = (   0.2500000  -0.5000000  -0.5000000), wk =   0.1875000
        k(   10) = (  -0.5000000  -0.5000000  -0.5000000), wk =   0.0312500
        k(   11) = (   0.2500000   0.0000000   0.2500000), wk =   0.1875000
        k(   12) = (   0.2500000  -0.2500000   0.2500000), wk =   0.0625000
        k(   13) = (   0.2500000  -0.2500000  -0.5000000), wk =   0.1875000

                       cryst. coord.
        k(    1) = (   0.0000000   0.0000000   0.0000000), wk =   0.0312500
        k(    2) = (   0.0000000   0.0000000   0.2500000), wk =   0.1875000
        k(    3) = (   0.0000000   0.0000000  -0.5000000), wk =   0.0937500
        k(    4) = (   0.0000000   0.2500000   0.2500000), wk =   0.1875000
        k(    5) = (   0.0000000   0.2500000  -0.5000000), wk =   0.3750000
        k(    6) = (   0.0000000  -0.5000000  -0.5000000), wk =   0.0937500
        k(    7) = (   0.2500000   0.2500000   0.2500000), wk =   0.1875000
        k(    8) = (   0.2500000   0.2500000  -0.5000000), wk =   0.1875000
        k(    9) = (   0.2500000  -0.5000000  -0.5000000), wk =   0.1875000
        k(   10) = (  -0.5000000  -0.5000000  -0.5000000), wk =   0.0312500
        k(   11) = (   0.2500000   0.0000000   0.2500000), wk =   0.1875000
        k(   12) = (   0.2500000  -0.2500000   0.2500000), wk =   0.0625000
        k(   13) = (   0.2500000  -0.2500000  -0.5000000), wk =   0.1875000

     Atomic positions and unit cell read from directory:
     ./diamond.save/
     Atomic positions from file used, from input discarded

     Check: negative core charge=   -0.000014

     The initial density is read from file :
     ./diamond.save/charge-density

     %%%%%%%%%%%%%%%%%%%%%%%%%%%%%%%%%%%%%%%%%%%%%%%%%%%%%%%%%%%%%%%%%%%%%%%%
     %                                                                      %
     % You are using vdW-DF, which was implemented by the Thonhauser group. %
     % Please cite the following two papers that made this development      %
     % possible and the two reviews that describe the various versions:     %
     %                                                                      %
     %   T. Thonhauser et al., PRL 115, 136402 (2015).                      %
     %   T. Thonhauser et al., PRB 76, 125112 (2007).                       %
     %   K. Berland et al., Rep. Prog. Phys. 78, 066501 (2015).             %
     %   D.C. Langreth et al., J. Phys.: Condens. Matter 21, 084203 (2009). %
     %                                                                      %
     % If you are calculating stress with vdW-DF, please also cite:         %
     %                                                                      %
     %   R. Sabatini et al., J. Phys.: Condens. Matter 24, 424209 (2012).   %
     %                                                                      %
     %%%%%%%%%%%%%%%%%%%%%%%%%%%%%%%%%%%%%%%%%%%%%%%%%%%%%%%%%%%%%%%%%%%%%%%%

     %%%%%%%%%%%%%%%%%%%%%%%%%%%%%%%%%%%%%%%%%%%%%%%%%%%%%%%%%%%%%%%%%%%%%%%%
     %                                                                      %
     %  vdW-DF NEWS:                                                        %
     %                                                                      %
     %  * vdW-DF3 is now available. DOI: 10.1021/acs.jctc.0c00471           %
     %    use with input_dft = 'vdW-DF3-opt1' or 'vdW-DF3-opt2'             %
     %                                                                      %
     %  * Unscreened and range-separated hybrid vdW-DF-cx functionals       %
     %    DOI: 10.1063/1.4986522 and 10.1088/1361-648X/ac2ad2               %
     %    use with input_dft = 'vdW-DF-cx0'    and 'vdW-DF-ahcx'            %
     %  * Unscreened and range-separated hybrid vdW-DF2-b86r functionals    %
     %    DOI: 10.1063/1.4986522 and DOI: 10.1103/PhysRevX.12.041003        %
     %    use with input_dft = 'vdW-DF2-br0' and 'vdW-DF2-ahbr'             %
     %                                                                      %
     %%%%%%%%%%%%%%%%%%%%%%%%%%%%%%%%%%%%%%%%%%%%%%%%%%%%%%%%%%%%%%%%%%%%%%%%

     Carrying out vdW-DF run using the following parameters:
     Nqs    =  20  Npoints =  1024  r_max =  100.000
     q_mesh =  0.00001000  0.04494208  0.09755937  0.15916263
               0.23128650  0.31572767  0.41458969  0.53033537
               0.66584808  0.82450364  1.01025438  1.22772762
               1.48234092  1.78043706  2.12944203  2.53805004
               3.01644009  3.57652955  4.23227104  5.00000000

     Non-local corr. energy    =       0.25009619 Ry

     Starting wfcs from file
     Checking if some PAW data can be deallocated...

     Self-consistent Calculation

     iteration #  1     ecut=    70.00 Ry     beta= 0.70
     Davidson diagonalization with overlap

     ethr =  1.00E-05,  avg # of iterations =  1.0

     Threshold (ethr) on eigenvalues was too large:
     Diagonalizing with lowered threshold

     Davidson diagonalization with overlap

     ethr =  4.44E-13,  avg # of iterations =  3.5

[...]

     End of self-consistent calculation

          k = 0.0000 0.0000 0.0000 (  2969 PWs)   bands (ev):

   -10.1446  -2.3998  -2.3998  -1.5309  -1.5303  -1.5303   4.3379   4.3383
     4.3383   4.9824   6.6678   6.6678   6.6690  13.8628  13.8629  13.8629
    15.7413  15.7413  15.7430

     occupation numbers
     1.0000   1.0000   1.0000   1.0000   1.0000   1.0000   1.0000   1.0000
     1.0000   1.0000   1.0000   1.0000   1.0000   0.0000   0.0000   0.0000
     0.0000   0.0000   0.0000

[...]

          k =-0.5000-0.5000-0.5000 (  3112 PWs)   bands (ev):

[...]

          k = 0.2500-0.2500-0.5000 (  3050 PWs)   bands (ev):

    -7.6454  -6.2374  -4.2806  -2.4709  -0.3570   0.2476   1.7462   3.9443
     5.7109   6.2220   6.5193   6.8346   7.0927  11.1035  12.2910  12.8158
    18.0170  19.6879  19.7985

     occupation numbers
     1.0000   1.0000   1.0000   1.0000   1.0000   1.0000   1.0000   1.0000
     1.0000   1.0000   1.0000   1.0000   1.0000   1.0000   0.4012   0.0000
     0.0000   0.0000   0.0000

     the Fermi energy is    12.2669 ev

!    total energy              =    -131.65774657 Ry
     total all-electron energy =      -536.006426 Ry
     estimated scf accuracy    <          1.5E-10 Ry
     smearing contrib. (-TS)   =      -0.00279532 Ry
     internal energy E=F+TS    =    -131.65495125 Ry

     The total energy is F=E-TS. E is the sum of the following terms:
     one-electron contribution =      20.53384130 Ry
     hartree contribution      =      10.15404081 Ry
     xc contribution           =     -34.67710143 Ry
     ewald contribution        =     -81.83381079 Ry
     one-center paw contrib.   =     -45.83192114 Ry
      -> PAW hartree energy AE =       8.71731433 Ry
      -> PAW hartree energy PS =      -8.70827014 Ry
      -> PAW xc energy AE      =     -11.05934280 Ry
      -> PAW xc energy PS      =       4.49939216 Ry
      -> total E_H with PAW    =      10.16308500 Ry
      -> total E_XC with PAW   =     -41.23705207 Ry

     convergence has been achieved in   1 iterations

[...]

     Forces acting on atoms (cartesian axes, Ry/au):

     atom    1 type  1   force =     0.00000591   -0.00000591   -0.00003859
     atom    2 type  1   force =    -0.00001426    0.00000381   -0.00000381
     atom    3 type  1   force =     0.00000591    0.00003859    0.00000591
     atom    4 type  1   force =    -0.00000381    0.00001426   -0.00000381
     atom    5 type  1   force =    -0.00003859   -0.00000591    0.00000591
     atom    6 type  1   force =    -0.00000381    0.00000381   -0.00001426
     atom    7 type  1   force =     0.00004864   -0.00004864    0.00004864
     The non-local contrib.  to forces
     atom    1 type  1   force =    -0.28164609    0.28164609    0.28165780
     atom    2 type  1   force =     0.00005178    0.00001530   -0.00001530
     atom    3 type  1   force =    -0.28164609   -0.28165780   -0.28164609
     atom    4 type  1   force =    -0.00001530   -0.00005178   -0.00001530
     atom    5 type  1   force =     0.28165780    0.28164609   -0.28164609
     atom    6 type  1   force =    -0.00001530    0.00001530    0.00005178
     atom    7 type  1   force =     0.28166636   -0.28166636    0.28166636
     The ionic contribution  to forces
     atom    1 type  1   force =     1.83444232   -1.83444247   -1.83471765
     atom    2 type  1   force =    -0.00005101   -0.00042266    0.00042268
     atom    3 type  1   force =     1.83444237    1.83471775    1.83444237
     atom    4 type  1   force =     0.00042268    0.00005105    0.00042268
     atom    5 type  1   force =    -1.83471765   -1.83444247    1.83444232
     atom    6 type  1   force =     0.00042268   -0.00042266   -0.00005101
     atom    7 type  1   force =    -1.83496140    1.83496146   -1.83496140
     The local contribution  to forces
     atom    1 type  1   force =    -1.55709910    1.55709910    1.55721786
     atom    2 type  1   force =    -0.00011312    0.00027745   -0.00027725
     atom    3 type  1   force =    -1.55709906   -1.55721769   -1.55709906
     atom    4 type  1   force =    -0.00027725    0.00011323   -0.00027725
     atom    5 type  1   force =     1.55721786    1.55709910   -1.55709910
     atom    6 type  1   force =    -0.00027725    0.00027745   -0.00011312
     atom    7 type  1   force =     1.55759322   -1.55759309    1.55759322
     The core correction contribution to forces
     atom    1 type  1   force =     0.00435409   -0.00435409   -0.00414426
     atom    2 type  1   force =     0.00015382    0.00009058   -0.00009059
     atom    3 type  1   force =     0.00435409    0.00414425    0.00435409
     atom    4 type  1   force =    -0.00009059   -0.00015383   -0.00009059
     atom    5 type  1   force =    -0.00414426   -0.00435409    0.00435409
     atom    6 type  1   force =    -0.00009059    0.00009058    0.00015382
     atom    7 type  1   force =    -0.00419869    0.00419868   -0.00419869
     The Hubbard contrib.    to forces
     atom    1 type  1   force =     0.00000000    0.00000000    0.00000000
     atom    2 type  1   force =     0.00000000    0.00000000    0.00000000
     atom    3 type  1   force =     0.00000000    0.00000000    0.00000000
     atom    4 type  1   force =     0.00000000    0.00000000    0.00000000
     atom    5 type  1   force =     0.00000000    0.00000000    0.00000000
     atom    6 type  1   force =     0.00000000    0.00000000    0.00000000
     atom    7 type  1   force =     0.00000000    0.00000000    0.00000000
     The SCF correction term to forces
     atom    1 type  1   force =     0.00000384   -0.00000384   -0.00000303
     atom    2 type  1   force =    -0.00000646   -0.00000594    0.00000594
     atom    3 type  1   force =     0.00000384    0.00000303    0.00000384
     atom    4 type  1   force =     0.00000594    0.00000646    0.00000594
     atom    5 type  1   force =    -0.00000303   -0.00000384    0.00000384
     atom    6 type  1   force =     0.00000594   -0.00000594   -0.00000646
     atom    7 type  1   force =    -0.00000158    0.00000158   -0.00000158

     Total force =     0.000112     Total SCF correction =     0.000021
     SCF correction compared to forces is large: reduce conv_thr to get better values

     Computing stress (Cartesian axis) and pressure

[...]

          total   stress  (Ry/bohr**3)                   (kbar)     P=      534.66
   0.00363457   0.00000037  -0.00000037          534.66        0.05       -0.05
   0.00000037   0.00363457   0.00000037            0.05      534.66        0.05
  -0.00000037   0.00000037   0.00363457           -0.05        0.05      534.66

     kinetic stress (kbar)  16896.24     -0.13      0.13
                               -0.13  16896.24     -0.13
                                0.13     -0.13  16896.24

     local   stress (kbar)  -4640.19     -0.79      0.79
                               -0.79  -4640.19     -0.79
                                0.79     -0.79  -4640.19

     nonloc. stress (kbar)   4007.27      0.03     -0.03
                                0.03   4007.27      0.03
                               -0.03      0.03   4007.27

     hartree stress (kbar)   1618.47      0.12     -0.12
                                0.12   1618.47      0.12
                               -0.12      0.12   1618.47

     exc-cor stress (kbar)   -442.85     -0.00      0.00
                               -0.00   -442.85     -0.00
                                0.00     -0.00   -442.85

     corecor stress (kbar)  -3884.68      0.02     -0.02
                                0.02  -3884.68      0.02
                               -0.02      0.02  -3884.68

     ewald   stress (kbar) -13043.61      0.81     -0.81
                                0.81 -13043.61      0.81
                               -0.81      0.81 -13043.61

     hubbard stress (kbar)      0.00      0.00      0.00
                                0.00      0.00      0.00
                                0.00      0.00      0.00

     DFT-D   stress (kbar)      0.00      0.00      0.00
                                0.00      0.00      0.00
                                0.00      0.00      0.00

     XDM     stress (kbar)      0.00      0.00      0.00
                                0.00      0.00      0.00
                                0.00      0.00      0.00

     dft-nl  stress (kbar)     24.02     -0.00      0.00
                               -0.00     24.02     -0.00
                                0.00     -0.00     24.02

     TS-vdW  stress (kbar)      0.00      0.00      0.00
                                0.00      0.00      0.00
                                0.00      0.00      0.00

     MDB     stress (kbar)      0.00      0.00      0.00
                                0.00      0.00      0.00
                                0.00      0.00      0.00

     3D-RISM stress (kbar)      0.00      0.00      0.00
                                0.00      0.00      0.00
                                0.00      0.00      0.00

[...]

     Non-local corr. energy    =       0.25009624 Ry

 BEEFens 2000 ensemble energies
             -0.254859571145979E+01
             -0.164787267677222E+00
             -0.571384268800294E+00
              0.172863311055164E+01
             -0.761294747564134E+00
             -0.646541257498365E+00
             -0.177392634375744E+01
             -0.380403862186545E+01
             -0.140266411498866E+01
             -0.144291974617169E+01
             -0.150514281341528E+01
              0.218016394453970E+00
              0.233691669861870E+00
             -0.205798944619585E+00
              0.168773285935880E+00
              0.186627437157329E+01
             -0.747580740554839E+00
             -0.475881417710129E+00
              0.969117947300681E+00
             -0.432441536646290E+01
              0.225278901815056E+01
             -0.770565421352863E+00
             -0.227491887937413E+00
             -0.295419227312806E+00
              0.112833977734397E-01
             -0.233036866812189E+00
              0.339907665187098E+01
             -0.916528911223971E+00
             -0.357279620183693E+00
             -0.227890993035734E+01
              0.273135339052869E+01
             -0.240829737245652E+00
             -0.164783383946077E+01
              0.777802416046625E+00
             -0.831999512921655E-01
              0.113984670848319E+01
              0.102882250718302E+00
             -0.843929812736377E-02
              0.146755693606794E+01
             -0.393134821453135E+01
              0.208691174941059E+01
              0.509481927060699E+00
             -0.414868415417256E+00
             -0.127113134266276E+01
              0.454659869508811E+00
             -0.652532712425110E+00
              0.198056816360135E+01
              0.136641848255756E+01
             -0.741906349139978E+00
             -0.130883410306854E+01
             -0.126244944171071E+01
             -0.141522832839713E+01
              0.773617957837430E+00
             -0.209293432109015E+01
              0.611935291448027E+00
              0.241967575962776E+01
              0.295804562946824E+01
              0.118440233982495E+01
              0.630172833504536E+00
              0.124625601697143E+01
[...]
             -0.296353345934070E+01
              0.855231951012243E-01
              0.395090431197153E-01
             -0.444597373771078E+00
              0.199024466267529E+00
             -0.253505686569385E+01
             -0.411089590971558E+00
              0.465077334588431E+00
              0.495313765531986E+00
              0.198358916598710E+01
             -0.172767380765018E+01
              0.206184540050313E+01
             -0.153457984769876E+01
              0.103739947426578E+01
              0.171239650332660E+01

 BEEF-vdW xc energy contributions
            1 :    -29.10058852618437
            2 :     25.65276000158580
            3 :    -19.69696477206483
            4 :     12.76431617857892
            5 :    -6.430690148775007
            6 :     1.802574760529929
            7 :    0.7618483533966831
            8 :    -1.610442029572610
            9 :     1.494498740845842
           10 :    -1.172285831471342
           11 :     1.103602031951841
           12 :    -1.351036546950994
           13 :     1.689606508627090
           14 :    -1.828096213901375
           15 :     1.608959373861737
           16 :    -1.088897027202513
           17 :    0.4813599660374166
           18 :   -1.8295445952325906E-002
           19 :   -0.1778695958557464
           20 :    0.1415430989671052
           21 :   -1.6061861236295272E-002
           22 :   -4.8137436549559709E-002
           23 :   -1.6808341104677993E-002
           24 :    0.1687275912731323
           25 :   -0.2977028416503771
           26 :    0.3041704820062421
           27 :   -0.1621317040886296
           28 :   -6.8504094464309162E-002
           29 :    0.2823641585248993
           30 :   -0.3923684434179364
           31 :    -3.836798420741488
           32 :    -2.779524239627431

     Writing all to output data dir ./diamond.save/

     General routines

     Parallel routines

     PAW routines

   This run was terminated on:  22:22:51  27Mar2024

   JOB DONE.