     Program PWSCF v.7.1 starts on 21Feb2024 at  8:33:48

     Reading input from espresso.pwi

     Current dimensions of program PWSCF are:
     Max number of different atomic species (ntypx) = 10
     Max number of k-points (npk) =  40000
     Max angular momentum in pseudopotentials (lmaxx) =  4
     file Ga.pbe-dn-kjpaw_psl.1.0.0.UPF: wavefunction(s)  4S renormalized
     file N.pbe-n-kjpaw_psl.1.0.0.UPF: wavefunction(s)  2S renormalized

     IMPORTANT: XC functional enforced from input :
     Exchange-correlation= BEEF-VDW
                           (   1   4  43  14   2   0   0)
     Any further DFT definition will be discarded
     Please, verify this is what you really want

     Found identity + (  0.0000  0.5000  0.5000) symmetry
     This is a supercell, fractional translations are disabled

     K-points division:     npool     =       8
     R & G space division:  proc/nbgrp/npool/nimage =      16
     Subspace diagonalization in iterative solution of the eigenvalue problem:
     a serial algorithm will be used

     Using Slab Decomposition

     bravais-lattice index     =            1
     lattice parameter (alat)  =       8.0700  a.u.
     unit-cell volume          =     525.5616 (a.u.)^3
     number of atoms/cell      =            8
     number of atomic types    =            2
     number of electrons       =        72.00
     number of Kohn-Sham states=           43
     kinetic-energy cutoff     =      70.0000  Ry
     charge density cutoff     =     350.0000  Ry
     scf convergence threshold =      1.0E-07
     mixing beta               =       0.7000
     number of iterations used =            8  plain     mixing
     energy convergence thresh.=      1.0E-04
     force convergence thresh. =      1.0E-03
     press convergence thresh. =      5.0E-01
     Exchange-correlation= BEEF-VDW
                           (   1   4  43  14   2   0   0)
     nstep                     =           50

     celldm(1)=   8.070019  celldm(2)=   0.000000  celldm(3)=   0.000000
     celldm(4)=   0.000000  celldm(5)=   0.000000  celldm(6)=   0.000000

     crystal axes: (cart. coord. in units of alat)
               a(1) = (   1.000000   0.000000   0.000000 )
               a(2) = (   0.000000   1.000000   0.000000 )
               a(3) = (   0.000000   0.000000   1.000000 )

     reciprocal axes: (cart. coord. in units 2 pi/alat)
               b(1) = (  1.000000  0.000000  0.000000 )
               b(2) = (  0.000000  1.000000  0.000000 )
               b(3) = (  0.000000  0.000000  1.000000 )

     PseudoPot. # 1 for Ga read from file:
     //group///packages/espresso/pseudo/psl_1.0.0/pslibrary.1.0.0/pbe/PSEUDOPOTENTIALS/Ga.pbe-dn-kjpaw_psl.1.0.0.UPF
     MD5 check sum: cd2a01e492f15b435d17032472d8505c
     Pseudo is Projector augmented-wave + core cor, Zval = 13.0
     Generated using 'atomic' code by A. Dal Corso  v.7.1
     Shape of augmentation charge: PSQ
     Using radial grid of 1205 points,  6 beta functions with:
                l(1) =   0
                l(2) =   0
                l(3) =   1
                l(4) =   1
                l(5) =   2
                l(6) =   2
     Q(r) pseudized with 0 coefficients

     PseudoPot. # 2 for N  read from file:
     //group///packages/espresso/pseudo/psl_1.0.0/pslibrary.1.0.0/pbe/PSEUDOPOTENTIALS/N.pbe-n-kjpaw_psl.1.0.0.UPF
     MD5 check sum: f77f775694dac7e2c3fe1c82443d1a16
     Pseudo is Projector augmented-wave + core cor, Zval =  5.0
     Generated using 'atomic' code by A. Dal Corso  v.7.1
     Shape of augmentation charge: PSQ
     Using radial grid of 1085 points,  4 beta functions with:
                l(1) =   0
                l(2) =   0
                l(3) =   1
                l(4) =   1
     Q(r) pseudized with 0 coefficients

     atomic species   valence    mass     pseudopotential
        Ga            13.00    69.72300     Ga( 1.00)
        N              5.00    14.00700     N ( 1.00)

     48 Sym. Ops., with inversion, found

                                    s                        frac. trans.

      isym =  1     identity

 cryst.   s( 1) = (     1          0          0      )
                  (     0          1          0      )
                  (     0          0          1      )

 cart.    s( 1) = (  1.0000000  0.0000000  0.0000000 )
                  (  0.0000000  1.0000000  0.0000000 )
                  (  0.0000000  0.0000000  1.0000000 )

      isym =  2     180 deg rotation - cart. axis [0,0,1]

[...]

 cryst.   s(10) = (     0          0         -1      )
                  (     0         -1          0      )
                  (    -1          0          0      )

 cart.    s(10) = (  0.0000000  0.0000000 -1.0000000 )
                  (  0.0000000 -1.0000000  0.0000000 )
                  ( -1.0000000  0.0000000  0.0000000 )

[...]

      isym = 25     inversion

[...]

      isym = 26     inv. 180 deg rotation - cart. axis [0,0,1]

[...]

     point group O_h (m-3m)
     there are 10 classes
     the character table:

       E     8C3   3C2   6C4   6C2'  i     8S6   3s_h  6S4   6s_d
A_1g   1.00  1.00  1.00  1.00  1.00  1.00  1.00  1.00  1.00  1.00
A_2g   1.00  1.00  1.00 -1.00 -1.00  1.00  1.00  1.00 -1.00 -1.00
E_g    2.00 -1.00  2.00  0.00  0.00  2.00 -1.00  2.00  0.00  0.00
T_1g   3.00  0.00 -1.00  1.00 -1.00  3.00  0.00 -1.00  1.00 -1.00
T_2g   3.00  0.00 -1.00 -1.00  1.00  3.00  0.00 -1.00 -1.00  1.00
A_1u   1.00  1.00  1.00  1.00  1.00 -1.00 -1.00 -1.00 -1.00 -1.00
A_2u   1.00  1.00  1.00 -1.00 -1.00 -1.00 -1.00 -1.00  1.00  1.00
E_u    2.00 -1.00  2.00  0.00  0.00 -2.00  1.00 -2.00  0.00  0.00
T_1u   3.00  0.00 -1.00  1.00 -1.00 -3.00  0.00  1.00 -1.00  1.00
T_2u   3.00  0.00 -1.00 -1.00  1.00 -3.00  0.00  1.00  1.00 -1.00

     the symmetry operations in each class and the name of the first element:

     E        1
          identity
     8C3     17   19   20   18   24   21   22   23
          120 deg rotation - cart. axis [-1,-1,-1]
     3C2      2    4    3
          180 deg rotation - cart. axis [0,0,1]
     6C4      7    8   15   16   12   11
           90 deg rotation - cart. axis [0,0,-1]
     6C2'     5    6   14   13   10    9
          180 deg rotation - cart. axis [1,1,0]
     i       25
          inversion
     8S6     41   43   44   42   48   45   46   47
          inv. 120 deg rotation - cart. axis [-1,-1,-1]
     3s_h    26   28   27
          inv. 180 deg rotation - cart. axis [0,0,1]
     6S4     31   32   39   40   36   35
          inv.  90 deg rotation - cart. axis [0,0,-1]
     6s_d    29   30   38   37   34   33
          inv. 180 deg rotation - cart. axis [1,1,0]

   Cartesian axes

     site n.     atom                  positions (alat units)
         1           Ga  tau(   1) = (   0.0000000   0.0000000   0.0000000  )
         2           Ga  tau(   2) = (   0.0000000   0.5000000   0.5000000  )
         3           Ga  tau(   3) = (   0.5000000   0.0000000   0.5000000  )
         4           Ga  tau(   4) = (   0.5000000   0.5000000   0.0000000  )
         5           N   tau(   5) = (   0.5000000   0.0000000   0.0000000  )
         6           N   tau(   6) = (   0.5000000   0.5000000   0.5000000  )
         7           N   tau(   7) = (   0.0000000   0.0000000   0.5000000  )
         8           N   tau(   8) = (   0.0000000   0.5000000   0.0000000  )

   Crystallographic axes

     site n.     atom                  positions (cryst. coord.)
         1           Ga  tau(   1) = (  0.0000000  0.0000000  0.0000000  )
         2           Ga  tau(   2) = (  0.0000000  0.5000000  0.5000000  )
         3           Ga  tau(   3) = (  0.5000000  0.0000000  0.5000000  )
         4           Ga  tau(   4) = (  0.5000000  0.5000000  0.0000000  )
         5           N   tau(   5) = (  0.5000000  0.0000000  0.0000000  )
         6           N   tau(   6) = (  0.5000000  0.5000000  0.5000000  )
         7           N   tau(   7) = (  0.0000000  0.0000000  0.5000000  )
         8           N   tau(   8) = (  0.0000000  0.5000000  0.0000000  )

     number of k points=    10  Gaussian smearing, width (Ry)=  0.0100
                       cart. coord. in units 2pi/alat
        k(    1) = (   0.0000000   0.0000000   0.0000000), wk =   0.0312500
        k(    2) = (   0.0000000   0.0000000   0.2500000), wk =   0.1875000
        k(    3) = (   0.0000000   0.0000000  -0.5000000), wk =   0.0937500
        k(    4) = (   0.0000000   0.2500000   0.2500000), wk =   0.3750000
        k(    5) = (   0.0000000   0.2500000  -0.5000000), wk =   0.3750000
        k(    6) = (   0.0000000  -0.5000000  -0.5000000), wk =   0.0937500
        k(    7) = (   0.2500000   0.2500000   0.2500000), wk =   0.2500000
        k(    8) = (   0.2500000   0.2500000  -0.5000000), wk =   0.3750000
        k(    9) = (   0.2500000  -0.5000000  -0.5000000), wk =   0.1875000
        k(   10) = (  -0.5000000  -0.5000000  -0.5000000), wk =   0.0312500

                       cryst. coord.
        k(    1) = (   0.0000000   0.0000000   0.0000000), wk =   0.0312500
        k(    2) = (   0.0000000   0.0000000   0.2500000), wk =   0.1875000
        k(    3) = (   0.0000000   0.0000000  -0.5000000), wk =   0.0937500
        k(    4) = (   0.0000000   0.2500000   0.2500000), wk =   0.3750000
        k(    5) = (   0.0000000   0.2500000  -0.5000000), wk =   0.3750000
        k(    6) = (   0.0000000  -0.5000000  -0.5000000), wk =   0.0937500
        k(    7) = (   0.2500000   0.2500000   0.2500000), wk =   0.2500000
        k(    8) = (   0.2500000   0.2500000  -0.5000000), wk =   0.3750000
        k(    9) = (   0.2500000  -0.5000000  -0.5000000), wk =   0.1875000
        k(   10) = (  -0.5000000  -0.5000000  -0.5000000), wk =   0.0312500

     Check: negative core charge=   -0.000003

     Initial potential from superposition of free atoms

     starting charge      71.9882, renormalised to      72.0000

     %%%%%%%%%%%%%%%%%%%%%%%%%%%%%%%%%%%%%%%%%%%%%%%%%%%%%%%%%%%%%%%%%%%%%%%%
     %                                                                      %
     % You are using vdW-DF, which was implemented by the Thonhauser group. %
     % Please cite the following two papers that made this development      %
     % possible and the two reviews that describe the various versions:     %
     %                                                                      %
     %   T. Thonhauser et al., PRL 115, 136402 (2015).                      %
     %   T. Thonhauser et al., PRB 76, 125112 (2007).                       %
     %   K. Berland et al., Rep. Prog. Phys. 78, 066501 (2015).             %
     %   D.C. Langreth et al., J. Phys.: Condens. Matter 21, 084203 (2009). %
     %                                                                      %
     % If you are calculating stress with vdW-DF, please also cite:         %
     %                                                                      %
     %   R. Sabatini et al., J. Phys.: Condens. Matter 24, 424209 (2012).   %
     %                                                                      %
     %%%%%%%%%%%%%%%%%%%%%%%%%%%%%%%%%%%%%%%%%%%%%%%%%%%%%%%%%%%%%%%%%%%%%%%%

     %%%%%%%%%%%%%%%%%%%%%%%%%%%%%%%%%%%%%%%%%%%%%%%%%%%%%%%%%%%%%%%%%%%%%%%%
[...]
     MD5 check sum: f77f775694dac7e2c3fe1c82443d1a16
     Pseudo is Projector augmented-wave + core cor, Zval =  5.0
     Generated using 'atomic' code by A. Dal Corso  v.7.1
     Shape of augmentation charge: PSQ
     Using radial grid of 1085 points,  4 beta functions with:
                l(1) =   0
                l(2) =   0
                l(3) =   1
                l(4) =   1
     Q(r) pseudized with 0 coefficients

     atomic species   valence    mass     pseudopotential
        Ga            13.00    69.72300     Ga( 1.00)
        N              5.00    14.00700     N ( 1.00)

     48 Sym. Ops., with inversion, found

                                    s                        frac. trans.

      isym =  1     identity

[...]

 cryst.   s( 9) = (     0          0          1      )
                  (     0         -1          0      )
                  (     1          0          0      )

 cart.    s( 9) = (  0.0000000  0.0000000  1.0000000 )
                  (  0.0000000 -1.0000000  0.0000000 )
                  (  1.0000000  0.0000000  0.0000000 )

[...]

      isym = 24     120 deg rotation - cart. axis [-1,-1,1]

[...]

      isym = 25     inversion

[...]

      isym = 48     inv. 120 deg rotation - cart. axis [-1,-1,1]

 cryst.   s(48) = (     0         -1          0      )
                  (     0          0          1      )
                  (     1          0          0      )

 cart.    s(48) = (  0.0000000  0.0000000  1.0000000 )
                  ( -1.0000000  0.0000000  0.0000000 )
                  (  0.0000000  1.0000000  0.0000000 )

     point group O_h (m-3m)
     there are 10 classes
     the character table:

       E     8C3   3C2   6C4   6C2'  i     8S6   3s_h  6S4   6s_d
A_1g   1.00  1.00  1.00  1.00  1.00  1.00  1.00  1.00  1.00  1.00
A_2g   1.00  1.00  1.00 -1.00 -1.00  1.00  1.00  1.00 -1.00 -1.00
E_g    2.00 -1.00  2.00  0.00  0.00  2.00 -1.00  2.00  0.00  0.00
T_1g   3.00  0.00 -1.00  1.00 -1.00  3.00  0.00 -1.00  1.00 -1.00
T_2g   3.00  0.00 -1.00 -1.00  1.00  3.00  0.00 -1.00 -1.00  1.00
A_1u   1.00  1.00  1.00  1.00  1.00 -1.00 -1.00 -1.00 -1.00 -1.00
A_2u   1.00  1.00  1.00 -1.00 -1.00 -1.00 -1.00 -1.00  1.00  1.00
E_u    2.00 -1.00  2.00  0.00  0.00 -2.00  1.00 -2.00  0.00  0.00
T_1u   3.00  0.00 -1.00  1.00 -1.00 -3.00  0.00  1.00 -1.00  1.00
T_2u   3.00  0.00 -1.00 -1.00  1.00 -3.00  0.00  1.00  1.00 -1.00

     the symmetry operations in each class and the name of the first element:

     E        1
          identity
     8C3     17   19   20   18   24   21   22   23
          120 deg rotation - cart. axis [-1,-1,-1]
     3C2      2    4    3
          180 deg rotation - cart. axis [0,0,1]
     6C4      7    8   15   16   12   11
           90 deg rotation - cart. axis [0,0,-1]
     6C2'     5    6   14   13   10    9
          180 deg rotation - cart. axis [1,1,0]
     i       25
          inversion
     8S6     41   43   44   42   48   45   46   47
          inv. 120 deg rotation - cart. axis [-1,-1,-1]
     3s_h    26   28   27
          inv. 180 deg rotation - cart. axis [0,0,1]
     6S4     31   32   39   40   36   35
          inv.  90 deg rotation - cart. axis [0,0,-1]
     6s_d    29   30   38   37   34   33
          inv. 180 deg rotation - cart. axis [1,1,0]

   Cartesian axes

     site n.     atom                  positions (alat units)
         1           Ga  tau(   1) = (   0.0000000   0.0000000   0.0000000  )
         2           Ga  tau(   2) = (   0.0000000   0.5038455   0.5038455  )
         3           Ga  tau(   3) = (   0.5038455   0.0000000   0.5038455  )
         4           Ga  tau(   4) = (   0.5038455   0.5038455   0.0000000  )
         5           N   tau(   5) = (   0.5038455   0.0000000   0.0000000  )
         6           N   tau(   6) = (   0.5038455   0.5038455   0.5038455  )
         7           N   tau(   7) = (   0.0000000   0.0000000   0.5038455  )
         8           N   tau(   8) = (   0.0000000   0.5038455   0.0000000  )

   Crystallographic axes

     site n.     atom                  positions (cryst. coord.)
         1           Ga  tau(   1) = (  0.0000000  0.0000000  0.0000000  )
         2           Ga  tau(   2) = (  0.0000000  0.5000000  0.5000000  )
         3           Ga  tau(   3) = (  0.5000000  0.0000000  0.5000000  )
         4           Ga  tau(   4) = (  0.5000000  0.5000000  0.0000000  )
         5           N   tau(   5) = (  0.5000000  0.0000000  0.0000000  )
         6           N   tau(   6) = (  0.5000000  0.5000000  0.5000000  )
         7           N   tau(   7) = (  0.0000000  0.0000000  0.5000000  )
         8           N   tau(   8) = (  0.0000000  0.5000000  0.0000000  )

     number of k points=    10  Gaussian smearing, width (Ry)=  0.0100
                       cart. coord. in units 2pi/alat
        k(    1) = (   0.0000000   0.0000000   0.0000000), wk =   0.0312500
        k(    2) = (   0.0000000   0.0000000   0.2480919), wk =   0.1875000
        k(    3) = (   0.0000000   0.0000000  -0.4961838), wk =   0.0937500
        k(    4) = (   0.0000000   0.2480919   0.2480919), wk =   0.3750000
        k(    5) = (   0.0000000   0.2480919  -0.4961838), wk =   0.3750000
        k(    6) = (   0.0000000  -0.4961838  -0.4961838), wk =   0.0937500
        k(    7) = (   0.2480919   0.2480919   0.2480919), wk =   0.2500000
        k(    8) = (   0.2480919   0.2480919  -0.4961838), wk =   0.3750000
        k(    9) = (   0.2480919  -0.4961838  -0.4961838), wk =   0.1875000
        k(   10) = (  -0.4961838  -0.4961838  -0.4961838), wk =   0.0312500

                       cryst. coord.
        k(    1) = (   0.0000000   0.0000000   0.0000000), wk =   0.0312500
        k(    2) = (   0.0000000   0.0000000   0.2500000), wk =   0.1875000
        k(    3) = (   0.0000000   0.0000000  -0.5000000), wk =   0.0937500
        k(    4) = (   0.0000000   0.2500000   0.2500000), wk =   0.3750000
        k(    5) = (   0.0000000   0.2500000  -0.5000000), wk =   0.3750000
        k(    6) = (   0.0000000  -0.5000000  -0.5000000), wk =   0.0937500
        k(    7) = (   0.2500000   0.2500000   0.2500000), wk =   0.2500000
        k(    8) = (   0.2500000   0.2500000  -0.5000000), wk =   0.3750000
        k(    9) = (   0.2500000  -0.5000000  -0.5000000), wk =   0.1875000
        k(   10) = (  -0.5000000  -0.5000000  -0.5000000), wk =   0.0312500

     Check: negative core charge=   -0.000003

     Initial potential from superposition of free atoms

     starting charge      71.9882, renormalised to      72.0000

[...]

     Starting wfcs are   52 randomized atomic wfcs
     Checking if some PAW data can be deallocated...

     Self-consistent Calculation

[...]

     c_bands:  2 eigenvalues not converged
     c_bands:  2 eigenvalues not converged
     ethr =  1.00E-06,  avg # of iterations = 14.6

[...]

     total energy              =   -1248.83223316 Ry
     estimated scf accuracy    <       0.00000001 Ry

     iteration # 19     ecut=    70.00 Ry     beta= 0.70
     Davidson diagonalization with overlap

     ethr =  2.04E-11,  avg # of iterations =  3.1

[...]

     End of self-consistent calculation

[...]

          k = 0.2481-0.4962-0.4962 (  5304 PWs)   bands (ev):

[...]

          k =-0.4962-0.4962-0.4962 (  5400 PWs)   bands (ev):

    -2.7161  -2.7161  -2.7161  -2.7161  -2.7035  -2.7035  -2.7035  -2.7035
    -2.7035  -2.7035  -2.7035  -2.7035  -2.4071  -2.4071  -2.4071  -2.4071
    -2.4071  -2.4071  -2.4071  -2.4071  -1.8834  -1.8834  -1.8834  -1.8834
     4.1375   4.1375   4.1375   4.1375  11.9760  11.9760  11.9760  11.9760
    11.9760  11.9760  11.9760  11.9760  16.6847  16.6847  16.6847  16.6847
    20.6783  20.6783  20.6783

     occupation numbers
     1.0000   1.0000   1.0000   1.0000   1.0000   1.0000   1.0000   1.0000
     1.0000   1.0000   1.0000   1.0000   1.0000   1.0000   1.0000   1.0000
     1.0000   1.0000   1.0000   1.0000   1.0000   1.0000   1.0000   1.0000
     1.0000   1.0000   1.0000   1.0000   0.9815   0.9815   0.9815   0.9815
     0.9815   0.9815   0.9815   0.9815   0.0000   0.0000   0.0000   0.0000
     0.0000   0.0000   0.0000

     the Fermi energy is    12.1768 ev

!    total energy              =   -1248.83223316 Ry
     total all-electron energy =    -16014.686070 Ry
     estimated scf accuracy    <          5.1E-11 Ry
     smearing contrib. (-TS)   =      -0.00052688 Ry
     internal energy E=F+TS    =   -1248.83170628 Ry

     The total energy is F=E-TS. E is the sum of the following terms:
     one-electron contribution =    -291.12188622 Ry
     hartree contribution      =     228.81652865 Ry
     xc contribution           =    -182.17817180 Ry
     ewald contribution        =    -507.19020687 Ry
     one-center paw contrib.   =    -497.15797005 Ry
      -> PAW hartree energy AE =     141.51128878 Ry
      -> PAW hartree energy PS =    -140.14286214 Ry
      -> PAW xc energy AE      =    -156.73635634 Ry
      -> PAW xc energy PS      =      39.53663401 Ry
      -> total E_H with PAW    =     230.18495529 Ry
      -> total E_XC with PAW   =    -299.37789413 Ry

     convergence has been achieved in  19 iterations

[...]

     Forces acting on atoms (cartesian axes, Ry/au):

     atom    1 type  1   force =     0.00000000    0.00000000    0.00000000
     atom    2 type  1   force =     0.00000000    0.00000000    0.00000000
     atom    3 type  1   force =     0.00000000    0.00000000    0.00000000
     atom    4 type  1   force =     0.00000000    0.00000000    0.00000000
     atom    5 type  2   force =     0.00000000    0.00000000    0.00000000
     atom    6 type  2   force =     0.00000000    0.00000000    0.00000000
     atom    7 type  2   force =     0.00000000    0.00000000    0.00000000
     atom    8 type  2   force =     0.00000000    0.00000000    0.00000000
     The non-local contrib.  to forces
     atom    1 type  1   force =     0.00000000    0.00000000    0.00000000
     atom    2 type  1   force =     0.00000000    0.00000000    0.00000000
     atom    3 type  1   force =     0.00000000    0.00000000    0.00000000
     atom    4 type  1   force =     0.00000000    0.00000000    0.00000000
     atom    5 type  2   force =     0.00000000    0.00000000    0.00000000
     atom    6 type  2   force =     0.00000000    0.00000000    0.00000000
     atom    7 type  2   force =     0.00000000    0.00000000    0.00000000
     atom    8 type  2   force =     0.00000000    0.00000000    0.00000000
     The ionic contribution  to forces
     atom    1 type  1   force =    -0.00000039   -0.00000039   -0.00000039
     atom    2 type  1   force =    -0.00000039    0.00000039    0.00000039
     atom    3 type  1   force =     0.00000039   -0.00000039    0.00000039
     atom    4 type  1   force =     0.00000039    0.00000039   -0.00000039
     atom    5 type  2   force =     0.00000021   -0.00000021   -0.00000021
     atom    6 type  2   force =     0.00000021    0.00000021    0.00000021
     atom    7 type  2   force =    -0.00000021   -0.00000021    0.00000021
     atom    8 type  2   force =    -0.00000021    0.00000021   -0.00000021
     The local contribution  to forces
     atom    1 type  1   force =    -0.00000000   -0.00000000    0.00000000
     atom    2 type  1   force =    -0.00000000    0.00000351    0.00000351
     atom    3 type  1   force =     0.00000351   -0.00000000    0.00000351
     atom    4 type  1   force =     0.00000351    0.00000351    0.00000000
     atom    5 type  2   force =     0.00000027   -0.00000000    0.00000000
     atom    6 type  2   force =     0.00000027    0.00000027    0.00000027
     atom    7 type  2   force =    -0.00000000   -0.00000000    0.00000027
     atom    8 type  2   force =    -0.00000000    0.00000027    0.00000000
     The core correction contribution to forces
     atom    1 type  1   force =     0.00000000    0.00000000    0.00000000
     atom    2 type  1   force =     0.00000000    0.00000026    0.00000026
     atom    3 type  1   force =     0.00000026    0.00000000    0.00000026
     atom    4 type  1   force =     0.00000026    0.00000026    0.00000000
     atom    5 type  2   force =    -0.00000001    0.00000000    0.00000000
     atom    6 type  2   force =    -0.00000001   -0.00000001   -0.00000001
     atom    7 type  2   force =     0.00000000    0.00000000   -0.00000001
     atom    8 type  2   force =     0.00000000   -0.00000001    0.00000000
     The Hubbard contrib.    to forces
     atom    1 type  1   force =     0.00000000    0.00000000    0.00000000
     atom    2 type  1   force =     0.00000000    0.00000000    0.00000000
     atom    3 type  1   force =     0.00000000    0.00000000    0.00000000
     atom    4 type  1   force =     0.00000000    0.00000000    0.00000000
     atom    5 type  2   force =     0.00000000    0.00000000    0.00000000
     atom    6 type  2   force =     0.00000000    0.00000000    0.00000000
     atom    7 type  2   force =     0.00000000    0.00000000    0.00000000
     atom    8 type  2   force =     0.00000000    0.00000000    0.00000000
     The SCF correction term to forces
     atom    1 type  1   force =     0.00000000    0.00000000    0.00000000
     atom    2 type  1   force =     0.00000000   -0.00000000   -0.00000000
     atom    3 type  1   force =    -0.00000000    0.00000000   -0.00000000
     atom    4 type  1   force =    -0.00000000   -0.00000000    0.00000000
     atom    5 type  2   force =    -0.00000000    0.00000000    0.00000000
     atom    6 type  2   force =     0.00000000    0.00000000    0.00000000
     atom    7 type  2   force =     0.00000000    0.00000000   -0.00000000
     atom    8 type  2   force =     0.00000000   -0.00000000    0.00000000

     Total force =     0.000000     Total SCF correction =     0.000000

     Computing stress (Cartesian axis) and pressure

     Non-local corr. energy    =       2.11843831 Ry

          total   stress  (Ry/bohr**3)                   (kbar)     P=        0.75
   0.00000511   0.00000000   0.00000000            0.75        0.00        0.00
   0.00000000   0.00000511   0.00000000            0.00        0.75        0.00
   0.00000000   0.00000000   0.00000511            0.00        0.00        0.75

     kinetic stress (kbar)  22498.71      0.00      0.00
                                0.00  22498.71      0.00
                                0.00      0.00  22498.71

     local   stress (kbar)  13609.71      0.00     -0.00
                                0.00  13609.71     -0.00
                               -0.00     -0.00  13609.71

     nonloc. stress (kbar)   -163.79      0.00      0.00
                                0.00   -163.79      0.00
                                0.00      0.00   -163.79

     hartree stress (kbar)  20863.54      0.00     -0.00
                                0.00  20863.54     -0.00
                               -0.00     -0.00  20863.54

     exc-cor stress (kbar)   6312.73      0.00      0.00
                                0.00   6312.73      0.00
                                0.00      0.00   6312.73

     corecor stress (kbar) -17064.52     -0.00     -0.00
                               -0.00 -17064.52     -0.00
                               -0.00     -0.00 -17064.52

     ewald   stress (kbar) -46245.71      0.00      0.00
                                0.00 -46245.71     -0.00
                                0.00     -0.00 -46245.71

     hubbard stress (kbar)      0.00      0.00      0.00
                                0.00      0.00      0.00
                                0.00      0.00      0.00

     DFT-D   stress (kbar)      0.00      0.00      0.00
                                0.00      0.00      0.00
                                0.00      0.00      0.00

     XDM     stress (kbar)      0.00      0.00      0.00
                                0.00      0.00      0.00
                                0.00      0.00      0.00

     dft-nl  stress (kbar)    190.08      0.00     -0.00
                                0.00    190.08     -0.00
                               -0.00     -0.00    190.08

     TS-vdW  stress (kbar)      0.00      0.00      0.00
                                0.00      0.00      0.00
                                0.00      0.00      0.00

     MDB     stress (kbar)      0.00      0.00      0.00
                                0.00      0.00      0.00
                                0.00      0.00      0.00

     3D-RISM stress (kbar)      0.00      0.00      0.00
                                0.00      0.00      0.00
                                0.00      0.00      0.00

     Writing all to output data dir ./PbI2.save/

     General routines

     Parallel routines

     PAW routines

   This run was terminated on:   8:34:35  21Feb2024

   JOB DONE.