     Program PWSCF v.7.2 starts on 17Mar2024 at 21:17: 3

     Reading input from espresso.pwi
Warning: card &CELL ignored
Warning: card    CELL_DYNAMICS    = 'BFGS' ignored
Warning: card / ignored

     Current dimensions of program PWSCF are:
     Max number of different atomic species (ntypx) = 10
     Max number of k-points (npk) =  40000
     Max angular momentum in pseudopotentials (lmaxx) =  4
     file C.pbe-n-kjpaw_psl.1.0.0.UPF: wavefunction(s)  2S 2P renormalized

     IMPORTANT: XC functional enforced from input :
     Exchange-correlation= BEEF-VDW
                           (   1   4  43  14   2   0   0)
     Any further DFT definition will be discarded
     Please, verify this is what you really want

     K-points division:     npool     =       4
     R & G space division:  proc/nbgrp/npool/nimage =      32
     Subspace diagonalization in iterative solution of the eigenvalue problem:
     a serial algorithm will be used

     Using Slab Decomposition

     bravais-lattice index     =            1
     lattice parameter (alat)  =      13.5013  a.u.
     unit-cell volume          =    2461.1121 (a.u.)^3
     number of atoms/cell      =           63
     number of atomic types    =            1
     number of electrons       =       251.00
     number of Kohn-Sham states=          151
     kinetic-energy cutoff     =      70.0000  Ry
     charge density cutoff     =     350.0000  Ry
     scf convergence threshold =      1.0E-07
     mixing beta               =       0.7000
     number of iterations used =            8  plain     mixing
     Exchange-correlation= BEEF-VDW
                           (   1   4  43  14   2   0   0)

     celldm(1)=  13.501348  celldm(2)=   0.000000  celldm(3)=   0.000000
     celldm(4)=   0.000000  celldm(5)=   0.000000  celldm(6)=   0.000000

     crystal axes: (cart. coord. in units of alat)
               a(1) = (   1.000000   0.000000   0.000000 )
               a(2) = (   0.000000   1.000000   0.000000 )
               a(3) = (   0.000000   0.000000   1.000000 )

     reciprocal axes: (cart. coord. in units 2 pi/alat)
               b(1) = (  1.000000  0.000000  0.000000 )
               b(2) = (  0.000000  1.000000  0.000000 )
               b(3) = (  0.000000  0.000000  1.000000 )

     PseudoPot. # 1 for C  read from file:
     //group///packages/espresso/pseudo/psl_1.0.0/pslibrary.1.0.0/pbe/PSEUDOPOTENTIALS/C.pbe-n-kjpaw_psl.1.0.0.UPF
     MD5 check sum: 5459cf7f2c8c37df2f7cde8914797f4d
     Pseudo is Projector augmented-wave + core cor, Zval =  4.0
     Generated using 'atomic' code by A. Dal Corso  v.7.1
     Shape of augmentation charge: PSQ
     Using radial grid of 1073 points,  4 beta functions with:
                l(1) =   0
                l(2) =   0
                l(3) =   1
                l(4) =   1
     Q(r) pseudized with 0 coefficients

     atomic species   valence    mass     pseudopotential
        C              4.00    12.01100     C ( 1.00)

      6 Sym. Ops. (no inversion) found ( 4 have fractional translation)

                                    s                        frac. trans.

      isym =  1     identity

 cryst.   s( 1) = (     1          0          0      )
                  (     0          1          0      )
                  (     0          0          1      )

 cart.    s( 1) = (  1.0000000  0.0000000  0.0000000 )
                  (  0.0000000  1.0000000  0.0000000 )
                  (  0.0000000  0.0000000  1.0000000 )

      isym =  2     120 deg rotation - cart. axis [1,-1,1]

 cryst.   s( 2) = (     0          0          1      )    f =( -0.5000000 )
                  (    -1          0          0      )       ( -0.5000000 )
                  (     0         -1          0      )       (  0.0000000 )

 cart.    s( 2) = (  0.0000000 -1.0000000  0.0000000 )    f =( -0.5000000 )
                  (  0.0000000  0.0000000 -1.0000000 )       ( -0.5000000 )
                  (  1.0000000  0.0000000  0.0000000 )       (  0.0000000 )

      isym =  3     120 deg rotation - cart. axis [-1,1,-1]

[...]

      isym =  4     inv. 180 deg rotation - cart. axis [1,1,0]

[...]

 cryst.   s( 5) = (     0          0          1      )
                  (     0          1          0      )
                  (     1          0          0      )

 cart.    s( 5) = (  0.0000000  0.0000000  1.0000000 )
                  (  0.0000000  1.0000000  0.0000000 )
                  (  1.0000000  0.0000000  0.0000000 )

      isym =  6     inv. 180 deg rotation - cart. axis [0,1,1]

 cryst.   s( 6) = (     1          0          0      )    f =(  0.0000000 )
                  (     0          0         -1      )       ( -0.5000000 )
                  (     0         -1          0      )       ( -0.5000000 )

 cart.    s( 6) = (  1.0000000  0.0000000  0.0000000 )    f =(  0.0000000 )
                  (  0.0000000  0.0000000 -1.0000000 )       ( -0.5000000 )
                  (  0.0000000 -1.0000000  0.0000000 )       ( -0.5000000 )

     point group C_3v (3m)
     there are  3 classes
     the character table:

       E     2C3   3s_v
A_1    1.00  1.00  1.00
A_2    1.00  1.00 -1.00
E      2.00 -1.00  0.00

     the symmetry operations in each class and the name of the first element:

     E        1
          identity
     2C3      2    3
          120 deg rotation - cart. axis [1,-1,1]
     3s_v     4    5    6
          inv. 180 deg rotation - cart. axis [1,1,0]

   Cartesian axes

     site n.     atom                  positions (alat units)
         1           C   tau(   1) = (   0.1250031   0.3749969   0.6250031  )
         2           C   tau(   2) = (   0.1250031   0.8749969   0.1250031  )
         3           C   tau(   3) = (   0.1250031   0.8749969   0.6250031  )
         4           C   tau(   4) = (   0.6250031   0.3749969   0.1250031  )
         5           C   tau(   5) = (   0.6250031   0.3749969   0.6250031  )
         6           C   tau(   6) = (   0.6250031   0.8749969   0.1250031  )
         7           C   tau(   7) = (   0.6250031   0.8749969   0.6250031  )
         8           C   tau(   8) = (   0.0000000   0.0000000   0.2500000  )
         9           C   tau(   9) = (   0.0000000   0.0000000   0.7500000  )
        10           C   tau(  10) = (   0.0000000   0.5000000   0.2500000  )
        11           C   tau(  11) = (   0.0000000   0.5000000   0.7500000  )
        12           C   tau(  12) = (   0.5000000   0.0000000   0.2500000  )
        13           C   tau(  13) = (   0.5000000   0.0000000   0.7500000  )
        14           C   tau(  14) = (   0.5000000   0.5000000   0.2500000  )
        15           C   tau(  15) = (   0.5000000   0.5000000   0.7500000  )
        16           C   tau(  16) = (   0.1250031   0.1250031   0.3749969  )
        17           C   tau(  17) = (   0.1250031   0.1250031   0.8749969  )
        18           C   tau(  18) = (   0.1250031   0.6250031   0.3749969  )
        19           C   tau(  19) = (   0.1250031   0.6250031   0.8749969  )
        20           C   tau(  20) = (   0.6250031   0.1250031   0.3749969  )
        21           C   tau(  21) = (   0.6250031   0.1250031   0.8749969  )
        22           C   tau(  22) = (   0.6250031   0.6250031   0.3749969  )
        23           C   tau(  23) = (   0.6250031   0.6250031   0.8749969  )
        24           C   tau(  24) = (   0.0000000   0.2500000   0.0000000  )
        25           C   tau(  25) = (   0.0000000   0.2500000   0.5000000  )
        26           C   tau(  26) = (   0.0000000   0.7500000   0.0000000  )
        27           C   tau(  27) = (   0.0000000   0.7500000   0.5000000  )
        28           C   tau(  28) = (   0.5000000   0.2500000   0.0000000  )
        29           C   tau(  29) = (   0.5000000   0.2500000   0.5000000  )
        30           C   tau(  30) = (   0.5000000   0.7500000   0.0000000  )
        31           C   tau(  31) = (   0.5000000   0.7500000   0.5000000  )
        32           C   tau(  32) = (   0.3749969   0.3749969   0.3749969  )
        33           C   tau(  33) = (   0.3749969   0.3749969   0.8749969  )
        34           C   tau(  34) = (   0.3749969   0.8749969   0.3749969  )
        35           C   tau(  35) = (   0.3749969   0.8749969   0.8749969  )
        36           C   tau(  36) = (   0.8749969   0.3749969   0.3749969  )
        37           C   tau(  37) = (   0.8749969   0.3749969   0.8749969  )
        38           C   tau(  38) = (   0.8749969   0.8749969   0.3749969  )
        39           C   tau(  39) = (   0.8749969   0.8749969   0.8749969  )
        40           C   tau(  40) = (   0.2500000   0.0000000   0.0000000  )
        41           C   tau(  41) = (   0.2500000   0.0000000   0.5000000  )
        42           C   tau(  42) = (   0.2500000   0.5000000   0.0000000  )
        43           C   tau(  43) = (   0.2500000   0.5000000   0.5000000  )
        44           C   tau(  44) = (   0.7500000   0.0000000   0.0000000  )
        45           C   tau(  45) = (   0.7500000   0.0000000   0.5000000  )
        46           C   tau(  46) = (   0.7500000   0.5000000   0.0000000  )
        47           C   tau(  47) = (   0.7500000   0.5000000   0.5000000  )
        48           C   tau(  48) = (   0.3749969   0.1250031   0.1250031  )
        49           C   tau(  49) = (   0.3749969   0.1250031   0.6250031  )
        50           C   tau(  50) = (   0.3749969   0.6250031   0.1250031  )
        51           C   tau(  51) = (   0.3749969   0.6250031   0.6250031  )
        52           C   tau(  52) = (   0.8749969   0.1250031   0.1250031  )
        53           C   tau(  53) = (   0.8749969   0.1250031   0.6250031  )
        54           C   tau(  54) = (   0.8749969   0.6250031   0.1250031  )
        55           C   tau(  55) = (   0.8749969   0.6250031   0.6250031  )
        56           C   tau(  56) = (   0.2500000   0.2500000   0.2500000  )
        57           C   tau(  57) = (   0.2500000   0.2500000   0.7500000  )
        58           C   tau(  58) = (   0.2500000   0.7500000   0.2500000  )
        59           C   tau(  59) = (   0.2500000   0.7500000   0.7500000  )
        60           C   tau(  60) = (   0.7500000   0.2500000   0.2500000  )
        61           C   tau(  61) = (   0.7500000   0.2500000   0.7500000  )
        62           C   tau(  62) = (   0.7500000   0.7500000   0.2500000  )
        63           C   tau(  63) = (   0.7500000   0.7500000   0.7500000  )

   Crystallographic axes

     site n.     atom                  positions (cryst. coord.)
         1           C   tau(   1) = (  0.1250031  0.3749969  0.6250031  )
         2           C   tau(   2) = (  0.1250031  0.8749969  0.1250031  )
         3           C   tau(   3) = (  0.1250031  0.8749969  0.6250031  )
         4           C   tau(   4) = (  0.6250031  0.3749969  0.1250031  )
         5           C   tau(   5) = (  0.6250031  0.3749969  0.6250031  )
         6           C   tau(   6) = (  0.6250031  0.8749969  0.1250031  )
         7           C   tau(   7) = (  0.6250031  0.8749969  0.6250031  )
         8           C   tau(   8) = (  0.0000000  0.0000000  0.2500000  )
         9           C   tau(   9) = (  0.0000000  0.0000000  0.7500000  )
[...]
     The Hubbard contrib.    to forces
     atom    1 type  1   force =     0.00000000    0.00000000    0.00000000
     atom    2 type  1   force =     0.00000000    0.00000000    0.00000000
     atom    3 type  1   force =     0.00000000    0.00000000    0.00000000
     atom    4 type  1   force =     0.00000000    0.00000000    0.00000000
     atom    5 type  1   force =     0.00000000    0.00000000    0.00000000
     atom    6 type  1   force =     0.00000000    0.00000000    0.00000000
     atom    7 type  1   force =     0.00000000    0.00000000    0.00000000
     atom    8 type  1   force =     0.00000000    0.00000000    0.00000000
     atom    9 type  1   force =     0.00000000    0.00000000    0.00000000
     atom   10 type  1   force =     0.00000000    0.00000000    0.00000000
     atom   11 type  1   force =     0.00000000    0.00000000    0.00000000
     atom   12 type  1   force =     0.00000000    0.00000000    0.00000000
     atom   13 type  1   force =     0.00000000    0.00000000    0.00000000
     atom   14 type  1   force =     0.00000000    0.00000000    0.00000000
     atom   15 type  1   force =     0.00000000    0.00000000    0.00000000
     atom   16 type  1   force =     0.00000000    0.00000000    0.00000000
     atom   17 type  1   force =     0.00000000    0.00000000    0.00000000
     atom   18 type  1   force =     0.00000000    0.00000000    0.00000000
     atom   19 type  1   force =     0.00000000    0.00000000    0.00000000
     atom   20 type  1   force =     0.00000000    0.00000000    0.00000000
     atom   21 type  1   force =     0.00000000    0.00000000    0.00000000
     atom   22 type  1   force =     0.00000000    0.00000000    0.00000000
     atom   23 type  1   force =     0.00000000    0.00000000    0.00000000
     atom   24 type  1   force =     0.00000000    0.00000000    0.00000000
     atom   25 type  1   force =     0.00000000    0.00000000    0.00000000
     atom   26 type  1   force =     0.00000000    0.00000000    0.00000000
     atom   27 type  1   force =     0.00000000    0.00000000    0.00000000
     atom   28 type  1   force =     0.00000000    0.00000000    0.00000000
     atom   29 type  1   force =     0.00000000    0.00000000    0.00000000
     atom   30 type  1   force =     0.00000000    0.00000000    0.00000000
     atom   31 type  1   force =     0.00000000    0.00000000    0.00000000
     atom   32 type  1   force =     0.00000000    0.00000000    0.00000000
     atom   33 type  1   force =     0.00000000    0.00000000    0.00000000
     atom   34 type  1   force =     0.00000000    0.00000000    0.00000000
     atom   35 type  1   force =     0.00000000    0.00000000    0.00000000
     atom   36 type  1   force =     0.00000000    0.00000000    0.00000000
     atom   37 type  1   force =     0.00000000    0.00000000    0.00000000
     atom   38 type  1   force =     0.00000000    0.00000000    0.00000000
     atom   39 type  1   force =     0.00000000    0.00000000    0.00000000
     atom   40 type  1   force =     0.00000000    0.00000000    0.00000000
     atom   41 type  1   force =     0.00000000    0.00000000    0.00000000
     atom   42 type  1   force =     0.00000000    0.00000000    0.00000000
     atom   43 type  1   force =     0.00000000    0.00000000    0.00000000
     atom   44 type  1   force =     0.00000000    0.00000000    0.00000000
     atom   45 type  1   force =     0.00000000    0.00000000    0.00000000
     atom   46 type  1   force =     0.00000000    0.00000000    0.00000000
     atom   47 type  1   force =     0.00000000    0.00000000    0.00000000
     atom   48 type  1   force =     0.00000000    0.00000000    0.00000000
     atom   49 type  1   force =     0.00000000    0.00000000    0.00000000
     atom   50 type  1   force =     0.00000000    0.00000000    0.00000000
     atom   51 type  1   force =     0.00000000    0.00000000    0.00000000
     atom   52 type  1   force =     0.00000000    0.00000000    0.00000000
     atom   53 type  1   force =     0.00000000    0.00000000    0.00000000
     atom   54 type  1   force =     0.00000000    0.00000000    0.00000000
     atom   55 type  1   force =     0.00000000    0.00000000    0.00000000
     atom   56 type  1   force =     0.00000000    0.00000000    0.00000000
     atom   57 type  1   force =     0.00000000    0.00000000    0.00000000
     atom   58 type  1   force =     0.00000000    0.00000000    0.00000000
     atom   59 type  1   force =     0.00000000    0.00000000    0.00000000
     atom   60 type  1   force =     0.00000000    0.00000000    0.00000000
     atom   61 type  1   force =     0.00000000    0.00000000    0.00000000
     atom   62 type  1   force =     0.00000000    0.00000000    0.00000000
     atom   63 type  1   force =     0.00000000    0.00000000    0.00000000
     The SCF correction term to forces
     atom    1 type  1   force =     0.00001110   -0.00001110   -0.00000123
     atom    2 type  1   force =     0.00001110    0.00000123    0.00001110
     atom    3 type  1   force =     0.00001587    0.00001291   -0.00001291
     atom    4 type  1   force =    -0.00000123   -0.00001110    0.00001110
     atom    5 type  1   force =    -0.00001291   -0.00001587   -0.00001291
     atom    6 type  1   force =    -0.00001291    0.00001291    0.00001587
     atom    7 type  1   force =    -0.00001701    0.00001701   -0.00001701
     atom    8 type  1   force =    -0.00000533    0.00000723    0.00001073
     atom    9 type  1   force =     0.00001066    0.00001600   -0.00000905
     atom   10 type  1   force =     0.00000401   -0.00000401   -0.00000074
     atom   11 type  1   force =     0.00001453   -0.00001453    0.00000433
     atom   12 type  1   force =     0.00000475   -0.00000475    0.00000942
     atom   13 type  1   force =    -0.00000886    0.00000886   -0.00001163
     atom   14 type  1   force =    -0.00000723    0.00000533    0.00001073
     atom   15 type  1   force =    -0.00001600   -0.00001066   -0.00000905
     atom   16 type  1   force =    -0.00001412   -0.00001821    0.00001821
     atom   17 type  1   force =     0.00000595    0.00000771   -0.00000192
     atom   18 type  1   force =     0.00000595    0.00000192   -0.00000771
     atom   19 type  1   force =     0.00002191   -0.00001070    0.00001070
     atom   20 type  1   force =    -0.00000197   -0.00000736    0.00000736
     atom   21 type  1   force =    -0.00001011   -0.00000203   -0.00000490
     atom   22 type  1   force =    -0.00001011    0.00000490    0.00000203
     atom   23 type  1   force =    -0.00002118    0.00000119   -0.00000119
     atom   24 type  1   force =     0.00000401    0.00000074    0.00000401
     atom   25 type  1   force =    -0.00000533   -0.00001073   -0.00000723
     atom   26 type  1   force =     0.00001453   -0.00000433    0.00001453
     atom   27 type  1   force =     0.00001066    0.00000905   -0.00001600
     atom   28 type  1   force =    -0.00000723   -0.00001073   -0.00000533
     atom   29 type  1   force =     0.00000475   -0.00000942    0.00000475
     atom   30 type  1   force =    -0.00001600    0.00000905    0.00001066
     atom   31 type  1   force =    -0.00000886    0.00001163   -0.00000886
     atom   32 type  1   force =     0.00001821    0.00001412    0.00001821
     atom   33 type  1   force =    -0.00000771   -0.00000595   -0.00000192
     atom   34 type  1   force =     0.00000736    0.00000197    0.00000736
     atom   35 type  1   force =     0.00000203    0.00001011   -0.00000490
     atom   36 type  1   force =    -0.00000192   -0.00000595   -0.00000771
     atom   37 type  1   force =     0.00001070   -0.00002191    0.00001070
     atom   38 type  1   force =    -0.00000490    0.00001011    0.00000203
     atom   39 type  1   force =    -0.00000119    0.00002118   -0.00000119
     atom   40 type  1   force =     0.00001073    0.00000723   -0.00000533
     atom   41 type  1   force =     0.00000942   -0.00000475    0.00000475
     atom   42 type  1   force =    -0.00000074   -0.00000401    0.00000401
     atom   43 type  1   force =     0.00001073    0.00000533   -0.00000723
     atom   44 type  1   force =    -0.00000905    0.00001600    0.00001066
     atom   45 type  1   force =    -0.00001163    0.00000886   -0.00000886
     atom   46 type  1   force =     0.00000433   -0.00001453    0.00001453
     atom   47 type  1   force =    -0.00000905   -0.00001066   -0.00001600
     atom   48 type  1   force =     0.00001821   -0.00001821   -0.00001412
     atom   49 type  1   force =     0.00000736   -0.00000736   -0.00000197
     atom   50 type  1   force =    -0.00000771    0.00000192    0.00000595
     atom   51 type  1   force =     0.00000203    0.00000490   -0.00001011
     atom   52 type  1   force =    -0.00000192    0.00000771    0.00000595
     atom   53 type  1   force =    -0.00000490   -0.00000203   -0.00001011
     atom   54 type  1   force =     0.00001070   -0.00001070    0.00002191
     atom   55 type  1   force =    -0.00000119    0.00000119   -0.00002118
     atom   56 type  1   force =     0.00000708   -0.00000708    0.00000708
     atom   57 type  1   force =     0.00000862   -0.00000862    0.00000389
     atom   58 type  1   force =     0.00000862   -0.00000389    0.00000862
     atom   59 type  1   force =     0.00001291    0.00000780   -0.00000780
     atom   60 type  1   force =     0.00000389   -0.00000862    0.00000862
     atom   61 type  1   force =    -0.00000780   -0.00001291   -0.00000780
     atom   62 type  1   force =    -0.00000780    0.00000780    0.00001291
     atom   63 type  1   force =    -0.00001424    0.00001424   -0.00001424

     Total force =     0.002469     Total SCF correction =     0.000141

     Computing stress (Cartesian axis) and pressure

[...]

          total   stress  (Ry/bohr**3)                   (kbar)     P=      -70.78
  -0.00048115   0.00000018  -0.00000018          -70.78        0.03       -0.03
   0.00000018  -0.00048115   0.00000018            0.03      -70.78        0.03
  -0.00000018   0.00000018  -0.00048115           -0.03        0.03      -70.78

     kinetic stress (kbar)  18563.81      0.05     -0.05
                                0.05  18563.81      0.05
                               -0.05      0.05  18563.81

     local   stress (kbar)  -3809.76      0.56     -0.56
                                0.56  -3809.77      0.56
                               -0.56      0.56  -3809.76

     nonloc. stress (kbar)   4279.59     -0.01      0.01
                               -0.01   4279.59     -0.01
                                0.01     -0.01   4279.59

     hartree stress (kbar)   1386.29     -0.15      0.15
                               -0.15   1386.29     -0.15
                                0.15     -0.15   1386.29

     exc-cor stress (kbar)   -380.85     -0.01      0.01
                               -0.01   -380.85     -0.01
                                0.01     -0.01   -380.85

     corecor stress (kbar)  -4363.07      0.02     -0.02
                                0.02  -4363.07      0.02
                               -0.02      0.02  -4363.07

     ewald   stress (kbar) -15771.42     -0.43      0.43
                               -0.43 -15771.42     -0.43
                                0.43     -0.43 -15771.42

     hubbard stress (kbar)      0.00      0.00      0.00
                                0.00      0.00      0.00
                                0.00      0.00      0.00

     DFT-D   stress (kbar)      0.00      0.00      0.00
                                0.00      0.00      0.00
                                0.00      0.00      0.00

     XDM     stress (kbar)      0.00      0.00      0.00
                                0.00      0.00      0.00
                                0.00      0.00      0.00

     dft-nl  stress (kbar)     24.63      0.00     -0.00
                                0.00     24.63      0.00
                               -0.00      0.00     24.63

     TS-vdW  stress (kbar)      0.00      0.00      0.00
                                0.00      0.00      0.00
                                0.00      0.00      0.00

     MDB     stress (kbar)      0.00      0.00      0.00
                                0.00      0.00      0.00
                                0.00      0.00      0.00

     3D-RISM stress (kbar)      0.00      0.00      0.00
                                0.00      0.00      0.00
                                0.00      0.00      0.00

[...]

     Non-local corr. energy    =       2.16556184 Ry

 BEEFens 2000 ensemble energies
             -0.222962972917992E+02
             -0.149800030070077E+01
             -0.500940804346072E+01
              0.153672112039825E+02
             -0.675309315618230E+01
             -0.572572755744336E+01
             -0.155488555210079E+02
             -0.334324975977727E+02
             -0.123690750750678E+02
             -0.129446321173270E+02
             -0.133725412171028E+02
              0.189639600877176E+01
              0.193540790199803E+01
             -0.171837557120963E+01
              0.146912840211031E+01
              0.164719534501469E+02
             -0.661224070066527E+01
             -0.425021343446701E+01
              0.845036552162219E+01
             -0.380872854315492E+02
              0.199540258137837E+02
             -0.693697994073898E+01
             -0.204654715876348E+01
             -0.270701450829662E+01
              0.279973960260520E-01
             -0.200150905745792E+01
              0.299104637759692E+02
             -0.815242062033153E+01
             -0.307772245733238E+01
             -0.199981879423647E+02
              0.241683564584750E+02
             -0.216857995657107E+01
             -0.145110855468822E+02
              0.690721790464361E+01
             -0.816735085337683E+00
              0.997103598520513E+01
              0.822592620527871E+00
              0.137738389387039E-01
              0.128129208836256E+02
             -0.346435500060146E+02
              0.184019321500747E+02
              0.445959504203557E+01
             -0.362366961241412E+01
             -0.111767625487463E+02
              0.401057186044417E+01
             -0.587572255909944E+01
              0.174279915695107E+02
              0.120813110632270E+02
             -0.664636172227230E+01
             -0.114854564899670E+02
             -0.111531263975149E+02
             -0.123831583044327E+02
              0.663602026752493E+01
             -0.184073387933723E+02
              0.539229328702390E+01
              0.212198745772841E+02
              0.260419091553817E+02
              0.105274369118597E+02
              0.548603125152397E+01
              0.109026807349932E+02
[...]
             -0.261158988695031E+02
              0.789548572521824E+00
              0.327392775137493E+00
             -0.390783343431093E+01
              0.170195849937971E+01
             -0.223966868702665E+02
             -0.371216828826771E+01
              0.398139820958229E+01
              0.430766706732524E+01
              0.175153745711231E+02
             -0.151943346029574E+02
              0.181951520348226E+02
             -0.135542274730934E+02
              0.910405889138413E+01
              0.150339415821631E+02

 BEEF-vdW xc energy contributions
            1 :    -256.5539665780543
            2 :     226.1159111151158
            3 :    -173.6926297139084
            4 :     112.9759213814519
            5 :    -57.89504937908146
            6 :     17.98814947617166
            7 :     3.986715593156134
            8 :    -11.47159141396514
            9 :     11.21662566863262
           10 :    -9.682878583548700
           11 :     10.43963489497702
           12 :    -13.53193421189553
           13 :     16.69968252493595
           14 :    -17.45350858967612
           15 :     14.76729451327049
           16 :    -9.572348638118342
           17 :     4.018324512270965
           18 :   -0.1385119244248472
           19 :    -1.222863275259726
           20 :    0.6502687731309607
           21 :    0.4456794250612575
           22 :   -0.7982811753045098
           23 :    5.2367044793300010E-003
           24 :     1.383614302757223
           25 :    -2.369430149419827
           26 :     2.212892353282484
           27 :   -0.8917955856511526
           28 :   -0.9387415232931744
           29 :     2.398349132158842
           30 :    -2.920457113442126
           31 :    -33.59352706057643
           32 :    -24.32140280297108

     Writing all to output data dir ./diamond.save/

     General routines

     Parallel routines

     PAW routines

   This run was terminated on:  21:17:18  17Mar2024

   JOB DONE.