     Program PWSCF v.7.2 starts on 17Mar2024 at 20:59:31

     Reading input from espresso.pwi
Warning: card &CELL ignored
Warning: card    CELL_DYNAMICS    = 'BFGS' ignored
Warning: card / ignored

     Current dimensions of program PWSCF are:
     Max number of different atomic species (ntypx) = 10
     Max number of k-points (npk) =  40000
     Max angular momentum in pseudopotentials (lmaxx) =  4
     file C.pbe-n-kjpaw_psl.1.0.0.UPF: wavefunction(s)  2S 2P renormalized

     IMPORTANT: XC functional enforced from input :
     Exchange-correlation= BEEF-VDW
                           (   1   4  43  14   2   0   0)
     Any further DFT definition will be discarded
     Please, verify this is what you really want

     K-points division:     npool     =       4
     R & G space division:  proc/nbgrp/npool/nimage =      32
     Subspace diagonalization in iterative solution of the eigenvalue problem:
     a serial algorithm will be used

     Using Slab Decomposition

     bravais-lattice index     =            1
     lattice parameter (alat)  =      13.5013  a.u.
     unit-cell volume          =    2461.1121 (a.u.)^3
     number of atoms/cell      =           63
     number of atomic types    =            1
     number of electrons       =       251.00
     number of Kohn-Sham states=          151
     kinetic-energy cutoff     =      70.0000  Ry
     charge density cutoff     =     350.0000  Ry
     scf convergence threshold =      1.0E-07
     mixing beta               =       0.7000
     number of iterations used =            8  plain     mixing
     energy convergence thresh.=      1.0E-04
     force convergence thresh. =      1.0E-03
     Exchange-correlation= BEEF-VDW
                           (   1   4  43  14   2   0   0)
     nstep                     =           50

     celldm(1)=  13.501348  celldm(2)=   0.000000  celldm(3)=   0.000000
     celldm(4)=   0.000000  celldm(5)=   0.000000  celldm(6)=   0.000000

     crystal axes: (cart. coord. in units of alat)
               a(1) = (   1.000000   0.000000   0.000000 )
               a(2) = (   0.000000   1.000000   0.000000 )
               a(3) = (   0.000000   0.000000   1.000000 )

     reciprocal axes: (cart. coord. in units 2 pi/alat)
               b(1) = (  1.000000  0.000000  0.000000 )
               b(2) = (  0.000000  1.000000  0.000000 )
               b(3) = (  0.000000  0.000000  1.000000 )

     PseudoPot. # 1 for C  read from file:
     //group///packages/espresso/pseudo/psl_1.0.0/pslibrary.1.0.0/pbe/PSEUDOPOTENTIALS/C.pbe-n-kjpaw_psl.1.0.0.UPF
     MD5 check sum: 5459cf7f2c8c37df2f7cde8914797f4d
     Pseudo is Projector augmented-wave + core cor, Zval =  4.0
     Generated using 'atomic' code by A. Dal Corso  v.7.1
     Shape of augmentation charge: PSQ
     Using radial grid of 1073 points,  4 beta functions with:
                l(1) =   0
                l(2) =   0
                l(3) =   1
                l(4) =   1
     Q(r) pseudized with 0 coefficients

     atomic species   valence    mass     pseudopotential
        C              4.00    12.01100     C ( 1.00)

      6 Sym. Ops. (no inversion) found ( 4 have fractional translation)

                                    s                        frac. trans.

      isym =  1     identity

 cryst.   s( 1) = (     1          0          0      )
                  (     0          1          0      )
                  (     0          0          1      )

 cart.    s( 1) = (  1.0000000  0.0000000  0.0000000 )
                  (  0.0000000  1.0000000  0.0000000 )
                  (  0.0000000  0.0000000  1.0000000 )

      isym =  2     120 deg rotation - cart. axis [1,-1,1]

 cryst.   s( 2) = (     0          0          1      )    f =( -0.5000000 )
                  (    -1          0          0      )       ( -0.5000000 )
                  (     0         -1          0      )       (  0.0000000 )

 cart.    s( 2) = (  0.0000000 -1.0000000  0.0000000 )    f =( -0.5000000 )
                  (  0.0000000  0.0000000 -1.0000000 )       ( -0.5000000 )
                  (  1.0000000  0.0000000  0.0000000 )       (  0.0000000 )

      isym =  3     120 deg rotation - cart. axis [-1,1,-1]

[...]

      isym =  4     inv. 180 deg rotation - cart. axis [1,1,0]

[...]

 cryst.   s( 5) = (     0          0          1      )
                  (     0          1          0      )
                  (     1          0          0      )

 cart.    s( 5) = (  0.0000000  0.0000000  1.0000000 )
                  (  0.0000000  1.0000000  0.0000000 )
                  (  1.0000000  0.0000000  0.0000000 )

      isym =  6     inv. 180 deg rotation - cart. axis [0,1,1]

 cryst.   s( 6) = (     1          0          0      )    f =(  0.0000000 )
                  (     0          0         -1      )       ( -0.5000000 )
                  (     0         -1          0      )       ( -0.5000000 )

 cart.    s( 6) = (  1.0000000  0.0000000  0.0000000 )    f =(  0.0000000 )
                  (  0.0000000  0.0000000 -1.0000000 )       ( -0.5000000 )
                  (  0.0000000 -1.0000000  0.0000000 )       ( -0.5000000 )

     point group C_3v (3m)
     there are  3 classes
     the character table:

       E     2C3   3s_v
A_1    1.00  1.00  1.00
A_2    1.00  1.00 -1.00
E      2.00 -1.00  0.00

     the symmetry operations in each class and the name of the first element:

     E        1
          identity
     2C3      2    3
          120 deg rotation - cart. axis [1,-1,1]
     3s_v     4    5    6
          inv. 180 deg rotation - cart. axis [1,1,0]

   Cartesian axes

     site n.     atom                  positions (alat units)
         1           C   tau(   1) = (   0.1250031   0.3749969   0.6250031  )
         2           C   tau(   2) = (   0.1250031   0.8749969   0.1250031  )
         3           C   tau(   3) = (   0.1250031   0.8749969   0.6250031  )
         4           C   tau(   4) = (   0.6250031   0.3749969   0.1250031  )
         5           C   tau(   5) = (   0.6250031   0.3749969   0.6250031  )
         6           C   tau(   6) = (   0.6250031   0.8749969   0.1250031  )
         7           C   tau(   7) = (   0.6250031   0.8749969   0.6250031  )
         8           C   tau(   8) = (   0.0000000   0.0000000   0.2500000  )
         9           C   tau(   9) = (   0.0000000   0.0000000   0.7500000  )
        10           C   tau(  10) = (   0.0000000   0.5000000   0.2500000  )
        11           C   tau(  11) = (   0.0000000   0.5000000   0.7500000  )
        12           C   tau(  12) = (   0.5000000   0.0000000   0.2500000  )
        13           C   tau(  13) = (   0.5000000   0.0000000   0.7500000  )
        14           C   tau(  14) = (   0.5000000   0.5000000   0.2500000  )
        15           C   tau(  15) = (   0.5000000   0.5000000   0.7500000  )
        16           C   tau(  16) = (   0.1250031   0.1250031   0.3749969  )
        17           C   tau(  17) = (   0.1250031   0.1250031   0.8749969  )
        18           C   tau(  18) = (   0.1250031   0.6250031   0.3749969  )
        19           C   tau(  19) = (   0.1250031   0.6250031   0.8749969  )
        20           C   tau(  20) = (   0.6250031   0.1250031   0.3749969  )
        21           C   tau(  21) = (   0.6250031   0.1250031   0.8749969  )
        22           C   tau(  22) = (   0.6250031   0.6250031   0.3749969  )
        23           C   tau(  23) = (   0.6250031   0.6250031   0.8749969  )
        24           C   tau(  24) = (   0.0000000   0.2500000   0.0000000  )
        25           C   tau(  25) = (   0.0000000   0.2500000   0.5000000  )
        26           C   tau(  26) = (   0.0000000   0.7500000   0.0000000  )
        27           C   tau(  27) = (   0.0000000   0.7500000   0.5000000  )
        28           C   tau(  28) = (   0.5000000   0.2500000   0.0000000  )
        29           C   tau(  29) = (   0.5000000   0.2500000   0.5000000  )
        30           C   tau(  30) = (   0.5000000   0.7500000   0.0000000  )
        31           C   tau(  31) = (   0.5000000   0.7500000   0.5000000  )
        32           C   tau(  32) = (   0.3749969   0.3749969   0.3749969  )
        33           C   tau(  33) = (   0.3749969   0.3749969   0.8749969  )
        34           C   tau(  34) = (   0.3749969   0.8749969   0.3749969  )
        35           C   tau(  35) = (   0.3749969   0.8749969   0.8749969  )
        36           C   tau(  36) = (   0.8749969   0.3749969   0.3749969  )
        37           C   tau(  37) = (   0.8749969   0.3749969   0.8749969  )
        38           C   tau(  38) = (   0.8749969   0.8749969   0.3749969  )
        39           C   tau(  39) = (   0.8749969   0.8749969   0.8749969  )
        40           C   tau(  40) = (   0.2500000   0.0000000   0.0000000  )
        41           C   tau(  41) = (   0.2500000   0.0000000   0.5000000  )
        42           C   tau(  42) = (   0.2500000   0.5000000   0.0000000  )
        43           C   tau(  43) = (   0.2500000   0.5000000   0.5000000  )
        44           C   tau(  44) = (   0.7500000   0.0000000   0.0000000  )
        45           C   tau(  45) = (   0.7500000   0.0000000   0.5000000  )
        46           C   tau(  46) = (   0.7500000   0.5000000   0.0000000  )
        47           C   tau(  47) = (   0.7500000   0.5000000   0.5000000  )
        48           C   tau(  48) = (   0.3749969   0.1250031   0.1250031  )
        49           C   tau(  49) = (   0.3749969   0.1250031   0.6250031  )
        50           C   tau(  50) = (   0.3749969   0.6250031   0.1250031  )
        51           C   tau(  51) = (   0.3749969   0.6250031   0.6250031  )
        52           C   tau(  52) = (   0.8749969   0.1250031   0.1250031  )
        53           C   tau(  53) = (   0.8749969   0.1250031   0.6250031  )
        54           C   tau(  54) = (   0.8749969   0.6250031   0.1250031  )
        55           C   tau(  55) = (   0.8749969   0.6250031   0.6250031  )
        56           C   tau(  56) = (   0.2500000   0.2500000   0.2500000  )
        57           C   tau(  57) = (   0.2500000   0.2500000   0.7500000  )
        58           C   tau(  58) = (   0.2500000   0.7500000   0.2500000  )
        59           C   tau(  59) = (   0.2500000   0.7500000   0.7500000  )
        60           C   tau(  60) = (   0.7500000   0.2500000   0.2500000  )
        61           C   tau(  61) = (   0.7500000   0.2500000   0.7500000  )
        62           C   tau(  62) = (   0.7500000   0.7500000   0.2500000  )
        63           C   tau(  63) = (   0.7500000   0.7500000   0.7500000  )

   Crystallographic axes

     site n.     atom                  positions (cryst. coord.)
         1           C   tau(   1) = (  0.1250031  0.3749969  0.6250031  )
         2           C   tau(   2) = (  0.1250031  0.8749969  0.1250031  )
         3           C   tau(   3) = (  0.1250031  0.8749969  0.6250031  )
         4           C   tau(   4) = (  0.6250031  0.3749969  0.1250031  )
         5           C   tau(   5) = (  0.6250031  0.3749969  0.6250031  )
         6           C   tau(   6) = (  0.6250031  0.8749969  0.1250031  )
         7           C   tau(   7) = (  0.6250031  0.8749969  0.6250031  )
[...]
     atom    9 type  1   force =     0.00000000    0.00000000    0.00000000
     atom   10 type  1   force =     0.00000000    0.00000000    0.00000000
     atom   11 type  1   force =     0.00000000    0.00000000    0.00000000
     atom   12 type  1   force =     0.00000000    0.00000000    0.00000000
     atom   13 type  1   force =     0.00000000    0.00000000    0.00000000
     atom   14 type  1   force =     0.00000000    0.00000000    0.00000000
     atom   15 type  1   force =     0.00000000    0.00000000    0.00000000
     atom   16 type  1   force =     0.00000000    0.00000000    0.00000000
     atom   17 type  1   force =     0.00000000    0.00000000    0.00000000
     atom   18 type  1   force =     0.00000000    0.00000000    0.00000000
     atom   19 type  1   force =     0.00000000    0.00000000    0.00000000
     atom   20 type  1   force =     0.00000000    0.00000000    0.00000000
     atom   21 type  1   force =     0.00000000    0.00000000    0.00000000
     atom   22 type  1   force =     0.00000000    0.00000000    0.00000000
     atom   23 type  1   force =     0.00000000    0.00000000    0.00000000
     atom   24 type  1   force =     0.00000000    0.00000000    0.00000000
     atom   25 type  1   force =     0.00000000    0.00000000    0.00000000
     atom   26 type  1   force =     0.00000000    0.00000000    0.00000000
     atom   27 type  1   force =     0.00000000    0.00000000    0.00000000
     atom   28 type  1   force =     0.00000000    0.00000000    0.00000000
     atom   29 type  1   force =     0.00000000    0.00000000    0.00000000
     atom   30 type  1   force =     0.00000000    0.00000000    0.00000000
     atom   31 type  1   force =     0.00000000    0.00000000    0.00000000
     atom   32 type  1   force =     0.00000000    0.00000000    0.00000000
     atom   33 type  1   force =     0.00000000    0.00000000    0.00000000
     atom   34 type  1   force =     0.00000000    0.00000000    0.00000000
     atom   35 type  1   force =     0.00000000    0.00000000    0.00000000
     atom   36 type  1   force =     0.00000000    0.00000000    0.00000000
     atom   37 type  1   force =     0.00000000    0.00000000    0.00000000
     atom   38 type  1   force =     0.00000000    0.00000000    0.00000000
     atom   39 type  1   force =     0.00000000    0.00000000    0.00000000
     atom   40 type  1   force =     0.00000000    0.00000000    0.00000000
     atom   41 type  1   force =     0.00000000    0.00000000    0.00000000
     atom   42 type  1   force =     0.00000000    0.00000000    0.00000000
     atom   43 type  1   force =     0.00000000    0.00000000    0.00000000
     atom   44 type  1   force =     0.00000000    0.00000000    0.00000000
     atom   45 type  1   force =     0.00000000    0.00000000    0.00000000
     atom   46 type  1   force =     0.00000000    0.00000000    0.00000000
     atom   47 type  1   force =     0.00000000    0.00000000    0.00000000
     atom   48 type  1   force =     0.00000000    0.00000000    0.00000000
     atom   49 type  1   force =     0.00000000    0.00000000    0.00000000
     atom   50 type  1   force =     0.00000000    0.00000000    0.00000000
     atom   51 type  1   force =     0.00000000    0.00000000    0.00000000
     atom   52 type  1   force =     0.00000000    0.00000000    0.00000000
     atom   53 type  1   force =     0.00000000    0.00000000    0.00000000
     atom   54 type  1   force =     0.00000000    0.00000000    0.00000000
     atom   55 type  1   force =     0.00000000    0.00000000    0.00000000
     atom   56 type  1   force =     0.00000000    0.00000000    0.00000000
     atom   57 type  1   force =     0.00000000    0.00000000    0.00000000
     atom   58 type  1   force =     0.00000000    0.00000000    0.00000000
     atom   59 type  1   force =     0.00000000    0.00000000    0.00000000
     atom   60 type  1   force =     0.00000000    0.00000000    0.00000000
     atom   61 type  1   force =     0.00000000    0.00000000    0.00000000
     atom   62 type  1   force =     0.00000000    0.00000000    0.00000000
     atom   63 type  1   force =     0.00000000    0.00000000    0.00000000
     The SCF correction term to forces
     atom    1 type  1   force =    -0.00000529    0.00000529    0.00000190
     atom    2 type  1   force =    -0.00000529   -0.00000190   -0.00000529
     atom    3 type  1   force =    -0.00000673   -0.00000613    0.00000613
     atom    4 type  1   force =     0.00000190    0.00000529   -0.00000529
     atom    5 type  1   force =     0.00000613    0.00000673    0.00000613
     atom    6 type  1   force =     0.00000613   -0.00000613   -0.00000673
     atom    7 type  1   force =     0.00000691   -0.00000691    0.00000691
     atom    8 type  1   force =     0.00000036   -0.00000538   -0.00000540
     atom    9 type  1   force =    -0.00000423   -0.00000569    0.00000480
     atom   10 type  1   force =    -0.00000315    0.00000315    0.00000069
     atom   11 type  1   force =    -0.00000527    0.00000527   -0.00000252
     atom   12 type  1   force =    -0.00000024    0.00000024   -0.00000374
     atom   13 type  1   force =     0.00000407   -0.00000407    0.00000471
     atom   14 type  1   force =     0.00000538   -0.00000036   -0.00000540
     atom   15 type  1   force =     0.00000569    0.00000423    0.00000480
     atom   16 type  1   force =     0.00000261    0.00000585   -0.00000585
     atom   17 type  1   force =    -0.00000389   -0.00000299    0.00000028
     atom   18 type  1   force =    -0.00000389   -0.00000028    0.00000299
     atom   19 type  1   force =    -0.00000773    0.00000406   -0.00000406
     atom   20 type  1   force =     0.00000322    0.00000294   -0.00000294
     atom   21 type  1   force =     0.00000436    0.00000164    0.00000216
     atom   22 type  1   force =     0.00000436   -0.00000216   -0.00000164
     atom   23 type  1   force =     0.00000826   -0.00000135    0.00000135
     atom   24 type  1   force =    -0.00000315   -0.00000069   -0.00000315
     atom   25 type  1   force =     0.00000036    0.00000540    0.00000538
     atom   26 type  1   force =    -0.00000527    0.00000252   -0.00000527
     atom   27 type  1   force =    -0.00000423   -0.00000480    0.00000569
     atom   28 type  1   force =     0.00000538    0.00000540    0.00000036
     atom   29 type  1   force =    -0.00000024    0.00000374   -0.00000024
     atom   30 type  1   force =     0.00000569   -0.00000480   -0.00000423
     atom   31 type  1   force =     0.00000407   -0.00000471    0.00000407
     atom   32 type  1   force =    -0.00000585   -0.00000261   -0.00000585
     atom   33 type  1   force =     0.00000299    0.00000389    0.00000028
     atom   34 type  1   force =    -0.00000294   -0.00000322   -0.00000294
     atom   35 type  1   force =    -0.00000164   -0.00000436    0.00000216
     atom   36 type  1   force =     0.00000028    0.00000389    0.00000299
     atom   37 type  1   force =    -0.00000406    0.00000773   -0.00000406
     atom   38 type  1   force =     0.00000216   -0.00000436   -0.00000164
     atom   39 type  1   force =     0.00000135   -0.00000826    0.00000135
     atom   40 type  1   force =    -0.00000540   -0.00000538    0.00000036
     atom   41 type  1   force =    -0.00000374    0.00000024   -0.00000024
     atom   42 type  1   force =     0.00000069    0.00000315   -0.00000315
     atom   43 type  1   force =    -0.00000540   -0.00000036    0.00000538
     atom   44 type  1   force =     0.00000480   -0.00000569   -0.00000423
     atom   45 type  1   force =     0.00000471   -0.00000407    0.00000407
     atom   46 type  1   force =    -0.00000252    0.00000527   -0.00000527
     atom   47 type  1   force =     0.00000480    0.00000423    0.00000569
     atom   48 type  1   force =    -0.00000585    0.00000585    0.00000261
     atom   49 type  1   force =    -0.00000294    0.00000294    0.00000322
     atom   50 type  1   force =     0.00000299   -0.00000028   -0.00000389
     atom   51 type  1   force =    -0.00000164   -0.00000216    0.00000436
     atom   52 type  1   force =     0.00000028   -0.00000299   -0.00000389
     atom   53 type  1   force =     0.00000216    0.00000164    0.00000436
     atom   54 type  1   force =    -0.00000406    0.00000406   -0.00000773
     atom   55 type  1   force =     0.00000135   -0.00000135    0.00000826
     atom   56 type  1   force =    -0.00000260    0.00000260   -0.00000260
     atom   57 type  1   force =    -0.00000414    0.00000414   -0.00000162
     atom   58 type  1   force =    -0.00000414    0.00000162   -0.00000414
     atom   59 type  1   force =    -0.00000544   -0.00000415    0.00000415
     atom   60 type  1   force =    -0.00000162    0.00000414   -0.00000414
     atom   61 type  1   force =     0.00000415    0.00000544    0.00000415
     atom   62 type  1   force =     0.00000415   -0.00000415   -0.00000544
     atom   63 type  1   force =     0.00000521   -0.00000521    0.00000521

     Total force =     0.002471     Total SCF correction =     0.000059

     Computing stress (Cartesian axis) and pressure

     Non-local corr. energy    =       2.16556179 Ry

          total   stress  (Ry/bohr**3)                   (kbar)     P=      -70.78
  -0.00048115   0.00000020  -0.00000020          -70.78        0.03       -0.03
   0.00000020  -0.00048115   0.00000020            0.03      -70.78        0.03
  -0.00000020   0.00000020  -0.00048115           -0.03        0.03      -70.78

     kinetic stress (kbar)  18563.81      0.05     -0.05
                                0.05  18563.81      0.05
                               -0.05      0.05  18563.81

     local   stress (kbar)  -3809.76      0.56     -0.56
                                0.56  -3809.76      0.56
                               -0.56      0.56  -3809.76

     nonloc. stress (kbar)   4279.59     -0.01      0.01
                               -0.01   4279.59     -0.01
                                0.01     -0.01   4279.59

     hartree stress (kbar)   1386.29     -0.15      0.15
                               -0.15   1386.29     -0.15
                                0.15     -0.15   1386.29

     exc-cor stress (kbar)   -380.85     -0.01      0.01
                               -0.01   -380.85     -0.01
                                0.01     -0.01   -380.85

     corecor stress (kbar)  -4363.07      0.02     -0.02
                                0.02  -4363.07      0.02
                               -0.02      0.02  -4363.07

     ewald   stress (kbar) -15771.42     -0.43      0.43
                               -0.43 -15771.42     -0.43
                                0.43     -0.43 -15771.42

     hubbard stress (kbar)      0.00      0.00      0.00
                                0.00      0.00      0.00
                                0.00      0.00      0.00

     DFT-D   stress (kbar)      0.00      0.00      0.00
                                0.00      0.00      0.00
                                0.00      0.00      0.00

     XDM     stress (kbar)      0.00      0.00      0.00
                                0.00      0.00      0.00
                                0.00      0.00      0.00

     dft-nl  stress (kbar)     24.63      0.00     -0.00
                                0.00     24.63      0.00
                               -0.00      0.00     24.63

     TS-vdW  stress (kbar)      0.00      0.00      0.00
                                0.00      0.00      0.00
                                0.00      0.00      0.00

     MDB     stress (kbar)      0.00      0.00      0.00
                                0.00      0.00      0.00
                                0.00      0.00      0.00

     3D-RISM stress (kbar)      0.00      0.00      0.00
                                0.00      0.00      0.00
                                0.00      0.00      0.00

     Energy error            =      6.5E-05 Ry
     Gradient error          =      3.9E-04 Ry/Bohr

     bfgs converged in   6 scf cycles and   5 bfgs steps
     (criteria: energy <  1.0E-04 Ry, force <  1.0E-03 Ry/Bohr)

     End of BFGS Geometry Optimization

     Final energy             =   -1197.0821133280 Ry

     File ./diamond.bfgs deleted, as requested
Begin final coordinates

ATOMIC_POSITIONS (angstrom)
C             0.8931052634        2.6791975550        4.4654205632
C             0.8931052634        6.2514878928        0.8931052634
C             0.8930793622        6.2514941332        4.4654143228
C             4.4654205632        2.6791975550        0.8931052634
C             4.4654143228        2.6792234562        4.4654143228
C             4.4654143228        6.2514941332        0.8930793622
C             4.4653794336        6.2515290224        4.4653794336
C             0.0044781358        0.0018289301        1.7817209307
C            -0.0078925835       -0.0071817809        5.3514266225
C            -0.0778572532        3.6501600720        1.8641601300
C             0.0045303837        3.5677724351        5.3603338215
C             3.5793957654       -0.0070929466        1.7938287962
C             3.5715857880        0.0007170308        5.3590852343
C             3.5704738887        3.5678246830        1.7817209307
C             3.5794845997        3.5801954023        5.3514266225
C             0.8903254464        0.9062088829        2.6660939355
C             0.8957376086        0.9061833750        6.2647334758
C             0.8957376086        4.4521749802        2.6661194434
C             0.8906954884        4.4522990922        6.2646093638
C             4.4680941570        0.8944881501        2.6778146683
C             4.4627033352        0.8944019627        6.2527710992
C             4.4627033352        4.4641373568        2.6779008557
C             4.4681771161        4.4640833255        6.2528251305
C            -0.0778572532        1.7081426884       -0.0778572532
C             0.0044781358        1.7905818877        3.5704738887
C             0.0045303837        5.3565746345        0.0045303837
C            -0.0078925835        5.3654818335        3.5794845997
C             3.5704738887        1.7905818877        0.0044781358
C             3.5793957654        1.7784740222        3.5793957654
C             3.5794845997        5.3654818335       -0.0078925835
C             3.5715857880        5.3578232217        3.5715857880
C             2.6660939355        2.6819773720        2.6660939355
C             2.6661194434        2.6765652098        6.2647334758
C             2.6778146683        6.2488142990        2.6778146683
C             2.6779008557        6.2542051208        6.2527710992
C             6.2647334758        2.6765652098        2.6661194434
C             6.2646093638        2.6816073300        6.2646093638
C             6.2527710992        6.2542051208        2.6779008557
C             6.2528251305        6.2487313399        6.2528251305
C             1.7817209307        0.0018289301        0.0044781358
C             1.7938287962       -0.0070929466        3.5793957654
C             1.8641601300        3.6501600720       -0.0778572532
C             1.7817209307        3.5678246830        3.5704738887
C             5.3514266225       -0.0071817809       -0.0078925835
C             5.3590852343        0.0007170308        3.5715857880
C             5.3603338215        3.5677724351        0.0045303837
C             5.3514266225        3.5801954023        3.5794845997
C             2.6660939355        0.9062088829        0.8903254464
C             2.6778146683        0.8944881501        4.4680941570
C             2.6661194434        4.4521749802        0.8957376086
C             2.6779008557        4.4641373568        4.4627033352
C             6.2647334758        0.9061833750        0.8957376086
C             6.2527710992        0.8944019627        4.4627033352
C             6.2646093638        4.4522990922        0.8906954884
C             6.2528251305        4.4640833255        4.4681771161
C             1.8637939128        1.7085089056        1.8637939128
C             1.7815413406        1.7907614778        5.3604111595
C             1.7815413406        5.3564972965        1.7815413406
C             1.7941518308        5.3657336450        5.3511748110
C             5.3604111595        1.7907614778        1.7815413406
C             5.3511748110        1.7781509876        5.3511748110
C             5.3511748110        5.3657336450        1.7941518308
C             5.3591418721        5.3577665839        5.3591418721
End final coordinates

     Writing all to output data dir ./diamond.save/

     General routines

     Parallel routines

     PAW routines

   This run was terminated on:  21: 2:33  17Mar2024

   JOB DONE.