     Program PWSCF v.7.2 starts on 19Feb2024 at 10:44:58

     Reading input from espresso.pwi
Warning: card &CELL ignored
Warning: card    CELL_DYNAMICS    = 'BFGS' ignored
Warning: card / ignored

     Current dimensions of program PWSCF are:
     Max number of different atomic species (ntypx) = 10
     Max number of k-points (npk) =  40000
     Max angular momentum in pseudopotentials (lmaxx) =  4
     file C.pbe-n-kjpaw_psl.1.0.0.UPF: wavefunction(s)  2S 2P renormalized

     IMPORTANT: XC functional enforced from input :
     Exchange-correlation= BEEF-VDW
                           (   1   4  43  14   2   0   0)
     Any further DFT definition will be discarded
     Please, verify this is what you really want

     Found identity + (  0.0000  0.0000  0.5000) symmetry
     This is a supercell, fractional translations are disabled

     K-points division:     npool     =       4
     R & G space division:  proc/nbgrp/npool/nimage =      32
     Subspace diagonalization in iterative solution of the eigenvalue problem:
     a serial algorithm will be used

     Using Slab Decomposition

     bravais-lattice index     =            1
     lattice parameter (alat)  =      13.5013  a.u.
     unit-cell volume          =    2461.1121 (a.u.)^3
     number of atoms/cell      =           64
     number of atomic types    =            1
     number of electrons       =       256.00
     number of Kohn-Sham states=          154
     kinetic-energy cutoff     =      70.0000  Ry
     charge density cutoff     =     350.0000  Ry
     scf convergence threshold =      1.0E-07
     mixing beta               =       0.7000
     number of iterations used =            8  plain     mixing
     energy convergence thresh.=      1.0E-04
     force convergence thresh. =      1.0E-03
     Exchange-correlation= BEEF-VDW
                           (   1   4  43  14   2   0   0)
     nstep                     =           50

     celldm(1)=  13.501348  celldm(2)=   0.000000  celldm(3)=   0.000000
     celldm(4)=   0.000000  celldm(5)=   0.000000  celldm(6)=   0.000000

     crystal axes: (cart. coord. in units of alat)
               a(1) = (   1.000000   0.000000   0.000000 )
               a(2) = (   0.000000   1.000000   0.000000 )
               a(3) = (   0.000000   0.000000   1.000000 )

     reciprocal axes: (cart. coord. in units 2 pi/alat)
               b(1) = (  1.000000  0.000000  0.000000 )
               b(2) = (  0.000000  1.000000  0.000000 )
               b(3) = (  0.000000  0.000000  1.000000 )

     PseudoPot. # 1 for C  read from file:
     //group///packages/espresso/pseudo/psl_1.0.0/pslibrary.1.0.0/pbe/PSEUDOPOTENTIALS/C.pbe-n-kjpaw_psl.1.0.0.UPF
     MD5 check sum: 5459cf7f2c8c37df2f7cde8914797f4d
     Pseudo is Projector augmented-wave + core cor, Zval =  4.0
     Generated using 'atomic' code by A. Dal Corso  v.7.1
     Shape of augmentation charge: PSQ
     Using radial grid of 1073 points,  4 beta functions with:
                l(1) =   0
                l(2) =   0
                l(3) =   1
                l(4) =   1
     Q(r) pseudized with 0 coefficients

     atomic species   valence    mass     pseudopotential
        C              4.00    12.01100     C ( 1.00)

     24 Sym. Ops. (no inversion) found

                                    s                        frac. trans.

      isym =  1     identity

 cryst.   s( 1) = (     1          0          0      )
                  (     0          1          0      )
                  (     0          0          1      )

 cart.    s( 1) = (  1.0000000  0.0000000  0.0000000 )
                  (  0.0000000  1.0000000  0.0000000 )
                  (  0.0000000  0.0000000  1.0000000 )

      isym =  2     180 deg rotation - cart. axis [0,0,1]

[...]

 cryst.   s( 9) = (     0          1          0      )
                  (     0          0          1      )
                  (     1          0          0      )

 cart.    s( 9) = (  0.0000000  0.0000000  1.0000000 )
                  (  1.0000000  0.0000000  0.0000000 )
                  (  0.0000000  1.0000000  0.0000000 )

[...]

 cryst.   s(10) = (     0         -1          0      )
                  (     0          0         -1      )
                  (     1          0          0      )

 cart.    s(10) = (  0.0000000  0.0000000  1.0000000 )
                  ( -1.0000000  0.0000000  0.0000000 )
                  (  0.0000000 -1.0000000  0.0000000 )

[...]

      isym = 12     120 deg rotation - cart. axis [-1,-1,1]

[...]

      isym = 13     inv. 180 deg rotation - cart. axis [1,1,0]

[...]

      isym = 24     inv.  90 deg rotation - cart. axis [1,0,0]

 cryst.   s(24) = (    -1          0          0      )
                  (     0          0         -1      )
                  (     0          1          0      )

 cart.    s(24) = ( -1.0000000  0.0000000  0.0000000 )
                  (  0.0000000  0.0000000  1.0000000 )
                  (  0.0000000 -1.0000000  0.0000000 )

     point group T_d (-43m)
     there are  5 classes
     the character table:

       E     8C3   3C2   6S4   6s_d
A_1    1.00  1.00  1.00  1.00  1.00
A_2    1.00  1.00  1.00 -1.00 -1.00
E      2.00 -1.00  2.00  0.00  0.00
T_1    3.00  0.00 -1.00  1.00 -1.00
T_2    3.00  0.00 -1.00 -1.00  1.00

     the symmetry operations in each class and the name of the first element:

     E        1
          identity
     8C3      5    7    8    6   12    9   10   11
          120 deg rotation - cart. axis [-1,-1,-1]
     3C2      2    3    4
          180 deg rotation - cart. axis [0,0,1]
     6S4     15   16   20   19   23   24
          inv.  90 deg rotation - cart. axis [0,0,-1]
     6s_d    13   14   17   18   21   22
          inv. 180 deg rotation - cart. axis [1,1,0]

   Cartesian axes

     site n.     atom                  positions (alat units)
         1           C   tau(   1) = (   0.1250031   0.3749969   0.1250031  )
         2           C   tau(   2) = (   0.1250031   0.3749969   0.6250031  )
         3           C   tau(   3) = (   0.1250031   0.8749969   0.1250031  )
         4           C   tau(   4) = (   0.1250031   0.8749969   0.6250031  )
         5           C   tau(   5) = (   0.6250031   0.3749969   0.1250031  )
         6           C   tau(   6) = (   0.6250031   0.3749969   0.6250031  )
         7           C   tau(   7) = (   0.6250031   0.8749969   0.1250031  )
         8           C   tau(   8) = (   0.6250031   0.8749969   0.6250031  )
         9           C   tau(   9) = (   0.0000000   0.0000000   0.2500000  )
        10           C   tau(  10) = (   0.0000000   0.0000000   0.7500000  )
        11           C   tau(  11) = (   0.0000000   0.5000000   0.2500000  )
        12           C   tau(  12) = (   0.0000000   0.5000000   0.7500000  )
        13           C   tau(  13) = (   0.5000000   0.0000000   0.2500000  )
        14           C   tau(  14) = (   0.5000000   0.0000000   0.7500000  )
        15           C   tau(  15) = (   0.5000000   0.5000000   0.2500000  )
        16           C   tau(  16) = (   0.5000000   0.5000000   0.7500000  )
        17           C   tau(  17) = (   0.1250031   0.1250031   0.3749969  )
        18           C   tau(  18) = (   0.1250031   0.1250031   0.8749969  )
        19           C   tau(  19) = (   0.1250031   0.6250031   0.3749969  )
        20           C   tau(  20) = (   0.1250031   0.6250031   0.8749969  )
        21           C   tau(  21) = (   0.6250031   0.1250031   0.3749969  )
        22           C   tau(  22) = (   0.6250031   0.1250031   0.8749969  )
        23           C   tau(  23) = (   0.6250031   0.6250031   0.3749969  )
        24           C   tau(  24) = (   0.6250031   0.6250031   0.8749969  )
        25           C   tau(  25) = (   0.0000000   0.2500000   0.0000000  )
        26           C   tau(  26) = (   0.0000000   0.2500000   0.5000000  )
        27           C   tau(  27) = (   0.0000000   0.7500000   0.0000000  )
        28           C   tau(  28) = (   0.0000000   0.7500000   0.5000000  )
        29           C   tau(  29) = (   0.5000000   0.2500000   0.0000000  )
        30           C   tau(  30) = (   0.5000000   0.2500000   0.5000000  )
        31           C   tau(  31) = (   0.5000000   0.7500000   0.0000000  )
        32           C   tau(  32) = (   0.5000000   0.7500000   0.5000000  )
        33           C   tau(  33) = (   0.3749969   0.3749969   0.3749969  )
        34           C   tau(  34) = (   0.3749969   0.3749969   0.8749969  )
        35           C   tau(  35) = (   0.3749969   0.8749969   0.3749969  )
        36           C   tau(  36) = (   0.3749969   0.8749969   0.8749969  )
        37           C   tau(  37) = (   0.8749969   0.3749969   0.3749969  )
        38           C   tau(  38) = (   0.8749969   0.3749969   0.8749969  )
        39           C   tau(  39) = (   0.8749969   0.8749969   0.3749969  )
        40           C   tau(  40) = (   0.8749969   0.8749969   0.8749969  )
        41           C   tau(  41) = (   0.2500000   0.0000000   0.0000000  )
        42           C   tau(  42) = (   0.2500000   0.0000000   0.5000000  )
        43           C   tau(  43) = (   0.2500000   0.5000000   0.0000000  )
        44           C   tau(  44) = (   0.2500000   0.5000000   0.5000000  )
        45           C   tau(  45) = (   0.7500000   0.0000000   0.0000000  )
        46           C   tau(  46) = (   0.7500000   0.0000000   0.5000000  )
        47           C   tau(  47) = (   0.7500000   0.5000000   0.0000000  )
        48           C   tau(  48) = (   0.7500000   0.5000000   0.5000000  )
        49           C   tau(  49) = (   0.3749969   0.1250031   0.1250031  )
        50           C   tau(  50) = (   0.3749969   0.1250031   0.6250031  )
        51           C   tau(  51) = (   0.3749969   0.6250031   0.1250031  )
        52           C   tau(  52) = (   0.3749969   0.6250031   0.6250031  )
        53           C   tau(  53) = (   0.8749969   0.1250031   0.1250031  )
        54           C   tau(  54) = (   0.8749969   0.1250031   0.6250031  )
        55           C   tau(  55) = (   0.8749969   0.6250031   0.1250031  )
        56           C   tau(  56) = (   0.8749969   0.6250031   0.6250031  )
        57           C   tau(  57) = (   0.2500000   0.2500000   0.2500000  )
        58           C   tau(  58) = (   0.2500000   0.2500000   0.7500000  )
        59           C   tau(  59) = (   0.2500000   0.7500000   0.2500000  )
        60           C   tau(  60) = (   0.2500000   0.7500000   0.7500000  )
        61           C   tau(  61) = (   0.7500000   0.2500000   0.2500000  )
        62           C   tau(  62) = (   0.7500000   0.2500000   0.7500000  )
        63           C   tau(  63) = (   0.7500000   0.7500000   0.2500000  )
        64           C   tau(  64) = (   0.7500000   0.7500000   0.7500000  )

   Crystallographic axes

     site n.     atom                  positions (cryst. coord.)
         1           C   tau(   1) = (  0.1250031  0.3749969  0.1250031  )
         2           C   tau(   2) = (  0.1250031  0.3749969  0.6250031  )
         3           C   tau(   3) = (  0.1250031  0.8749969  0.1250031  )
[...]
     atom   13 type  1   force =     0.00000000    0.00000000    0.00000000
     atom   14 type  1   force =     0.00000000    0.00000000    0.00000000
     atom   15 type  1   force =     0.00000000    0.00000000    0.00000000
     atom   16 type  1   force =     0.00000000    0.00000000    0.00000000
     atom   17 type  1   force =     0.00000000    0.00000000    0.00000000
     atom   18 type  1   force =     0.00000000    0.00000000    0.00000000
     atom   19 type  1   force =     0.00000000    0.00000000    0.00000000
     atom   20 type  1   force =     0.00000000    0.00000000    0.00000000
     atom   21 type  1   force =     0.00000000    0.00000000    0.00000000
     atom   22 type  1   force =     0.00000000    0.00000000    0.00000000
     atom   23 type  1   force =     0.00000000    0.00000000    0.00000000
     atom   24 type  1   force =     0.00000000    0.00000000    0.00000000
     atom   25 type  1   force =     0.00000000    0.00000000    0.00000000
     atom   26 type  1   force =     0.00000000    0.00000000    0.00000000
     atom   27 type  1   force =     0.00000000    0.00000000    0.00000000
     atom   28 type  1   force =     0.00000000    0.00000000    0.00000000
     atom   29 type  1   force =     0.00000000    0.00000000    0.00000000
     atom   30 type  1   force =     0.00000000    0.00000000    0.00000000
     atom   31 type  1   force =     0.00000000    0.00000000    0.00000000
     atom   32 type  1   force =     0.00000000    0.00000000    0.00000000
     atom   33 type  1   force =     0.00000000    0.00000000    0.00000000
     atom   34 type  1   force =     0.00000000    0.00000000    0.00000000
     atom   35 type  1   force =     0.00000000    0.00000000    0.00000000
     atom   36 type  1   force =     0.00000000    0.00000000    0.00000000
     atom   37 type  1   force =     0.00000000    0.00000000    0.00000000
     atom   38 type  1   force =     0.00000000    0.00000000    0.00000000
     atom   39 type  1   force =     0.00000000    0.00000000    0.00000000
     atom   40 type  1   force =     0.00000000    0.00000000    0.00000000
     atom   41 type  1   force =     0.00000000    0.00000000    0.00000000
     atom   42 type  1   force =     0.00000000    0.00000000    0.00000000
     atom   43 type  1   force =     0.00000000    0.00000000    0.00000000
     atom   44 type  1   force =     0.00000000    0.00000000    0.00000000
     atom   45 type  1   force =     0.00000000    0.00000000    0.00000000
     atom   46 type  1   force =     0.00000000    0.00000000    0.00000000
     atom   47 type  1   force =     0.00000000    0.00000000    0.00000000
     atom   48 type  1   force =     0.00000000    0.00000000    0.00000000
     atom   49 type  1   force =     0.00000000    0.00000000    0.00000000
     atom   50 type  1   force =     0.00000000    0.00000000    0.00000000
     atom   51 type  1   force =     0.00000000    0.00000000    0.00000000
     atom   52 type  1   force =     0.00000000    0.00000000    0.00000000
     atom   53 type  1   force =     0.00000000    0.00000000    0.00000000
     atom   54 type  1   force =     0.00000000    0.00000000    0.00000000
     atom   55 type  1   force =     0.00000000    0.00000000    0.00000000
     atom   56 type  1   force =     0.00000000    0.00000000    0.00000000
     atom   57 type  1   force =     0.00000000    0.00000000    0.00000000
     atom   58 type  1   force =     0.00000000    0.00000000    0.00000000
     atom   59 type  1   force =     0.00000000    0.00000000    0.00000000
     atom   60 type  1   force =     0.00000000    0.00000000    0.00000000
     atom   61 type  1   force =     0.00000000    0.00000000    0.00000000
     atom   62 type  1   force =     0.00000000    0.00000000    0.00000000
     atom   63 type  1   force =     0.00000000    0.00000000    0.00000000
     atom   64 type  1   force =     0.00000000    0.00000000    0.00000000
     The SCF correction term to forces
     atom    1 type  1   force =    -0.00000529   -0.00001054   -0.00000529
     atom    2 type  1   force =    -0.00005868   -0.00004729    0.00004729
     atom    3 type  1   force =     0.00002360   -0.00002360    0.00002360
     atom    4 type  1   force =    -0.00000529    0.00000529    0.00001054
     atom    5 type  1   force =     0.00004729   -0.00004729   -0.00005868
     atom    6 type  1   force =     0.00009199   -0.00009199    0.00009199
     atom    7 type  1   force =     0.00001054    0.00000529   -0.00000529
     atom    8 type  1   force =     0.00004729    0.00005868    0.00004729
     atom    9 type  1   force =    -0.00000000   -0.00000000    0.00002294
     atom   10 type  1   force =    -0.00000000   -0.00000000   -0.00002294
     atom   11 type  1   force =    -0.00000000   -0.00000000   -0.00002619
     atom   12 type  1   force =     0.00000000   -0.00000000    0.00002619
     atom   13 type  1   force =    -0.00000000   -0.00000000   -0.00002619
     atom   14 type  1   force =    -0.00000000    0.00000000    0.00002619
     atom   15 type  1   force =    -0.00000000   -0.00000000   -0.00012097
     atom   16 type  1   force =    -0.00000000   -0.00000000    0.00012097
     atom   17 type  1   force =    -0.00000529   -0.00000529   -0.00001054
     atom   18 type  1   force =     0.00002360    0.00002360   -0.00002360
     atom   19 type  1   force =    -0.00005868    0.00004729   -0.00004729
     atom   20 type  1   force =    -0.00000529    0.00001054    0.00000529
     atom   21 type  1   force =     0.00004729   -0.00005868   -0.00004729
     atom   22 type  1   force =     0.00001054   -0.00000529    0.00000529
     atom   23 type  1   force =     0.00009199    0.00009199   -0.00009199
     atom   24 type  1   force =     0.00004729    0.00004729    0.00005868
     atom   25 type  1   force =    -0.00000000    0.00002294   -0.00000000
     atom   26 type  1   force =    -0.00000000   -0.00002619   -0.00000000
     atom   27 type  1   force =    -0.00000000   -0.00002294   -0.00000000
     atom   28 type  1   force =     0.00000000    0.00002619   -0.00000000
     atom   29 type  1   force =    -0.00000000   -0.00002619   -0.00000000
     atom   30 type  1   force =    -0.00000000   -0.00012097   -0.00000000
     atom   31 type  1   force =    -0.00000000    0.00002619    0.00000000
     atom   32 type  1   force =    -0.00000000    0.00012097   -0.00000000
     atom   33 type  1   force =    -0.00009199   -0.00009199   -0.00009199
     atom   34 type  1   force =    -0.00004729   -0.00004729    0.00005868
     atom   35 type  1   force =    -0.00004729    0.00005868   -0.00004729
     atom   36 type  1   force =    -0.00001054    0.00000529    0.00000529
     atom   37 type  1   force =     0.00005868   -0.00004729   -0.00004729
     atom   38 type  1   force =     0.00000529   -0.00001054    0.00000529
     atom   39 type  1   force =     0.00000529    0.00000529   -0.00001054
     atom   40 type  1   force =    -0.00002360   -0.00002360   -0.00002360
     atom   41 type  1   force =     0.00002294   -0.00000000   -0.00000000
     atom   42 type  1   force =    -0.00002619   -0.00000000   -0.00000000
     atom   43 type  1   force =    -0.00002619   -0.00000000   -0.00000000
     atom   44 type  1   force =    -0.00012097   -0.00000000   -0.00000000
     atom   45 type  1   force =    -0.00002294   -0.00000000   -0.00000000
     atom   46 type  1   force =     0.00002619    0.00000000   -0.00000000
     atom   47 type  1   force =     0.00002619   -0.00000000    0.00000000
     atom   48 type  1   force =     0.00012097   -0.00000000   -0.00000000
     atom   49 type  1   force =    -0.00001054   -0.00000529   -0.00000529
     atom   50 type  1   force =    -0.00004729   -0.00005868    0.00004729
     atom   51 type  1   force =    -0.00004729    0.00004729   -0.00005868
     atom   52 type  1   force =    -0.00009199    0.00009199    0.00009199
     atom   53 type  1   force =    -0.00002360    0.00002360    0.00002360
     atom   54 type  1   force =     0.00000529   -0.00000529    0.00001054
     atom   55 type  1   force =     0.00000529    0.00001054   -0.00000529
     atom   56 type  1   force =     0.00005868    0.00004729    0.00004729
     atom   57 type  1   force =    -0.00003514   -0.00003514   -0.00003514
     atom   58 type  1   force =    -0.00004071   -0.00004071    0.00004071
     atom   59 type  1   force =    -0.00004071    0.00004071   -0.00004071
     atom   60 type  1   force =    -0.00003514    0.00003514    0.00003514
     atom   61 type  1   force =     0.00004071   -0.00004071   -0.00004071
     atom   62 type  1   force =     0.00003514   -0.00003514    0.00003514
     atom   63 type  1   force =     0.00003514    0.00003514   -0.00003514
     atom   64 type  1   force =     0.00004071    0.00004071    0.00004071

     Total force =     0.004166     Total SCF correction =     0.000582
     SCF correction compared to forces is large: reduce conv_thr to get better values

     Computing stress (Cartesian axis) and pressure

     Non-local corr. energy    =       2.18792087 Ry

          total   stress  (Ry/bohr**3)                   (kbar)     P=        0.02
   0.00000015   0.00000000   0.00000000            0.02        0.00        0.00
   0.00000000   0.00000015   0.00000000            0.00        0.02        0.00
   0.00000000   0.00000000   0.00000015            0.00        0.00        0.02

     kinetic stress (kbar)  18999.87      0.00      0.00
                                0.00  18999.87      0.00
                                0.00      0.00  18999.87

     local   stress (kbar)  -3484.16     -0.00     -0.00
                               -0.00  -3484.16     -0.00
                               -0.00     -0.00  -3484.16

     nonloc. stress (kbar)   4322.10      0.00      0.00
                                0.00   4322.10      0.00
                                0.00      0.00   4322.10

     hartree stress (kbar)   1267.23      0.00      0.00
                                0.00   1267.23     -0.00
                                0.00     -0.00   1267.23

     exc-cor stress (kbar)   -414.52      0.00      0.00
                                0.00   -414.52      0.00
                                0.00      0.00   -414.52

     corecor stress (kbar)  -4435.15     -0.00     -0.00
                               -0.00  -4435.15     -0.00
                               -0.00     -0.00  -4435.15

     ewald   stress (kbar) -16280.16      0.00      0.00
                                0.00 -16280.16      0.00
                                0.00      0.00 -16280.16

     hubbard stress (kbar)      0.00      0.00      0.00
                                0.00      0.00      0.00
                                0.00      0.00      0.00

     DFT-D   stress (kbar)      0.00      0.00      0.00
                                0.00      0.00      0.00
                                0.00      0.00      0.00

     XDM     stress (kbar)      0.00      0.00      0.00
                                0.00      0.00      0.00
                                0.00      0.00      0.00

     dft-nl  stress (kbar)     24.82     -0.00     -0.00
                               -0.00     24.82     -0.00
                               -0.00     -0.00     24.82

     TS-vdW  stress (kbar)      0.00      0.00      0.00
                                0.00      0.00      0.00
                                0.00      0.00      0.00

     MDB     stress (kbar)      0.00      0.00      0.00
                                0.00      0.00      0.00
                                0.00      0.00      0.00

     3D-RISM stress (kbar)      0.00      0.00      0.00
                                0.00      0.00      0.00
                                0.00      0.00      0.00

     BFGS Geometry Optimization
     Energy error            =      0.0E+00 Ry
     Gradient error          =      6.0E-04 Ry/Bohr

     bfgs converged in   1 scf cycles and   0 bfgs steps
     (criteria: energy <  1.0E-04 Ry, force <  1.0E-03 Ry/Bohr)

     End of BFGS Geometry Optimization

     Final energy             =   -1215.5374329770 Ry
Begin final coordinates

ATOMIC_POSITIONS (angstrom)
C             0.8930976563        2.6792051621        0.8930976563
C             0.8930976563        2.6792051621        4.4654004751
C             0.8930976563        6.2515079809        0.8930976563
C             0.8930976563        6.2515079809        4.4654004751
C             4.4654004751        2.6792051621        0.8930976563
C             4.4654004751        2.6792051621        4.4654004751
C             4.4654004751        6.2515079809        0.8930976563
C             4.4654004751        6.2515079809        4.4654004751
C             0.0000000000        0.0000000000        1.7861514092
C             0.0000000000        0.0000000000        5.3584542280
C             0.0000000000        3.5723028188        1.7861514092
C             0.0000000000        3.5723028188        5.3584542280
C             3.5723028188        0.0000000000        1.7861514092
C             3.5723028188        0.0000000000        5.3584542280
C             3.5723028188        3.5723028188        1.7861514092
C             3.5723028188        3.5723028188        5.3584542280
C             0.8930976563        0.8930976563        2.6792051621
C             0.8930976563        0.8930976563        6.2515079809
C             0.8930976563        4.4654004751        2.6792051621
C             0.8930976563        4.4654004751        6.2515079809
C             4.4654004751        0.8930976563        2.6792051621
C             4.4654004751        0.8930976563        6.2515079809
C             4.4654004751        4.4654004751        2.6792051621
C             4.4654004751        4.4654004751        6.2515079809
C             0.0000000000        1.7861514092        0.0000000000
C             0.0000000000        1.7861514092        3.5723028188
C             0.0000000000        5.3584542280        0.0000000000
C             0.0000000000        5.3584542280        3.5723028188
C             3.5723028188        1.7861514092        0.0000000000
C             3.5723028188        1.7861514092        3.5723028188
C             3.5723028188        5.3584542280        0.0000000000
C             3.5723028188        5.3584542280        3.5723028188
C             2.6792051621        2.6792051621        2.6792051621
C             2.6792051621        2.6792051621        6.2515079809
C             2.6792051621        6.2515079809        2.6792051621
C             2.6792051621        6.2515079809        6.2515079809
C             6.2515079809        2.6792051621        2.6792051621
C             6.2515079809        2.6792051621        6.2515079809
C             6.2515079809        6.2515079809        2.6792051621
C             6.2515079809        6.2515079809        6.2515079809
C             1.7861514092        0.0000000000        0.0000000000
C             1.7861514092        0.0000000000        3.5723028188
C             1.7861514092        3.5723028188        0.0000000000
C             1.7861514092        3.5723028188        3.5723028188
C             5.3584542280        0.0000000000        0.0000000000
C             5.3584542280        0.0000000000        3.5723028188
C             5.3584542280        3.5723028188        0.0000000000
C             5.3584542280        3.5723028188        3.5723028188
C             2.6792051621        0.8930976563        0.8930976563
C             2.6792051621        0.8930976563        4.4654004751
C             2.6792051621        4.4654004751        0.8930976563
C             2.6792051621        4.4654004751        4.4654004751
C             6.2515079809        0.8930976563        0.8930976563
C             6.2515079809        0.8930976563        4.4654004751
C             6.2515079809        4.4654004751        0.8930976563
C             6.2515079809        4.4654004751        4.4654004751
C             1.7861514092        1.7861514092        1.7861514092
C             1.7861514092        1.7861514092        5.3584542280
C             1.7861514092        5.3584542280        1.7861514092
C             1.7861514092        5.3584542280        5.3584542280
C             5.3584542280        1.7861514092        1.7861514092
C             5.3584542280        1.7861514092        5.3584542280
C             5.3584542280        5.3584542280        1.7861514092
C             5.3584542280        5.3584542280        5.3584542280
End final coordinates

     Writing all to output data dir ./diamond.save/

     General routines

     Parallel routines

     PAW routines

   This run was terminated on:  10:45:15  19Feb2024

   JOB DONE.