     Program PWSCF v.7.1 starts on 19Feb2024 at 16:14:14

     Reading input from espresso.pwi
Warning: card &CELL ignored
Warning: card    CELL_DYNAMICS    = 'BFGS' ignored
Warning: card / ignored

     Current dimensions of program PWSCF are:
     Max number of different atomic species (ntypx) = 10
     Max number of k-points (npk) =  40000
     Max angular momentum in pseudopotentials (lmaxx) =  4
     file C.pbe-n-kjpaw_psl.1.0.0.UPF: wavefunction(s)  2S 2P renormalized

     IMPORTANT: XC functional enforced from input :
     Exchange-correlation= BEEF-VDW
                           (   1   4  43  14   2   0   0)
     Any further DFT definition will be discarded
     Please, verify this is what you really want

     K-points division:     npool     =       4
     R & G space division:  proc/nbgrp/npool/nimage =      64
     Subspace diagonalization in iterative solution of the eigenvalue problem:
     a serial algorithm will be used

     Using Slab Decomposition

     bravais-lattice index     =            1
     lattice parameter (alat)  =      20.2520  a.u.
     unit-cell volume          =    8306.2556 (a.u.)^3
     number of atoms/cell      =          215
     number of atomic types    =            1
     number of electrons       =       860.00
     number of Kohn-Sham states=          516
     kinetic-energy cutoff     =      70.0000  Ry
     charge density cutoff     =     350.0000  Ry
     scf convergence threshold =      1.0E-07
     mixing beta               =       0.7000
     number of iterations used =            8  plain     mixing
     Exchange-correlation= BEEF-VDW
                           (   1   4  43  14   2   0   0)

     celldm(1)=  20.252024  celldm(2)=   0.000000  celldm(3)=   0.000000
     celldm(4)=   0.000000  celldm(5)=   0.000000  celldm(6)=   0.000000

     crystal axes: (cart. coord. in units of alat)
               a(1) = (   1.000000   0.000000   0.000000 )
               a(2) = (   0.000000   1.000000   0.000000 )
               a(3) = (   0.000000   0.000000   1.000000 )

     reciprocal axes: (cart. coord. in units 2 pi/alat)
               b(1) = (  1.000000  0.000000  0.000000 )
               b(2) = (  0.000000  1.000000  0.000000 )
               b(3) = (  0.000000  0.000000  1.000000 )

     PseudoPot. # 1 for C  read from file:
     //group///packages/espresso/pseudo/psl_1.0.0/pslibrary.1.0.0/pbe/PSEUDOPOTENTIALS/C.pbe-n-kjpaw_psl.1.0.0.UPF
     MD5 check sum: 5459cf7f2c8c37df2f7cde8914797f4d
     Pseudo is Projector augmented-wave + core cor, Zval =  4.0
     Generated using 'atomic' code by A. Dal Corso  v.7.1
     Shape of augmentation charge: PSQ
     Using radial grid of 1073 points,  4 beta functions with:
                l(1) =   0
                l(2) =   0
                l(3) =   1
                l(4) =   1
     Q(r) pseudized with 0 coefficients

     atomic species   valence    mass     pseudopotential
        C              4.00    12.01100     C ( 1.00)

      6 Sym. Ops. (no inversion) found ( 4 have fractional translation)

                                    s                        frac. trans.

      isym =  1     identity

 cryst.   s( 1) = (     1          0          0      )
                  (     0          1          0      )
                  (     0          0          1      )

 cart.    s( 1) = (  1.0000000  0.0000000  0.0000000 )
                  (  0.0000000  1.0000000  0.0000000 )
                  (  0.0000000  0.0000000  1.0000000 )

      isym =  2     120 deg rotation - cart. axis [1,-1,1]

 cryst.   s( 2) = (     0          0          1      )    f =( -0.3333333 )
                  (    -1          0          0      )       ( -0.3333333 )
                  (     0         -1          0      )       (  0.0000000 )

 cart.    s( 2) = (  0.0000000 -1.0000000  0.0000000 )    f =( -0.3333333 )
                  (  0.0000000  0.0000000 -1.0000000 )       ( -0.3333333 )
                  (  1.0000000  0.0000000  0.0000000 )       (  0.0000000 )

      isym =  3     120 deg rotation - cart. axis [-1,1,-1]

[...]

      isym =  4     inv. 180 deg rotation - cart. axis [1,1,0]

[...]

 cryst.   s( 5) = (     0          0          1      )
                  (     0          1          0      )
                  (     1          0          0      )

 cart.    s( 5) = (  0.0000000  0.0000000  1.0000000 )
                  (  0.0000000  1.0000000  0.0000000 )
                  (  1.0000000  0.0000000  0.0000000 )

      isym =  6     inv. 180 deg rotation - cart. axis [0,1,1]

 cryst.   s( 6) = (     1          0          0      )    f =(  0.0000000 )
                  (     0          0         -1      )       ( -0.3333333 )
                  (     0         -1          0      )       ( -0.3333333 )

 cart.    s( 6) = (  1.0000000  0.0000000  0.0000000 )    f =(  0.0000000 )
                  (  0.0000000  0.0000000 -1.0000000 )       ( -0.3333333 )
                  (  0.0000000 -1.0000000  0.0000000 )       ( -0.3333333 )

     point group C_3v (3m)
     there are  3 classes
     the character table:

       E     2C3   3s_v
A_1    1.00  1.00  1.00
A_2    1.00  1.00 -1.00
E      2.00 -1.00  0.00

     the symmetry operations in each class and the name of the first element:

     E        1
          identity
     2C3      2    3
          120 deg rotation - cart. axis [1,-1,1]
     3s_v     4    5    6
          inv. 180 deg rotation - cart. axis [1,1,0]

   Cartesian axes

     site n.     atom                  positions (alat units)
         1           C   tau(   1) = (   0.0833353   0.2499980   0.4166687  )
         2           C   tau(   2) = (   0.0833353   0.2499980   0.7500020  )
         3           C   tau(   3) = (   0.0833353   0.5833313   0.0833353  )
         4           C   tau(   4) = (   0.0833353   0.5833313   0.4166687  )
         5           C   tau(   5) = (   0.0833353   0.5833313   0.7500020  )
         6           C   tau(   6) = (   0.0833353   0.9166647   0.0833353  )
         7           C   tau(   7) = (   0.0833353   0.9166647   0.4166687  )
         8           C   tau(   8) = (   0.0833353   0.9166647   0.7500020  )
         9           C   tau(   9) = (   0.4166687   0.2499980   0.0833353  )
        10           C   tau(  10) = (   0.4166687   0.2499980   0.4166687  )
        11           C   tau(  11) = (   0.4166687   0.2499980   0.7500020  )
        12           C   tau(  12) = (   0.4166687   0.5833313   0.0833353  )
        13           C   tau(  13) = (   0.4166687   0.5833313   0.4166687  )
        14           C   tau(  14) = (   0.4166687   0.5833313   0.7500020  )
        15           C   tau(  15) = (   0.4166687   0.9166647   0.0833353  )
        16           C   tau(  16) = (   0.4166687   0.9166647   0.4166687  )
        17           C   tau(  17) = (   0.4166687   0.9166647   0.7500020  )
        18           C   tau(  18) = (   0.7500020   0.2499980   0.0833353  )
        19           C   tau(  19) = (   0.7500020   0.2499980   0.4166687  )
        20           C   tau(  20) = (   0.7500020   0.2499980   0.7500020  )
        21           C   tau(  21) = (   0.7500020   0.5833313   0.0833353  )
        22           C   tau(  22) = (   0.7500020   0.5833313   0.4166687  )
        23           C   tau(  23) = (   0.7500020   0.5833313   0.7500020  )
        24           C   tau(  24) = (   0.7500020   0.9166647   0.0833353  )
        25           C   tau(  25) = (   0.7500020   0.9166647   0.4166687  )
        26           C   tau(  26) = (   0.7500020   0.9166647   0.7500020  )
        27           C   tau(  27) = (   0.0000000   0.0000000   0.1666667  )
        28           C   tau(  28) = (   0.0000000   0.0000000   0.5000000  )
        29           C   tau(  29) = (   0.0000000   0.0000000   0.8333333  )
        30           C   tau(  30) = (   0.0000000   0.3333333   0.1666667  )
        31           C   tau(  31) = (   0.0000000   0.3333333   0.5000000  )
        32           C   tau(  32) = (   0.0000000   0.3333333   0.8333333  )
        33           C   tau(  33) = (   0.0000000   0.6666667   0.1666667  )
        34           C   tau(  34) = (   0.0000000   0.6666667   0.5000000  )
        35           C   tau(  35) = (   0.0000000   0.6666667   0.8333333  )
        36           C   tau(  36) = (   0.3333333   0.0000000   0.1666667  )
        37           C   tau(  37) = (   0.3333333   0.0000000   0.5000000  )
        38           C   tau(  38) = (   0.3333333   0.0000000   0.8333333  )
        39           C   tau(  39) = (   0.3333333   0.3333333   0.1666667  )
        40           C   tau(  40) = (   0.3333333   0.3333333   0.5000000  )
        41           C   tau(  41) = (   0.3333333   0.3333333   0.8333333  )
        42           C   tau(  42) = (   0.3333333   0.6666667   0.1666667  )
        43           C   tau(  43) = (   0.3333333   0.6666667   0.5000000  )
        44           C   tau(  44) = (   0.3333333   0.6666667   0.8333333  )
        45           C   tau(  45) = (   0.6666667   0.0000000   0.1666667  )
        46           C   tau(  46) = (   0.6666667   0.0000000   0.5000000  )
        47           C   tau(  47) = (   0.6666667   0.0000000   0.8333333  )
        48           C   tau(  48) = (   0.6666667   0.3333333   0.1666667  )
        49           C   tau(  49) = (   0.6666667   0.3333333   0.5000000  )
        50           C   tau(  50) = (   0.6666667   0.3333333   0.8333333  )
        51           C   tau(  51) = (   0.6666667   0.6666667   0.1666667  )
        52           C   tau(  52) = (   0.6666667   0.6666667   0.5000000  )
        53           C   tau(  53) = (   0.6666667   0.6666667   0.8333333  )
        54           C   tau(  54) = (   0.0833353   0.0833353   0.2499980  )
        55           C   tau(  55) = (   0.0833353   0.0833353   0.5833313  )
        56           C   tau(  56) = (   0.0833353   0.0833353   0.9166647  )
        57           C   tau(  57) = (   0.0833353   0.4166687   0.2499980  )
        58           C   tau(  58) = (   0.0833353   0.4166687   0.5833313  )
        59           C   tau(  59) = (   0.0833353   0.4166687   0.9166647  )
        60           C   tau(  60) = (   0.0833353   0.7500020   0.2499980  )
[...]
       201           C   tau( 201) = (   0.5000000   0.5000000   0.1666667  )
       202           C   tau( 202) = (   0.5000000   0.5000000   0.5000000  )
       203           C   tau( 203) = (   0.5000000   0.5000000   0.8333333  )
       204           C   tau( 204) = (   0.5000000   0.8333333   0.1666667  )
       205           C   tau( 205) = (   0.5000000   0.8333333   0.5000000  )
       206           C   tau( 206) = (   0.5000000   0.8333333   0.8333333  )
       207           C   tau( 207) = (   0.8333333   0.1666667   0.1666667  )
       208           C   tau( 208) = (   0.8333333   0.1666667   0.5000000  )
       209           C   tau( 209) = (   0.8333333   0.1666667   0.8333333  )
       210           C   tau( 210) = (   0.8333333   0.5000000   0.1666667  )
       211           C   tau( 211) = (   0.8333333   0.5000000   0.5000000  )
       212           C   tau( 212) = (   0.8333333   0.5000000   0.8333333  )
[...]
     atom   25 type  1   force =     0.00000000    0.00000000    0.00000000
     atom   26 type  1   force =     0.00000000    0.00000000    0.00000000
     atom   27 type  1   force =     0.00000000    0.00000000    0.00000000
     atom   28 type  1   force =     0.00000000    0.00000000    0.00000000
     atom   29 type  1   force =     0.00000000    0.00000000    0.00000000
     atom   30 type  1   force =     0.00000000    0.00000000    0.00000000
     atom   31 type  1   force =     0.00000000    0.00000000    0.00000000
     atom   32 type  1   force =     0.00000000    0.00000000    0.00000000
     atom   33 type  1   force =     0.00000000    0.00000000    0.00000000
     atom   34 type  1   force =     0.00000000    0.00000000    0.00000000
     atom   35 type  1   force =     0.00000000    0.00000000    0.00000000
     atom   36 type  1   force =     0.00000000    0.00000000    0.00000000
     atom   37 type  1   force =     0.00000000    0.00000000    0.00000000
     atom   38 type  1   force =     0.00000000    0.00000000    0.00000000
     atom   39 type  1   force =     0.00000000    0.00000000    0.00000000
     atom   40 type  1   force =     0.00000000    0.00000000    0.00000000
     atom   41 type  1   force =     0.00000000    0.00000000    0.00000000
     atom   42 type  1   force =     0.00000000    0.00000000    0.00000000
     atom   43 type  1   force =     0.00000000    0.00000000    0.00000000
     atom   44 type  1   force =     0.00000000    0.00000000    0.00000000
     atom   45 type  1   force =     0.00000000    0.00000000    0.00000000
     atom   46 type  1   force =     0.00000000    0.00000000    0.00000000
     atom   47 type  1   force =     0.00000000    0.00000000    0.00000000
     atom   48 type  1   force =     0.00000000    0.00000000    0.00000000
     atom   49 type  1   force =     0.00000000    0.00000000    0.00000000
     atom   50 type  1   force =     0.00000000    0.00000000    0.00000000
     atom   51 type  1   force =     0.00000000    0.00000000    0.00000000
     atom   52 type  1   force =     0.00000000    0.00000000    0.00000000
     atom   53 type  1   force =     0.00000000    0.00000000    0.00000000
     atom   54 type  1   force =     0.00000000    0.00000000    0.00000000
     atom   55 type  1   force =     0.00000000    0.00000000    0.00000000
     atom   56 type  1   force =     0.00000000    0.00000000    0.00000000
     atom   57 type  1   force =     0.00000000    0.00000000    0.00000000
     atom   58 type  1   force =     0.00000000    0.00000000    0.00000000
     atom   59 type  1   force =     0.00000000    0.00000000    0.00000000
     atom   60 type  1   force =     0.00000000    0.00000000    0.00000000
[...]
     atom  201 type  1   force =     0.00000000    0.00000000    0.00000000
     atom  202 type  1   force =     0.00000000    0.00000000    0.00000000
     atom  203 type  1   force =     0.00000000    0.00000000    0.00000000
     atom  204 type  1   force =     0.00000000    0.00000000    0.00000000
     atom  205 type  1   force =     0.00000000    0.00000000    0.00000000
     atom  206 type  1   force =     0.00000000    0.00000000    0.00000000
     atom  207 type  1   force =     0.00000000    0.00000000    0.00000000
     atom  208 type  1   force =     0.00000000    0.00000000    0.00000000
     atom  209 type  1   force =     0.00000000    0.00000000    0.00000000
     atom  210 type  1   force =     0.00000000    0.00000000    0.00000000
     atom  211 type  1   force =     0.00000000    0.00000000    0.00000000
     atom  212 type  1   force =     0.00000000    0.00000000    0.00000000
     atom  213 type  1   force =     0.00000000    0.00000000    0.00000000
     atom  214 type  1   force =     0.00000000    0.00000000    0.00000000
     atom  215 type  1   force =     0.00000000    0.00000000    0.00000000
     The SCF correction term to forces
     atom    1 type  1   force =     0.00000003   -0.00000003   -0.00002069
     atom    2 type  1   force =     0.00000248   -0.00000248    0.00002167
     atom    3 type  1   force =     0.00000248   -0.00002167    0.00000248
     atom    4 type  1   force =     0.00000776    0.00000392    0.00000144
     atom    5 type  1   force =    -0.00000019    0.00000400   -0.00000400
     atom    6 type  1   force =     0.00000003    0.00002069    0.00000003
     atom    7 type  1   force =    -0.00000341   -0.00000348    0.00000348
     atom    8 type  1   force =     0.00000776   -0.00000144   -0.00000392
     atom    9 type  1   force =    -0.00002069   -0.00000003    0.00000003
     atom   10 type  1   force =     0.00000348    0.00000341    0.00000348
     atom   11 type  1   force =     0.00000144   -0.00000776   -0.00000392
     atom   12 type  1   force =     0.00000144    0.00000392    0.00000776
     atom   13 type  1   force =    -0.00000963   -0.00000579   -0.00000963
     atom   14 type  1   force =    -0.00000733   -0.00000194    0.00000194
     atom   15 type  1   force =     0.00000348   -0.00000348   -0.00000341
     atom   16 type  1   force =    -0.00000224    0.00000224   -0.00000224
     atom   17 type  1   force =    -0.00000963    0.00000963    0.00000579
     atom   18 type  1   force =     0.00002167   -0.00000248    0.00000248
     atom   19 type  1   force =    -0.00000392   -0.00000776    0.00000144
     atom   20 type  1   force =    -0.00000400    0.00000019   -0.00000400
     atom   21 type  1   force =    -0.00000400    0.00000400   -0.00000019
     atom   22 type  1   force =     0.00000194   -0.00000194   -0.00000733
     atom   23 type  1   force =     0.00000768   -0.00000768    0.00000768
     atom   24 type  1   force =    -0.00000392   -0.00000144    0.00000776
     atom   25 type  1   force =     0.00000579    0.00000963   -0.00000963
     atom   26 type  1   force =     0.00000194    0.00000733    0.00000194
     atom   27 type  1   force =     0.00000761    0.00002541   -0.00000984
     atom   28 type  1   force =     0.00000570   -0.00000410   -0.00000182
     atom   29 type  1   force =     0.00001088    0.00001292    0.00001187
     atom   30 type  1   force =     0.00001900   -0.00001900   -0.00001837
     atom   31 type  1   force =     0.00000387   -0.00000387   -0.00000927
     atom   32 type  1   force =     0.00001354   -0.00001354    0.00002664
     atom   33 type  1   force =     0.00000439   -0.00000722   -0.00000080
     atom   34 type  1   force =     0.00001638    0.00000764    0.00000389
     atom   35 type  1   force =     0.00000972    0.00000053   -0.00000336
     atom   36 type  1   force =    -0.00000893    0.00000893   -0.00000761
     atom   37 type  1   force =    -0.00000478    0.00000478    0.00000329
     atom   38 type  1   force =    -0.00000694    0.00000694    0.00000479
     atom   39 type  1   force =    -0.00002541   -0.00000761   -0.00000984
     atom   40 type  1   force =     0.00000410   -0.00000570   -0.00000182
     atom   41 type  1   force =    -0.00001292   -0.00001088    0.00001187
     atom   42 type  1   force =     0.00000466   -0.00000141   -0.00000316
     atom   43 type  1   force =    -0.00001821    0.00000082   -0.00000375
     atom   44 type  1   force =    -0.00000814    0.00000454    0.00000614
     atom   45 type  1   force =     0.00000141   -0.00000466   -0.00000316
     atom   46 type  1   force =    -0.00000082    0.00001821   -0.00000375
     atom   47 type  1   force =    -0.00000454    0.00000814    0.00000614
     atom   48 type  1   force =     0.00000722   -0.00000439   -0.00000080
     atom   49 type  1   force =    -0.00000764   -0.00001638    0.00000389
     atom   50 type  1   force =    -0.00000053   -0.00000972   -0.00000336
     atom   51 type  1   force =    -0.00000864    0.00000864   -0.00000966
     atom   52 type  1   force =     0.00000172   -0.00000172   -0.00001054
     atom   53 type  1   force =    -0.00000127    0.00000127    0.00002047
     atom   54 type  1   force =    -0.00000260    0.00002305   -0.00002305
     atom   55 type  1   force =     0.00000202   -0.00000365    0.00000011
     atom   56 type  1   force =    -0.00000144    0.00002619    0.00002492
     atom   57 type  1   force =    -0.00000144   -0.00002492   -0.00002619
     atom   58 type  1   force =     0.00000273    0.00000186   -0.00000183
     atom   59 type  1   force =     0.00000547   -0.00002819    0.00002819
     atom   60 type  1   force =     0.00000202   -0.00000011    0.00000365
[...]
     atom  201 type  1   force =    -0.00000346    0.00000559   -0.00000325
     atom  202 type  1   force =    -0.00000505   -0.00001709   -0.00000505
     atom  203 type  1   force =    -0.00000193   -0.00000804    0.00000804
     atom  204 type  1   force =     0.00000677   -0.00000677   -0.00000928
     atom  205 type  1   force =    -0.00000771    0.00000771   -0.00000771
     atom  206 type  1   force =    -0.00000505    0.00000505    0.00001709
     atom  207 type  1   force =     0.00002569    0.00000919   -0.00000919
     atom  208 type  1   force =    -0.00000559    0.00000325   -0.00000346
     atom  209 type  1   force =     0.00001220    0.00000635    0.00001220
     atom  210 type  1   force =     0.00001220   -0.00001220   -0.00000635
     atom  211 type  1   force =     0.00000804   -0.00000804   -0.00000193
     atom  212 type  1   force =     0.00000870   -0.00000870    0.00000870
     atom  213 type  1   force =    -0.00000559    0.00000346   -0.00000325
     atom  214 type  1   force =     0.00001709    0.00000505   -0.00000505
     atom  215 type  1   force =     0.00000804    0.00000193    0.00000804

     Total force =     0.003353     Total SCF correction =     0.000257

     Computing stress (Cartesian axis) and pressure

[...]

          total   stress  (Ry/bohr**3)                   (kbar)     P=        1.80
   0.00001222   0.00000004  -0.00000004            1.80        0.01       -0.01
   0.00000004   0.00001222   0.00000004            0.01        1.80        0.01
  -0.00000004   0.00000004   0.00001222           -0.01        0.01        1.80

     kinetic stress (kbar)  18899.75      0.01     -0.01
                                0.01  18899.75      0.01
                               -0.01      0.01  18899.75

     local   stress (kbar)  -3590.55      0.11     -0.11
                                0.11  -3590.55      0.11
                               -0.11      0.11  -3590.55

     nonloc. stress (kbar)   4309.44     -0.00      0.00
                               -0.00   4309.44     -0.00
                                0.00     -0.00   4309.44

     hartree stress (kbar)   1307.75     -0.04      0.04
                               -0.04   1307.75     -0.04
                                0.04     -0.04   1307.75

     exc-cor stress (kbar)   -410.26      0.00     -0.00
                                0.00   -410.26      0.00
                               -0.00      0.00   -410.26

     corecor stress (kbar)  -4414.43     -0.00      0.00
                               -0.00  -4414.43     -0.00
                                0.00     -0.00  -4414.43

     ewald   stress (kbar) -16124.70     -0.07      0.07
                               -0.07 -16124.70     -0.07
                                0.07     -0.07 -16124.70

     hubbard stress (kbar)      0.00      0.00      0.00
                                0.00      0.00      0.00
                                0.00      0.00      0.00

     DFT-D   stress (kbar)      0.00      0.00      0.00
                                0.00      0.00      0.00
                                0.00      0.00      0.00

     XDM     stress (kbar)      0.00      0.00      0.00
                                0.00      0.00      0.00
                                0.00      0.00      0.00

     dft-nl  stress (kbar)     24.79      0.00     -0.00
                                0.00     24.79      0.00
                               -0.00      0.00     24.79

     TS-vdW  stress (kbar)      0.00      0.00      0.00
                                0.00      0.00      0.00
                                0.00      0.00      0.00

     MDB     stress (kbar)      0.00      0.00      0.00
                                0.00      0.00      0.00
                                0.00      0.00      0.00

     3D-RISM stress (kbar)      0.00      0.00      0.00
                                0.00      0.00      0.00
                                0.00      0.00      0.00

[...]

     Non-local corr. energy    =       7.36200387 Ry

 BEEFens 2000 ensemble energies
             -0.130179375894327E+02
             -0.906029995030705E+02
             -0.321513973162838E+02
              0.355970745096964E+02
             -0.599283419775876E+02
             -0.838594666399952E+02
              0.496636888249936E+02
             -0.103232953533325E+02
              0.688724069659742E+02
             -0.112622372520480E+01
              0.280086560013428E+02
              0.139497597261051E+01
              0.387158595481066E+01
             -0.819755180894691E+01
              0.466253865344223E+02
             -0.348763832645243E+02
             -0.800281704795831E+02
             -0.221747011914403E+02
              0.180732141113863E+02
              0.194783138615469E+01
              0.957405211807624E+02
              0.868158638831634E+02
             -0.426389882809030E+02
              0.239642907923418E+02
             -0.108780257085019E+03
              0.876117728206314E+02
              0.313743607577893E+02
              0.922473354705159E+02
              0.581761980402629E+02
             -0.363602382739510E+02
              0.227093970786738E+02
             -0.472134275024130E+02
              0.136572110133990E+01
              0.463927024923680E+02
              0.599066739357663E+02
             -0.147168971691398E+02
              0.129088681241149E+03
             -0.452027814032273E+02
             -0.326658491564139E+02
              0.500343651933721E+02
              0.172083862948020E+02
              0.421280447288741E+02
             -0.735856396338845E+02
             -0.302333400949465E+01
              0.779937258207143E+02
              0.951343592756126E+02
             -0.861925926792783E+02
              0.713194594496806E+01
              0.339760163040112E+02
              0.792292931671591E+01
              0.415696759858957E+02
              0.833911362480438E+02
             -0.558918951018474E+02
             -0.588147575782183E+02
             -0.745212519149044E+02
             -0.205566418523765E+02
             -0.621981034531911E+02
              0.331695101283145E+01
             -0.165391712426017E+02
             -0.564476088349084E+02
[...]
              0.732197946608477E+02
              0.299201306132519E+02
              0.510313485052399E+02
             -0.730584895874737E+02
             -0.569086571332247E+02
             -0.231883197910639E+02
             -0.626050895548525E+02
              0.112857170282211E+03
              0.968030112580925E+02
              0.420594999655762E+02
              0.114108917418072E+03
             -0.612050030550418E+02
             -0.294509893411897E+02
             -0.303903386719203E+02
              0.900352062725653E+02

 BEEF-vdW xc energy contributions
            1 :    -879.8947296229915
            2 :     776.2663068817544
            3 :    -597.5805138917265
            4 :     390.1939756386669
            5 :    -201.4288553472102
            6 :     63.93340766943425
            7 :     12.50556301870051
            8 :    -39.18761103773045
            9 :     38.87499452542750
           10 :    -33.65327344707703
           11 :     35.99778655169575
           12 :    -46.41613709036301
           13 :     57.39160954666863
           14 :    -60.36652552000737
           15 :     51.58750542734856
           16 :    -33.97521284572588
           17 :     14.77516097124203
           18 :    -1.055928525117224
           19 :    -4.044222204801827
           20 :     2.304048895380902
           21 :     1.505784207722627
           22 :    -2.921941545798973
           23 :    0.3547640789198567
           24 :     4.464125267967574
           25 :    -8.109367641328163
           26 :     7.902889259700942
           27 :    -3.587147280114777
           28 :    -2.691116966837285
           29 :     7.876091509690582
           30 :    -9.892545477958834
           31 :    -115.1333321321688
           32 :    -83.52221739515426

     Writing all to output data dir ./diamond.save/

     General routines

     Parallel routines

     PAW routines

   This run was terminated on:  16:19:11  19Feb2024

   JOB DONE.