     Program PWSCF v.7.1 starts on 29Sep2023 at  8:44:28

     Reading input from espresso.pwi
Warning: card &CELL ignored
Warning: card    CELL_DYNAMICS    = 'BFGS' ignored
Warning: card / ignored

     Current dimensions of program PWSCF are:
     Max number of different atomic species (ntypx) = 10
     Max number of k-points (npk) =  40000
     Max angular momentum in pseudopotentials (lmaxx) =  4
     file C.pbe-n-kjpaw_psl.1.0.0.UPF: wavefunction(s)  2S 2P renormalized

     IMPORTANT: XC functional enforced from input :
     Exchange-correlation= BEEF-VDW
                           (   1   4  43  14   2   0   0)
     Any further DFT definition will be discarded
     Please, verify this is what you really want

     K-points division:     npool     =       4
     R & G space division:  proc/nbgrp/npool/nimage =      64
     Subspace diagonalization in iterative solution of the eigenvalue problem:
     a serial algorithm will be used

     Using Slab Decomposition

     bravais-lattice index     =            1
     lattice parameter (alat)  =      20.2520  a.u.
     unit-cell volume          =    8306.2556 (a.u.)^3
     number of atoms/cell      =          215
     number of atomic types    =            1
     number of electrons       =       860.00
     number of Kohn-Sham states=          516
     kinetic-energy cutoff     =      70.0000  Ry
     charge density cutoff     =     350.0000  Ry
     scf convergence threshold =      1.0E-08
     mixing beta               =       0.7000
     number of iterations used =            8  plain     mixing
     energy convergence thresh.=      1.0E-04
     force convergence thresh. =      1.0E-03
     Exchange-correlation= BEEF-VDW
                           (   1   4  43  14   2   0   0)
     nstep                     =           50

     celldm(1)=  20.252024  celldm(2)=   0.000000  celldm(3)=   0.000000
     celldm(4)=   0.000000  celldm(5)=   0.000000  celldm(6)=   0.000000

     crystal axes: (cart. coord. in units of alat)
               a(1) = (   1.000000   0.000000   0.000000 )
               a(2) = (   0.000000   1.000000   0.000000 )
               a(3) = (   0.000000   0.000000   1.000000 )

     reciprocal axes: (cart. coord. in units 2 pi/alat)
               b(1) = (  1.000000  0.000000  0.000000 )
               b(2) = (  0.000000  1.000000  0.000000 )
               b(3) = (  0.000000  0.000000  1.000000 )

     PseudoPot. # 1 for C  read from file:
     //group///packages/espresso/pseudo/psl_1.0.0/pslibrary.1.0.0/pbe/PSEUDOPOTENTIALS/C.pbe-n-kjpaw_psl.1.0.0.UPF
     MD5 check sum: 5459cf7f2c8c37df2f7cde8914797f4d
     Pseudo is Projector augmented-wave + core cor, Zval =  4.0
     Generated using 'atomic' code by A. Dal Corso  v.7.1
     Shape of augmentation charge: PSQ
     Using radial grid of 1073 points,  4 beta functions with:
                l(1) =   0
                l(2) =   0
                l(3) =   1
                l(4) =   1
     Q(r) pseudized with 0 coefficients

     atomic species   valence    mass     pseudopotential
        C              4.00    12.01100     C ( 1.00)

      6 Sym. Ops. (no inversion) found ( 4 have fractional translation)

                                    s                        frac. trans.

      isym =  1     identity

 cryst.   s( 1) = (     1          0          0      )
                  (     0          1          0      )
                  (     0          0          1      )

 cart.    s( 1) = (  1.0000000  0.0000000  0.0000000 )
                  (  0.0000000  1.0000000  0.0000000 )
                  (  0.0000000  0.0000000  1.0000000 )

      isym =  2     120 deg rotation - cart. axis [1,-1,1]

 cryst.   s( 2) = (     0          0          1      )    f =( -0.3333333 )
                  (    -1          0          0      )       ( -0.3333333 )
                  (     0         -1          0      )       (  0.0000000 )

 cart.    s( 2) = (  0.0000000 -1.0000000  0.0000000 )    f =( -0.3333333 )
                  (  0.0000000  0.0000000 -1.0000000 )       ( -0.3333333 )
                  (  1.0000000  0.0000000  0.0000000 )       (  0.0000000 )

      isym =  3     120 deg rotation - cart. axis [-1,1,-1]

[...]

      isym =  4     inv. 180 deg rotation - cart. axis [1,1,0]

[...]

 cryst.   s( 5) = (     0          0          1      )
                  (     0          1          0      )
                  (     1          0          0      )

 cart.    s( 5) = (  0.0000000  0.0000000  1.0000000 )
                  (  0.0000000  1.0000000  0.0000000 )
                  (  1.0000000  0.0000000  0.0000000 )

      isym =  6     inv. 180 deg rotation - cart. axis [0,1,1]

 cryst.   s( 6) = (     1          0          0      )    f =(  0.0000000 )
                  (     0          0         -1      )       ( -0.3333333 )
                  (     0         -1          0      )       ( -0.3333333 )

 cart.    s( 6) = (  1.0000000  0.0000000  0.0000000 )    f =(  0.0000000 )
                  (  0.0000000  0.0000000 -1.0000000 )       ( -0.3333333 )
                  (  0.0000000 -1.0000000  0.0000000 )       ( -0.3333333 )

     point group C_3v (3m)
     there are  3 classes
     the character table:

       E     2C3   3s_v
A_1    1.00  1.00  1.00
A_2    1.00  1.00 -1.00
E      2.00 -1.00  0.00

     the symmetry operations in each class and the name of the first element:

     E        1
          identity
     2C3      2    3
          120 deg rotation - cart. axis [1,-1,1]
     3s_v     4    5    6
          inv. 180 deg rotation - cart. axis [1,1,0]

   Cartesian axes

     site n.     atom                  positions (alat units)
         1           C   tau(   1) = (   0.0833353   0.2499980   0.4166687  )
         2           C   tau(   2) = (   0.0833353   0.2499980   0.7500020  )
         3           C   tau(   3) = (   0.0833353   0.5833313   0.0833353  )
         4           C   tau(   4) = (   0.0833353   0.5833313   0.4166687  )
         5           C   tau(   5) = (   0.0833353   0.5833313   0.7500020  )
         6           C   tau(   6) = (   0.0833353   0.9166647   0.0833353  )
         7           C   tau(   7) = (   0.0833353   0.9166647   0.4166687  )
         8           C   tau(   8) = (   0.0833353   0.9166647   0.7500020  )
         9           C   tau(   9) = (   0.4166687   0.2499980   0.0833353  )
        10           C   tau(  10) = (   0.4166687   0.2499980   0.4166687  )
        11           C   tau(  11) = (   0.4166687   0.2499980   0.7500020  )
        12           C   tau(  12) = (   0.4166687   0.5833313   0.0833353  )
        13           C   tau(  13) = (   0.4166687   0.5833313   0.4166687  )
        14           C   tau(  14) = (   0.4166687   0.5833313   0.7500020  )
        15           C   tau(  15) = (   0.4166687   0.9166647   0.0833353  )
        16           C   tau(  16) = (   0.4166687   0.9166647   0.4166687  )
        17           C   tau(  17) = (   0.4166687   0.9166647   0.7500020  )
        18           C   tau(  18) = (   0.7500020   0.2499980   0.0833353  )
        19           C   tau(  19) = (   0.7500020   0.2499980   0.4166687  )
        20           C   tau(  20) = (   0.7500020   0.2499980   0.7500020  )
        21           C   tau(  21) = (   0.7500020   0.5833313   0.0833353  )
        22           C   tau(  22) = (   0.7500020   0.5833313   0.4166687  )
        23           C   tau(  23) = (   0.7500020   0.5833313   0.7500020  )
        24           C   tau(  24) = (   0.7500020   0.9166647   0.0833353  )
        25           C   tau(  25) = (   0.7500020   0.9166647   0.4166687  )
        26           C   tau(  26) = (   0.7500020   0.9166647   0.7500020  )
        27           C   tau(  27) = (   0.0000000   0.0000000   0.1666667  )
        28           C   tau(  28) = (   0.0000000   0.0000000   0.5000000  )
        29           C   tau(  29) = (   0.0000000   0.0000000   0.8333333  )
        30           C   tau(  30) = (   0.0000000   0.3333333   0.1666667  )
        31           C   tau(  31) = (   0.0000000   0.3333333   0.5000000  )
        32           C   tau(  32) = (   0.0000000   0.3333333   0.8333333  )
        33           C   tau(  33) = (   0.0000000   0.6666667   0.1666667  )
        34           C   tau(  34) = (   0.0000000   0.6666667   0.5000000  )
        35           C   tau(  35) = (   0.0000000   0.6666667   0.8333333  )
        36           C   tau(  36) = (   0.3333333   0.0000000   0.1666667  )
        37           C   tau(  37) = (   0.3333333   0.0000000   0.5000000  )
        38           C   tau(  38) = (   0.3333333   0.0000000   0.8333333  )
        39           C   tau(  39) = (   0.3333333   0.3333333   0.1666667  )
        40           C   tau(  40) = (   0.3333333   0.3333333   0.5000000  )
        41           C   tau(  41) = (   0.3333333   0.3333333   0.8333333  )
        42           C   tau(  42) = (   0.3333333   0.6666667   0.1666667  )
        43           C   tau(  43) = (   0.3333333   0.6666667   0.5000000  )
        44           C   tau(  44) = (   0.3333333   0.6666667   0.8333333  )
        45           C   tau(  45) = (   0.6666667   0.0000000   0.1666667  )
        46           C   tau(  46) = (   0.6666667   0.0000000   0.5000000  )
        47           C   tau(  47) = (   0.6666667   0.0000000   0.8333333  )
        48           C   tau(  48) = (   0.6666667   0.3333333   0.1666667  )
        49           C   tau(  49) = (   0.6666667   0.3333333   0.5000000  )
        50           C   tau(  50) = (   0.6666667   0.3333333   0.8333333  )
        51           C   tau(  51) = (   0.6666667   0.6666667   0.1666667  )
        52           C   tau(  52) = (   0.6666667   0.6666667   0.5000000  )
        53           C   tau(  53) = (   0.6666667   0.6666667   0.8333333  )
        54           C   tau(  54) = (   0.0833353   0.0833353   0.2499980  )
        55           C   tau(  55) = (   0.0833353   0.0833353   0.5833313  )
        56           C   tau(  56) = (   0.0833353   0.0833353   0.9166647  )
        57           C   tau(  57) = (   0.0833353   0.4166687   0.2499980  )
        58           C   tau(  58) = (   0.0833353   0.4166687   0.5833313  )
        59           C   tau(  59) = (   0.0833353   0.4166687   0.9166647  )
        60           C   tau(  60) = (   0.0833353   0.7500020   0.2499980  )
[...]
       201           C   tau( 201) = (   0.5000000   0.5000000   0.1666667  )
       202           C   tau( 202) = (   0.5000000   0.5000000   0.5000000  )
       203           C   tau( 203) = (   0.5000000   0.5000000   0.8333333  )
       204           C   tau( 204) = (   0.5000000   0.8333333   0.1666667  )
       205           C   tau( 205) = (   0.5000000   0.8333333   0.5000000  )
       206           C   tau( 206) = (   0.5000000   0.8333333   0.8333333  )
       207           C   tau( 207) = (   0.8333333   0.1666667   0.1666667  )
       208           C   tau( 208) = (   0.8333333   0.1666667   0.5000000  )
       209           C   tau( 209) = (   0.8333333   0.1666667   0.8333333  )
       210           C   tau( 210) = (   0.8333333   0.5000000   0.1666667  )
       211           C   tau( 211) = (   0.8333333   0.5000000   0.5000000  )
[...]
     atom   44 type  1   force =     0.00000000    0.00000000    0.00000000
     atom   45 type  1   force =     0.00000000    0.00000000    0.00000000
     atom   46 type  1   force =     0.00000000    0.00000000    0.00000000
     atom   47 type  1   force =     0.00000000    0.00000000    0.00000000
     atom   48 type  1   force =     0.00000000    0.00000000    0.00000000
     atom   49 type  1   force =     0.00000000    0.00000000    0.00000000
     atom   50 type  1   force =     0.00000000    0.00000000    0.00000000
     atom   51 type  1   force =     0.00000000    0.00000000    0.00000000
     atom   52 type  1   force =     0.00000000    0.00000000    0.00000000
     atom   53 type  1   force =     0.00000000    0.00000000    0.00000000
     atom   54 type  1   force =     0.00000000    0.00000000    0.00000000
     atom   55 type  1   force =     0.00000000    0.00000000    0.00000000
     atom   56 type  1   force =     0.00000000    0.00000000    0.00000000
     atom   57 type  1   force =     0.00000000    0.00000000    0.00000000
     atom   58 type  1   force =     0.00000000    0.00000000    0.00000000
     atom   59 type  1   force =     0.00000000    0.00000000    0.00000000
     atom   60 type  1   force =     0.00000000    0.00000000    0.00000000
[...]
     atom  201 type  1   force =     0.00000000    0.00000000    0.00000000
     atom  202 type  1   force =     0.00000000    0.00000000    0.00000000
     atom  203 type  1   force =     0.00000000    0.00000000    0.00000000
     atom  204 type  1   force =     0.00000000    0.00000000    0.00000000
     atom  205 type  1   force =     0.00000000    0.00000000    0.00000000
     atom  206 type  1   force =     0.00000000    0.00000000    0.00000000
     atom  207 type  1   force =     0.00000000    0.00000000    0.00000000
     atom  208 type  1   force =     0.00000000    0.00000000    0.00000000
     atom  209 type  1   force =     0.00000000    0.00000000    0.00000000
     atom  210 type  1   force =     0.00000000    0.00000000    0.00000000
     atom  211 type  1   force =     0.00000000    0.00000000    0.00000000
     atom  212 type  1   force =     0.00000000    0.00000000    0.00000000
     atom  213 type  1   force =     0.00000000    0.00000000    0.00000000
     atom  214 type  1   force =     0.00000000    0.00000000    0.00000000
     atom  215 type  1   force =     0.00000000    0.00000000    0.00000000
     The SCF correction term to forces
     atom    1 type  1   force =    -0.00000056    0.00000056   -0.00000111
     atom    2 type  1   force =    -0.00000048    0.00000048    0.00000173
     atom    3 type  1   force =    -0.00000048   -0.00000173   -0.00000048
     atom    4 type  1   force =     0.00000006    0.00000126    0.00000171
     atom    5 type  1   force =    -0.00000080    0.00000125   -0.00000125
     atom    6 type  1   force =    -0.00000056    0.00000111   -0.00000056
     atom    7 type  1   force =    -0.00000105   -0.00000180    0.00000180
     atom    8 type  1   force =     0.00000006   -0.00000171   -0.00000126
     atom    9 type  1   force =    -0.00000111    0.00000056   -0.00000056
     atom   10 type  1   force =     0.00000180    0.00000105    0.00000180
     atom   11 type  1   force =     0.00000171   -0.00000006   -0.00000126
     atom   12 type  1   force =     0.00000171    0.00000126    0.00000006
     atom   13 type  1   force =     0.00000096    0.00000053    0.00000096
     atom   14 type  1   force =     0.00000156    0.00000124   -0.00000124
     atom   15 type  1   force =     0.00000180   -0.00000180   -0.00000105
     atom   16 type  1   force =     0.00000176   -0.00000176    0.00000176
     atom   17 type  1   force =     0.00000096   -0.00000096   -0.00000053
     atom   18 type  1   force =     0.00000173    0.00000048   -0.00000048
     atom   19 type  1   force =    -0.00000126   -0.00000006    0.00000171
     atom   20 type  1   force =    -0.00000125    0.00000080   -0.00000125
     atom   21 type  1   force =    -0.00000125    0.00000125   -0.00000080
     atom   22 type  1   force =    -0.00000124    0.00000124    0.00000156
     atom   23 type  1   force =    -0.00000052    0.00000052   -0.00000052
     atom   24 type  1   force =    -0.00000126   -0.00000171    0.00000006
     atom   25 type  1   force =    -0.00000053   -0.00000096    0.00000096
     atom   26 type  1   force =    -0.00000124   -0.00000156   -0.00000124
     atom   27 type  1   force =     0.00000022    0.00000230   -0.00000142
     atom   28 type  1   force =    -0.00000061   -0.00000232    0.00000089
     atom   29 type  1   force =     0.00000027    0.00000023    0.00000022
     atom   30 type  1   force =     0.00000133   -0.00000133   -0.00000219
     atom   31 type  1   force =    -0.00000022    0.00000022    0.00000030
     atom   32 type  1   force =     0.00000057   -0.00000057    0.00000253
     atom   33 type  1   force =    -0.00000031   -0.00000047   -0.00000054
     atom   34 type  1   force =     0.00000067    0.00000142    0.00000217
     atom   35 type  1   force =    -0.00000037    0.00000012   -0.00000228
     atom   36 type  1   force =     0.00000022   -0.00000022   -0.00000101
     atom   37 type  1   force =     0.00000091   -0.00000091    0.00000181
     atom   38 type  1   force =     0.00000103   -0.00000103   -0.00000103
     atom   39 type  1   force =    -0.00000230   -0.00000022   -0.00000142
     atom   40 type  1   force =     0.00000232    0.00000061    0.00000089
     atom   41 type  1   force =    -0.00000023   -0.00000027    0.00000022
     atom   42 type  1   force =     0.00000237    0.00000000   -0.00000026
     atom   43 type  1   force =    -0.00000047    0.00000023    0.00000103
     atom   44 type  1   force =     0.00000082    0.00000097   -0.00000092
     atom   45 type  1   force =    -0.00000000   -0.00000237   -0.00000026
     atom   46 type  1   force =    -0.00000023    0.00000047    0.00000103
     atom   47 type  1   force =    -0.00000097   -0.00000082   -0.00000092
     atom   48 type  1   force =     0.00000047    0.00000031   -0.00000054
     atom   49 type  1   force =    -0.00000142   -0.00000067    0.00000217
     atom   50 type  1   force =    -0.00000012    0.00000037   -0.00000228
     atom   51 type  1   force =    -0.00000143    0.00000143   -0.00000132
     atom   52 type  1   force =    -0.00000026    0.00000026    0.00000084
     atom   53 type  1   force =    -0.00000029    0.00000029    0.00000055
     atom   54 type  1   force =    -0.00000107    0.00000231   -0.00000231
     atom   55 type  1   force =    -0.00000051   -0.00000078    0.00000051
     atom   56 type  1   force =    -0.00000087    0.00000270    0.00000213
     atom   57 type  1   force =    -0.00000087   -0.00000213   -0.00000270
     atom   58 type  1   force =    -0.00000036    0.00000128    0.00000051
     atom   59 type  1   force =    -0.00000011   -0.00000219    0.00000219
     atom   60 type  1   force =    -0.00000051   -0.00000051    0.00000078
[...]
     atom  201 type  1   force =     0.00000087    0.00000235   -0.00000028
     atom  202 type  1   force =     0.00000092   -0.00000048    0.00000092
     atom  203 type  1   force =     0.00000167    0.00000086   -0.00000086
     atom  204 type  1   force =     0.00000231   -0.00000231   -0.00000138
     atom  205 type  1   force =     0.00000101   -0.00000101    0.00000101
     atom  206 type  1   force =     0.00000092   -0.00000092    0.00000048
     atom  207 type  1   force =     0.00000248    0.00000131   -0.00000131
     atom  208 type  1   force =    -0.00000235    0.00000028    0.00000087
     atom  209 type  1   force =     0.00000024    0.00000102    0.00000024
     atom  210 type  1   force =     0.00000024   -0.00000024   -0.00000102
     atom  211 type  1   force =    -0.00000086    0.00000086    0.00000167
     atom  212 type  1   force =    -0.00000092    0.00000092   -0.00000092
     atom  213 type  1   force =    -0.00000235   -0.00000087   -0.00000028
     atom  214 type  1   force =     0.00000048   -0.00000092    0.00000092
     atom  215 type  1   force =    -0.00000086   -0.00000167   -0.00000086

     Total force =     0.003359     Total SCF correction =     0.000030

     Computing stress (Cartesian axis) and pressure

     Non-local corr. energy    =       7.36200368 Ry

          total   stress  (Ry/bohr**3)                   (kbar)     P=        1.80
   0.00001221   0.00000004  -0.00000004            1.80        0.01       -0.01
   0.00000004   0.00001221   0.00000004            0.01        1.80        0.01
  -0.00000004   0.00000004   0.00001221           -0.01        0.01        1.80

     kinetic stress (kbar)  18899.75      0.01     -0.01
                                0.01  18899.75      0.01
                               -0.01      0.01  18899.75

     local   stress (kbar)  -3590.55      0.11     -0.11
                                0.11  -3590.55      0.11
                               -0.11      0.11  -3590.55

     nonloc. stress (kbar)   4309.44     -0.00      0.00
                               -0.00   4309.44     -0.00
                                0.00     -0.00   4309.44

     hartree stress (kbar)   1307.75     -0.04      0.04
                               -0.04   1307.75     -0.04
                                0.04     -0.04   1307.75

     exc-cor stress (kbar)   -410.26      0.00     -0.00
                                0.00   -410.26      0.00
                               -0.00      0.00   -410.26

     corecor stress (kbar)  -4414.43     -0.00      0.00
                               -0.00  -4414.43     -0.00
                                0.00     -0.00  -4414.43

     ewald   stress (kbar) -16124.70     -0.07      0.07
                               -0.07 -16124.70     -0.07
                                0.07     -0.07 -16124.70

     hubbard stress (kbar)      0.00      0.00      0.00
                                0.00      0.00      0.00
                                0.00      0.00      0.00

     DFT-D   stress (kbar)      0.00      0.00      0.00
                                0.00      0.00      0.00
                                0.00      0.00      0.00

     XDM     stress (kbar)      0.00      0.00      0.00
                                0.00      0.00      0.00
                                0.00      0.00      0.00

     dft-nl  stress (kbar)     24.79      0.00     -0.00
                                0.00     24.79      0.00
                               -0.00      0.00     24.79

     TS-vdW  stress (kbar)      0.00      0.00      0.00
                                0.00      0.00      0.00
                                0.00      0.00      0.00

     MDB     stress (kbar)      0.00      0.00      0.00
                                0.00      0.00      0.00
                                0.00      0.00      0.00

     3D-RISM stress (kbar)      0.00      0.00      0.00
                                0.00      0.00      0.00
                                0.00      0.00      0.00

     Energy error            =      4.2E-05 Ry
     Gradient error          =      3.0E-04 Ry/Bohr

     bfgs converged in   7 scf cycles and   6 bfgs steps
     (criteria: energy <  1.0E-04 Ry, force <  1.0E-03 Ry/Bohr)

     End of BFGS Geometry Optimization

     Final energy             =   -4082.9500554247 Ry

     File ./diamond.bfgs deleted, as requested
Begin final coordinates

ATOMIC_POSITIONS (angstrom)
C             0.8931387764        2.6791643766        4.4626703262
C             0.8930818800        2.6792212730        8.0404767123
C             0.8930818800        6.2487358942        0.8930818800
C             0.8934856473        6.2533782984        4.4672846098
C             0.8927318480        6.2534075311        8.0358050754
C             0.8931387764        9.8265422803        0.8931387764
C             0.8926580490        9.8219080746        4.4673045319
C             0.8934856473        9.8219279967        8.0358343081
C             4.4626703262        2.6791643766        0.8931387764
C             4.4673045319        2.6796451040        4.4673045319
C             4.4672846098        2.6788175057        8.0358343081
C             4.4672846098        6.2533782984        0.8934856473
C             4.4644382514        6.2505389642        4.4644382514
C             4.4651828340        6.2512799826        8.0379326239
C             4.4673045319        9.8219080746        0.8926580490
C             4.4651685520        9.8240440545        4.4651685520
C             4.4644382514        9.8247743551        8.0386736423
C             8.0404767123        2.6792212730        0.8930818800
C             8.0358343081        2.6788175057        4.4672846098
C             8.0358050754        2.6795713050        8.0358050754
C             8.0358050754        6.2534075311        0.8927318480
C             8.0379326239        6.2512799826        4.4651828340
C             8.0386871699        6.2505254366        8.0386871699
C             8.0358343081        9.8219279967        0.8934856473
C             8.0386736423        9.8247743551        4.4644382514
C             8.0379326239        9.8240297725        8.0379326239
C             0.0040911465        0.0038913352        1.7821617103
C             0.0003438413        0.0009301786        5.3576815648
C            -0.0030826449       -0.0077638297        8.9231473422
C            -0.0692339452        3.6415370964        1.8556091972
C             0.0003422943        3.5719608569        5.3584336547
C             0.0041228820        3.5681802692        8.9346724974
C             0.0003242053        7.1445545605        1.7858342461
C            -0.0002541354        7.1458204178        5.3596381703
C             0.0003728544        7.1438110524        8.9316586912
C             3.5800492974       -0.0077461462        1.7891695540
C             3.5728330040       -0.0005298528        5.3600296370
C             3.5701904895        0.0021126617        8.9328152952
C             3.5684118160        3.5682120047        1.7821617103
C             3.5713729726        3.5719593099        5.3576815648
C             3.5800669809        3.5753857961        8.9231473422
C             3.5713636889        7.1438050788        1.7857693954
C             3.5721951202        7.1440418202        5.3578720911
C             3.5728653163        7.1462319808        8.9302103717
C             7.1454075258        0.0009394623        1.7857693954
C             7.1451707844        0.0001080310        5.3578720911
C             7.1429806238       -0.0005621651        8.9302103717
C             7.1446580441        3.5719789459        1.7858342461
C             7.1433921868        3.5725572866        5.3596381703
C             7.1454015522        3.5719302968        8.9316586912
C             7.1433758810        7.1458367236        1.7863773722
C             7.1445431858        7.1446694188        5.3584981528
C             7.1451798734        7.1440327312        8.9308513776
C             0.8965186161        0.9036019934        2.6687011596
C             0.8930985282        0.8937368223        6.2515050402
C             0.8896544557        0.9036883028        9.8344998872
C             0.8896544557        4.4547127193        2.6686148502
C             0.8931131033        4.4647963590        6.2514990619
C             0.8967774873        4.4548434343        9.8343691722
C             0.8930985282        8.0377075663        2.6785663307
[...]
C             5.3576453265        5.3575348601        1.7857583835
C             5.3578612725        5.3583646349        5.3578612725
C             5.3600920036        5.3590182763        8.9301943302
C             5.3596748461        8.9295377604        1.7863722242
C             5.3584924407        8.9307201658        5.3584924407
C             5.3578612725        8.9313513340        8.9308479716
C             8.9348084073        1.7903177498        1.7819854032
C             8.9316777464        1.7865447695        5.3576453265
C             8.9228790465        1.7829724230        8.9228790465
C             8.9228790465        5.3663335600        1.7893307300
C             8.9301943302        5.3590182763        5.3600920036
C             8.9329153860        5.3562972205        8.9329153860
C             8.9316777464        8.9315672800        1.7857583835
C             8.9308479716        8.9313513340        5.3578612725
C             8.9301943302        8.9291206029        8.9301943302
End final coordinates

     Writing all to output data dir ./diamond.save/

     General routines

     Parallel routines

     PAW routines

   This run was terminated on:  10: 6:45  29Sep2023

   JOB DONE.