     Program PWSCF v.7.1 starts on  2Mar2024 at  9:48:56

     Reading input from espresso.pwi
Warning: card &CELL ignored
Warning: card    CELL_DYNAMICS    = 'BFGS' ignored
Warning: card / ignored

     Current dimensions of program PWSCF are:
     Max number of different atomic species (ntypx) = 10
     Max number of k-points (npk) =  40000
     Max angular momentum in pseudopotentials (lmaxx) =  4
     file C.pbe-n-kjpaw_psl.1.0.0.UPF: wavefunction(s)  2S 2P renormalized

     IMPORTANT: XC functional enforced from input :
     Exchange-correlation= BEEF-VDW
                           (   1   4  43  14   2   0   0)
     Any further DFT definition will be discarded
     Please, verify this is what you really want

     R & G space division:  proc/nbgrp/npool/nimage =     256
     wavefunctions fft division:  task group distribution
                                  #TG    x Z-proc =       8     32
     Subspace diagonalization in iterative solution of the eigenvalue problem:
     a serial algorithm will be used

     Using Pencil Decomposition

     bravais-lattice index     =            1
     lattice parameter (alat)  =      33.7534  a.u.
     unit-cell volume          =   38454.8879 (a.u.)^3
     number of atoms/cell      =          999
     number of atomic types    =            1
     number of electrons       =      3994.00
     number of Kohn-Sham states=         2396
     kinetic-energy cutoff     =      70.0000  Ry
     charge density cutoff     =     350.0000  Ry
     scf convergence threshold =      1.0E-07
     mixing beta               =       0.7000
     number of iterations used =            8  plain     mixing
     energy convergence thresh.=      1.0E-04
     force convergence thresh. =      1.0E-03
     Exchange-correlation= BEEF-VDW
                           (   1   4  43  14   2   0   0)
     nstep                     =           50

     celldm(1)=  33.753373  celldm(2)=   0.000000  celldm(3)=   0.000000
     celldm(4)=   0.000000  celldm(5)=   0.000000  celldm(6)=   0.000000

     crystal axes: (cart. coord. in units of alat)
               a(1) = (   1.000000   0.000000   0.000000 )
               a(2) = (   0.000000   1.000000   0.000000 )
               a(3) = (   0.000000   0.000000   1.000000 )

     reciprocal axes: (cart. coord. in units 2 pi/alat)
               b(1) = (  1.000000  0.000000  0.000000 )
               b(2) = (  0.000000  1.000000  0.000000 )
               b(3) = (  0.000000  0.000000  1.000000 )

     PseudoPot. # 1 for C  read from file:
     //group///packages/espresso/pseudo/psl_1.0.0/pslibrary.1.0.0/pbe/PSEUDOPOTENTIALS/C.pbe-n-kjpaw_psl.1.0.0.UPF
     MD5 check sum: 5459cf7f2c8c37df2f7cde8914797f4d
     Pseudo is Projector augmented-wave + core cor, Zval =  4.0
     Generated using 'atomic' code by A. Dal Corso  v.7.1
     Shape of augmentation charge: PSQ
     Using radial grid of 1073 points,  4 beta functions with:
                l(1) =   0
                l(2) =   0
                l(3) =   1
                l(4) =   1
     Q(r) pseudized with 0 coefficients

     atomic species   valence    mass     pseudopotential
        C              4.00    12.01100     C ( 1.00)

      2 Sym. Ops. (no inversion) found

                                    s                        frac. trans.

      isym =  1     identity

 cryst.   s( 1) = (     1          0          0      )
                  (     0          1          0      )
                  (     0          0          1      )

 cart.    s( 1) = (  1.0000000  0.0000000  0.0000000 )
                  (  0.0000000  1.0000000  0.0000000 )
                  (  0.0000000  0.0000000  1.0000000 )

      isym =  2     inv. 180 deg rotation - cart. axis [-1,0,1]

 cryst.   s( 2) = (     0          0          1      )
                  (     0          1          0      )
                  (     1          0          0      )

 cart.    s( 2) = (  0.0000000  0.0000000  1.0000000 )
                  (  0.0000000  1.0000000  0.0000000 )
                  (  1.0000000  0.0000000  0.0000000 )

     point group C_s (m)
     there are  2 classes
     the character table:

       E     s
A'     1.00  1.00
A''    1.00 -1.00

     the symmetry operations in each class and the name of the first element:

     E        1
          identity
     s        2
          inv. 180 deg rotation - cart. axis [-1,0,1]

   Cartesian axes

     site n.     atom                  positions (alat units)
         1           C   tau(   1) = (   0.0500012   0.1499988   0.2500012  )
         2           C   tau(   2) = (   0.0500012   0.1499988   0.4500012  )
         3           C   tau(   3) = (   0.0500012   0.1499988   0.6500012  )
         4           C   tau(   4) = (   0.0500012   0.1499988   0.8500012  )
         5           C   tau(   5) = (   0.0500012   0.3499988   0.0500012  )
         6           C   tau(   6) = (   0.0500012   0.3499988   0.2500012  )
         7           C   tau(   7) = (   0.0500012   0.3499988   0.4500012  )
         8           C   tau(   8) = (   0.0500012   0.3499988   0.6500012  )
         9           C   tau(   9) = (   0.0500012   0.3499988   0.8500012  )
        10           C   tau(  10) = (   0.0500012   0.5499988   0.0500012  )
        11           C   tau(  11) = (   0.0500012   0.5499988   0.2500012  )
        12           C   tau(  12) = (   0.0500012   0.5499988   0.4500012  )
        13           C   tau(  13) = (   0.0500012   0.5499988   0.6500012  )
        14           C   tau(  14) = (   0.0500012   0.5499988   0.8500012  )
        15           C   tau(  15) = (   0.0500012   0.7499988   0.0500012  )
        16           C   tau(  16) = (   0.0500012   0.7499988   0.2500012  )
        17           C   tau(  17) = (   0.0500012   0.7499988   0.4500012  )
        18           C   tau(  18) = (   0.0500012   0.7499988   0.6500012  )
        19           C   tau(  19) = (   0.0500012   0.7499988   0.8500012  )
        20           C   tau(  20) = (   0.0500012   0.9499988   0.0500012  )
        21           C   tau(  21) = (   0.0500012   0.9499988   0.2500012  )
        22           C   tau(  22) = (   0.0500012   0.9499988   0.4500012  )
        23           C   tau(  23) = (   0.0500012   0.9499988   0.6500012  )
        24           C   tau(  24) = (   0.0500012   0.9499988   0.8500012  )
        25           C   tau(  25) = (   0.2500012   0.1499988   0.0500012  )
        26           C   tau(  26) = (   0.2500012   0.1499988   0.2500012  )
        27           C   tau(  27) = (   0.2500012   0.1499988   0.4500012  )
        28           C   tau(  28) = (   0.2500012   0.1499988   0.6500012  )
        29           C   tau(  29) = (   0.2500012   0.1499988   0.8500012  )
        30           C   tau(  30) = (   0.2500012   0.3499988   0.0500012  )
        31           C   tau(  31) = (   0.2500012   0.3499988   0.2500012  )
        32           C   tau(  32) = (   0.2500012   0.3499988   0.4500012  )
        33           C   tau(  33) = (   0.2500012   0.3499988   0.6500012  )
        34           C   tau(  34) = (   0.2500012   0.3499988   0.8500012  )
        35           C   tau(  35) = (   0.2500012   0.5499988   0.0500012  )
        36           C   tau(  36) = (   0.2500012   0.5499988   0.2500012  )
        37           C   tau(  37) = (   0.2500012   0.5499988   0.4500012  )
        38           C   tau(  38) = (   0.2500012   0.5499988   0.6500012  )
        39           C   tau(  39) = (   0.2500012   0.5499988   0.8500012  )
        40           C   tau(  40) = (   0.2500012   0.7499988   0.0500012  )
        41           C   tau(  41) = (   0.2500012   0.7499988   0.2500012  )
        42           C   tau(  42) = (   0.2500012   0.7499988   0.4500012  )
        43           C   tau(  43) = (   0.2500012   0.7499988   0.6500012  )
        44           C   tau(  44) = (   0.2500012   0.7499988   0.8500012  )
        45           C   tau(  45) = (   0.2500012   0.9499988   0.0500012  )
        46           C   tau(  46) = (   0.2500012   0.9499988   0.2500012  )
        47           C   tau(  47) = (   0.2500012   0.9499988   0.4500012  )
        48           C   tau(  48) = (   0.2500012   0.9499988   0.6500012  )
        49           C   tau(  49) = (   0.2500012   0.9499988   0.8500012  )
        50           C   tau(  50) = (   0.4500012   0.1499988   0.0500012  )
        51           C   tau(  51) = (   0.4500012   0.1499988   0.2500012  )
        52           C   tau(  52) = (   0.4500012   0.1499988   0.4500012  )
        53           C   tau(  53) = (   0.4500012   0.1499988   0.6500012  )
        54           C   tau(  54) = (   0.4500012   0.1499988   0.8500012  )
        55           C   tau(  55) = (   0.4500012   0.3499988   0.0500012  )
        56           C   tau(  56) = (   0.4500012   0.3499988   0.2500012  )
        57           C   tau(  57) = (   0.4500012   0.3499988   0.4500012  )
        58           C   tau(  58) = (   0.4500012   0.3499988   0.6500012  )
        59           C   tau(  59) = (   0.4500012   0.3499988   0.8500012  )
        60           C   tau(  60) = (   0.4500012   0.5499988   0.0500012  )
[...]
       985           C   tau( 985) = (   0.9000000   0.5000000   0.1000000  )
       986           C   tau( 986) = (   0.9000000   0.5000000   0.3000000  )
       987           C   tau( 987) = (   0.9000000   0.5000000   0.5000000  )
       988           C   tau( 988) = (   0.9000000   0.5000000   0.7000000  )
       989           C   tau( 989) = (   0.9000000   0.5000000   0.9000000  )
       990           C   tau( 990) = (   0.9000000   0.7000000   0.1000000  )
       991           C   tau( 991) = (   0.9000000   0.7000000   0.3000000  )
       992           C   tau( 992) = (   0.9000000   0.7000000   0.5000000  )
       993           C   tau( 993) = (   0.9000000   0.7000000   0.7000000  )
       994           C   tau( 994) = (   0.9000000   0.7000000   0.9000000  )
       995           C   tau( 995) = (   0.9000000   0.9000000   0.1000000  )
       996           C   tau( 996) = (   0.9000000   0.9000000   0.3000000  )
       997           C   tau( 997) = (   0.9000000   0.9000000   0.5000000  )
       998           C   tau( 998) = (   0.9000000   0.9000000   0.7000000  )
       999           C   tau( 999) = (   0.9000000   0.9000000   0.9000000  )

   Crystallographic axes

     site n.     atom                  positions (cryst. coord.)
         1           C   tau(   1) = (  0.0500012  0.1499988  0.2500012  )
         2           C   tau(   2) = (  0.0500012  0.1499988  0.4500012  )
         3           C   tau(   3) = (  0.0500012  0.1499988  0.6500012  )
         4           C   tau(   4) = (  0.0500012  0.1499988  0.8500012  )
         5           C   tau(   5) = (  0.0500012  0.3499988  0.0500012  )
         6           C   tau(   6) = (  0.0500012  0.3499988  0.2500012  )
         7           C   tau(   7) = (  0.0500012  0.3499988  0.4500012  )
         8           C   tau(   8) = (  0.0500012  0.3499988  0.6500012  )
         9           C   tau(   9) = (  0.0500012  0.3499988  0.8500012  )
        10           C   tau(  10) = (  0.0500012  0.5499988  0.0500012  )
[...]
     atom   45 type  1   force =     0.00000000    0.00000000    0.00000000
     atom   46 type  1   force =     0.00000000    0.00000000    0.00000000
     atom   47 type  1   force =     0.00000000    0.00000000    0.00000000
     atom   48 type  1   force =     0.00000000    0.00000000    0.00000000
     atom   49 type  1   force =     0.00000000    0.00000000    0.00000000
     atom   50 type  1   force =     0.00000000    0.00000000    0.00000000
     atom   51 type  1   force =     0.00000000    0.00000000    0.00000000
     atom   52 type  1   force =     0.00000000    0.00000000    0.00000000
     atom   53 type  1   force =     0.00000000    0.00000000    0.00000000
     atom   54 type  1   force =     0.00000000    0.00000000    0.00000000
     atom   55 type  1   force =     0.00000000    0.00000000    0.00000000
     atom   56 type  1   force =     0.00000000    0.00000000    0.00000000
     atom   57 type  1   force =     0.00000000    0.00000000    0.00000000
     atom   58 type  1   force =     0.00000000    0.00000000    0.00000000
     atom   59 type  1   force =     0.00000000    0.00000000    0.00000000
     atom   60 type  1   force =     0.00000000    0.00000000    0.00000000
[...]
     atom  985 type  1   force =     0.00000000    0.00000000    0.00000000
     atom  986 type  1   force =     0.00000000    0.00000000    0.00000000
     atom  987 type  1   force =     0.00000000    0.00000000    0.00000000
     atom  988 type  1   force =     0.00000000    0.00000000    0.00000000
     atom  989 type  1   force =     0.00000000    0.00000000    0.00000000
     atom  990 type  1   force =     0.00000000    0.00000000    0.00000000
     atom  991 type  1   force =     0.00000000    0.00000000    0.00000000
     atom  992 type  1   force =     0.00000000    0.00000000    0.00000000
     atom  993 type  1   force =     0.00000000    0.00000000    0.00000000
     atom  994 type  1   force =     0.00000000    0.00000000    0.00000000
     atom  995 type  1   force =     0.00000000    0.00000000    0.00000000
     atom  996 type  1   force =     0.00000000    0.00000000    0.00000000
     atom  997 type  1   force =     0.00000000    0.00000000    0.00000000
     atom  998 type  1   force =     0.00000000    0.00000000    0.00000000
     atom  999 type  1   force =     0.00000000    0.00000000    0.00000000
     The SCF correction term to forces
     atom    1 type  1   force =     0.00000809   -0.00000980    0.00003087
     atom    2 type  1   force =     0.00001660   -0.00002057    0.00000077
     atom    3 type  1   force =     0.00001347   -0.00001917   -0.00000564
     atom    4 type  1   force =     0.00000421   -0.00000052   -0.00001856
     atom    5 type  1   force =     0.00000084    0.00000845    0.00000084
     atom    6 type  1   force =    -0.00002137    0.00000869    0.00000550
     atom    7 type  1   force =     0.00001675   -0.00000365   -0.00000825
     atom    8 type  1   force =     0.00001519   -0.00000695   -0.00000411
     atom    9 type  1   force =     0.00003850   -0.00000698    0.00000557
     atom   10 type  1   force =     0.00001385    0.00000859    0.00001385
     atom   11 type  1   force =     0.00001985    0.00001372    0.00000327
     atom   12 type  1   force =     0.00002601    0.00001434   -0.00001283
     atom   13 type  1   force =     0.00001496    0.00001193   -0.00000776
     atom   14 type  1   force =     0.00001357    0.00000756    0.00000442
     atom   15 type  1   force =     0.00001528    0.00000612    0.00001528
     atom   16 type  1   force =     0.00002597    0.00001437    0.00000720
     atom   17 type  1   force =     0.00002177    0.00001733   -0.00001278
     atom   18 type  1   force =     0.00002321    0.00001759   -0.00000970
     atom   19 type  1   force =     0.00001318    0.00001513    0.00000041
     atom   20 type  1   force =     0.00000998   -0.00003718    0.00000998
     atom   21 type  1   force =     0.00005482   -0.00002653    0.00002454
     atom   22 type  1   force =     0.00002538   -0.00000789   -0.00000896
     atom   23 type  1   force =     0.00001568   -0.00000459   -0.00000823
     atom   24 type  1   force =    -0.00002561   -0.00001500   -0.00001726
     atom   25 type  1   force =     0.00003087   -0.00000980    0.00000809
     atom   26 type  1   force =     0.00002704   -0.00005652    0.00002704
     atom   27 type  1   force =     0.00001069   -0.00002842   -0.00000898
     atom   28 type  1   force =     0.00000638   -0.00002098   -0.00001208
     atom   29 type  1   force =     0.00000879    0.00002020   -0.00001384
     atom   30 type  1   force =     0.00000550    0.00000869   -0.00002137
     atom   31 type  1   force =     0.00002969    0.00002633    0.00002969
     atom   32 type  1   force =     0.00001105    0.00000218   -0.00001413
     atom   33 type  1   force =    -0.00000705   -0.00001552   -0.00000462
     atom   34 type  1   force =    -0.00000877   -0.00001062    0.00000587
     atom   35 type  1   force =     0.00000327    0.00001372    0.00001985
     atom   36 type  1   force =     0.00001164    0.00001696    0.00001164
     atom   37 type  1   force =     0.00001094    0.00001150   -0.00002221
     atom   38 type  1   force =    -0.00000187    0.00002047   -0.00001918
     atom   39 type  1   force =    -0.00000969    0.00000720    0.00001061
     atom   40 type  1   force =     0.00000720    0.00001437    0.00002597
     atom   41 type  1   force =     0.00000499    0.00002933    0.00000499
     atom   42 type  1   force =     0.00000775    0.00001838   -0.00001507
     atom   43 type  1   force =     0.00000918    0.00002508   -0.00001027
     atom   44 type  1   force =     0.00000744    0.00001790   -0.00000489
     atom   45 type  1   force =     0.00002454   -0.00002653    0.00005482
     atom   46 type  1   force =     0.00001916   -0.00001841    0.00001916
     atom   47 type  1   force =     0.00000541   -0.00000404   -0.00002497
     atom   48 type  1   force =     0.00001128   -0.00000980   -0.00001688
     atom   49 type  1   force =     0.00002845   -0.00003020   -0.00002876
     atom   50 type  1   force =     0.00000077   -0.00002057    0.00001660
     atom   51 type  1   force =    -0.00000898   -0.00002842    0.00001069
     atom   52 type  1   force =    -0.00001193   -0.00002392   -0.00001193
     atom   53 type  1   force =    -0.00001138   -0.00002762   -0.00001275
     atom   54 type  1   force =    -0.00000687   -0.00001933   -0.00000194
     atom   55 type  1   force =    -0.00000825   -0.00000365    0.00001675
     atom   56 type  1   force =    -0.00001413    0.00000218    0.00001105
     atom   57 type  1   force =    -0.00002103   -0.00000137   -0.00002103
     atom   58 type  1   force =    -0.00000609   -0.00001234   -0.00001832
     atom   59 type  1   force =    -0.00001154   -0.00001776    0.00001133
     atom   60 type  1   force =    -0.00001283    0.00001434    0.00002601
[...]
     atom  985 type  1   force =     0.00000696   -0.00000039    0.00001460
     atom  986 type  1   force =     0.00001887   -0.00000260   -0.00001444
     atom  987 type  1   force =     0.00001521    0.00000798   -0.00000406
     atom  988 type  1   force =     0.00000041    0.00000332    0.00000012
     atom  989 type  1   force =     0.00000285    0.00001474    0.00000285
     atom  990 type  1   force =     0.00000543    0.00001803    0.00001471
     atom  991 type  1   force =     0.00000418    0.00002952   -0.00000090
     atom  992 type  1   force =     0.00001008    0.00002405   -0.00001750
     atom  993 type  1   force =     0.00001555    0.00001056   -0.00000542
     atom  994 type  1   force =     0.00001144    0.00001727    0.00001144
     atom  995 type  1   force =    -0.00001344   -0.00002060   -0.00000856
     atom  996 type  1   force =    -0.00000890   -0.00002482    0.00002496
     atom  997 type  1   force =     0.00000363    0.00000220   -0.00002358
     atom  998 type  1   force =     0.00001896    0.00001718    0.00000937
     atom  999 type  1   force =    -0.00000664    0.00000511   -0.00000664

     Total force =     0.004607     Total SCF correction =     0.000885
     SCF correction compared to forces is large: reduce conv_thr to get better values

     Computing stress (Cartesian axis) and pressure

     Non-local corr. energy    =      34.15726710 Ry

          total   stress  (Ry/bohr**3)                   (kbar)     P=       -9.70
  -0.00006592   0.00000001   0.00000002           -9.70        0.00        0.00
   0.00000001  -0.00006598   0.00000001            0.00       -9.71        0.00
   0.00000002   0.00000001  -0.00006592            0.00        0.00       -9.70

     kinetic stress (kbar)  18964.02      0.01      0.00
                                0.01  18964.02      0.01
                                0.00      0.01  18964.02

     local   stress (kbar)  -3511.02      0.01     -0.01
                                0.01  -3511.01      0.01
                               -0.01      0.01  -3511.02

     nonloc. stress (kbar)   4320.25     -0.00     -0.00
                               -0.00   4320.25     -0.00
                               -0.00     -0.00   4320.25

     hartree stress (kbar)   1277.73      0.01      0.01
                                0.01   1277.74      0.01
                                0.01      0.01   1277.73

     exc-cor stress (kbar)   -410.98     -0.00     -0.00
                               -0.00   -410.98     -0.00
                               -0.00     -0.00   -410.98

     corecor stress (kbar)  -4430.33      0.00      0.00
                                0.00  -4430.33      0.00
                                0.00      0.00  -4430.33

     ewald   stress (kbar) -16244.16     -0.01      0.00
                               -0.01 -16244.18     -0.01
                                0.00     -0.01 -16244.16

     hubbard stress (kbar)      0.00      0.00      0.00
                                0.00      0.00      0.00
                                0.00      0.00      0.00

     DFT-D   stress (kbar)      0.00      0.00      0.00
                                0.00      0.00      0.00
                                0.00      0.00      0.00

     XDM     stress (kbar)      0.00      0.00      0.00
                                0.00      0.00      0.00
                                0.00      0.00      0.00

     dft-nl  stress (kbar)     24.79      0.00      0.00
                                0.00     24.79      0.00
                                0.00      0.00     24.79

     TS-vdW  stress (kbar)      0.00      0.00      0.00
                                0.00      0.00      0.00
                                0.00      0.00      0.00

     MDB     stress (kbar)      0.00      0.00      0.00
                                0.00      0.00      0.00
                                0.00      0.00      0.00

     3D-RISM stress (kbar)      0.00      0.00      0.00
                                0.00      0.00      0.00
                                0.00      0.00      0.00

     Energy error            =      6.9E-05 Ry
     Gradient error          =      4.2E-04 Ry/Bohr

     bfgs converged in   5 scf cycles and   4 bfgs steps
     (criteria: energy <  1.0E-04 Ry, force <  1.0E-03 Ry/Bohr)

     End of BFGS Geometry Optimization

     Final energy             =  -18975.3708608664 Ry

     File ./diamond.bfgs deleted, as requested
Begin final coordinates

ATOMIC_POSITIONS (angstrom)
C             0.8928377959        2.6793490505        4.4660536235
C             0.8927839400        2.6793795461        8.0382618076
C             0.8929279984        2.6793896848       11.6098417718
C             0.8931377624        2.6791962791       15.1818245285
C             0.8930211699        6.2511658439        0.8930211699
C             0.8953280490        6.2513260208        4.4652987304
C             0.8929667213        6.2513368664        8.0381239296
C             0.8927415693        6.2513820588       11.6099986529
C             0.8902092240        6.2511814611       15.1822895916
C             0.8927093344        9.8237407109        0.8927093344
C             0.8928493665        9.8236182012        4.4652389437
C             0.8929445279        9.8234437151        8.0379197983
C             0.8925398884        9.8234842921       11.6103075977
C             0.8925989494        9.8236836613       15.1821511884
C             0.8926820584       13.3957660235        0.8926820584
C             0.8925205650       13.3959929217        4.4653723944
C             0.8924311001       13.3963453610        8.0379705682
C             0.8928768225       13.3962921825       11.6102577660
C             0.8928361838       13.3959636819       15.1820550408
C             0.8929277369       16.9687624643        0.8929277369
C             0.8899614795       16.9687746818        4.4655223457
C             0.8925220799       16.9687739847        8.0382040472
C             0.8929609073       16.9687204001       11.6099256086
C             0.8954469414       16.9687443638       15.1820532336
C             4.4660536235        2.6793490505        0.8928377959
C             4.4654841367        2.6820448008        4.4654841367
C             4.4653477042        2.6796300753        8.0382666068
C             4.4653644365        2.6792947607       11.6100044815
C             4.4654594247        2.6768387031       15.1820017906
C             4.4652987304        6.2513260208        0.8953280490
C             4.4649421355        6.2509403111        4.4649421355
C             4.4654488321        6.2513848162        8.0379233354
C             4.4654264789        6.2513749500       11.6098061313
C             4.4657966139        6.2516987931       15.1816710092
C             4.4652389437        9.8236182012        0.8928493665
C             4.4653819956        9.8233339927        4.4653819956
C             4.4655192362        9.8233969788        8.0379660863
C             4.4652933000        9.8234895198       11.6101467075
C             4.4653430937        9.8238337244       15.1820178688
C             4.4653723944       13.3959929217        0.8925205650
C             4.4654053592       13.3957592824        4.4654053592
C             4.4652400464       13.3961220255        8.0380556596
C             4.4654005489       13.3962452146       11.6102463729
C             4.4653903420       13.3963212976       15.1820257582
C             4.4655223457       16.9687746818        0.8899614795
C             4.4658526982       16.9683411768        4.4658526982
C             4.4652994449       16.9687895055        8.0384520138
C             4.4653361782       16.9688309967       11.6103346716
C             4.4650033828       16.9692833120       15.1824362283
C             8.0382618076        2.6793795461        0.8927839400
C             8.0382666068        2.6796300753        4.4653477042
C             8.0378758088        2.6797217887        8.0378758088
C             8.0377267864        2.6792035636       11.6102071688
C             8.0379835514        2.6792256909       15.1820950030
C             8.0381239296        6.2513368664        0.8929667213
C             8.0379233354        6.2513848162        4.4654488321
C             8.0378679089        6.2514707578        8.0378679089
C             8.0378362558        6.2513001015       11.6100744330
C             8.0381971435        6.2514358239       15.1820390265
C             8.0379197983        9.8234437151        0.8929445279
[...]
C            16.0754377400        8.9315232847        1.7861042808
C            16.0748313882        8.9319284427        5.3588904167
C            16.0753914589        8.9309221048        8.9310514277
C            16.0756451609        8.9305255737       12.5037502992
C            16.0758793308        8.9304162224       16.0758793308
C            16.0755985114       12.5031911834        1.7859236296
C            16.0756306294       12.5036273612        5.3580288489
C            16.0755258180       12.5035788014        8.9306931258
C            16.0753210928       12.5030554591       12.5031887408
C            16.0754335763       12.5027843970       16.0754335763
C            16.0767043150       16.0758477963        1.7853503646
C            16.0758081836       16.0761805347        5.3576679674
C            16.0756009189       16.0757230377        8.9304942851
C            16.0747600312       16.0746641963       12.5019550905
C            16.0721000808       16.0708498223       16.0721000808
End final coordinates

     Writing all to output data dir ./diamond.save/

     General routines

     Parallel routines

     PAW routines

   This run was terminated on:  20:55: 3   2Mar2024

   JOB DONE.