     Program PWSCF v.7.1 starts on 12Feb2024 at  0: 7:38

     Reading input from espresso.pwi
Warning: card &CELL ignored
Warning: card    CELL_DYNAMICS    = 'BFGS' ignored
Warning: card / ignored

     Current dimensions of program PWSCF are:
     Max number of different atomic species (ntypx) = 10
     Max number of k-points (npk) =  40000
     Max angular momentum in pseudopotentials (lmaxx) =  4
     file Pb.pbe-dn-kjpaw_psl.1.0.0.UPF: wavefunction(s)  6S 6P 5D renormalized
     file I.pbe-dn-kjpaw_psl.1.0.0.UPF: wavefunction(s)  5S 5P renormalized

     IMPORTANT: XC functional enforced from input :
     Exchange-correlation= BEEF-VDW
                           (   1   4  43  14   2   0   0)
     Any further DFT definition will be discarded
     Please, verify this is what you really want

     R & G space division:  proc/nbgrp/npool/nimage =     128
     Subspace diagonalization in iterative solution of the eigenvalue problem:
     a serial algorithm will be used

     Using Slab Decomposition

     bravais-lattice index     =            4
     lattice parameter (alat)  =      35.6120  a.u.
     unit-cell volume          =   30624.9051 (a.u.)^3
     number of atoms/cell      =           95
     number of atomic types    =            2
     number of electrons       =      1524.00
     number of Kohn-Sham states=          914
     kinetic-energy cutoff     =      70.0000  Ry
     charge density cutoff     =     350.0000  Ry
     scf convergence threshold =      1.0E-07
     mixing beta               =       0.7000
     number of iterations used =            8  plain     mixing
     energy convergence thresh.=      1.0E-04
     force convergence thresh. =      1.0E-03
     Exchange-correlation= BEEF-VDW
                           (   1   4  43  14   2   0   0)
     nstep                     =           50

     celldm(1)=  35.612033  celldm(2)=   0.000000  celldm(3)=   0.782986
     celldm(4)=   0.000000  celldm(5)=   0.000000  celldm(6)=   0.000000

     crystal axes: (cart. coord. in units of alat)
               a(1) = (   1.000000   0.000000   0.000000 )
               a(2) = (  -0.500000   0.866025   0.000000 )
               a(3) = (   0.000000   0.000000   0.782986 )

     reciprocal axes: (cart. coord. in units 2 pi/alat)
               b(1) = (  1.000000  0.577350 -0.000000 )
               b(2) = (  0.000000  1.154701  0.000000 )
               b(3) = (  0.000000 -0.000000  1.277163 )

     PseudoPot. # 1 for Pb read from file:
     /trace/group/acmegroup/atimmins/packages/espresso/pseudo/psl_1.0.0/pslibrary.1.0.0/pbe/PSEUDOPOTENTIALS/Pb.pbe-dn-kjpaw_psl.1.0.0.UPF
     MD5 check sum: 39ab5b8a6bbd56b7735ad9f188aac93a
     Pseudo is Projector augmented-wave + core cor, Zval = 14.0
     Generated using 'atomic' code by A. Dal Corso  v.7.1
     Shape of augmentation charge: PSQ
     Using radial grid of 1281 points,  6 beta functions with:
                l(1) =   0
                l(2) =   0
                l(3) =   1
                l(4) =   1
                l(5) =   2
                l(6) =   2
     Q(r) pseudized with 0 coefficients

     PseudoPot. # 2 for I  read from file:
     /trace/group/acmegroup/atimmins/packages/espresso/pseudo/psl_1.0.0/pslibrary.1.0.0/pbe/PSEUDOPOTENTIALS/I.pbe-dn-kjpaw_psl.1.0.0.UPF
     MD5 check sum: bfa8781bc1224d19af3f3980e3fab11e
     Pseudo is Projector augmented-wave + core cor, Zval = 17.0
     Generated using 'atomic' code by A. Dal Corso  v.7.1
     Shape of augmentation charge: PSQ
     Using radial grid of 1247 points,  6 beta functions with:
                l(1) =   0
                l(2) =   0
                l(3) =   1
                l(4) =   1
                l(5) =   2
                l(6) =   2
     Q(r) pseudized with 0 coefficients

     atomic species   valence    mass     pseudopotential
        Pb            14.00   207.20000     Pb( 1.00)
        I             17.00   126.90447     I ( 1.00)

     No symmetry found

                                    s                        frac. trans.

      isym =  1     identity

 cryst.   s( 1) = (     1          0          0      )
                  (     0          1          0      )
                  (     0          0          1      )

 cart.    s( 1) = (  1.0000000  0.0000000  0.0000000 )
                  (  0.0000000  1.0000000  0.0000000 )
                  (  0.0000000  0.0000000  1.0000000 )

     point group C_1 (1)
     there are  1 classes
     the character table:

       E
A      1.00

     the symmetry operations in each class and the name of the first element:

     E        1
          identity

   Cartesian axes

     site n.     atom                  positions (alat units)
         1           Pb  tau(   1) = (   0.1250034   0.2164918   0.3914896  )
         2           Pb  tau(   2) = (   0.0000077   0.4329926   0.7829784  )
         3           Pb  tau(   3) = (   0.0000026   0.4329971   0.3914855  )
         4           Pb  tau(   4) = (  -0.1249932   0.6494980   0.7829742  )
         5           Pb  tau(   5) = (  -0.1249983   0.6495025   0.3914814  )
         6           Pb  tau(   6) = (  -0.2499940   0.8660033   0.7829701  )
         7           Pb  tau(   7) = (  -0.2499991   0.8660078   0.3914773  )
         8           Pb  tau(   8) = (   0.3750085   0.2164863   0.7829857  )
         9           Pb  tau(   9) = (   0.3750034   0.2164908   0.3914929  )
        10           Pb  tau(  10) = (   0.2500077   0.4329916   0.7829816  )
        11           Pb  tau(  11) = (   0.2500026   0.4329962   0.3914888  )
        12           Pb  tau(  12) = (   0.1250068   0.6494970   0.7829775  )
        13           Pb  tau(  13) = (   0.1250017   0.6495015   0.3914847  )
        14           Pb  tau(  14) = (   0.0000060   0.8660024   0.7829734  )
        15           Pb  tau(  15) = (   0.0000009   0.8660069   0.3914805  )
        16           Pb  tau(  16) = (   0.6250085   0.2164853   0.7829890  )
        17           Pb  tau(  17) = (   0.6250034   0.2164898   0.3914962  )
        18           Pb  tau(  18) = (   0.5000077   0.4329907   0.7829849  )
        19           Pb  tau(  19) = (   0.5000026   0.4329952   0.3914920  )
        20           Pb  tau(  20) = (   0.3750068   0.6494960   0.7829808  )
        21           Pb  tau(  21) = (   0.3750017   0.6495006   0.3914879  )
        22           Pb  tau(  22) = (   0.2500060   0.8660014   0.7829766  )
        23           Pb  tau(  23) = (   0.2500009   0.8660059   0.3914838  )
        24           Pb  tau(  24) = (   0.8750085   0.2164844   0.7829923  )
        25           Pb  tau(  25) = (   0.8750034   0.2164889   0.3914994  )
        26           Pb  tau(  26) = (   0.7500077   0.4329897   0.7829881  )
        27           Pb  tau(  27) = (   0.7500026   0.4329942   0.3914953  )
        28           Pb  tau(  28) = (   0.6250068   0.6494951   0.7829840  )
        29           Pb  tau(  29) = (   0.6250017   0.6494996   0.3914912  )
        30           Pb  tau(  30) = (   0.5000060   0.8660004   0.7829799  )
        31           Pb  tau(  31) = (   0.5000009   0.8660050   0.3914870  )
        32           I   tau(  32) = (   0.1250054   0.0721550   0.2909325  )
        33           I   tau(  33) = (   0.1250105   0.0721505   0.6824253  )
        34           I   tau(  34) = (   0.0000045   0.2886603   0.2909283  )
        35           I   tau(  35) = (   0.0000096   0.2886558   0.6824212  )
        36           I   tau(  36) = (  -0.1249963   0.5051657   0.2909242  )
        37           I   tau(  37) = (  -0.1249912   0.5051612   0.6824171  )
        38           I   tau(  38) = (  -0.2499971   0.7216710   0.2909201  )
        39           I   tau(  39) = (  -0.2499920   0.7216665   0.6824129  )
        40           I   tau(  40) = (   0.3750054   0.0721540   0.2909357  )
        41           I   tau(  41) = (   0.3750105   0.0721495   0.6824286  )
        42           I   tau(  42) = (   0.2500045   0.2886594   0.2909316  )
        43           I   tau(  43) = (   0.2500096   0.2886548   0.6824244  )
        44           I   tau(  44) = (   0.1250037   0.5051647   0.2909275  )
        45           I   tau(  45) = (   0.1250088   0.5051602   0.6824203  )
        46           I   tau(  46) = (   0.0000029   0.7216701   0.2909233  )
        47           I   tau(  47) = (   0.0000080   0.7216656   0.6824162  )
        48           I   tau(  48) = (   0.6250054   0.0721530   0.2909390  )
        49           I   tau(  49) = (   0.6250105   0.0721485   0.6824318  )
        50           I   tau(  50) = (   0.5000045   0.2886584   0.2909348  )
        51           I   tau(  51) = (   0.5000096   0.2886539   0.6824277  )
        52           I   tau(  52) = (   0.3750037   0.5051638   0.2909307  )
        53           I   tau(  53) = (   0.3750088   0.5051592   0.6824236  )
        54           I   tau(  54) = (   0.2500029   0.7216691   0.2909266  )
        55           I   tau(  55) = (   0.2500080   0.7216646   0.6824194  )
        56           I   tau(  56) = (   0.8750054   0.0721521   0.2909422  )
        57           I   tau(  57) = (   0.8750105   0.0721476   0.6824351  )
        58           I   tau(  58) = (   0.7500045   0.2886574   0.2909381  )
        59           I   tau(  59) = (   0.7500096   0.2886529   0.6824310  )
        60           I   tau(  60) = (   0.6250037   0.5051628   0.2909340  )
[...]
        81           I   tau(  81) = (   0.5000034   0.1443233   0.4920548  )
        82           I   tau(  82) = (   0.3749975   0.3608332   0.1005579  )
        83           I   tau(  83) = (   0.3750026   0.3608286   0.4920507  )
        84           I   tau(  84) = (   0.2499966   0.5773385   0.1005537  )
        85           I   tau(  85) = (   0.2500017   0.5773340   0.4920466  )
        86           I   tau(  86) = (   0.1249958   0.7938439   0.1005496  )
        87           I   tau(  87) = (   0.1250009   0.7938394   0.4920425  )
        88           I   tau(  88) = (   0.7499983   0.1443268   0.1005653  )
        89           I   tau(  89) = (   0.7500034   0.1443223   0.4920581  )
        90           I   tau(  90) = (   0.6249975   0.3608322   0.1005611  )
        91           I   tau(  91) = (   0.6250026   0.3608277   0.4920540  )
        92           I   tau(  92) = (   0.4999966   0.5773376   0.1005570  )
        93           I   tau(  93) = (   0.5000017   0.5773330   0.4920499  )
        94           I   tau(  94) = (   0.3749958   0.7938429   0.1005529  )
        95           I   tau(  95) = (   0.3750009   0.7938384   0.4920457  )

   Crystallographic axes

     site n.     atom                  positions (cryst. coord.)
         1           Pb  tau(   1) = (  0.2499950  0.2499832  0.4999959  )
         2           Pb  tau(   2) = (  0.2499961  0.4999768  0.9999906  )
         3           Pb  tau(   3) = (  0.2499936  0.4999820  0.4999906  )
         4           Pb  tau(   4) = (  0.2499947  0.7499757  0.9999854  )
         5           Pb  tau(   5) = (  0.2499922  0.7499809  0.4999854  )
         6           Pb  tau(   6) = (  0.2499932  0.9999745  0.9999801  )
         7           Pb  tau(   7) = (  0.2499908  0.9999797  0.4999801  )
[...]
     atom   44 type  2   force =     0.00000000    0.00000000    0.00000000
     atom   45 type  2   force =     0.00000000    0.00000000    0.00000000
     atom   46 type  2   force =     0.00000000    0.00000000    0.00000000
     atom   47 type  2   force =     0.00000000    0.00000000    0.00000000
     atom   48 type  2   force =     0.00000000    0.00000000    0.00000000
     atom   49 type  2   force =     0.00000000    0.00000000    0.00000000
     atom   50 type  2   force =     0.00000000    0.00000000    0.00000000
     atom   51 type  2   force =     0.00000000    0.00000000    0.00000000
     atom   52 type  2   force =     0.00000000    0.00000000    0.00000000
     atom   53 type  2   force =     0.00000000    0.00000000    0.00000000
     atom   54 type  2   force =     0.00000000    0.00000000    0.00000000
     atom   55 type  2   force =     0.00000000    0.00000000    0.00000000
     atom   56 type  2   force =     0.00000000    0.00000000    0.00000000
     atom   57 type  2   force =     0.00000000    0.00000000    0.00000000
     atom   58 type  2   force =     0.00000000    0.00000000    0.00000000
     atom   59 type  2   force =     0.00000000    0.00000000    0.00000000
     atom   60 type  2   force =     0.00000000    0.00000000    0.00000000
[...]
     atom   81 type  2   force =     0.00000000    0.00000000    0.00000000
     atom   82 type  2   force =     0.00000000    0.00000000    0.00000000
     atom   83 type  2   force =     0.00000000    0.00000000    0.00000000
     atom   84 type  2   force =     0.00000000    0.00000000    0.00000000
     atom   85 type  2   force =     0.00000000    0.00000000    0.00000000
     atom   86 type  2   force =     0.00000000    0.00000000    0.00000000
     atom   87 type  2   force =     0.00000000    0.00000000    0.00000000
     atom   88 type  2   force =     0.00000000    0.00000000    0.00000000
     atom   89 type  2   force =     0.00000000    0.00000000    0.00000000
     atom   90 type  2   force =     0.00000000    0.00000000    0.00000000
     atom   91 type  2   force =     0.00000000    0.00000000    0.00000000
     atom   92 type  2   force =     0.00000000    0.00000000    0.00000000
     atom   93 type  2   force =     0.00000000    0.00000000    0.00000000
     atom   94 type  2   force =     0.00000000    0.00000000    0.00000000
     atom   95 type  2   force =     0.00000000    0.00000000    0.00000000
     The SCF correction term to forces
     atom    1 type  1   force =    -0.00000011    0.00000016    0.00000381
     atom    2 type  1   force =    -0.00000022    0.00000144   -0.00000401
     atom    3 type  1   force =    -0.00000055    0.00000098    0.00000331
     atom    4 type  1   force =     0.00000005   -0.00000023   -0.00000284
     atom    5 type  1   force =     0.00000025   -0.00000008    0.00000308
     atom    6 type  1   force =     0.00000121   -0.00000081   -0.00000403
     atom    7 type  1   force =     0.00000070   -0.00000085    0.00000322
     atom    8 type  1   force =     0.00000130   -0.00000055   -0.00000400
     atom    9 type  1   force =     0.00000118   -0.00000005    0.00000327
     atom   10 type  1   force =     0.00000005    0.00000150   -0.00000402
     atom   11 type  1   force =     0.00000038    0.00000101    0.00000329
     atom   12 type  1   force =    -0.00000006   -0.00000412    0.00000937
     atom   13 type  1   force =    -0.00000002   -0.00000661   -0.00001520
     atom   14 type  1   force =    -0.00000344    0.00000205    0.00000943
     atom   15 type  1   force =    -0.00000554    0.00000326   -0.00001515
     atom   16 type  1   force =     0.00000011    0.00000007   -0.00000286
     atom   17 type  1   force =     0.00000008   -0.00000009    0.00000308
     atom   18 type  1   force =    -0.00000387   -0.00000235   -0.00001596
     atom   19 type  1   force =    -0.00000552   -0.00000332    0.00002218
     atom   20 type  1   force =    -0.00000012   -0.00000008   -0.00000289
     atom   21 type  1   force =    -0.00000024    0.00000000    0.00000310
     atom   22 type  1   force =     0.00000350    0.00000214    0.00000937
     atom   23 type  1   force =     0.00000558    0.00000339   -0.00001511
     atom   24 type  1   force =    -0.00000140   -0.00000043   -0.00000395
     atom   25 type  1   force =    -0.00000122    0.00000007    0.00000330
     atom   26 type  1   force =     0.00000405   -0.00000236   -0.00001600
     atom   27 type  1   force =     0.00000569   -0.00000336    0.00002222
     atom   28 type  1   force =     0.00000007    0.00000443   -0.00001599
     atom   29 type  1   force =     0.00000005    0.00000633    0.00002218
     atom   30 type  1   force =    -0.00000127   -0.00000079   -0.00000407
     atom   31 type  1   force =    -0.00000072   -0.00000082    0.00000326
     atom   32 type  2   force =     0.00000006   -0.00000699    0.00001179
     atom   33 type  2   force =    -0.00000016   -0.00000737   -0.00000937
     atom   34 type  2   force =    -0.00000601    0.00000367    0.00001194
     atom   35 type  2   force =    -0.00000658    0.00000394   -0.00000911
     atom   36 type  2   force =     0.00000932    0.00000386    0.00000482
     atom   37 type  2   force =    -0.00000388   -0.00000228   -0.00001439
     atom   38 type  2   force =     0.00000829    0.00000575    0.00000471
     atom   39 type  2   force =    -0.00000367   -0.00000256   -0.00001425
     atom   40 type  2   force =     0.00000628   -0.00000356   -0.00000187
     atom   41 type  2   force =    -0.00000109    0.00000066   -0.00000362
     atom   42 type  2   force =     0.00000595    0.00000360    0.00001164
     atom   43 type  2   force =     0.00000647    0.00000394   -0.00000924
     atom   44 type  2   force =    -0.00000003    0.00000705   -0.00000176
     atom   45 type  2   force =    -0.00000015   -0.00000137   -0.00000365
     atom   46 type  2   force =     0.00000162    0.00000057   -0.00001318
     atom   47 type  2   force =    -0.00001040   -0.00000631   -0.00000000
     atom   48 type  2   force =     0.00000001   -0.00000178   -0.00001331
     atom   49 type  2   force =     0.00000014    0.00001227   -0.00000001
     atom   50 type  2   force =    -0.00000101   -0.00000998    0.00000475
     atom   51 type  2   force =     0.00000031    0.00000455   -0.00001438
     atom   52 type  2   force =    -0.00000925    0.00000393    0.00000478
     atom   53 type  2   force =     0.00000393   -0.00000226   -0.00001450
     atom   54 type  2   force =    -0.00000184    0.00000076   -0.00001318
     atom   55 type  2   force =     0.00001052   -0.00000616    0.00000002
     atom   56 type  2   force =    -0.00000627   -0.00000342   -0.00000172
     atom   57 type  2   force =     0.00000108    0.00000080   -0.00000375
     atom   58 type  2   force =     0.00000124   -0.00000998    0.00000485
     atom   59 type  2   force =    -0.00000009    0.00000456   -0.00001431
     atom   60 type  2   force =     0.00000016   -0.00000015    0.00001112
[...]
     atom   81 type  2   force =    -0.00000084    0.00000914   -0.00000152
     atom   82 type  2   force =     0.00000008    0.00000018   -0.00000031
     atom   83 type  2   force =     0.00000617    0.00000359    0.00000537
     atom   84 type  2   force =    -0.00000407    0.00000282    0.00001211
     atom   85 type  2   force =     0.00000728   -0.00000545   -0.00000143
     atom   86 type  2   force =     0.00000006   -0.00000006    0.00002629
     atom   87 type  2   force =     0.00000003   -0.00000005   -0.00000572
     atom   88 type  2   force =    -0.00000048   -0.00000468    0.00001202
     atom   89 type  2   force =     0.00000098    0.00000921   -0.00000148
     atom   90 type  2   force =     0.00000005   -0.00001214   -0.00000453
     atom   91 type  2   force =     0.00000014    0.00000080    0.00001640
     atom   92 type  2   force =    -0.00001054    0.00000588   -0.00000450
     atom   93 type  2   force =     0.00000076   -0.00000065    0.00001650
     atom   94 type  2   force =    -0.00000460    0.00000211    0.00001216
     atom   95 type  2   force =     0.00000822   -0.00000365   -0.00000132

     Total force =     0.003426     Total SCF correction =     0.000116

     Computing stress (Cartesian axis) and pressure

     Non-local corr. energy    =      45.78093035 Ry

          total   stress  (Ry/bohr**3)                   (kbar)     P=        8.51
   0.00005677   0.00000000   0.00000000            8.35        0.00        0.00
   0.00000000   0.00005676  -0.00000000            0.00        8.35       -0.00
   0.00000000  -0.00000000   0.00006002            0.00       -0.00        8.83

     kinetic stress (kbar)  14789.34      0.00      0.00
                                0.00  14789.34     -0.00
                                0.00     -0.00  14799.52

     local   stress (kbar)  -7433.14      0.01      0.00
                                0.01  -7433.13     -0.01
                                0.00     -0.01   1007.67

     nonloc. stress (kbar)   -985.94      0.00      0.00
                                0.00   -985.94     -0.00
                                0.00     -0.00   -991.59

     hartree stress (kbar)  11951.47     -0.00     -0.00
                               -0.00  11951.46      0.00
                               -0.00      0.00   8145.71

     exc-cor stress (kbar)   6896.65     -0.00     -0.00
                               -0.00   6896.65     -0.00
                               -0.00     -0.00   6895.64

     corecor stress (kbar) -11226.77      0.00     -0.00
                                0.00 -11226.77      0.00
                               -0.00      0.00 -11226.74

     ewald   stress (kbar) -14066.14     -0.00     -0.00
                               -0.00 -14066.14      0.00
                               -0.00      0.00 -18705.49

     hubbard stress (kbar)      0.00      0.00      0.00
                                0.00      0.00      0.00
                                0.00      0.00      0.00

     DFT-D   stress (kbar)      0.00      0.00      0.00
                                0.00      0.00      0.00
                                0.00      0.00      0.00

     XDM     stress (kbar)      0.00      0.00      0.00
                                0.00      0.00      0.00
                                0.00      0.00      0.00

     dft-nl  stress (kbar)     82.88      0.00      0.00
                                0.00     82.88      0.00
                                0.00      0.00     84.11

     TS-vdW  stress (kbar)      0.00      0.00      0.00
                                0.00      0.00      0.00
                                0.00      0.00      0.00

     MDB     stress (kbar)      0.00      0.00      0.00
                                0.00      0.00      0.00
                                0.00      0.00      0.00

     3D-RISM stress (kbar)      0.00      0.00      0.00
                                0.00      0.00      0.00
                                0.00      0.00      0.00

     Energy error            =      6.8E-05 Ry
     Gradient error          =      8.2E-04 Ry/Bohr

     bfgs converged in  10 scf cycles and   9 bfgs steps
     (criteria: energy <  1.0E-04 Ry, force <  1.0E-03 Ry/Bohr)

     End of BFGS Geometry Optimization

     Final energy             =  -63859.1666978462 Ry

     File ./PbI2.bfgs deleted, as requested
Begin final coordinates

ATOMIC_POSITIONS (angstrom)
Pb            2.3557065070        4.0797585931        7.3776708273
Pb            0.0872141432        8.0089227860       14.7553015981
Pb            0.0039606611        8.1530832830        7.3775814830
Pb           -2.3555495731       12.2398765740       14.7551678721
Pb           -2.3555868505       12.2399158124        7.3774725478
Pb           -4.7982575503       16.4707843726       14.7552580368
Pb           -4.7151162085       16.3267517291        7.3775213630
Pb            6.8928291225        4.0796921595       14.7554513764
Pb            7.0591819740        4.0797493432        7.3777522676
Pb            4.6242583448        8.0089231955       14.7553557396
Pb            4.7074336282        8.1530718818        7.3776646882
Pb            2.3557158088       12.2044317391       14.7815109556
Pb            2.3556813938       12.2357058100        7.3770689173
Pb           -0.0306011232       16.3376578621       14.7815596825
Pb           -0.0035927373       16.3220896662        7.3771051732
Pb           11.7782746914        4.0796891638       14.7555127704
Pb           11.7782340643        4.0797347782        7.3778191022
Pb            9.3919411003        8.1420575638       14.7291603939
Pb            9.4189437479        8.1577002121        7.3782093653
Pb            7.0669838766       12.2398448298       14.7553145428
Pb            7.0669477867       12.2398881399        7.3776242232
Pb            4.7420398180       16.3376439725       14.7816494119
Pb            4.7149554663       16.3220734742        7.3771753184
Pb           16.6637676973        4.0796936863       14.7554899901
Pb           16.4973031945        4.0797385908        7.3777653105
Pb           14.1646037705        8.1420624705       14.7291304388
Pb           14.1375056394        8.1577131746        7.3781598930
Pb           11.7782634001       12.2753002889       14.7290347493
Pb           11.7782213231       12.2440940893        7.3780519516
Pb            9.5097276577       16.4707638184       14.7553484049
Pb            9.4264884792       16.3267260813        7.3776127546
I             2.3556539829        1.3616801361        5.4927121780
I             2.3556916225        1.3263279148       12.8945783325
I             0.0016489751        5.4388634750        5.4927892716
I            -0.0286793352        5.4562845344       12.8946703559
I            -2.3535993626        9.5216650871        5.4961336288
I            -2.3856036559        9.5313314583       12.8701761315
I            -4.7086762272       13.6008479035        5.4960639045
I            -4.7162508856       13.5680660410       12.8700922840
I             7.0695990173        1.3583073045        5.5008789814
I             7.0715852836        1.3571374724       12.8492176776
I             4.7097280055        5.4388868908        5.4928071655
I             4.7402955723        5.4563892777       12.8946123699
I             2.3557021021        9.5229258009        5.5008513321
I             2.3557249951        9.5251579772       12.8491630405
I             0.0014670111       13.6008278324        5.5008609706
I            -0.0011807739       13.5992580757       12.8634999956
I            11.7782391244        1.3581967391        5.5010480664
I            11.7782588489        1.3612476757       12.8637149985
I             9.4231709541        5.4371621569        5.4963372332
I             9.4476499463        5.4599890642       12.8703856785
I             7.0649557947        9.5216782821        5.4962321510
I             7.0970173864        9.5313394339       12.8702682183
I             4.7099234648       13.6008186574        5.5009425824
I             4.7126141337       13.5992462832       12.8635924250
I            16.4868366901        1.3582785856        5.5009596453
I            16.4849044091        1.3571111800       12.8493203412
I            14.1332882218        5.4371511844        5.4963449415
I            14.1089078556        5.4599551342       12.8704039608
I            11.7782004583        9.5198517616        5.4954158362
[...]
I             9.4231296560        2.7223641018        9.2591521105
I             7.0715418126        6.8025008812        1.9061010391
I             7.0695470304        6.8013869234        9.2544720165
I             4.7062683813       10.9116704887        1.8849720008
I             4.7138494614       10.8791220061        9.2590275166
I             2.3556723119       14.9599483671        1.8846670759
I             2.3556514261       14.9599931855        9.2598187010
I            14.1088471282        2.6993951431        1.8851377423
I            14.1333079571        2.7223795703        9.2591726311
I            11.7782580734        6.7983900176        1.8917304805
I            11.7782277961        6.8014875854        9.2544241906
I             9.4213291563       10.8806698693        1.8916234898
I             9.4239721909       10.8791584371        9.2542992902
I             7.0369014353       14.9483697810        1.8850165734
I             7.0689612324       14.9581917431        9.2590333157
End final coordinates

     Writing all to output data dir ./PbI2.save/

     General routines

     Parallel routines

     PAW routines

   This run was terminated on:   6:43:42  12Feb2024

   JOB DONE.