     Program PWSCF v.7.1 starts on 27Mar2024 at 22:28:23

     Reading input from espresso.pwi
Warning: card &CELL ignored
Warning: card    CELL_DYNAMICS    = 'BFGS' ignored
Warning: card / ignored

     Current dimensions of program PWSCF are:
     Max number of different atomic species (ntypx) = 10
     Max number of k-points (npk) =  40000
     Max angular momentum in pseudopotentials (lmaxx) =  4
     file Ga.pbe-dn-kjpaw_psl.1.0.0.UPF: wavefunction(s)  4S renormalized
     file N.pbe-n-kjpaw_psl.1.0.0.UPF: wavefunction(s)  2S renormalized

     IMPORTANT: XC functional enforced from input :
     Exchange-correlation= BEEF-VDW
                           (   1   4  43  14   2   0   0)
     Any further DFT definition will be discarded
     Please, verify this is what you really want

     R & G space division:  proc/nbgrp/npool/nimage =      27
     Subspace diagonalization in iterative solution of the eigenvalue problem:
     a serial algorithm will be used

     Using Slab Decomposition

     bravais-lattice index     =            4
     lattice parameter (alat)  =      12.2626  a.u.
     unit-cell volume          =    2602.7676 (a.u.)^3
     number of atoms/cell      =           31
     number of atomic types    =            2
     number of electrons       =       277.00
     number of Kohn-Sham states=          167
     kinetic-energy cutoff     =      70.0000  Ry
     charge density cutoff     =     350.0000  Ry
     scf convergence threshold =      1.0E-07
     mixing beta               =       0.7000
     number of iterations used =            8  plain     mixing
     Exchange-correlation= BEEF-VDW
                           (   1   4  43  14   2   0   0)

     celldm(1)=  12.262616  celldm(2)=   0.000000  celldm(3)=   1.629879
     celldm(4)=   0.000000  celldm(5)=   0.000000  celldm(6)=   0.000000

     crystal axes: (cart. coord. in units of alat)
               a(1) = (   1.000000   0.000000   0.000000 )
               a(2) = (  -0.500000   0.866025   0.000000 )
               a(3) = (   0.000000   0.000000   1.629879 )

     reciprocal axes: (cart. coord. in units 2 pi/alat)
               b(1) = (  1.000000  0.577350 -0.000000 )
               b(2) = (  0.000000  1.154701  0.000000 )
               b(3) = (  0.000000 -0.000000  0.613542 )

     PseudoPot. # 1 for Ga read from file:
     /trace/group/acmegroup/atimmins/packages/espresso/pseudo/psl_1.0.0/pslibrary.1.0.0/pbe/PSEUDOPOTENTIALS/Ga.pbe-dn-kjpaw_psl.1.0.0.UPF
     MD5 check sum: cd2a01e492f15b435d17032472d8505c
     Pseudo is Projector augmented-wave + core cor, Zval = 13.0
     Generated using 'atomic' code by A. Dal Corso  v.7.1
     Shape of augmentation charge: PSQ
     Using radial grid of 1205 points,  6 beta functions with:
                l(1) =   0
                l(2) =   0
                l(3) =   1
                l(4) =   1
                l(5) =   2
                l(6) =   2
     Q(r) pseudized with 0 coefficients

     PseudoPot. # 2 for N  read from file:
     /trace/group/acmegroup/atimmins/packages/espresso/pseudo/psl_1.0.0/pslibrary.1.0.0/pbe/PSEUDOPOTENTIALS/N.pbe-n-kjpaw_psl.1.0.0.UPF
     MD5 check sum: f77f775694dac7e2c3fe1c82443d1a16
     Pseudo is Projector augmented-wave + core cor, Zval =  5.0
     Generated using 'atomic' code by A. Dal Corso  v.7.1
     Shape of augmentation charge: PSQ
     Using radial grid of 1085 points,  4 beta functions with:
                l(1) =   0
                l(2) =   0
                l(3) =   1
                l(4) =   1
     Q(r) pseudized with 0 coefficients

     atomic species   valence    mass     pseudopotential
        Ga            13.00    69.72300     Ga( 1.00)
        N              5.00    14.00700     N ( 1.00)

      6 Sym. Ops. (no inversion) found ( 4 have fractional translation)

                                    s                        frac. trans.

      isym =  1     identity

 cryst.   s( 1) = (     1          0          0      )
                  (     0          1          0      )
                  (     0          0          1      )

 cart.    s( 1) = (  1.0000000  0.0000000  0.0000000 )
                  (  0.0000000  1.0000000  0.0000000 )
                  (  0.0000000  0.0000000  1.0000000 )

      isym =  2     120 deg rotation - cryst. axis [0,0,1]

 cryst.   s( 2) = (     0          1          0      )    f =(  0.4999999 )
                  (    -1         -1          0      )       (  0.0000004 )
                  (     0          0          1      )       (  0.0000000 )

 cart.    s( 2) = ( -0.5000000 -0.8660254  0.0000000 )    f =(  0.4999998 )
                  (  0.8660254 -0.5000000  0.0000000 )       (  0.0000003 )
                  (  0.0000000  0.0000000  1.0000000 )       (  0.0000000 )

      isym =  3     120 deg rotation - cryst. axis [0,0,-1]

[...]

      isym =  4     inv. 180 deg rotation - cart. axis [1,0,0]

[...]

      isym =  5     inv. 180 deg rotation - cryst. axis [0,1,0]

 cryst.   s( 5) = (     1          1          0      )
                  (     0         -1          0      )
                  (     0          0          1      )

 cart.    s( 5) = (  0.5000000  0.8660254  0.0000000 )
                  (  0.8660254 -0.5000000  0.0000000 )
                  (  0.0000000  0.0000000  1.0000000 )

      isym =  6     inv. 180 deg rotation - cryst. axis [1,1,0]

 cryst.   s( 6) = (     0         -1          0      )    f =(  0.4999999 )
                  (    -1          0          0      )       (  0.4999999 )
                  (     0          0          1      )       (  0.0000000 )

 cart.    s( 6) = (  0.5000000 -0.8660254  0.0000000 )    f =(  0.2500000 )
                  ( -0.8660254 -0.5000000  0.0000000 )       (  0.4330127 )
                  (  0.0000000  0.0000000  1.0000000 )       (  0.0000000 )

     point group C_3v (3m)
     there are  3 classes
     the character table:

       E     2C3   3s_v
A_1    1.00  1.00  1.00
A_2    1.00  1.00 -1.00
E      2.00 -1.00  0.00

     the symmetry operations in each class and the name of the first element:

     E        1
          identity
     2C3      2    3
          120 deg rotation - cryst. axis [0,0,1]
     3s_v     4    5    6
          inv. 180 deg rotation - cart. axis [1,0,0]

   Cartesian axes

     site n.     atom                  positions (alat units)
         1           Ga  tau(   1) = (   0.2500002   0.1443375   1.2217266  )
         2           Ga  tau(   2) = (   0.0000002   0.5773502   0.4067871  )
         3           Ga  tau(   3) = (   0.0000002   0.5773502   1.2217266  )
         4           Ga  tau(   4) = (   0.7500002   0.1443375   0.4067871  )
         5           Ga  tau(   5) = (   0.7500002   0.1443375   1.2217266  )
         6           Ga  tau(   6) = (   0.5000002   0.5773502   0.4067871  )
         7           Ga  tau(   7) = (   0.5000002   0.5773502   1.2217266  )
         8           Ga  tau(   8) = (  -0.0000003   0.2886754   0.8142568  )
         9           Ga  tau(   9) = (  -0.0000003   0.2886754   1.6291964  )
        10           Ga  tau(  10) = (  -0.2500003   0.7216881   0.8142568  )
        11           Ga  tau(  11) = (  -0.2500003   0.7216881   1.6291964  )
        12           Ga  tau(  12) = (   0.4999997   0.2886754   0.8142568  )
        13           Ga  tau(  13) = (   0.4999997   0.2886754   1.6291964  )
        14           Ga  tau(  14) = (   0.2499997   0.7216881   0.8142568  )
        15           Ga  tau(  15) = (   0.2499997   0.7216881   1.6291964  )
        16           N   tau(  16) = (   0.2500002   0.1443375   0.7137548  )
        17           N   tau(  17) = (   0.2500002   0.1443375   1.5286943  )
        18           N   tau(  18) = (   0.0000002   0.5773502   0.7137548  )
        19           N   tau(  19) = (   0.0000002   0.5773502   1.5286943  )
        20           N   tau(  20) = (   0.7500002   0.1443375   0.7137548  )
        21           N   tau(  21) = (   0.7500002   0.1443375   1.5286943  )
        22           N   tau(  22) = (   0.5000002   0.5773502   0.7137548  )
        23           N   tau(  23) = (   0.5000002   0.5773502   1.5286943  )
        24           N   tau(  24) = (  -0.0000003   0.2886754   0.3062850  )
        25           N   tau(  25) = (  -0.0000003   0.2886754   1.1212245  )
        26           N   tau(  26) = (  -0.2500003   0.7216881   0.3062850  )
        27           N   tau(  27) = (  -0.2500003   0.7216881   1.1212245  )
        28           N   tau(  28) = (   0.4999997   0.2886754   0.3062850  )
        29           N   tau(  29) = (   0.4999997   0.2886754   1.1212245  )
        30           N   tau(  30) = (   0.2499997   0.7216881   0.3062850  )
        31           N   tau(  31) = (   0.2499997   0.7216881   1.1212245  )

   Crystallographic axes

     site n.     atom                  positions (cryst. coord.)
         1           Ga  tau(   1) = (  0.3333335  0.1666666  0.7495811  )
         2           Ga  tau(   2) = (  0.3333335  0.6666666  0.2495811  )
         3           Ga  tau(   3) = (  0.3333335  0.6666666  0.7495811  )
         4           Ga  tau(   4) = (  0.8333335  0.1666666  0.2495811  )
         5           Ga  tau(   5) = (  0.8333335  0.1666666  0.7495811  )
         6           Ga  tau(   6) = (  0.8333335  0.6666666  0.2495811  )
         7           Ga  tau(   7) = (  0.8333335  0.6666666  0.7495811  )
         8           Ga  tau(   8) = (  0.1666665  0.3333336  0.4995811  )
         9           Ga  tau(   9) = (  0.1666665  0.3333336  0.9995811  )
        10           Ga  tau(  10) = (  0.1666665  0.8333336  0.4995811  )
        11           Ga  tau(  11) = (  0.1666665  0.8333336  0.9995811  )
        12           Ga  tau(  12) = (  0.6666665  0.3333336  0.4995811  )
        13           Ga  tau(  13) = (  0.6666665  0.3333336  0.9995811  )
        14           Ga  tau(  14) = (  0.6666665  0.8333336  0.4995811  )
        15           Ga  tau(  15) = (  0.6666665  0.8333336  0.9995811  )
        16           N   tau(  16) = (  0.3333335  0.1666666  0.4379189  )
        17           N   tau(  17) = (  0.3333335  0.1666666  0.9379189  )
        18           N   tau(  18) = (  0.3333335  0.6666666  0.4379189  )
        19           N   tau(  19) = (  0.3333335  0.6666666  0.9379189  )
        20           N   tau(  20) = (  0.8333335  0.1666666  0.4379189  )
        21           N   tau(  21) = (  0.8333335  0.1666666  0.9379189  )
        22           N   tau(  22) = (  0.8333335  0.6666666  0.4379189  )
        23           N   tau(  23) = (  0.8333335  0.6666666  0.9379189  )
        24           N   tau(  24) = (  0.1666665  0.3333336  0.1879189  )
        25           N   tau(  25) = (  0.1666665  0.3333336  0.6879189  )
        26           N   tau(  26) = (  0.1666665  0.8333336  0.1879189  )
        27           N   tau(  27) = (  0.1666665  0.8333336  0.6879189  )
        28           N   tau(  28) = (  0.6666665  0.3333336  0.1879189  )
        29           N   tau(  29) = (  0.6666665  0.3333336  0.6879189  )
        30           N   tau(  30) = (  0.6666665  0.8333336  0.1879189  )
        31           N   tau(  31) = (  0.6666665  0.8333336  0.6879189  )

[...]
     atom   31 type  2   force =     0.00002907   -0.00001807   -0.91260649
     The local contribution  to forces
     atom    1 type  1   force =    -0.00007755    0.00024593   -0.72629514
     atom    2 type  1   force =    -1.54967603   -0.89453970   -1.83381444
     atom    3 type  1   force =    -0.20870096   -0.12019594    0.21166918
     atom    4 type  1   force =    -0.00011166    1.78961976   -1.83381256
     atom    5 type  1   force =    -0.00007226    0.24114146    0.21166949
     atom    6 type  1   force =     1.54955999   -0.89438949   -1.83381450
     atom    7 type  1   force =     0.20854627   -0.12019569    0.21166914
     atom    8 type  1   force =    -0.62629506    0.36172105    7.64252407
     atom    9 type  1   force =    -3.21878288    1.85849741   -6.25843862
     atom   10 type  1   force =     0.00109213   -0.72493389    7.64254222
     atom   11 type  1   force =     0.00109092   -3.71850081   -6.25846254
     atom   12 type  1   force =     0.62847675    0.36171841    7.64254560
     atom   13 type  1   force =     3.22098856    1.85850297   -6.25846611
     atom   14 type  1   force =     0.00109870   -0.00049676    4.88165293
     atom   15 type  1   force =     0.00110164   -0.00049735   -5.00492863
     atom   16 type  2   force =    -0.00001413    0.00002147    8.54471604
     atom   17 type  2   force =    -0.00000951    0.00002205   -2.42194445
     atom   18 type  2   force =     0.16538375    0.09551208    2.31356244
     atom   19 type  2   force =     0.13566678    0.07835661   -1.40510098
     atom   20 type  2   force =    -0.00001069   -0.19095815    2.31356345
     atom   21 type  2   force =    -0.00000902   -0.15664416   -1.40510036
     atom   22 type  2   force =    -0.16540561    0.09551501    2.31356189
     atom   23 type  2   force =    -0.13568604    0.07835656   -1.40510100
     atom   24 type  2   force =    -6.12638252    3.53707987   -3.36858012
     atom   25 type  2   force =     0.07516353   -0.04338515    1.06757246
     atom   26 type  2   force =     0.00006985   -7.07432213   -3.36859773
     atom   27 type  2   force =     0.00008328    0.08665408    1.06756777
     atom   28 type  2   force =     6.12659695    3.53711419   -3.36860790
     atom   29 type  2   force =    -0.07499373   -0.04338260    1.06756753
     atom   30 type  2   force =     0.00009290   -0.00003997   -1.36043663
     atom   31 type  2   force =     0.00008639   -0.00003862    0.87930416
     The core correction contribution to forces
     atom    1 type  1   force =    -0.00000628    0.00001821    0.00138975
     atom    2 type  1   force =    -0.00281462   -0.00161386   -0.00317985
     atom    3 type  1   force =    -0.00070405   -0.00038421    0.00120028
     atom    4 type  1   force =    -0.00000908    0.00326589   -0.00317982
     atom    5 type  1   force =    -0.00000588    0.00082378    0.00120029
     atom    6 type  1   force =     0.00280576   -0.00160222   -0.00317986
     atom    7 type  1   force =     0.00069155   -0.00038417    0.00120027
     atom    8 type  1   force =     0.00344134   -0.00197761   -0.00065127
     atom    9 type  1   force =    -0.00030304    0.00018441    0.00423073
     atom   10 type  1   force =     0.00008044    0.00384390   -0.00065131
     atom   11 type  1   force =     0.00008025   -0.00047946    0.00423070
     atom   12 type  1   force =    -0.00328018   -0.00197742   -0.00065132
     atom   13 type  1   force =     0.00046434    0.00018437    0.00423070
     atom   14 type  1   force =     0.00008059   -0.00003669   -0.00086013
     atom   15 type  1   force =     0.00008064   -0.00003668    0.00089291
     atom   16 type  2   force =     0.00000019   -0.00000019   -0.01043363
     atom   17 type  2   force =     0.00000024   -0.00000033   -0.00031811
     atom   18 type  2   force =    -0.00048946   -0.00028308   -0.00068810
     atom   19 type  2   force =    -0.00087791   -0.00050734    0.00048711
     atom   20 type  2   force =     0.00000023    0.00056516   -0.00068812
     atom   21 type  2   force =     0.00000023    0.00101368    0.00048711
     atom   22 type  2   force =     0.00048991   -0.00028303   -0.00068810
     atom   23 type  2   force =     0.00087840   -0.00050735    0.00048711
     atom   24 type  2   force =     0.00711459   -0.00410767    0.00443710
     atom   25 type  2   force =     0.00031159   -0.00017993   -0.00237124
     atom   26 type  2   force =    -0.00000225    0.00821942    0.00443730
     atom   27 type  2   force =    -0.00000226    0.00036374   -0.00237132
     atom   28 type  2   force =    -0.00711942   -0.00410777    0.00443732
     atom   29 type  2   force =    -0.00031619   -0.00017995   -0.00237131
     atom   30 type  2   force =    -0.00000239    0.00000134    0.00102242
     atom   31 type  2   force =    -0.00000233    0.00000130   -0.00055283
     The Hubbard contrib.    to forces
     atom    1 type  1   force =     0.00000000    0.00000000    0.00000000
     atom    2 type  1   force =     0.00000000    0.00000000    0.00000000
     atom    3 type  1   force =     0.00000000    0.00000000    0.00000000
     atom    4 type  1   force =     0.00000000    0.00000000    0.00000000
     atom    5 type  1   force =     0.00000000    0.00000000    0.00000000
     atom    6 type  1   force =     0.00000000    0.00000000    0.00000000
     atom    7 type  1   force =     0.00000000    0.00000000    0.00000000
     atom    8 type  1   force =     0.00000000    0.00000000    0.00000000
     atom    9 type  1   force =     0.00000000    0.00000000    0.00000000
     atom   10 type  1   force =     0.00000000    0.00000000    0.00000000
     atom   11 type  1   force =     0.00000000    0.00000000    0.00000000
     atom   12 type  1   force =     0.00000000    0.00000000    0.00000000
     atom   13 type  1   force =     0.00000000    0.00000000    0.00000000
     atom   14 type  1   force =     0.00000000    0.00000000    0.00000000
     atom   15 type  1   force =     0.00000000    0.00000000    0.00000000
     atom   16 type  2   force =     0.00000000    0.00000000    0.00000000
     atom   17 type  2   force =     0.00000000    0.00000000    0.00000000
     atom   18 type  2   force =     0.00000000    0.00000000    0.00000000
     atom   19 type  2   force =     0.00000000    0.00000000    0.00000000
     atom   20 type  2   force =     0.00000000    0.00000000    0.00000000
     atom   21 type  2   force =     0.00000000    0.00000000    0.00000000
     atom   22 type  2   force =     0.00000000    0.00000000    0.00000000
     atom   23 type  2   force =     0.00000000    0.00000000    0.00000000
     atom   24 type  2   force =     0.00000000    0.00000000    0.00000000
     atom   25 type  2   force =     0.00000000    0.00000000    0.00000000
     atom   26 type  2   force =     0.00000000    0.00000000    0.00000000
     atom   27 type  2   force =     0.00000000    0.00000000    0.00000000
     atom   28 type  2   force =     0.00000000    0.00000000    0.00000000
     atom   29 type  2   force =     0.00000000    0.00000000    0.00000000
     atom   30 type  2   force =     0.00000000    0.00000000    0.00000000
     atom   31 type  2   force =     0.00000000    0.00000000    0.00000000
     The SCF correction term to forces
     atom    1 type  1   force =    -0.00000000   -0.00000000    0.00003492
     atom    2 type  1   force =     0.00001377    0.00000795   -0.00004526
     atom    3 type  1   force =     0.00004089    0.00002361    0.00002722
     atom    4 type  1   force =     0.00000000   -0.00001591   -0.00004526
     atom    5 type  1   force =     0.00000000   -0.00004721    0.00002722
     atom    6 type  1   force =    -0.00001377    0.00000795   -0.00004526
     atom    7 type  1   force =    -0.00004089    0.00002361    0.00002722
     atom    8 type  1   force =     0.00003429   -0.00001980    0.00003776
     atom    9 type  1   force =     0.00004149   -0.00002395   -0.00004327
     atom   10 type  1   force =    -0.00000000    0.00003959    0.00003776
     atom   11 type  1   force =     0.00000000    0.00004791   -0.00004327
     atom   12 type  1   force =    -0.00003429   -0.00001980    0.00003776
     atom   13 type  1   force =    -0.00004149   -0.00002395   -0.00004327
     atom   14 type  1   force =    -0.00000000    0.00000000    0.00005804
     atom   15 type  1   force =     0.00000000   -0.00000000   -0.00003992
     atom   16 type  2   force =    -0.00000000    0.00000000    0.00001375
     atom   17 type  2   force =    -0.00000000    0.00000000   -0.00000921
     atom   18 type  2   force =     0.00000813    0.00000470    0.00001569
     atom   19 type  2   force =     0.00000963    0.00000556   -0.00001010
     atom   20 type  2   force =     0.00000000   -0.00000939    0.00001569
     atom   21 type  2   force =     0.00000000   -0.00001113   -0.00001010
     atom   22 type  2   force =    -0.00000813    0.00000470    0.00001569
     atom   23 type  2   force =    -0.00000963    0.00000556   -0.00001010
     atom   24 type  2   force =     0.00001161   -0.00000670   -0.00002761
     atom   25 type  2   force =     0.00001302   -0.00000751    0.00002149
     atom   26 type  2   force =    -0.00000000    0.00001340   -0.00002761
     atom   27 type  2   force =    -0.00000000    0.00001503    0.00002149
     atom   28 type  2   force =    -0.00001161   -0.00000670   -0.00002761
     atom   29 type  2   force =    -0.00001302   -0.00000751    0.00002149
     atom   30 type  2   force =    -0.00000000    0.00000000   -0.00002854
     atom   31 type  2   force =     0.00000000   -0.00000000    0.00002239

     Total force =     0.003332     Total SCF correction =     0.000227

     Computing stress (Cartesian axis) and pressure

[...]

          total   stress  (Ry/bohr**3)                   (kbar)     P=      114.57
   0.00075527  -0.00000000   0.00000000          111.10       -0.00        0.00
  -0.00000000   0.00075527   0.00000000           -0.00      111.10        0.00
   0.00000000   0.00000000   0.00082605            0.00        0.00      121.52

     kinetic stress (kbar)  17909.24      0.00      0.00
                                0.00  17909.24      0.00
                                0.00      0.00  17971.92

     local   stress (kbar)   1991.45     -0.07     -0.00
                               -0.07   1991.37      0.00
                               -0.00      0.00   3018.88

     nonloc. stress (kbar)    -40.65     -0.00      0.00
                                0.00    -40.65      0.00
                                0.00      0.00    -43.08

     hartree stress (kbar)  19828.94     -0.00      0.00
                               -0.00  19828.94     -0.00
                                0.00     -0.00  19339.84

     exc-cor stress (kbar)   4804.04     -0.00     -0.00
                               -0.00   4804.04      0.00
                               -0.00      0.00   4804.13

     corecor stress (kbar) -13268.95     -0.00     -0.00
                               -0.00 -13268.95     -0.00
                               -0.00     -0.00 -13269.49

     ewald   stress (kbar) -31266.43      0.09      0.00
                                0.09 -31266.32     -0.00
                                0.00     -0.00 -31853.65

     hubbard stress (kbar)      0.00      0.00      0.00
                                0.00      0.00      0.00
                                0.00      0.00      0.00

     DFT-D   stress (kbar)      0.00      0.00      0.00
                                0.00      0.00      0.00
                                0.00      0.00      0.00

     XDM     stress (kbar)      0.00      0.00      0.00
                                0.00      0.00      0.00
                                0.00      0.00      0.00

     dft-nl  stress (kbar)    153.46     -0.00      0.00
                               -0.00    153.46     -0.00
                                0.00     -0.00    152.97

     TS-vdW  stress (kbar)      0.00      0.00      0.00
                                0.00      0.00      0.00
                                0.00      0.00      0.00

     MDB     stress (kbar)      0.00      0.00      0.00
                                0.00      0.00      0.00
                                0.00      0.00      0.00

     3D-RISM stress (kbar)      0.00      0.00      0.00
                                0.00      0.00      0.00
                                0.00      0.00      0.00

[...]

     Non-local corr. energy    =       8.27223590 Ry

 BEEFens 2000 ensemble energies
             -0.673189655732895E+01
             -0.602267571951050E+02
             -0.258177283955928E+02
              0.212334574027222E+02
             -0.432138686430184E+02
             -0.556466409222589E+02
              0.286464878492460E+02
             -0.306389994692870E+01
              0.476573024115093E+02
             -0.203494914890848E+01
              0.232851947334557E+02
              0.970810117299223E+00
              0.100344783508703E+01
             -0.207562295864562E+01
              0.311754592831004E+02
             -0.227493716319551E+02
             -0.469436789069491E+02
             -0.152823819365429E+02
              0.114375236989455E+02
             -0.100655142062681E+01
              0.682642538013325E+02
              0.581790669651922E+02
             -0.332142963533541E+02
              0.121212339927305E+02
             -0.730045164970529E+02
              0.585400057941875E+02
              0.191457802878605E+02
              0.569878252890408E+02
              0.374349454074535E+02
             -0.182978325873148E+02
              0.137876464541760E+02
             -0.269930093862634E+02
              0.741570231176064E+01
              0.365118986387465E+02
              0.388133274671964E+02
             -0.139571332868936E+02
              0.862112130175248E+02
             -0.326713906361053E+02
             -0.235343735922880E+02
              0.345211324348289E+02
              0.154179273244728E+02
              0.258752668711468E+02
             -0.492677996040604E+02
             -0.140810306319406E+01
              0.484250282859740E+02
              0.628397535921881E+02
             -0.624980813702226E+02
              0.446541577404320E+01
              0.235933353247630E+02
              0.113830893603921E+02
              0.261609603772127E+02
              0.554351909309466E+02
             -0.335378618495521E+02
             -0.367446029652789E+02
             -0.477607143287647E+02
             -0.746939123730056E+01
             -0.435365824991215E+02
              0.421944136658630E+01
             -0.812883185531518E+01
             -0.340201358872048E+02
[...]
              0.424830063956800E+02
              0.233408537274906E+02
              0.298210944868339E+02
             -0.480676918995492E+02
             -0.458507802945206E+02
             -0.116801502744338E+02
             -0.450428230122238E+02
              0.722365096704419E+02
              0.619133830021059E+02
              0.295633533206763E+02
              0.800038693916368E+02
             -0.416455694043221E+02
             -0.170335633526598E+02
             -0.235807317063037E+02
              0.661157186225025E+02

 BEEF-vdW xc energy contributions
            1 :    -606.8425891700832
            2 :     546.4798715399218
            3 :    -445.2821887317733
            4 :     332.7772326793991
            5 :    -235.0161995029456
            6 :     164.7054830146500
            7 :    -119.7492903592407
            8 :     89.56120453824394
            9 :    -64.05017851686387
           10 :     39.46461193142875
           11 :    -18.31010882538214
           12 :     4.879832240135897
           13 :   -0.5196809126124435
           14 :     2.117764047863034
           15 :    -4.371479037347285
           16 :     3.532974061148593
           17 :    0.4207683041576047
           18 :    -4.645567450864519
           19 :     6.290779101656653
           20 :    -4.934359836941553
           21 :     2.764937402932560
           22 :    -2.618411163430324
           23 :     5.630800706644436
           24 :    -10.39910918709211
           25 :     14.19072112918468
           26 :    -15.09151693955596
           27 :     13.34320156639649
           28 :    -10.90216159132217
           29 :     9.723669868124603
           30 :    -10.22790125822576
           31 :    -52.27847110397772
           32 :    -35.82604385758623

     Writing all to output data dir ./GaN.save/

     General routines

     Parallel routines

     PAW routines

   This run was terminated on:  22:29: 3  27Mar2024

   JOB DONE.