     Program PWSCF v.7.1 starts on 27Mar2024 at 21: 4:38

     Reading input from espresso.pwi
Warning: card &CELL ignored
Warning: card    CELL_DYNAMICS    = 'BFGS' ignored
Warning: card / ignored

     Current dimensions of program PWSCF are:
     Max number of different atomic species (ntypx) = 10
     Max number of k-points (npk) =  40000
     Max angular momentum in pseudopotentials (lmaxx) =  4
     file Ga.pbe-dn-kjpaw_psl.1.0.0.UPF: wavefunction(s)  4S renormalized
     file N.pbe-n-kjpaw_psl.1.0.0.UPF: wavefunction(s)  2S renormalized

     IMPORTANT: XC functional enforced from input :
     Exchange-correlation= BEEF-VDW
                           (   1   4  43  14   2   0   0)
     Any further DFT definition will be discarded
     Please, verify this is what you really want

     R & G space division:  proc/nbgrp/npool/nimage =      27
     Subspace diagonalization in iterative solution of the eigenvalue problem:
     a serial algorithm will be used

     Using Slab Decomposition

     bravais-lattice index     =            4
     lattice parameter (alat)  =      12.2626  a.u.
     unit-cell volume          =    2602.7676 (a.u.)^3
     number of atoms/cell      =           31
     number of atomic types    =            2
     number of electrons       =       277.00
     number of Kohn-Sham states=          167
     kinetic-energy cutoff     =      70.0000  Ry
     charge density cutoff     =     350.0000  Ry
     scf convergence threshold =      1.0E-07
     mixing beta               =       0.7000
     number of iterations used =            8  plain     mixing
     energy convergence thresh.=      1.0E-04
     force convergence thresh. =      1.0E-03
     Exchange-correlation= BEEF-VDW
                           (   1   4  43  14   2   0   0)
     nstep                     =           50

     celldm(1)=  12.262616  celldm(2)=   0.000000  celldm(3)=   1.629879
     celldm(4)=   0.000000  celldm(5)=   0.000000  celldm(6)=   0.000000

     crystal axes: (cart. coord. in units of alat)
               a(1) = (   1.000000   0.000000   0.000000 )
               a(2) = (  -0.500000   0.866025   0.000000 )
               a(3) = (   0.000000   0.000000   1.629879 )

     reciprocal axes: (cart. coord. in units 2 pi/alat)
               b(1) = (  1.000000  0.577350 -0.000000 )
               b(2) = (  0.000000  1.154701  0.000000 )
               b(3) = (  0.000000 -0.000000  0.613542 )

     PseudoPot. # 1 for Ga read from file:
     /trace/group/acmegroup/atimmins/packages/espresso/pseudo/psl_1.0.0/pslibrary.1.0.0/pbe/PSEUDOPOTENTIALS/Ga.pbe-dn-kjpaw_psl.1.0.0.UPF
     MD5 check sum: cd2a01e492f15b435d17032472d8505c
     Pseudo is Projector augmented-wave + core cor, Zval = 13.0
     Generated using 'atomic' code by A. Dal Corso  v.7.1
     Shape of augmentation charge: PSQ
     Using radial grid of 1205 points,  6 beta functions with:
                l(1) =   0
                l(2) =   0
                l(3) =   1
                l(4) =   1
                l(5) =   2
                l(6) =   2
     Q(r) pseudized with 0 coefficients

     PseudoPot. # 2 for N  read from file:
     /trace/group/acmegroup/atimmins/packages/espresso/pseudo/psl_1.0.0/pslibrary.1.0.0/pbe/PSEUDOPOTENTIALS/N.pbe-n-kjpaw_psl.1.0.0.UPF
     MD5 check sum: f77f775694dac7e2c3fe1c82443d1a16
     Pseudo is Projector augmented-wave + core cor, Zval =  5.0
     Generated using 'atomic' code by A. Dal Corso  v.7.1
     Shape of augmentation charge: PSQ
     Using radial grid of 1085 points,  4 beta functions with:
                l(1) =   0
                l(2) =   0
                l(3) =   1
                l(4) =   1
     Q(r) pseudized with 0 coefficients

     atomic species   valence    mass     pseudopotential
        Ga            13.00    69.72300     Ga( 1.00)
        N              5.00    14.00700     N ( 1.00)

      6 Sym. Ops. (no inversion) found ( 4 have fractional translation)

                                    s                        frac. trans.

      isym =  1     identity

 cryst.   s( 1) = (     1          0          0      )
                  (     0          1          0      )
                  (     0          0          1      )

 cart.    s( 1) = (  1.0000000  0.0000000  0.0000000 )
                  (  0.0000000  1.0000000  0.0000000 )
                  (  0.0000000  0.0000000  1.0000000 )

      isym =  2     120 deg rotation - cryst. axis [0,0,1]

 cryst.   s( 2) = (     0          1          0      )    f =(  0.4999999 )
                  (    -1         -1          0      )       (  0.0000004 )
                  (     0          0          1      )       (  0.0000000 )

 cart.    s( 2) = ( -0.5000000 -0.8660254  0.0000000 )    f =(  0.4999998 )
                  (  0.8660254 -0.5000000  0.0000000 )       (  0.0000003 )
                  (  0.0000000  0.0000000  1.0000000 )       (  0.0000000 )

      isym =  3     120 deg rotation - cryst. axis [0,0,-1]

[...]

      isym =  4     inv. 180 deg rotation - cart. axis [1,0,0]

[...]

      isym =  5     inv. 180 deg rotation - cryst. axis [0,1,0]

 cryst.   s( 5) = (     1          1          0      )
                  (     0         -1          0      )
                  (     0          0          1      )

 cart.    s( 5) = (  0.5000000  0.8660254  0.0000000 )
                  (  0.8660254 -0.5000000  0.0000000 )
                  (  0.0000000  0.0000000  1.0000000 )

      isym =  6     inv. 180 deg rotation - cryst. axis [1,1,0]

 cryst.   s( 6) = (     0         -1          0      )    f =(  0.4999999 )
                  (    -1          0          0      )       (  0.4999999 )
                  (     0          0          1      )       (  0.0000000 )

 cart.    s( 6) = (  0.5000000 -0.8660254  0.0000000 )    f =(  0.2500000 )
                  ( -0.8660254 -0.5000000  0.0000000 )       (  0.4330127 )
                  (  0.0000000  0.0000000  1.0000000 )       (  0.0000000 )

     point group C_3v (3m)
     there are  3 classes
     the character table:

       E     2C3   3s_v
A_1    1.00  1.00  1.00
A_2    1.00  1.00 -1.00
E      2.00 -1.00  0.00

     the symmetry operations in each class and the name of the first element:

     E        1
          identity
     2C3      2    3
          120 deg rotation - cryst. axis [0,0,1]
     3s_v     4    5    6
          inv. 180 deg rotation - cart. axis [1,0,0]

   Cartesian axes

     site n.     atom                  positions (alat units)
         1           Ga  tau(   1) = (   0.2500002   0.1443375   1.2217266  )
         2           Ga  tau(   2) = (   0.0000002   0.5773502   0.4067871  )
         3           Ga  tau(   3) = (   0.0000002   0.5773502   1.2217266  )
         4           Ga  tau(   4) = (   0.7500002   0.1443375   0.4067871  )
         5           Ga  tau(   5) = (   0.7500002   0.1443375   1.2217266  )
         6           Ga  tau(   6) = (   0.5000002   0.5773502   0.4067871  )
         7           Ga  tau(   7) = (   0.5000002   0.5773502   1.2217266  )
         8           Ga  tau(   8) = (  -0.0000003   0.2886754   0.8142568  )
         9           Ga  tau(   9) = (  -0.0000003   0.2886754   1.6291964  )
        10           Ga  tau(  10) = (  -0.2500003   0.7216881   0.8142568  )
        11           Ga  tau(  11) = (  -0.2500003   0.7216881   1.6291964  )
        12           Ga  tau(  12) = (   0.4999997   0.2886754   0.8142568  )
        13           Ga  tau(  13) = (   0.4999997   0.2886754   1.6291964  )
        14           Ga  tau(  14) = (   0.2499997   0.7216881   0.8142568  )
        15           Ga  tau(  15) = (   0.2499997   0.7216881   1.6291964  )
        16           N   tau(  16) = (   0.2500002   0.1443375   0.7137548  )
        17           N   tau(  17) = (   0.2500002   0.1443375   1.5286943  )
        18           N   tau(  18) = (   0.0000002   0.5773502   0.7137548  )
        19           N   tau(  19) = (   0.0000002   0.5773502   1.5286943  )
        20           N   tau(  20) = (   0.7500002   0.1443375   0.7137548  )
        21           N   tau(  21) = (   0.7500002   0.1443375   1.5286943  )
        22           N   tau(  22) = (   0.5000002   0.5773502   0.7137548  )
        23           N   tau(  23) = (   0.5000002   0.5773502   1.5286943  )
        24           N   tau(  24) = (  -0.0000003   0.2886754   0.3062850  )
        25           N   tau(  25) = (  -0.0000003   0.2886754   1.1212245  )
        26           N   tau(  26) = (  -0.2500003   0.7216881   0.3062850  )
        27           N   tau(  27) = (  -0.2500003   0.7216881   1.1212245  )
        28           N   tau(  28) = (   0.4999997   0.2886754   0.3062850  )
        29           N   tau(  29) = (   0.4999997   0.2886754   1.1212245  )
        30           N   tau(  30) = (   0.2499997   0.7216881   0.3062850  )
        31           N   tau(  31) = (   0.2499997   0.7216881   1.1212245  )

   Crystallographic axes

     site n.     atom                  positions (cryst. coord.)
         1           Ga  tau(   1) = (  0.3333335  0.1666666  0.7495811  )
         2           Ga  tau(   2) = (  0.3333335  0.6666666  0.2495811  )
         3           Ga  tau(   3) = (  0.3333335  0.6666666  0.7495811  )
         4           Ga  tau(   4) = (  0.8333335  0.1666666  0.2495811  )
         5           Ga  tau(   5) = (  0.8333335  0.1666666  0.7495811  )
         6           Ga  tau(   6) = (  0.8333335  0.6666666  0.2495811  )
         7           Ga  tau(   7) = (  0.8333335  0.6666666  0.7495811  )
         8           Ga  tau(   8) = (  0.1666665  0.3333336  0.4995811  )
         9           Ga  tau(   9) = (  0.1666665  0.3333336  0.9995811  )
        10           Ga  tau(  10) = (  0.1666665  0.8333336  0.4995811  )
        11           Ga  tau(  11) = (  0.1666665  0.8333336  0.9995811  )
        12           Ga  tau(  12) = (  0.6666665  0.3333336  0.4995811  )
        13           Ga  tau(  13) = (  0.6666665  0.3333336  0.9995811  )
        14           Ga  tau(  14) = (  0.6666665  0.8333336  0.4995811  )
        15           Ga  tau(  15) = (  0.6666665  0.8333336  0.9995811  )
        16           N   tau(  16) = (  0.3333335  0.1666666  0.4379189  )
        17           N   tau(  17) = (  0.3333335  0.1666666  0.9379189  )
        18           N   tau(  18) = (  0.3333335  0.6666666  0.4379189  )
        19           N   tau(  19) = (  0.3333335  0.6666666  0.9379189  )
        20           N   tau(  20) = (  0.8333335  0.1666666  0.4379189  )
        21           N   tau(  21) = (  0.8333335  0.1666666  0.9379189  )
        22           N   tau(  22) = (  0.8333335  0.6666666  0.4379189  )
        23           N   tau(  23) = (  0.8333335  0.6666666  0.9379189  )
        24           N   tau(  24) = (  0.1666665  0.3333336  0.1879189  )
        25           N   tau(  25) = (  0.1666665  0.3333336  0.6879189  )
        26           N   tau(  26) = (  0.1666665  0.8333336  0.1879189  )
        27           N   tau(  27) = (  0.1666665  0.8333336  0.6879189  )
        28           N   tau(  28) = (  0.6666665  0.3333336  0.1879189  )
        29           N   tau(  29) = (  0.6666665  0.3333336  0.6879189  )
[...]
     atom   11 type  1   force =     0.00003564    3.68923232    6.51952688
     atom   12 type  1   force =    -0.88004821   -0.50813850   -7.71880401
     atom   13 type  1   force =    -3.19495150   -1.84465032    6.51952610
     atom   14 type  1   force =     0.00003116   -0.00001893   -4.92657246
     atom   15 type  1   force =     0.00002930   -0.00001775    5.01168414
     atom   16 type  2   force =    -0.00003752    0.00002339   -9.20792748
     atom   17 type  2   force =    -0.00002789    0.00001732    2.40185805
     atom   18 type  2   force =    -0.19621148   -0.11324428   -2.35470145
     atom   19 type  2   force =    -0.18967074   -0.10947395    1.43612335
     atom   20 type  2   force =    -0.00003139    0.22654872   -2.35470135
     atom   21 type  2   force =    -0.00002647    0.21899908    1.43612357
     atom   22 type  2   force =     0.19615158   -0.11324585   -2.35469904
     atom   23 type  2   force =     0.18961370   -0.10947150    1.43612351
     atom   24 type  2   force =     6.56441911   -3.78997241    3.64413655
     atom   25 type  2   force =    -0.05590302    0.03227332   -1.21062831
     atom   26 type  2   force =     0.00004653    7.57994581    3.64416460
     atom   27 type  2   force =     0.00003073   -0.06460414   -1.21062615
     atom   28 type  2   force =    -6.56440073   -3.79001552    3.64416310
     atom   29 type  2   force =     0.05596302    0.03227254   -1.21062647
     atom   30 type  2   force =     0.00002531   -0.00001569    1.42337777
     atom   31 type  2   force =     0.00002907   -0.00001807   -0.91260649
     The local contribution  to forces
     atom    1 type  1   force =    -0.00007755    0.00024593   -0.72625885
     atom    2 type  1   force =    -1.54965907   -0.89452991   -1.83386495
     atom    3 type  1   force =    -0.20865746   -0.12017083    0.21170141
     atom    4 type  1   force =    -0.00011166    1.78960018   -1.83386307
     atom    5 type  1   force =    -0.00007226    0.24109123    0.21170171
     atom    6 type  1   force =     1.54954303   -0.89437970   -1.83386501
     atom    7 type  1   force =     0.20850277   -0.12017057    0.21170136
     atom    8 type  1   force =    -0.62625747    0.36169934    7.64256229
     atom    9 type  1   force =    -3.21873925    1.85847221   -6.25847927
     atom   10 type  1   force =     0.00109213   -0.72489048    7.64258043
     atom   11 type  1   force =     0.00109092   -3.71845042   -6.25850318
     atom   12 type  1   force =     0.62843916    0.36169671    7.64258382
     atom   13 type  1   force =     3.22094493    1.85847777   -6.25850676
     atom   14 type  1   force =     0.00109870   -0.00049676    4.88170907
     atom   15 type  1   force =     0.00110164   -0.00049735   -5.00496748
     atom   16 type  2   force =    -0.00001413    0.00002147    8.54473072
     atom   17 type  2   force =    -0.00000951    0.00002205   -2.42195156
     atom   18 type  2   force =     0.16539348    0.09551769    2.31357740
     atom   19 type  2   force =     0.13567871    0.07836350   -1.40510969
     atom   20 type  2   force =    -0.00001069   -0.19096938    2.31357841
     atom   21 type  2   force =    -0.00000902   -0.15665794   -1.40510908
     atom   22 type  2   force =    -0.16541534    0.09552063    2.31357685
     atom   23 type  2   force =    -0.13569797    0.07836345   -1.40510971
     atom   24 type  2   force =    -6.12636914    3.53707214   -3.36861026
     atom   25 type  2   force =     0.07517884   -0.04339398    1.06759468
     atom   26 type  2   force =     0.00006985   -7.07430668   -3.36862788
     atom   27 type  2   force =     0.00008328    0.08667175    1.06758999
     atom   28 type  2   force =     6.12658358    3.53710646   -3.36863804
     atom   29 type  2   force =    -0.07500904   -0.04339144    1.06758975
     atom   30 type  2   force =     0.00009290   -0.00003997   -1.36046860
     atom   31 type  2   force =     0.00008639   -0.00003862    0.87932805
     The core correction contribution to forces
     atom    1 type  1   force =    -0.00000628    0.00001821    0.00138962
     atom    2 type  1   force =    -0.00281441   -0.00161374   -0.00318028
     atom    3 type  1   force =    -0.00070408   -0.00038423    0.00120078
     atom    4 type  1   force =    -0.00000908    0.00326565   -0.00318025
     atom    5 type  1   force =    -0.00000588    0.00082383    0.00120080
     atom    6 type  1   force =     0.00280555   -0.00160210   -0.00318029
     atom    7 type  1   force =     0.00069158   -0.00038419    0.00120078
     atom    8 type  1   force =     0.00344139   -0.00197763   -0.00065115
     atom    9 type  1   force =    -0.00030309    0.00018444    0.00423102
     atom   10 type  1   force =     0.00008044    0.00384396   -0.00065119
     atom   11 type  1   force =     0.00008025   -0.00047952    0.00423099
     atom   12 type  1   force =    -0.00328023   -0.00197745   -0.00065119
     atom   13 type  1   force =     0.00046438    0.00018440    0.00423099
     atom   14 type  1   force =     0.00008059   -0.00003669   -0.00086054
     atom   15 type  1   force =     0.00008064   -0.00003668    0.00089297
     atom   16 type  2   force =     0.00000019   -0.00000019   -0.01043369
     atom   17 type  2   force =     0.00000024   -0.00000033   -0.00031806
     atom   18 type  2   force =    -0.00048949   -0.00028310   -0.00068819
     atom   19 type  2   force =    -0.00087794   -0.00050736    0.00048717
     atom   20 type  2   force =     0.00000023    0.00056520   -0.00068822
     atom   21 type  2   force =     0.00000023    0.00101372    0.00048717
     atom   22 type  2   force =     0.00048994   -0.00028305   -0.00068820
     atom   23 type  2   force =     0.00087844   -0.00050737    0.00048717
     atom   24 type  2   force =     0.00711454   -0.00410763    0.00443727
     atom   25 type  2   force =     0.00031152   -0.00017990   -0.00237139
     atom   26 type  2   force =    -0.00000225    0.00821935    0.00443747
     atom   27 type  2   force =    -0.00000226    0.00036366   -0.00237147
     atom   28 type  2   force =    -0.00711936   -0.00410773    0.00443749
     atom   29 type  2   force =    -0.00031612   -0.00017992   -0.00237146
     atom   30 type  2   force =    -0.00000239    0.00000134    0.00102259
     atom   31 type  2   force =    -0.00000233    0.00000130   -0.00055297
     The Hubbard contrib.    to forces
     atom    1 type  1   force =     0.00000000    0.00000000    0.00000000
     atom    2 type  1   force =     0.00000000    0.00000000    0.00000000
     atom    3 type  1   force =     0.00000000    0.00000000    0.00000000
     atom    4 type  1   force =     0.00000000    0.00000000    0.00000000
     atom    5 type  1   force =     0.00000000    0.00000000    0.00000000
     atom    6 type  1   force =     0.00000000    0.00000000    0.00000000
     atom    7 type  1   force =     0.00000000    0.00000000    0.00000000
     atom    8 type  1   force =     0.00000000    0.00000000    0.00000000
     atom    9 type  1   force =     0.00000000    0.00000000    0.00000000
     atom   10 type  1   force =     0.00000000    0.00000000    0.00000000
     atom   11 type  1   force =     0.00000000    0.00000000    0.00000000
     atom   12 type  1   force =     0.00000000    0.00000000    0.00000000
     atom   13 type  1   force =     0.00000000    0.00000000    0.00000000
     atom   14 type  1   force =     0.00000000    0.00000000    0.00000000
     atom   15 type  1   force =     0.00000000    0.00000000    0.00000000
     atom   16 type  2   force =     0.00000000    0.00000000    0.00000000
     atom   17 type  2   force =     0.00000000    0.00000000    0.00000000
     atom   18 type  2   force =     0.00000000    0.00000000    0.00000000
     atom   19 type  2   force =     0.00000000    0.00000000    0.00000000
     atom   20 type  2   force =     0.00000000    0.00000000    0.00000000
     atom   21 type  2   force =     0.00000000    0.00000000    0.00000000
     atom   22 type  2   force =     0.00000000    0.00000000    0.00000000
     atom   23 type  2   force =     0.00000000    0.00000000    0.00000000
     atom   24 type  2   force =     0.00000000    0.00000000    0.00000000
     atom   25 type  2   force =     0.00000000    0.00000000    0.00000000
     atom   26 type  2   force =     0.00000000    0.00000000    0.00000000
     atom   27 type  2   force =     0.00000000    0.00000000    0.00000000
     atom   28 type  2   force =     0.00000000    0.00000000    0.00000000
     atom   29 type  2   force =     0.00000000    0.00000000    0.00000000
     atom   30 type  2   force =     0.00000000    0.00000000    0.00000000
     atom   31 type  2   force =     0.00000000    0.00000000    0.00000000
     The SCF correction term to forces
     atom    1 type  1   force =     0.00000000   -0.00000000   -0.00003933
     atom    2 type  1   force =    -0.00001806   -0.00001042   -0.00000106
     atom    3 type  1   force =    -0.00001385   -0.00000800   -0.00001177
     atom    4 type  1   force =    -0.00000000    0.00002085   -0.00000106
     atom    5 type  1   force =     0.00000000    0.00001599   -0.00001177
     atom    6 type  1   force =     0.00001806   -0.00001042   -0.00000106
     atom    7 type  1   force =     0.00001385   -0.00000800   -0.00001177
     atom    8 type  1   force =    -0.00001895    0.00001094    0.00000875
     atom    9 type  1   force =     0.00000018   -0.00000010   -0.00001558
     atom   10 type  1   force =     0.00000000   -0.00002189    0.00000875
     atom   11 type  1   force =     0.00000000    0.00000021   -0.00001558
     atom   12 type  1   force =     0.00001895    0.00001094    0.00000875
     atom   13 type  1   force =    -0.00000018   -0.00000010   -0.00001558
     atom   14 type  1   force =     0.00000000   -0.00000000   -0.00000879
     atom   15 type  1   force =    -0.00000000    0.00000000    0.00000067
     atom   16 type  2   force =     0.00000000   -0.00000000   -0.00000468
     atom   17 type  2   force =     0.00000000   -0.00000000    0.00000038
     atom   18 type  2   force =    -0.00000338   -0.00000195   -0.00000347
     atom   19 type  2   force =    -0.00000398   -0.00000230    0.00000128
     atom   20 type  2   force =    -0.00000000    0.00000391   -0.00000347
     atom   21 type  2   force =     0.00000000    0.00000459    0.00000128
     atom   22 type  2   force =     0.00000338   -0.00000195   -0.00000347
     atom   23 type  2   force =     0.00000398   -0.00000230    0.00000128
     atom   24 type  2   force =    -0.00000499    0.00000288    0.00001116
     atom   25 type  2   force =    -0.00000580    0.00000335   -0.00000831
     atom   26 type  2   force =     0.00000000   -0.00000576    0.00001116
     atom   27 type  2   force =    -0.00000000   -0.00000669   -0.00000831
     atom   28 type  2   force =     0.00000499    0.00000288    0.00001116
     atom   29 type  2   force =     0.00000580    0.00000335   -0.00000831
     atom   30 type  2   force =     0.00000000   -0.00000000    0.00001168
     atom   31 type  2   force =    -0.00000000    0.00000000   -0.00000851

     Total force =     0.003335     Total SCF correction =     0.000088

     Computing stress (Cartesian axis) and pressure

     Non-local corr. energy    =       8.27223744 Ry

          total   stress  (Ry/bohr**3)                   (kbar)     P=      114.58
   0.00075530   0.00000000   0.00000000          111.11        0.00        0.00
   0.00000000   0.00075530   0.00000000            0.00      111.11        0.00
   0.00000000   0.00000000   0.00082612            0.00        0.00      121.53

     kinetic stress (kbar)  17909.24     -0.00      0.00
                                0.00  17909.24      0.00
                                0.00      0.00  17971.93

     local   stress (kbar)   1991.44     -0.07     -0.00
                               -0.07   1991.35      0.00
                               -0.00      0.00   3018.89

     nonloc. stress (kbar)    -40.65     -0.00      0.00
                               -0.00    -40.65     -0.00
                                0.00     -0.00    -43.08

     hartree stress (kbar)  19828.95     -0.00      0.00
                               -0.00  19828.95     -0.00
                                0.00     -0.00  19339.82

     exc-cor stress (kbar)   4804.04     -0.00     -0.00
                               -0.00   4804.04      0.00
                               -0.00      0.00   4804.13

     corecor stress (kbar) -13268.95     -0.00     -0.00
                               -0.00 -13268.95     -0.00
                               -0.00     -0.00 -13269.49

     ewald   stress (kbar) -31266.43      0.09      0.00
                                0.09 -31266.32     -0.00
                                0.00     -0.00 -31853.65

     hubbard stress (kbar)      0.00      0.00      0.00
                                0.00      0.00      0.00
                                0.00      0.00      0.00

     DFT-D   stress (kbar)      0.00      0.00      0.00
                                0.00      0.00      0.00
                                0.00      0.00      0.00

     XDM     stress (kbar)      0.00      0.00      0.00
                                0.00      0.00      0.00
                                0.00      0.00      0.00

     dft-nl  stress (kbar)    153.46     -0.00      0.00
                               -0.00    153.46     -0.00
                                0.00     -0.00    152.97

     TS-vdW  stress (kbar)      0.00      0.00      0.00
                                0.00      0.00      0.00
                                0.00      0.00      0.00

     MDB     stress (kbar)      0.00      0.00      0.00
                                0.00      0.00      0.00
                                0.00      0.00      0.00

     3D-RISM stress (kbar)      0.00      0.00      0.00
                                0.00      0.00      0.00
                                0.00      0.00      0.00

     Energy error            =      2.6E-05 Ry
     Gradient error          =      9.4E-04 Ry/Bohr

     bfgs converged in  12 scf cycles and  11 bfgs steps
     (criteria: energy <  1.0E-04 Ry, force <  1.0E-03 Ry/Bohr)

     End of BFGS Geometry Optimization

     Final energy             =   -4711.5714476412 Ry

     File ./GaN.bfgs deleted, as requested
Begin final coordinates

ATOMIC_POSITIONS (angstrom)
Ga            1.6222756606        0.9366198184        7.8935615863
Ga           -0.0131118424        3.7389102074        2.6214446962
Ga           -0.0050378906        3.7435717057        7.9351097878
Ga            4.8668240777        0.9517617466        2.6214446962
Ga            4.8668240777        0.9424387501        7.9351097878
Ga            3.2576631636        3.7389102074        2.6214446962
Ga            3.2495892118        3.7435717057        7.9351097878
Ga            0.0331092653        1.8541256689        5.2423248593
Ga            0.0073438963        1.8690013116       10.6236957572
Ga           -1.6222761733        4.7213373548        5.2423248593
Ga           -1.6222761733        4.6915860694       10.6236957572
Ga            3.2114352222        1.8541256689        5.2423248593
Ga            3.2372005912        1.8690013116       10.6236957572
Ga            1.6222722437        4.6831037996        5.2598048265
Ga            1.6222722437        4.6831037996       10.5852773512
N             1.6222756606        0.9366198184        4.8007764867
N             1.6222756606        0.9366198184        9.8979011623
N             0.0000615007        3.7465158406        4.6336612486
N             0.0084824007        3.7513776495        9.9069328789
N             4.8668240777        0.9365504802        4.6336612486
N             4.8668240777        0.9268268624        9.9069328789
N             3.2444898205        3.7465158406        4.6336612486
N             3.2360689205        3.7513776495        9.9069328789
N            -0.0805681121        1.9197573334        1.9562580852
N            -0.0169113382        1.8830050778        7.2876928564
N            -1.6222761733        4.5900740259        1.9562580852
N            -1.6222761733        4.6635785370        7.2876928564
N             3.3251125996        1.9197573334        1.9562580852
N             3.2614558257        1.8830050778        7.2876928564
N             1.6222722437        4.6831037996        1.9897982637
N             1.6222722437        4.6831037996        7.2642594346
End final coordinates

     Writing all to output data dir ./GaN.save/

     General routines

     Parallel routines

     PAW routines

   This run was terminated on:  21:37: 8  27Mar2024

   JOB DONE.