     Program PWSCF v.7.1 starts on 20Feb2024 at 16:51:23

     Reading input from espresso.pwi
Warning: card &CELL ignored
Warning: card    CELL_DYNAMICS    = 'BFGS' ignored
Warning: card / ignored

     Current dimensions of program PWSCF are:
     Max number of different atomic species (ntypx) = 10
     Max number of k-points (npk) =  40000
     Max angular momentum in pseudopotentials (lmaxx) =  4
     file Pb.pbe-dn-kjpaw_psl.1.0.0.UPF: wavefunction(s)  6S 6P 5D renormalized

     IMPORTANT: XC functional enforced from input :
     Exchange-correlation= BEEF-VDW
                           (   1   4  43  14   2   0   0)
     Any further DFT definition will be discarded
     Please, verify this is what you really want

     Found identity + (  0.0000  0.5000  0.5000) symmetry
     This is a supercell, fractional translations are disabled

     K-points division:     npool     =       4
     R & G space division:  proc/nbgrp/npool/nimage =      32
     Subspace diagonalization in iterative solution of the eigenvalue problem:
     a serial algorithm will be used

     Using Slab Decomposition

     bravais-lattice index     =            1
     lattice parameter (alat)  =       9.6418  a.u.
     unit-cell volume          =     896.3547 (a.u.)^3
     number of atoms/cell      =            4
     number of atomic types    =            1
     number of electrons       =        56.00
     number of Kohn-Sham states=           34
     kinetic-energy cutoff     =      70.0000  Ry
     charge density cutoff     =     350.0000  Ry
     scf convergence threshold =      1.0E-07
     mixing beta               =       0.7000
     number of iterations used =            8  plain     mixing
     Exchange-correlation= BEEF-VDW
                           (   1   4  43  14   2   0   0)

     celldm(1)=   9.641841  celldm(2)=   0.000000  celldm(3)=   0.000000
     celldm(4)=   0.000000  celldm(5)=   0.000000  celldm(6)=   0.000000

     crystal axes: (cart. coord. in units of alat)
               a(1) = (   1.000000   0.000000   0.000000 )
               a(2) = (   0.000000   1.000000   0.000000 )
               a(3) = (   0.000000   0.000000   1.000000 )

     reciprocal axes: (cart. coord. in units 2 pi/alat)
               b(1) = (  1.000000  0.000000  0.000000 )
               b(2) = (  0.000000  1.000000  0.000000 )
               b(3) = (  0.000000  0.000000  1.000000 )

     PseudoPot. # 1 for Pb read from file:
     //group///packages/espresso/pseudo/psl_1.0.0/pslibrary.1.0.0/pbe/PSEUDOPOTENTIALS/Pb.pbe-dn-kjpaw_psl.1.0.0.UPF
     MD5 check sum: 39ab5b8a6bbd56b7735ad9f188aac93a
     Pseudo is Projector augmented-wave + core cor, Zval = 14.0
     Generated using 'atomic' code by A. Dal Corso  v.7.1
     Shape of augmentation charge: PSQ
     Using radial grid of 1281 points,  6 beta functions with:
                l(1) =   0
                l(2) =   0
                l(3) =   1
                l(4) =   1
                l(5) =   2
                l(6) =   2
     Q(r) pseudized with 0 coefficients

     atomic species   valence    mass     pseudopotential
        Pb            14.00   207.20000     Pb( 1.00)

     48 Sym. Ops., with inversion, found

                                    s                        frac. trans.

      isym =  1     identity

 cryst.   s( 1) = (     1          0          0      )
                  (     0          1          0      )
                  (     0          0          1      )

 cart.    s( 1) = (  1.0000000  0.0000000  0.0000000 )
                  (  0.0000000  1.0000000  0.0000000 )
                  (  0.0000000  0.0000000  1.0000000 )

      isym =  2     180 deg rotation - cart. axis [0,0,1]

[...]

 cryst.   s( 9) = (     0          0          1      )
                  (     0         -1          0      )
                  (     1          0          0      )

 cart.    s( 9) = (  0.0000000  0.0000000  1.0000000 )
                  (  0.0000000 -1.0000000  0.0000000 )
                  (  1.0000000  0.0000000  0.0000000 )

[...]

 cryst.   s(10) = (     0          0         -1      )
                  (     0         -1          0      )
                  (    -1          0          0      )

 cart.    s(10) = (  0.0000000  0.0000000 -1.0000000 )
                  (  0.0000000 -1.0000000  0.0000000 )
                  ( -1.0000000  0.0000000  0.0000000 )

[...]

      isym = 24     120 deg rotation - cart. axis [-1,-1,1]

[...]

      isym = 25     inversion

[...]

      isym = 26     inv. 180 deg rotation - cart. axis [0,0,1]

[...]

      isym = 48     inv. 120 deg rotation - cart. axis [-1,-1,1]

 cryst.   s(48) = (     0         -1          0      )
                  (     0          0          1      )
                  (     1          0          0      )

 cart.    s(48) = (  0.0000000  0.0000000  1.0000000 )
                  ( -1.0000000  0.0000000  0.0000000 )
                  (  0.0000000  1.0000000  0.0000000 )

     point group O_h (m-3m)
     there are 10 classes
     the character table:

       E     8C3   3C2   6C4   6C2'  i     8S6   3s_h  6S4   6s_d
A_1g   1.00  1.00  1.00  1.00  1.00  1.00  1.00  1.00  1.00  1.00
A_2g   1.00  1.00  1.00 -1.00 -1.00  1.00  1.00  1.00 -1.00 -1.00
E_g    2.00 -1.00  2.00  0.00  0.00  2.00 -1.00  2.00  0.00  0.00
T_1g   3.00  0.00 -1.00  1.00 -1.00  3.00  0.00 -1.00  1.00 -1.00
T_2g   3.00  0.00 -1.00 -1.00  1.00  3.00  0.00 -1.00 -1.00  1.00
A_1u   1.00  1.00  1.00  1.00  1.00 -1.00 -1.00 -1.00 -1.00 -1.00
A_2u   1.00  1.00  1.00 -1.00 -1.00 -1.00 -1.00 -1.00  1.00  1.00
E_u    2.00 -1.00  2.00  0.00  0.00 -2.00  1.00 -2.00  0.00  0.00
T_1u   3.00  0.00 -1.00  1.00 -1.00 -3.00  0.00  1.00 -1.00  1.00
T_2u   3.00  0.00 -1.00 -1.00  1.00 -3.00  0.00  1.00  1.00 -1.00

     the symmetry operations in each class and the name of the first element:

     E        1
          identity
     8C3     17   19   20   18   24   21   22   23
          120 deg rotation - cart. axis [-1,-1,-1]
     3C2      2    4    3
          180 deg rotation - cart. axis [0,0,1]
     6C4      7    8   15   16   12   11
           90 deg rotation - cart. axis [0,0,-1]
     6C2'     5    6   14   13   10    9
          180 deg rotation - cart. axis [1,1,0]
     i       25
          inversion
     8S6     41   43   44   42   48   45   46   47
          inv. 120 deg rotation - cart. axis [-1,-1,-1]
     3s_h    26   28   27
          inv. 180 deg rotation - cart. axis [0,0,1]
     6S4     31   32   39   40   36   35
          inv.  90 deg rotation - cart. axis [0,0,-1]
     6s_d    29   30   38   37   34   33
          inv. 180 deg rotation - cart. axis [1,1,0]

   Cartesian axes

     site n.     atom                  positions (alat units)
         1           Pb  tau(   1) = (   0.0000000   0.0000000   0.0000000  )
         2           Pb  tau(   2) = (   0.0000000   0.5000000   0.5000000  )
         3           Pb  tau(   3) = (   0.5000000   0.0000000   0.5000000  )
         4           Pb  tau(   4) = (   0.5000000   0.5000000   0.0000000  )

   Crystallographic axes

     site n.     atom                  positions (cryst. coord.)
         1           Pb  tau(   1) = (  0.0000000  0.0000000  0.0000000  )
         2           Pb  tau(   2) = (  0.0000000  0.5000000  0.5000000  )
         3           Pb  tau(   3) = (  0.5000000  0.0000000  0.5000000  )
         4           Pb  tau(   4) = (  0.5000000  0.5000000  0.0000000  )

     number of k points=     4  Gaussian smearing, width (Ry)=  0.0100
                       cart. coord. in units 2pi/alat
        k(    1) = (   0.0000000   0.0000000   0.0000000), wk =   0.0740741
        k(    2) = (   0.0000000   0.0000000   0.3333333), wk =   0.4444444
        k(    3) = (   0.0000000   0.3333333   0.3333333), wk =   0.8888889
        k(    4) = (   0.3333333   0.3333333   0.3333333), wk =   0.5925926

                       cryst. coord.
        k(    1) = (   0.0000000   0.0000000   0.0000000), wk =   0.0740741
        k(    2) = (   0.0000000   0.0000000   0.3333333), wk =   0.4444444
        k(    3) = (   0.0000000   0.3333333   0.3333333), wk =   0.8888889
        k(    4) = (   0.3333333   0.3333333   0.3333333), wk =   0.5925926

     Atomic positions and unit cell read from directory:
     ./PbI2.save/

     The initial density is read from file :
     ./PbI2.save/charge-density

     %%%%%%%%%%%%%%%%%%%%%%%%%%%%%%%%%%%%%%%%%%%%%%%%%%%%%%%%%%%%%%%%%%%%%%%%
     %                                                                      %
     % You are using vdW-DF, which was implemented by the Thonhauser group. %
     % Please cite the following two papers that made this development      %
     % possible and the two reviews that describe the various versions:     %
     %                                                                      %
     %   T. Thonhauser et al., PRL 115, 136402 (2015).                      %
     %   T. Thonhauser et al., PRB 76, 125112 (2007).                       %
     %   K. Berland et al., Rep. Prog. Phys. 78, 066501 (2015).             %
     %   D.C. Langreth et al., J. Phys.: Condens. Matter 21, 084203 (2009). %
     %                                                                      %
     % If you are calculating stress with vdW-DF, please also cite:         %
     %                                                                      %
     %   R. Sabatini et al., J. Phys.: Condens. Matter 24, 424209 (2012).   %
     %                                                                      %
     %%%%%%%%%%%%%%%%%%%%%%%%%%%%%%%%%%%%%%%%%%%%%%%%%%%%%%%%%%%%%%%%%%%%%%%%

     %%%%%%%%%%%%%%%%%%%%%%%%%%%%%%%%%%%%%%%%%%%%%%%%%%%%%%%%%%%%%%%%%%%%%%%%
     %                                                                      %
     %  vdW-DF NEWS:                                                        %
     %                                                                      %
     %  * vdW-DF3 is now available. DOI: 10.1021/acs.jctc.0c00471           %
     %    use with input_dft = 'vdW-DF3-opt1' or 'vdW-DF3-opt2'             %
     %                                                                      %
     %  * Unscreened and range-separated vdW-DF hybrid functionals          %
     %    DOI: 10.1063/1.4986522 and 10.1088/1361-648X/ac2ad2               %
     %    use with input_dft = 'vdW-DF-cx0' (etc) and 'vdW-DF-ahcx'         %
     %                                                                      %
     %%%%%%%%%%%%%%%%%%%%%%%%%%%%%%%%%%%%%%%%%%%%%%%%%%%%%%%%%%%%%%%%%%%%%%%%

     Carrying out vdW-DF run using the following parameters:
     Nqs    =  20  Npoints =  1024  r_max =  100.000
     q_mesh =  0.00001000  0.04494208  0.09755937  0.15916263
               0.23128650  0.31572767  0.41458969  0.53033537
               0.66584808  0.82450364  1.01025438  1.22772762
               1.48234092  1.78043706  2.12944203  2.53805004
               3.01644009  3.57652955  4.23227104  5.00000000

     Non-local corr. energy    =       1.02326948 Ry

     Starting wfcs from file
     Checking if some PAW data can be deallocated...

     Self-consistent Calculation

     iteration #  1     ecut=    70.00 Ry     beta= 0.70
     Davidson diagonalization with overlap

     ethr =  1.00E-05,  avg # of iterations =  2.0

     Threshold (ethr) on eigenvalues was too large:
     Diagonalizing with lowered threshold

     Davidson diagonalization with overlap

     ethr =  2.16E-11,  avg # of iterations =  4.8

[...]

     End of self-consistent calculation

          k = 0.0000 0.0000 0.0000 (  8829 PWs)   bands (ev):

    -7.6690  -7.6690  -7.6690  -7.6012  -7.6012  -7.6010  -7.5559  -7.5559
    -7.5559  -7.4571  -7.4571  -7.3667  -7.3667  -7.3665  -7.3321  -7.3321
    -7.3321  -7.3318  -7.3318  -7.3318  -1.3478   2.9197   2.9199   2.9199
     6.9344   6.9344   6.9344  11.7821  11.7821  11.7821  11.7821  11.7821
    11.7821  15.0191

     occupation numbers
     1.0000   1.0000   1.0000   1.0000   1.0000   1.0000   1.0000   1.0000
     1.0000   1.0000   1.0000   1.0000   1.0000   1.0000   1.0000   1.0000
     1.0000   1.0000   1.0000   1.0000   1.0000   1.0000   1.0000   1.0000
     1.0000   1.0000   1.0000   0.0000   0.0000   0.0000   0.0000   0.0000
     0.0000   0.0000

[...]

          k = 0.3333 0.3333 0.3333 (  8862 PWs)   bands (ev):

    -7.5748  -7.5748  -7.5747  -7.5596  -7.5369  -7.5369  -7.5224  -7.5224
    -7.5223  -7.5001  -7.5001  -7.4999  -7.4069  -7.4067  -7.4067  -7.3960
    -7.3960  -7.3549  -7.3549  -7.3547   0.4933   1.8636   1.8638   1.8638
     6.8676   6.8676   6.8677   8.3814  12.2496  12.2497  12.2497  13.7805
    13.7805  13.7806

     occupation numbers
     1.0000   1.0000   1.0000   1.0000   1.0000   1.0000   1.0000   1.0000
     1.0000   1.0000   1.0000   1.0000   1.0000   1.0000   1.0000   1.0000
     1.0000   1.0000   1.0000   1.0000   1.0000   1.0000   1.0000   1.0000
     1.0000   1.0000   1.0000   1.0000   0.0000   0.0000   0.0000   0.0000
     0.0000   0.0000

     the Fermi energy is     9.8569 ev

!    total energy              =   -3585.23415315 Ry
     total all-electron energy =   -167159.348090 Ry
     estimated scf accuracy    <       0.00000002 Ry
     smearing contrib. (-TS)   =      -0.00249706 Ry
     internal energy E=F+TS    =   -3585.23165609 Ry

     The total energy is F=E-TS. E is the sum of the following terms:
     one-electron contribution =    -130.87409053 Ry
     hartree contribution      =     115.13519041 Ry
     xc contribution           =    -135.18920867 Ry
     ewald contribution        =    -372.80555525 Ry
     one-center paw contrib.   =   -3061.49799204 Ry
      -> PAW hartree energy AE =      98.07723258 Ry
      -> PAW hartree energy PS =     -98.33760521 Ry
      -> PAW xc energy AE      =    -798.55634015 Ry
      -> PAW xc energy PS      =      33.44217956 Ry
      -> total E_H with PAW    =     114.87481778 Ry
      -> total E_XC with PAW   =    -900.30336926 Ry

     convergence has been achieved in   1 iterations

[...]

     Forces acting on atoms (cartesian axes, Ry/au):

     atom    1 type  1   force =     0.00000000    0.00000000    0.00000000
     atom    2 type  1   force =     0.00000000    0.00000000    0.00000000
     atom    3 type  1   force =     0.00000000    0.00000000    0.00000000
     atom    4 type  1   force =     0.00000000    0.00000000    0.00000000
     The non-local contrib.  to forces
     atom    1 type  1   force =     0.00000000    0.00000000    0.00000000
     atom    2 type  1   force =     0.00000000    0.00000000    0.00000000
     atom    3 type  1   force =     0.00000000    0.00000000    0.00000000
     atom    4 type  1   force =     0.00000000    0.00000000    0.00000000
     The ionic contribution  to forces
     atom    1 type  1   force =    -0.00000017   -0.00000017   -0.00000017
     atom    2 type  1   force =    -0.00000017    0.00000017    0.00000017
     atom    3 type  1   force =     0.00000017   -0.00000017    0.00000017
     atom    4 type  1   force =     0.00000017    0.00000017   -0.00000017
     The local contribution  to forces
     atom    1 type  1   force =     0.00000000    0.00000000    0.00000000
     atom    2 type  1   force =     0.00000000    0.00000126    0.00000126
     atom    3 type  1   force =     0.00000126    0.00000000    0.00000126
     atom    4 type  1   force =     0.00000126    0.00000126    0.00000000
     The core correction contribution to forces
     atom    1 type  1   force =     0.00000000    0.00000000    0.00000000
     atom    2 type  1   force =     0.00000000    0.00000008    0.00000008
     atom    3 type  1   force =     0.00000008    0.00000000    0.00000008
     atom    4 type  1   force =     0.00000008    0.00000008    0.00000000
     The Hubbard contrib.    to forces
     atom    1 type  1   force =     0.00000000    0.00000000    0.00000000
     atom    2 type  1   force =     0.00000000    0.00000000    0.00000000
     atom    3 type  1   force =     0.00000000    0.00000000    0.00000000
     atom    4 type  1   force =     0.00000000    0.00000000    0.00000000
     The SCF correction term to forces
     atom    1 type  1   force =     0.00000000    0.00000000    0.00000000
     atom    2 type  1   force =     0.00000000   -0.00000000   -0.00000000
     atom    3 type  1   force =    -0.00000000    0.00000000   -0.00000000
     atom    4 type  1   force =    -0.00000000   -0.00000000    0.00000000

     Total force =     0.000000     Total SCF correction =     0.000000

     Computing stress (Cartesian axis) and pressure

[...]

          total   stress  (Ry/bohr**3)                   (kbar)     P=        3.57
   0.00002428   0.00000000   0.00000000            3.57        0.00        0.00
   0.00000000   0.00002428   0.00000000            0.00        3.57        0.00
   0.00000000   0.00000000   0.00002428            0.00        0.00        3.57

     kinetic stress (kbar)  28023.74      0.00      0.00
                                0.00  28023.74      0.00
                                0.00      0.00  28023.74

     local   stress (kbar)   2161.35      0.00     -0.00
                                0.00   2161.35     -0.00
                               -0.00     -0.00   2161.35

     nonloc. stress (kbar) -11315.98      0.00      0.00
                                0.00 -11315.98      0.00
                                0.00      0.00 -11315.98

     hartree stress (kbar)   6298.46     -0.00     -0.00
                               -0.00   6298.46      0.00
                               -0.00      0.00   6298.46

     exc-cor stress (kbar)   6559.11      0.00      0.00
                                0.00   6559.11      0.00
                                0.00      0.00   6559.11

     corecor stress (kbar) -11393.25      0.00      0.00
                                0.00 -11393.25      0.00
                                0.00      0.00 -11393.25

     ewald   stress (kbar) -20394.30      0.00      0.00
                                0.00 -20394.30      0.00
                                0.00      0.00 -20394.30

     hubbard stress (kbar)      0.00      0.00      0.00
                                0.00      0.00      0.00
                                0.00      0.00      0.00

     DFT-D   stress (kbar)      0.00      0.00      0.00
                                0.00      0.00      0.00
                                0.00      0.00      0.00

     XDM     stress (kbar)      0.00      0.00      0.00
                                0.00      0.00      0.00
                                0.00      0.00      0.00

     dft-nl  stress (kbar)     64.44     -0.00      0.00
                               -0.00     64.44      0.00
                                0.00      0.00     64.44

     TS-vdW  stress (kbar)      0.00      0.00      0.00
                                0.00      0.00      0.00
                                0.00      0.00      0.00

     MDB     stress (kbar)      0.00      0.00      0.00
                                0.00      0.00      0.00
                                0.00      0.00      0.00

     3D-RISM stress (kbar)      0.00      0.00      0.00
                                0.00      0.00      0.00
                                0.00      0.00      0.00

[...]

     Non-local corr. energy    =       1.02327333 Ry

 BEEFens 2000 ensemble energies
             -0.114503149183499E+01
             -0.113573212862147E+02
             -0.522055680099142E+01
              0.410974053037136E+01
             -0.892849487913664E+01
             -0.107522178581494E+02
              0.561363925700823E+01
             -0.111528009570144E+00
              0.915562129733792E+01
             -0.547669167157586E+00
              0.478694877038036E+01
              0.426034580787984E+00
             -0.537960007578231E+00
             -0.522208104386522E+00
              0.566487371365531E+01
             -0.469521751835364E+01
             -0.877042701864809E+01
             -0.271375839011372E+01
              0.247330008438425E+01
             -0.200193746654264E+00
              0.127723927890309E+02
              0.105613285010519E+02
             -0.655982675392380E+01
              0.230938672989900E+01
             -0.137258680565575E+02
              0.112697674221269E+02
              0.399980049783504E+01
              0.100708802321016E+02
              0.678099472988144E+01
             -0.315971737995068E+01
              0.259058906290003E+01
             -0.422050618642804E+01
              0.175859693230195E+01
              0.675983385152830E+01
              0.758935349850047E+01
             -0.306973412204566E+01
              0.160845360824645E+02
             -0.677926781686049E+01
             -0.409900284149460E+01
              0.633198117155099E+01
              0.277470459702718E+01
              0.514745327897908E+01
             -0.964409524685088E+01
             -0.672570683830969E+00
              0.930379095437779E+01
              0.121489702567036E+02
             -0.123872676881489E+02
              0.665316526954545E+00
              0.409035295566493E+01
              0.278012338810507E+01
              0.460465297765791E+01
              0.104405283080812E+02
             -0.702478701376246E+01
             -0.677828659698201E+01
             -0.919041009534683E+01
             -0.126181344924463E+01
             -0.762404233353426E+01
              0.941579006882641E+00
             -0.107350126010736E+01
             -0.631640628940833E+01
[...]
              0.790267063084786E+01
              0.490111950044577E+01
              0.500171532061719E+01
             -0.945572119328404E+01
             -0.971467406906289E+01
             -0.219532388940342E+01
             -0.853952069638856E+01
              0.137644754050592E+02
              0.114723659432832E+02
              0.542856023896467E+01
              0.148202782445235E+02
             -0.725731976376554E+01
             -0.334049161414199E+01
             -0.473166804932254E+01
              0.130555424886520E+02

 BEEF-vdW xc energy contributions
            1 :    -117.3917241605600
            2 :     107.4684088600548
            3 :    -90.51377457885724
            4 :     71.15344397237351
            5 :    -53.95563303213800
            6 :     41.80392734643303
            7 :    -35.12007906083250
            8 :     32.19636481807034
            9 :    -30.37268793373985
           10 :     27.42992168226891
           11 :    -22.53457877795856
           12 :     16.35576023493675
           13 :    -10.41816061545688
           14 :     6.121993013173494
           15 :    -3.974739083247812
           16 :     3.405874081394415
           17 :    -3.189871934057123
           18 :     2.179977604140817
           19 :    7.7954379523873740E-002
           20 :    -3.173169044249278
           21 :     6.149829356125196
           22 :    -8.096530256342703
           23 :     8.655883797191620
           24 :    -8.179729717560207
           25 :     7.475001311786684
           26 :    -7.316698402561570
           27 :     8.019265859646936
           28 :    -9.301605426162183
           29 :     10.49828252821749
           30 :    -10.97147465658281
           31 :    -11.73070016081212
           32 :    -8.733547950638098

     Writing all to output data dir ./PbI2.save/

     General routines

     Parallel routines

     PAW routines

   This run was terminated on:  16:51:29  20Feb2024

   JOB DONE.