     Program PWSCF v.7.1 starts on 13Apr2024 at  7:50:28

     Reading input from espresso.pwi
Warning: card &CELL ignored
Warning: card    CELL_DYNAMICS    = 'BFGS' ignored
Warning: card / ignored

     Current dimensions of program PWSCF are:
     Max number of different atomic species (ntypx) = 10
     Max number of k-points (npk) =  40000
     Max angular momentum in pseudopotentials (lmaxx) =  4
     file Ga.pbe-dn-kjpaw_psl.1.0.0.UPF: wavefunction(s)  4S renormalized
     file N.pbe-n-kjpaw_psl.1.0.0.UPF: wavefunction(s)  2S renormalized

     IMPORTANT: XC functional enforced from input :
     Exchange-correlation= BEEF-VDW
                           (   1   4  43  14   2   0   0)
     Any further DFT definition will be discarded
     Please, verify this is what you really want

     K-points division:     npool     =       2
     R & G space division:  proc/nbgrp/npool/nimage =      64
     Subspace diagonalization in iterative solution of the eigenvalue problem:
     a serial algorithm will be used

     Using Slab Decomposition

     bravais-lattice index     =            4
     lattice parameter (alat)  =      24.5252  a.u.
     unit-cell volume          =   15616.6055 (a.u.)^3
     number of atoms/cell      =          191
     number of atomic types    =            2
     number of electrons       =      1725.00
     number of Kohn-Sham states=         1036
     kinetic-energy cutoff     =      70.0000  Ry
     charge density cutoff     =     350.0000  Ry
     scf convergence threshold =      1.0E-07
     mixing beta               =       0.7000
     number of iterations used =            8  plain     mixing
     energy convergence thresh.=      1.0E-04
     force convergence thresh. =      1.0E-03
     Exchange-correlation= BEEF-VDW
                           (   1   4  43  14   2   0   0)
     nstep                     =           50

     celldm(1)=  24.525232  celldm(2)=   0.000000  celldm(3)=   1.222409
     celldm(4)=   0.000000  celldm(5)=   0.000000  celldm(6)=   0.000000

     crystal axes: (cart. coord. in units of alat)
               a(1) = (   1.000000   0.000000   0.000000 )
               a(2) = (  -0.500000   0.866025   0.000000 )
               a(3) = (   0.000000   0.000000   1.222409 )

     reciprocal axes: (cart. coord. in units 2 pi/alat)
               b(1) = (  1.000000  0.577350 -0.000000 )
               b(2) = (  0.000000  1.154701  0.000000 )
               b(3) = (  0.000000 -0.000000  0.818057 )

     PseudoPot. # 1 for Ga read from file:
     //group///packages/espresso/pseudo/psl_1.0.0/pslibrary.1.0.0/pbe/PSEUDOPOTENTIALS/Ga.pbe-dn-kjpaw_psl.1.0.0.UPF
     MD5 check sum: cd2a01e492f15b435d17032472d8505c
     Pseudo is Projector augmented-wave + core cor, Zval = 13.0
     Generated using 'atomic' code by A. Dal Corso  v.7.1
     Shape of augmentation charge: PSQ
     Using radial grid of 1205 points,  6 beta functions with:
                l(1) =   0
                l(2) =   0
                l(3) =   1
                l(4) =   1
                l(5) =   2
                l(6) =   2
     Q(r) pseudized with 0 coefficients

     PseudoPot. # 2 for N  read from file:
     //group///packages/espresso/pseudo/psl_1.0.0/pslibrary.1.0.0/pbe/PSEUDOPOTENTIALS/N.pbe-n-kjpaw_psl.1.0.0.UPF
     MD5 check sum: f77f775694dac7e2c3fe1c82443d1a16
     Pseudo is Projector augmented-wave + core cor, Zval =  5.0
     Generated using 'atomic' code by A. Dal Corso  v.7.1
     Shape of augmentation charge: PSQ
     Using radial grid of 1085 points,  4 beta functions with:
                l(1) =   0
                l(2) =   0
                l(3) =   1
                l(4) =   1
     Q(r) pseudized with 0 coefficients

     atomic species   valence    mass     pseudopotential
        Ga            13.00    69.72300     Ga( 1.00)
        N              5.00    14.00700     N ( 1.00)

      6 Sym. Ops. (no inversion) found ( 4 have fractional translation)

                                    s                        frac. trans.

      isym =  1     identity

 cryst.   s( 1) = (     1          0          0      )
                  (     0          1          0      )
                  (     0          0          1      )

 cart.    s( 1) = (  1.0000000  0.0000000  0.0000000 )
                  (  0.0000000  1.0000000  0.0000000 )
                  (  0.0000000  0.0000000  1.0000000 )

      isym =  2     120 deg rotation - cryst. axis [0,0,1]

 cryst.   s( 2) = (     0          1          0      )    f =( -0.2500000 )
                  (    -1         -1          0      )       (  0.0000002 )
                  (     0          0          1      )       (  0.0000000 )

 cart.    s( 2) = ( -0.5000000 -0.8660254  0.0000000 )    f =( -0.2500001 )
                  (  0.8660254 -0.5000000  0.0000000 )       (  0.0000002 )
                  (  0.0000000  0.0000000  1.0000000 )       (  0.0000000 )

      isym =  3     120 deg rotation - cryst. axis [0,0,-1]

[...]

      isym =  4     inv. 180 deg rotation - cart. axis [1,0,0]

[...]

      isym =  5     inv. 180 deg rotation - cryst. axis [0,1,0]

 cryst.   s( 5) = (     1          1          0      )
                  (     0         -1          0      )
                  (     0          0          1      )

 cart.    s( 5) = (  0.5000000  0.8660254  0.0000000 )
                  (  0.8660254 -0.5000000  0.0000000 )
                  (  0.0000000  0.0000000  1.0000000 )

      isym =  6     inv. 180 deg rotation - cryst. axis [1,1,0]

 cryst.   s( 6) = (     0         -1          0      )    f =( -0.2500000 )
                  (    -1          0          0      )       ( -0.2500000 )
                  (     0          0          1      )       (  0.0000000 )

 cart.    s( 6) = (  0.5000000 -0.8660254  0.0000000 )    f =( -0.1250000 )
                  ( -0.8660254 -0.5000000  0.0000000 )       ( -0.2165064 )
                  (  0.0000000  0.0000000  1.0000000 )       (  0.0000000 )

     point group C_3v (3m)
     there are  3 classes
     the character table:

       E     2C3   3s_v
A_1    1.00  1.00  1.00
A_2    1.00  1.00 -1.00
E      2.00 -1.00  0.00

     the symmetry operations in each class and the name of the first element:

     E        1
          identity
     2C3      2    3
          120 deg rotation - cryst. axis [0,0,1]
     3s_v     4    5    6
          inv. 180 deg rotation - cart. axis [1,0,0]

   Cartesian axes

     site n.     atom                  positions (alat units)
         1           Ga  tau(   1) = (   0.1250001   0.0721687   0.2033935  )
         2           Ga  tau(   2) = (   0.1250001   0.0721687   0.6108633  )
         3           Ga  tau(   3) = (   0.1250001   0.0721687   1.0183331  )
         4           Ga  tau(   4) = (   0.0000001   0.2886751   0.2033935  )
         5           Ga  tau(   5) = (   0.0000001   0.2886751   0.6108633  )
         6           Ga  tau(   6) = (   0.0000001   0.2886751   1.0183331  )
         7           Ga  tau(   7) = (  -0.1249999   0.5051814   0.2033935  )
         8           Ga  tau(   8) = (  -0.1249999   0.5051814   0.6108633  )
         9           Ga  tau(   9) = (  -0.1249999   0.5051814   1.0183331  )
        10           Ga  tau(  10) = (  -0.2499999   0.7216878   0.2033935  )
        11           Ga  tau(  11) = (  -0.2499999   0.7216878   0.6108633  )
        12           Ga  tau(  12) = (  -0.2499999   0.7216878   1.0183331  )
        13           Ga  tau(  13) = (   0.3750001   0.0721687   0.2033935  )
        14           Ga  tau(  14) = (   0.3750001   0.0721687   0.6108633  )
        15           Ga  tau(  15) = (   0.3750001   0.0721687   1.0183331  )
        16           Ga  tau(  16) = (   0.2500001   0.2886751   0.2033935  )
        17           Ga  tau(  17) = (   0.2500001   0.2886751   0.6108633  )
        18           Ga  tau(  18) = (   0.2500001   0.2886751   1.0183331  )
        19           Ga  tau(  19) = (   0.1250001   0.5051814   0.2033935  )
        20           Ga  tau(  20) = (   0.1250001   0.5051814   0.6108633  )
        21           Ga  tau(  21) = (   0.1250001   0.5051814   1.0183331  )
        22           Ga  tau(  22) = (   0.0000001   0.7216878   0.2033935  )
        23           Ga  tau(  23) = (   0.0000001   0.7216878   0.6108633  )
        24           Ga  tau(  24) = (   0.0000001   0.7216878   1.0183331  )
        25           Ga  tau(  25) = (   0.6250001   0.0721687   0.2033935  )
        26           Ga  tau(  26) = (   0.6250001   0.0721687   0.6108633  )
        27           Ga  tau(  27) = (   0.6250001   0.0721687   1.0183331  )
        28           Ga  tau(  28) = (   0.5000001   0.2886751   0.2033935  )
        29           Ga  tau(  29) = (   0.5000001   0.2886751   0.6108633  )
        30           Ga  tau(  30) = (   0.5000001   0.2886751   1.0183331  )
        31           Ga  tau(  31) = (   0.3750001   0.5051814   0.2033935  )
        32           Ga  tau(  32) = (   0.3750001   0.5051814   0.6108633  )
        33           Ga  tau(  33) = (   0.3750001   0.5051814   1.0183331  )
        34           Ga  tau(  34) = (   0.2500001   0.7216878   0.2033935  )
        35           Ga  tau(  35) = (   0.2500001   0.7216878   0.6108633  )
        36           Ga  tau(  36) = (   0.2500001   0.7216878   1.0183331  )
        37           Ga  tau(  37) = (   0.8750001   0.0721687   0.2033935  )
        38           Ga  tau(  38) = (   0.8750001   0.0721687   0.6108633  )
        39           Ga  tau(  39) = (   0.8750001   0.0721687   1.0183331  )
        40           Ga  tau(  40) = (   0.7500001   0.2886751   0.2033935  )
        41           Ga  tau(  41) = (   0.7500001   0.2886751   0.6108633  )
        42           Ga  tau(  42) = (   0.7500001   0.2886751   1.0183331  )
        43           Ga  tau(  43) = (   0.6250001   0.5051814   0.2033935  )
        44           Ga  tau(  44) = (   0.6250001   0.5051814   0.6108633  )
        45           Ga  tau(  45) = (   0.6250001   0.5051814   1.0183331  )
        46           Ga  tau(  46) = (   0.5000001   0.7216878   0.2033935  )
        47           Ga  tau(  47) = (   0.5000001   0.7216878   0.6108633  )
        48           Ga  tau(  48) = (   0.5000001   0.7216878   1.0183331  )
        49           Ga  tau(  49) = (  -0.0000002   0.1443377   0.4071284  )
        50           Ga  tau(  50) = (  -0.0000002   0.1443377   0.8145982  )
        51           Ga  tau(  51) = (  -0.0000002   0.1443377   1.2220680  )
        52           Ga  tau(  52) = (  -0.1250002   0.3608440   0.4071284  )
        53           Ga  tau(  53) = (  -0.1250002   0.3608440   0.8145982  )
        54           Ga  tau(  54) = (  -0.1250002   0.3608440   1.2220680  )
        55           Ga  tau(  55) = (  -0.2500002   0.5773504   0.4071284  )
        56           Ga  tau(  56) = (  -0.2500002   0.5773504   0.8145982  )
        57           Ga  tau(  57) = (  -0.2500002   0.5773504   1.2220680  )
        58           Ga  tau(  58) = (  -0.3750001   0.7938567   0.4071284  )
        59           Ga  tau(  59) = (  -0.3750001   0.7938567   0.8145982  )
        60           Ga  tau(  60) = (  -0.3750001   0.7938567   1.2220680  )
[...]
[...]
     atom   44 type  1   force =     0.00000000    0.00000000    0.00000000
     atom   45 type  1   force =     0.00000000    0.00000000    0.00000000
     atom   46 type  1   force =     0.00000000    0.00000000    0.00000000
     atom   47 type  1   force =     0.00000000    0.00000000    0.00000000
     atom   48 type  1   force =     0.00000000    0.00000000    0.00000000
     atom   49 type  1   force =     0.00000000    0.00000000    0.00000000
     atom   50 type  1   force =     0.00000000    0.00000000    0.00000000
     atom   51 type  1   force =     0.00000000    0.00000000    0.00000000
     atom   52 type  1   force =     0.00000000    0.00000000    0.00000000
     atom   53 type  1   force =     0.00000000    0.00000000    0.00000000
     atom   54 type  1   force =     0.00000000    0.00000000    0.00000000
     atom   55 type  1   force =     0.00000000    0.00000000    0.00000000
     atom   56 type  1   force =     0.00000000    0.00000000    0.00000000
     atom   57 type  1   force =     0.00000000    0.00000000    0.00000000
     atom   58 type  1   force =     0.00000000    0.00000000    0.00000000
     atom   59 type  1   force =     0.00000000    0.00000000    0.00000000
     atom   60 type  1   force =     0.00000000    0.00000000    0.00000000
[...]
     atom  177 type  2   force =     0.00000000    0.00000000    0.00000000
     atom  178 type  2   force =     0.00000000    0.00000000    0.00000000
     atom  179 type  2   force =     0.00000000    0.00000000    0.00000000
     atom  180 type  2   force =     0.00000000    0.00000000    0.00000000
     atom  181 type  2   force =     0.00000000    0.00000000    0.00000000
     atom  182 type  2   force =     0.00000000    0.00000000    0.00000000
     atom  183 type  2   force =     0.00000000    0.00000000    0.00000000
     atom  184 type  2   force =     0.00000000    0.00000000    0.00000000
     atom  185 type  2   force =     0.00000000    0.00000000    0.00000000
     atom  186 type  2   force =     0.00000000    0.00000000    0.00000000
     atom  187 type  2   force =     0.00000000    0.00000000    0.00000000
     atom  188 type  2   force =     0.00000000    0.00000000    0.00000000
     atom  189 type  2   force =     0.00000000    0.00000000    0.00000000
     atom  190 type  2   force =     0.00000000    0.00000000    0.00000000
     atom  191 type  2   force =     0.00000000    0.00000000    0.00000000
     The SCF correction term to forces
     atom    1 type  1   force =    -0.00000000    0.00000000    0.00002701
     atom    2 type  1   force =     0.00000000   -0.00000000   -0.00002173
     atom    3 type  1   force =     0.00000000   -0.00000000    0.00000917
     atom    4 type  1   force =     0.00000153   -0.00000447    0.00001000
     atom    5 type  1   force =    -0.00000087    0.00000002   -0.00001479
     atom    6 type  1   force =    -0.00000109   -0.00000402    0.00000734
     atom    7 type  1   force =    -0.00000421   -0.00000243    0.00000947
     atom    8 type  1   force =    -0.00000414   -0.00000239   -0.00001419
     atom    9 type  1   force =    -0.00000378   -0.00000218    0.00000612
     atom   10 type  1   force =    -0.00000311    0.00000356    0.00001000
     atom   11 type  1   force =    -0.00000042   -0.00000076   -0.00001479
     atom   12 type  1   force =    -0.00000403    0.00000106    0.00000734
     atom   13 type  1   force =    -0.00000464    0.00000091    0.00001000
     atom   14 type  1   force =     0.00000045    0.00000074   -0.00001479
     atom   15 type  1   force =    -0.00000293    0.00000295    0.00000734
     atom   16 type  1   force =    -0.00000153   -0.00000447    0.00001000
     atom   17 type  1   force =     0.00000087    0.00000002   -0.00001479
     atom   18 type  1   force =     0.00000109   -0.00000402    0.00000734
     atom   19 type  1   force =     0.00000000   -0.00000496    0.00000868
     atom   20 type  1   force =     0.00000000   -0.00000498   -0.00001470
     atom   21 type  1   force =     0.00000000   -0.00000324    0.00000720
     atom   22 type  1   force =    -0.00000430    0.00000248    0.00000868
     atom   23 type  1   force =    -0.00000432    0.00000249   -0.00001470
     atom   24 type  1   force =    -0.00000281    0.00000162    0.00000720
     atom   25 type  1   force =    -0.00000000    0.00000486    0.00000947
     atom   26 type  1   force =    -0.00000000    0.00000478   -0.00001419
     atom   27 type  1   force =     0.00000000    0.00000437    0.00000612
     atom   28 type  1   force =     0.00000056    0.00000032    0.00000682
     atom   29 type  1   force =    -0.00000016   -0.00000009   -0.00001202
     atom   30 type  1   force =     0.00000118    0.00000068    0.00000536
     atom   31 type  1   force =     0.00000421   -0.00000243    0.00000947
     atom   32 type  1   force =     0.00000414   -0.00000239   -0.00001419
     atom   33 type  1   force =     0.00000378   -0.00000218    0.00000612
     atom   34 type  1   force =     0.00000430    0.00000248    0.00000868
     atom   35 type  1   force =     0.00000432    0.00000249   -0.00001470
     atom   36 type  1   force =     0.00000281    0.00000162    0.00000720
     atom   37 type  1   force =     0.00000464    0.00000091    0.00001000
     atom   38 type  1   force =    -0.00000045    0.00000074   -0.00001479
     atom   39 type  1   force =     0.00000293    0.00000295    0.00000734
     atom   40 type  1   force =    -0.00000056    0.00000032    0.00000682
     atom   41 type  1   force =     0.00000016   -0.00000009   -0.00001202
     atom   42 type  1   force =    -0.00000118    0.00000068    0.00000536
     atom   43 type  1   force =    -0.00000000   -0.00000064    0.00000682
     atom   44 type  1   force =     0.00000000    0.00000019   -0.00001202
     atom   45 type  1   force =     0.00000000   -0.00000136    0.00000536
     atom   46 type  1   force =     0.00000311    0.00000356    0.00001000
     atom   47 type  1   force =     0.00000042   -0.00000076   -0.00001479
     atom   48 type  1   force =     0.00000403    0.00000106    0.00000734
     atom   49 type  1   force =     0.00001164   -0.00000672   -0.00001654
     atom   50 type  1   force =    -0.00000022    0.00000013   -0.00000537
     atom   51 type  1   force =     0.00000179   -0.00000103    0.00001381
     atom   52 type  1   force =     0.00000066    0.00000009   -0.00000670
     atom   53 type  1   force =    -0.00000249   -0.00000257   -0.00000688
     atom   54 type  1   force =    -0.00000262   -0.00000229    0.00001148
     atom   55 type  1   force =     0.00000041    0.00000052   -0.00000670
     atom   56 type  1   force =    -0.00000347   -0.00000087   -0.00000688
     atom   57 type  1   force =    -0.00000329   -0.00000113    0.00001148
     atom   58 type  1   force =     0.00000000    0.00001344   -0.00001654
     atom   59 type  1   force =    -0.00000000   -0.00000025   -0.00000537
     atom   60 type  1   force =    -0.00000000    0.00000207    0.00001381
[...]
     atom  177 type  2   force =    -0.00000000    0.00000215    0.00000413
     atom  178 type  2   force =    -0.00000000    0.00000213   -0.00000633
     atom  179 type  2   force =    -0.00000000    0.00000169    0.00000225
     atom  180 type  2   force =     0.00000013    0.00000127    0.00000413
     atom  181 type  2   force =    -0.00000016    0.00000085   -0.00000566
     atom  182 type  2   force =     0.00000019    0.00000149    0.00000186
     atom  183 type  2   force =     0.00000000   -0.00000000    0.00000387
     atom  184 type  2   force =    -0.00000000    0.00000000   -0.00000498
     atom  185 type  2   force =     0.00000000   -0.00000000    0.00000197
     atom  186 type  2   force =     0.00000117   -0.00000052    0.00000413
     atom  187 type  2   force =     0.00000066   -0.00000056   -0.00000566
     atom  188 type  2   force =     0.00000138   -0.00000058    0.00000186
     atom  189 type  2   force =     0.00000264    0.00000153    0.00000431
     atom  190 type  2   force =     0.00000168    0.00000097   -0.00000674
     atom  191 type  2   force =     0.00000155    0.00000089    0.00000225

     Total force =     0.003444     Total SCF correction =     0.000120

     Computing stress (Cartesian axis) and pressure

     Non-local corr. energy    =      52.22722464 Ry

          total   stress  (Ry/bohr**3)                   (kbar)     P=       26.54
   0.00016558  -0.00000000   0.00000000           24.36       -0.00        0.00
  -0.00000000   0.00016558   0.00000000           -0.00       24.36        0.00
   0.00000000   0.00000000   0.00021017            0.00        0.00       30.92

     kinetic stress (kbar)  18351.85     -0.00      0.00
                               -0.00  18351.85      0.00
                                0.00      0.00  18355.48

     local   stress (kbar)   5424.37     -0.07      0.00
                               -0.07   5424.28     -0.00
                                0.00     -0.00   3760.81

     nonloc. stress (kbar)    110.83     -0.00      0.00
                                0.00    110.83     -0.00
                                0.00     -0.00    118.97

     hartree stress (kbar)  19596.90     -0.00      0.00
                               -0.00  19596.90     -0.00
                                0.00     -0.00  20351.12

     exc-cor stress (kbar)   5225.17      0.00     -0.00
                                0.00   5225.17      0.00
                               -0.00      0.00   5225.63

     corecor stress (kbar) -14104.49     -0.00     -0.00
                               -0.00 -14104.49      0.00
                               -0.00      0.00 -14104.08

     ewald   stress (kbar) -34742.18      0.09     -0.00
                                0.09 -34742.06      0.00
                               -0.00      0.00 -33838.01

     hubbard stress (kbar)      0.00      0.00      0.00
                                0.00      0.00      0.00
                                0.00      0.00      0.00

     DFT-D   stress (kbar)      0.00      0.00      0.00
                                0.00      0.00      0.00
                                0.00      0.00      0.00

     XDM     stress (kbar)      0.00      0.00      0.00
                                0.00      0.00      0.00
                                0.00      0.00      0.00

     dft-nl  stress (kbar)    161.89     -0.00     -0.00
                               -0.00    161.89     -0.00
                               -0.00     -0.00    161.00

     TS-vdW  stress (kbar)      0.00      0.00      0.00
                                0.00      0.00      0.00
                                0.00      0.00      0.00

     MDB     stress (kbar)      0.00      0.00      0.00
                                0.00      0.00      0.00
                                0.00      0.00      0.00

     3D-RISM stress (kbar)      0.00      0.00      0.00
                                0.00      0.00      0.00
                                0.00      0.00      0.00

     Energy error            =      2.2E-05 Ry
     Gradient error          =      8.6E-04 Ry/Bohr

     bfgs converged in  12 scf cycles and  11 bfgs steps
     (criteria: energy <  1.0E-04 Ry, force <  1.0E-03 Ry/Bohr)

     End of BFGS Geometry Optimization

     Final energy             =  -29949.0846273580 Ry

     File ./GaN.bfgs deleted, as requested
Begin final coordinates

ATOMIC_POSITIONS (angstrom)
Ga            1.6222756606        0.9366198184        2.7450679709
Ga            1.6222756606        0.9366198184        7.9374073289
Ga            1.6222756606        0.9366198184       13.2091559038
Ga            0.0021999921        3.7370898481        2.6421499078
Ga            0.0012464782        3.7439041537        7.9232629020
Ga            0.0001785868        3.7471610661       13.2139000521
Ga           -1.6227312355        6.5560778216        2.6459294786
Ga           -1.6228278532        6.5560220394        7.9234384677
Ga           -1.6225463371        6.5561845728       13.2189143471
Ga           -3.2515808197        9.3728035308        2.6421499078
Ga           -3.2461562149        9.3685706108        7.9232629020
Ga           -3.2438695917        9.3660173335       13.2139000521
Ga            4.8575916830        0.9394114886        2.6421499078
Ga            4.8639698017        0.9368301031        7.9232629020
Ga            4.8673243163        0.9361264680       13.2139000521
Ga            3.2423513291        3.7370898481        2.6421499078
Ga            3.2433048430        3.7439041537        7.9232629020
Ga            3.2443727344        3.7471610661       13.2139000521
Ga            1.6222756606        6.5532499042        2.6423671853
Ga            1.6222756606        6.5554565415        7.9245795696
Ga            1.6222756606        6.5562826644       13.2177996107
Ga           -0.0026768357        9.3677501878        2.6423671853
Ga           -0.0007658318        9.3666468691        7.9245795696
Ga           -0.0000503883        9.3662338077       13.2177996107
Ga            8.1113724947        0.9371492244        2.6459294786
Ga            8.1113724947        0.9372607888        7.9234384677
Ga            8.1113724947        0.9369357221       13.2189143471
Ga            6.4875138736        3.7455664105        2.6421073754
Ga            6.4874756217        3.7455443257        7.9280044334
Ga            6.4890452545        3.7464505536       13.2180333026
Ga            4.8672825567        6.5560778216        2.6459294786
Ga            4.8673791744        6.5560220394        7.9234384677
Ga            4.8670976583        6.5561845728       13.2189143471
Ga            3.2472281569        9.3677501878        2.6423671853
Ga            3.2453171530        9.3666468691        7.9245795696
Ga            3.2446017095        9.3662338077       13.2177996107
Ga           11.3651533065        0.9394114886        2.6421499078
Ga           11.3587751878        0.9368301031        7.9232629020
Ga           11.3554206732        0.9361264680       13.2139000521
Ga            9.7352311159        3.7455664105        2.6421073754
Ga            9.7352693678        3.7455443257        7.9280044334
Ga            9.7336997350        3.7464505536       13.2180333026
Ga            8.1113724947        6.5581720466        2.6421073754
Ga            8.1113724947        6.5582162161        7.9280044334
Ga            8.1113724947        6.5564037604       13.2180333026
Ga            6.4961321409        9.3728035308        2.6421499078
Ga            6.4907075360        9.3685706108        7.9232629020
Ga            6.4884209129        9.3660173335       13.2139000521
Ga            0.1144223093        1.8071795611        5.2650445930
Ga           -0.0014653056        1.8740873067       10.5673242216
Ga            0.0031409086        1.8714279077       15.8596008156
Ga           -1.6141292447        4.6706205805        5.2828892202
Ga           -1.6216586701        4.6835223590       10.5710051864
Ga           -1.6200783304        4.6812145282       15.8647225694
Ga           -3.2512877024        7.5062622094        5.2828892202
Ga           -3.2438791472        7.4932906465       10.5710051864
Ga           -3.2450876175        7.4958131761       15.8647225694
Ga           -4.8668245904       10.4349522766        5.2650445930
Ga           -4.8668245904       10.3011367853       10.5673242216
Ga           -4.8668245904       10.3064555833       15.8596008156
[...]
N             1.6222722437       10.3023009909        1.9876798877
N             1.6222722437       10.3025305960        7.2766942338
N             1.6222722437       10.3030225529       12.5628736758
N             9.7319316801        1.8725790611        1.9878892069
N             9.7333817728        1.8737730132        7.2772183797
N             9.7320935413        1.8740293612       12.5626807543
N             8.1113690779        4.6831037996        1.9883882758
N             8.1113690779        4.6831037996        7.2791726074
N             8.1113690779        4.6831037996       12.5644569940
N             6.4876645575        7.4918145509        1.9878892069
N             6.4894235968        7.4924733920        7.2772183797
N             6.4890014849        7.4912295767       12.5626807543
N             4.8656654121       10.3021595225        1.9829836458
N             4.8643314713       10.3013893714        7.2757134777
N             4.8651016334       10.3018340248       12.5617588426
End final coordinates

     Writing all to output data dir ./GaN.save/

     General routines

     Parallel routines

     PAW routines

   This run was terminated on:   7: 4:39  14Apr2024

   JOB DONE.