     Program PWSCF v.7.1 starts on 10Apr2024 at 17:30: 9

     Reading input from espresso.pwi
Warning: card &CELL ignored
Warning: card    CELL_DYNAMICS    = 'BFGS' ignored
Warning: card / ignored

     Current dimensions of program PWSCF are:
     Max number of different atomic species (ntypx) = 10
     Max number of k-points (npk) =  40000
     Max angular momentum in pseudopotentials (lmaxx) =  4
     file Ga.pbe-dn-kjpaw_psl.1.0.0.UPF: wavefunction(s)  4S renormalized
     file N.pbe-n-kjpaw_psl.1.0.0.UPF: wavefunction(s)  2S renormalized

     IMPORTANT: XC functional enforced from input :
     Exchange-correlation= BEEF-VDW
                           (   1   4  43  14   2   0   0)
     Any further DFT definition will be discarded
     Please, verify this is what you really want

     K-points division:     npool     =       2
     R & G space division:  proc/nbgrp/npool/nimage =      64
     Subspace diagonalization in iterative solution of the eigenvalue problem:
     a serial algorithm will be used

     Using Slab Decomposition

     bravais-lattice index     =            4
     lattice parameter (alat)  =      24.5252  a.u.
     unit-cell volume          =   15616.6055 (a.u.)^3
     number of atoms/cell      =          191
     number of atomic types    =            2
     number of electrons       =      1724.00
     number of Kohn-Sham states=         1034
     kinetic-energy cutoff     =      70.0000  Ry
     charge density cutoff     =     350.0000  Ry
     scf convergence threshold =      1.0E-07
     mixing beta               =       0.7000
     number of iterations used =            8  plain     mixing
     energy convergence thresh.=      1.0E-04
     force convergence thresh. =      1.0E-03
     Exchange-correlation= BEEF-VDW
                           (   1   4  43  14   2   0   0)
     nstep                     =           50

     celldm(1)=  24.525232  celldm(2)=   0.000000  celldm(3)=   1.222409
     celldm(4)=   0.000000  celldm(5)=   0.000000  celldm(6)=   0.000000

     crystal axes: (cart. coord. in units of alat)
               a(1) = (   1.000000   0.000000   0.000000 )
               a(2) = (  -0.500000   0.866025   0.000000 )
               a(3) = (   0.000000   0.000000   1.222409 )

     reciprocal axes: (cart. coord. in units 2 pi/alat)
               b(1) = (  1.000000  0.577350 -0.000000 )
               b(2) = (  0.000000  1.154701  0.000000 )
               b(3) = (  0.000000 -0.000000  0.818057 )

     PseudoPot. # 1 for Ga read from file:
     //group///packages/espresso/pseudo/psl_1.0.0/pslibrary.1.0.0/pbe/PSEUDOPOTENTIALS/Ga.pbe-dn-kjpaw_psl.1.0.0.UPF
     MD5 check sum: cd2a01e492f15b435d17032472d8505c
     Pseudo is Projector augmented-wave + core cor, Zval = 13.0
     Generated using 'atomic' code by A. Dal Corso  v.7.1
     Shape of augmentation charge: PSQ
     Using radial grid of 1205 points,  6 beta functions with:
                l(1) =   0
                l(2) =   0
                l(3) =   1
                l(4) =   1
                l(5) =   2
                l(6) =   2
     Q(r) pseudized with 0 coefficients

     PseudoPot. # 2 for N  read from file:
     //group///packages/espresso/pseudo/psl_1.0.0/pslibrary.1.0.0/pbe/PSEUDOPOTENTIALS/N.pbe-n-kjpaw_psl.1.0.0.UPF
     MD5 check sum: f77f775694dac7e2c3fe1c82443d1a16
     Pseudo is Projector augmented-wave + core cor, Zval =  5.0
     Generated using 'atomic' code by A. Dal Corso  v.7.1
     Shape of augmentation charge: PSQ
     Using radial grid of 1085 points,  4 beta functions with:
                l(1) =   0
                l(2) =   0
                l(3) =   1
                l(4) =   1
     Q(r) pseudized with 0 coefficients

     atomic species   valence    mass     pseudopotential
        Ga            13.00    69.72300     Ga( 1.00)
        N              5.00    14.00700     N ( 1.00)

      6 Sym. Ops. (no inversion) found ( 4 have fractional translation)

                                    s                        frac. trans.

      isym =  1     identity

 cryst.   s( 1) = (     1          0          0      )
                  (     0          1          0      )
                  (     0          0          1      )

 cart.    s( 1) = (  1.0000000  0.0000000  0.0000000 )
                  (  0.0000000  1.0000000  0.0000000 )
                  (  0.0000000  0.0000000  1.0000000 )

      isym =  2     120 deg rotation - cryst. axis [0,0,1]

 cryst.   s( 2) = (     0          1          0      )    f =( -0.2500000 )
                  (    -1         -1          0      )       (  0.0000002 )
                  (     0          0          1      )       (  0.0000000 )

 cart.    s( 2) = ( -0.5000000 -0.8660254  0.0000000 )    f =( -0.2500001 )
                  (  0.8660254 -0.5000000  0.0000000 )       (  0.0000002 )
                  (  0.0000000  0.0000000  1.0000000 )       (  0.0000000 )

      isym =  3     120 deg rotation - cryst. axis [0,0,-1]

[...]

      isym =  4     inv. 180 deg rotation - cart. axis [1,0,0]

[...]

      isym =  5     inv. 180 deg rotation - cryst. axis [0,1,0]

 cryst.   s( 5) = (     1          1          0      )
                  (     0         -1          0      )
                  (     0          0          1      )

 cart.    s( 5) = (  0.5000000  0.8660254  0.0000000 )
                  (  0.8660254 -0.5000000  0.0000000 )
                  (  0.0000000  0.0000000  1.0000000 )

      isym =  6     inv. 180 deg rotation - cryst. axis [1,1,0]

 cryst.   s( 6) = (     0         -1          0      )    f =( -0.2500000 )
                  (    -1          0          0      )       ( -0.2500000 )
                  (     0          0          1      )       (  0.0000000 )

 cart.    s( 6) = (  0.5000000 -0.8660254  0.0000000 )    f =( -0.1250000 )
                  ( -0.8660254 -0.5000000  0.0000000 )       ( -0.2165064 )
                  (  0.0000000  0.0000000  1.0000000 )       (  0.0000000 )

     point group C_3v (3m)
     there are  3 classes
     the character table:

       E     2C3   3s_v
A_1    1.00  1.00  1.00
A_2    1.00  1.00 -1.00
E      2.00 -1.00  0.00

     the symmetry operations in each class and the name of the first element:

     E        1
          identity
     2C3      2    3
          120 deg rotation - cryst. axis [0,0,1]
     3s_v     4    5    6
          inv. 180 deg rotation - cart. axis [1,0,0]

   Cartesian axes

     site n.     atom                  positions (alat units)
         1           Ga  tau(   1) = (   0.1250001   0.0721687   0.2033935  )
         2           Ga  tau(   2) = (   0.1250001   0.0721687   0.6108633  )
         3           Ga  tau(   3) = (   0.1250001   0.0721687   1.0183331  )
         4           Ga  tau(   4) = (   0.0000001   0.2886751   0.2033935  )
         5           Ga  tau(   5) = (   0.0000001   0.2886751   0.6108633  )
         6           Ga  tau(   6) = (   0.0000001   0.2886751   1.0183331  )
         7           Ga  tau(   7) = (  -0.1249999   0.5051814   0.2033935  )
         8           Ga  tau(   8) = (  -0.1249999   0.5051814   0.6108633  )
         9           Ga  tau(   9) = (  -0.1249999   0.5051814   1.0183331  )
        10           Ga  tau(  10) = (  -0.2499999   0.7216878   0.2033935  )
        11           Ga  tau(  11) = (  -0.2499999   0.7216878   0.6108633  )
        12           Ga  tau(  12) = (  -0.2499999   0.7216878   1.0183331  )
        13           Ga  tau(  13) = (   0.3750001   0.0721687   0.2033935  )
        14           Ga  tau(  14) = (   0.3750001   0.0721687   0.6108633  )
        15           Ga  tau(  15) = (   0.3750001   0.0721687   1.0183331  )
        16           Ga  tau(  16) = (   0.2500001   0.2886751   0.2033935  )
        17           Ga  tau(  17) = (   0.2500001   0.2886751   0.6108633  )
        18           Ga  tau(  18) = (   0.2500001   0.2886751   1.0183331  )
        19           Ga  tau(  19) = (   0.1250001   0.5051814   0.2033935  )
        20           Ga  tau(  20) = (   0.1250001   0.5051814   0.6108633  )
        21           Ga  tau(  21) = (   0.1250001   0.5051814   1.0183331  )
        22           Ga  tau(  22) = (   0.0000001   0.7216878   0.2033935  )
        23           Ga  tau(  23) = (   0.0000001   0.7216878   0.6108633  )
        24           Ga  tau(  24) = (   0.0000001   0.7216878   1.0183331  )
        25           Ga  tau(  25) = (   0.6250001   0.0721687   0.2033935  )
        26           Ga  tau(  26) = (   0.6250001   0.0721687   0.6108633  )
        27           Ga  tau(  27) = (   0.6250001   0.0721687   1.0183331  )
        28           Ga  tau(  28) = (   0.5000001   0.2886751   0.2033935  )
        29           Ga  tau(  29) = (   0.5000001   0.2886751   0.6108633  )
        30           Ga  tau(  30) = (   0.5000001   0.2886751   1.0183331  )
        31           Ga  tau(  31) = (   0.3750001   0.5051814   0.2033935  )
        32           Ga  tau(  32) = (   0.3750001   0.5051814   0.6108633  )
        33           Ga  tau(  33) = (   0.3750001   0.5051814   1.0183331  )
        34           Ga  tau(  34) = (   0.2500001   0.7216878   0.2033935  )
        35           Ga  tau(  35) = (   0.2500001   0.7216878   0.6108633  )
        36           Ga  tau(  36) = (   0.2500001   0.7216878   1.0183331  )
        37           Ga  tau(  37) = (   0.8750001   0.0721687   0.2033935  )
        38           Ga  tau(  38) = (   0.8750001   0.0721687   0.6108633  )
        39           Ga  tau(  39) = (   0.8750001   0.0721687   1.0183331  )
        40           Ga  tau(  40) = (   0.7500001   0.2886751   0.2033935  )
        41           Ga  tau(  41) = (   0.7500001   0.2886751   0.6108633  )
        42           Ga  tau(  42) = (   0.7500001   0.2886751   1.0183331  )
        43           Ga  tau(  43) = (   0.6250001   0.5051814   0.2033935  )
        44           Ga  tau(  44) = (   0.6250001   0.5051814   0.6108633  )
        45           Ga  tau(  45) = (   0.6250001   0.5051814   1.0183331  )
        46           Ga  tau(  46) = (   0.5000001   0.7216878   0.2033935  )
        47           Ga  tau(  47) = (   0.5000001   0.7216878   0.6108633  )
        48           Ga  tau(  48) = (   0.5000001   0.7216878   1.0183331  )
        49           Ga  tau(  49) = (  -0.0000002   0.1443377   0.4071284  )
        50           Ga  tau(  50) = (  -0.0000002   0.1443377   0.8145982  )
        51           Ga  tau(  51) = (  -0.0000002   0.1443377   1.2220680  )
        52           Ga  tau(  52) = (  -0.1250002   0.3608440   0.4071284  )
        53           Ga  tau(  53) = (  -0.1250002   0.3608440   0.8145982  )
        54           Ga  tau(  54) = (  -0.1250002   0.3608440   1.2220680  )
        55           Ga  tau(  55) = (  -0.2500002   0.5773504   0.4071284  )
        56           Ga  tau(  56) = (  -0.2500002   0.5773504   0.8145982  )
        57           Ga  tau(  57) = (  -0.2500002   0.5773504   1.2220680  )
        58           Ga  tau(  58) = (  -0.3750001   0.7938567   0.4071284  )
        59           Ga  tau(  59) = (  -0.3750001   0.7938567   0.8145982  )
        60           Ga  tau(  60) = (  -0.3750001   0.7938567   1.2220680  )
[...]
[...]
     atom   44 type  1   force =     0.00000000    0.00000000    0.00000000
     atom   45 type  1   force =     0.00000000    0.00000000    0.00000000
     atom   46 type  1   force =     0.00000000    0.00000000    0.00000000
     atom   47 type  1   force =     0.00000000    0.00000000    0.00000000
     atom   48 type  1   force =     0.00000000    0.00000000    0.00000000
     atom   49 type  1   force =     0.00000000    0.00000000    0.00000000
     atom   50 type  1   force =     0.00000000    0.00000000    0.00000000
     atom   51 type  1   force =     0.00000000    0.00000000    0.00000000
     atom   52 type  1   force =     0.00000000    0.00000000    0.00000000
     atom   53 type  1   force =     0.00000000    0.00000000    0.00000000
     atom   54 type  1   force =     0.00000000    0.00000000    0.00000000
     atom   55 type  1   force =     0.00000000    0.00000000    0.00000000
     atom   56 type  1   force =     0.00000000    0.00000000    0.00000000
     atom   57 type  1   force =     0.00000000    0.00000000    0.00000000
     atom   58 type  1   force =     0.00000000    0.00000000    0.00000000
     atom   59 type  1   force =     0.00000000    0.00000000    0.00000000
     atom   60 type  1   force =     0.00000000    0.00000000    0.00000000
[...]
     atom  177 type  2   force =     0.00000000    0.00000000    0.00000000
     atom  178 type  2   force =     0.00000000    0.00000000    0.00000000
     atom  179 type  2   force =     0.00000000    0.00000000    0.00000000
     atom  180 type  2   force =     0.00000000    0.00000000    0.00000000
     atom  181 type  2   force =     0.00000000    0.00000000    0.00000000
     atom  182 type  2   force =     0.00000000    0.00000000    0.00000000
     atom  183 type  2   force =     0.00000000    0.00000000    0.00000000
     atom  184 type  2   force =     0.00000000    0.00000000    0.00000000
     atom  185 type  2   force =     0.00000000    0.00000000    0.00000000
     atom  186 type  2   force =     0.00000000    0.00000000    0.00000000
     atom  187 type  2   force =     0.00000000    0.00000000    0.00000000
     atom  188 type  2   force =     0.00000000    0.00000000    0.00000000
     atom  189 type  2   force =     0.00000000    0.00000000    0.00000000
     atom  190 type  2   force =     0.00000000    0.00000000    0.00000000
     atom  191 type  2   force =     0.00000000    0.00000000    0.00000000
     The SCF correction term to forces
     atom    1 type  1   force =     0.00000000   -0.00000000    0.00000133
     atom    2 type  1   force =     0.00000000   -0.00000000   -0.00000025
     atom    3 type  1   force =     0.00000000   -0.00000000   -0.00001401
     atom    4 type  1   force =     0.00000730   -0.00000983   -0.00000159
     atom    5 type  1   force =     0.00000613   -0.00001134    0.00001544
     atom    6 type  1   force =     0.00000417   -0.00000780   -0.00001208
     atom    7 type  1   force =     0.00000416    0.00000240   -0.00000096
     atom    8 type  1   force =     0.00000239    0.00000138    0.00001327
     atom    9 type  1   force =     0.00000023    0.00000013   -0.00001090
     atom   10 type  1   force =    -0.00000486    0.00001124   -0.00000159
     atom   11 type  1   force =    -0.00000675    0.00001098    0.00001544
     atom   12 type  1   force =    -0.00000467    0.00000751   -0.00001208
     atom   13 type  1   force =    -0.00001216   -0.00000141   -0.00000159
     atom   14 type  1   force =    -0.00001288    0.00000036    0.00001544
     atom   15 type  1   force =    -0.00000884    0.00000029   -0.00001208
     atom   16 type  1   force =    -0.00000730   -0.00000983   -0.00000159
     atom   17 type  1   force =    -0.00000613   -0.00001134    0.00001544
     atom   18 type  1   force =    -0.00000417   -0.00000780   -0.00001208
     atom   19 type  1   force =    -0.00000000    0.00000096   -0.00000163
     atom   20 type  1   force =     0.00000000   -0.00000369    0.00001216
     atom   21 type  1   force =    -0.00000000   -0.00000467   -0.00001098
     atom   22 type  1   force =     0.00000083   -0.00000048   -0.00000163
     atom   23 type  1   force =    -0.00000319    0.00000184    0.00001216
     atom   24 type  1   force =    -0.00000404    0.00000233   -0.00001098
     atom   25 type  1   force =    -0.00000000   -0.00000481   -0.00000096
     atom   26 type  1   force =     0.00000000   -0.00000276    0.00001327
     atom   27 type  1   force =     0.00000000   -0.00000027   -0.00001090
     atom   28 type  1   force =    -0.00000183   -0.00000106   -0.00000058
     atom   29 type  1   force =    -0.00000547   -0.00000316    0.00001159
     atom   30 type  1   force =    -0.00000417   -0.00000241   -0.00001125
     atom   31 type  1   force =    -0.00000416    0.00000240   -0.00000096
     atom   32 type  1   force =    -0.00000239    0.00000138    0.00001327
     atom   33 type  1   force =    -0.00000023    0.00000013   -0.00001090
     atom   34 type  1   force =    -0.00000083   -0.00000048   -0.00000163
     atom   35 type  1   force =     0.00000319    0.00000184    0.00001216
     atom   36 type  1   force =     0.00000404    0.00000233   -0.00001098
     atom   37 type  1   force =     0.00001216   -0.00000141   -0.00000159
     atom   38 type  1   force =     0.00001288    0.00000036    0.00001544
     atom   39 type  1   force =     0.00000884    0.00000029   -0.00001208
     atom   40 type  1   force =     0.00000183   -0.00000106   -0.00000058
     atom   41 type  1   force =     0.00000547   -0.00000316    0.00001159
     atom   42 type  1   force =     0.00000417   -0.00000241   -0.00001125
     atom   43 type  1   force =     0.00000000    0.00000212   -0.00000058
     atom   44 type  1   force =     0.00000000    0.00000632    0.00001159
     atom   45 type  1   force =    -0.00000000    0.00000482   -0.00001125
     atom   46 type  1   force =     0.00000486    0.00001124   -0.00000159
     atom   47 type  1   force =     0.00000675    0.00001098    0.00001544
     atom   48 type  1   force =     0.00000467    0.00000751   -0.00001208
     atom   49 type  1   force =     0.00000294   -0.00000170    0.00001954
     atom   50 type  1   force =     0.00000420   -0.00000242   -0.00000136
     atom   51 type  1   force =     0.00000284   -0.00000164   -0.00001215
     atom   52 type  1   force =     0.00000161   -0.00000083    0.00001320
     atom   53 type  1   force =     0.00000374   -0.00000573    0.00000069
     atom   54 type  1   force =     0.00000334   -0.00000379   -0.00001584
     atom   55 type  1   force =     0.00000009    0.00000181    0.00001320
     atom   56 type  1   force =    -0.00000309    0.00000611    0.00000069
     atom   57 type  1   force =    -0.00000161    0.00000479   -0.00001584
     atom   58 type  1   force =    -0.00000000    0.00000340    0.00001954
     atom   59 type  1   force =     0.00000000    0.00000485   -0.00000136
     atom   60 type  1   force =     0.00000000    0.00000328   -0.00001215
[...]
     atom  177 type  2   force =    -0.00000000   -0.00000004   -0.00000151
     atom  178 type  2   force =    -0.00000000    0.00000108    0.00000451
     atom  179 type  2   force =    -0.00000000    0.00000084   -0.00000442
     atom  180 type  2   force =     0.00000294   -0.00000127   -0.00000182
     atom  181 type  2   force =     0.00000434   -0.00000130    0.00000556
     atom  182 type  2   force =     0.00000254   -0.00000000   -0.00000468
     atom  183 type  2   force =     0.00000000   -0.00000000   -0.00000185
     atom  184 type  2   force =     0.00000000   -0.00000000    0.00000539
     atom  185 type  2   force =    -0.00000000    0.00000000   -0.00000423
     atom  186 type  2   force =     0.00000037    0.00000318   -0.00000182
     atom  187 type  2   force =     0.00000105    0.00000441    0.00000556
     atom  188 type  2   force =     0.00000127    0.00000220   -0.00000468
     atom  189 type  2   force =     0.00000337    0.00000194   -0.00000137
     atom  190 type  2   force =     0.00000512    0.00000296    0.00000563
     atom  191 type  2   force =     0.00000312    0.00000180   -0.00000505

     Total force =     0.004155     Total SCF correction =     0.000138

     Computing stress (Cartesian axis) and pressure

     Non-local corr. energy    =      52.23551632 Ry

          total   stress  (Ry/bohr**3)                   (kbar)     P=       15.01
   0.00009500  -0.00000000   0.00000000           13.97       -0.00        0.00
   0.00000000   0.00009500   0.00000000            0.00       13.97        0.00
   0.00000000   0.00000000   0.00011606            0.00        0.00       17.07

     kinetic stress (kbar)  18345.90     -0.00      0.00
                               -0.00  18345.90      0.00
                                0.00     -0.00  18343.17

     local   stress (kbar)   5392.79     -0.07      0.00
                               -0.07   5392.69     -0.00
                                0.00     -0.00   3758.88

     nonloc. stress (kbar)    107.32     -0.00      0.00
                               -0.00    107.32      0.00
                                0.00      0.00    117.66

     hartree stress (kbar)  19609.00     -0.00      0.00
                               -0.00  19609.00     -0.00
                                0.00     -0.00  20353.51

     exc-cor stress (kbar)   5227.51      0.00     -0.00
                                0.00   5227.51      0.00
                               -0.00      0.00   5227.83

     corecor stress (kbar) -14104.24     -0.00     -0.00
                               -0.00 -14104.24      0.00
                               -0.00      0.00 -14103.76

     ewald   stress (kbar) -34726.19      0.09     -0.00
                                0.09 -34726.07      0.00
                               -0.00      0.00 -33841.26

     hubbard stress (kbar)      0.00      0.00      0.00
                                0.00      0.00      0.00
                                0.00      0.00      0.00

     DFT-D   stress (kbar)      0.00      0.00      0.00
                                0.00      0.00      0.00
                                0.00      0.00      0.00

     XDM     stress (kbar)      0.00      0.00      0.00
                                0.00      0.00      0.00
                                0.00      0.00      0.00

     dft-nl  stress (kbar)    161.88     -0.00     -0.00
                               -0.00    161.88     -0.00
                               -0.00     -0.00    161.03

     TS-vdW  stress (kbar)      0.00      0.00      0.00
                                0.00      0.00      0.00
                                0.00      0.00      0.00

     MDB     stress (kbar)      0.00      0.00      0.00
                                0.00      0.00      0.00
                                0.00      0.00      0.00

     3D-RISM stress (kbar)      0.00      0.00      0.00
                                0.00      0.00      0.00
                                0.00      0.00      0.00

     Energy error            =      3.6E-05 Ry
     Gradient error          =      8.4E-04 Ry/Bohr

     bfgs converged in   8 scf cycles and   7 bfgs steps
     (criteria: energy <  1.0E-04 Ry, force <  1.0E-03 Ry/Bohr)

     End of BFGS Geometry Optimization

     Final energy             =  -29949.9064364707 Ry

     File ./GaN.bfgs deleted, as requested
Begin final coordinates

ATOMIC_POSITIONS (angstrom)
Ga            1.6222756606        0.9366198184        2.6940546570
Ga            1.6222756606        0.9366198184        7.9378095636
Ga            1.6222756606        0.9366198184       13.2127449525
Ga            0.0006986992        3.7505194822        2.6412172424
Ga            0.0014544085        3.7471584168        7.9238834679
Ga           -0.0000842459        3.7469342621       13.2164154662
Ga           -1.6221630597        6.5564058581        2.6407344397
Ga           -1.6219685221        6.5565181744        7.9283051972
Ga           -1.6222676379        6.5563454798       13.2163828856
Ga           -3.2407010618        9.3647885559        2.6412172424
Ga           -3.2432339751        9.3671235521        7.9238834679
Ga           -3.2441974260        9.3659031157       13.2164154662
Ga            4.8699727339        0.9339968294        2.6412172424
Ga            4.8666841112        0.9350228986        7.9238834679
Ga            4.8672593146        0.9364674897       13.2164154662
Ga            3.2438526220        3.7505194822        2.6412172424
Ga            3.2430969127        3.7471584168        7.9238834679
Ga            3.2446355671        3.7469342621       13.2164154662
Ga            1.6222756606        6.5569471658        2.6405645955
Ga            1.6222756606        6.5574682880        7.9292183924
Ga            1.6222756606        6.5565102454       13.2158524848
Ga            0.0005250868        9.3659015570        2.6405645955
Ga            0.0009763918        9.3656409959        7.9292183924
Ga            0.0001467025        9.3661200172       13.2158524848
Ga            8.1113724947        0.9364931515        2.6407344397
Ga            8.1113724947        0.9362685187        7.9283051972
Ga            8.1113724947        0.9366139080       13.2163828856
Ga            6.4888568387        3.7463417717        2.6404809387
Ga            6.4886996712        3.7462510310        7.9307749903
Ga            6.4891396534        3.7465050549       13.2158946914
Ga            4.8667143809        6.5564058581        2.6407344397
Ga            4.8665198433        6.5565181744        7.9283051972
Ga            4.8668189591        6.5563454798       13.2163828856
Ga            3.2440262344        9.3659015570        2.6405645955
Ga            3.2435749294        9.3656409959        7.9292183924
Ga            3.2444046187        9.3661200172       13.2158524848
Ga           11.3527722556        0.9339968294        2.6412172424
Ga           11.3560608783        0.9350228986        7.9238834679
Ga           11.3554856749        0.9364674897       13.2164154662
Ga            9.7338881508        3.7463417717        2.6404809387
Ga            9.7340453183        3.7462510310        7.9307749903
Ga            9.7336053361        3.7465050549       13.2158946914
Ga            8.1113724947        6.5566213241        2.6404809387
Ga            8.1113724947        6.5568028055        7.9307749903
Ga            8.1113724947        6.5562947579       13.2158946914
Ga            6.4852523830        9.3647885559        2.6412172424
Ga            6.4877852963        9.3671235521        7.9238834679
Ga            6.4887487472        9.3659031157       13.2164154662
Ga            0.0588745017        1.8392501027        5.2584246423
Ga           -0.0011858856        1.8739259835       10.5721869026
Ga            0.0030605365        1.8714743105       15.8587319331
Ga           -1.6234192020        4.6797264260        5.2865637303
Ga           -1.6218649039        4.6830743838       10.5720572008
Ga           -1.6228624556        4.6827763783       15.8605777446
Ga           -3.2480467875        7.4936639476        5.2865637303
Ga           -3.2443702221        7.4933360303       10.5720572008
Ga           -3.2451270782        7.4926211280       15.8605777446
Ga           -4.8668245904       10.3708111933        5.2584246423
Ga           -4.8668245904       10.3014594317       10.5721869026
Ga           -4.8668245904       10.3063627776       15.8587319331
[...]
N             1.6222722437       10.3028196538        1.9859970517
N             1.6222722437       10.3028646022        7.2766059880
N             1.6222722437       10.3029419472       12.5636890894
N             9.7331931908        1.8736851961        1.9860811001
N             9.7336608311        1.8738842226        7.2769804296
N             9.7337078412        1.8730396998       12.5636787490
N             8.1113690779        4.6831037996        1.9871438852
N             8.1113690779        4.6831037996        7.2775669831
N             8.1113690779        4.6831037996       12.5643369011
N             6.4892532539        7.4923539837        1.9860811001
N             6.4896594360        7.4926594588        7.2769804296
N             6.4889515629        7.4931224322       12.5636787490
N             4.8654444727       10.3020319631        1.9840605983
N             4.8647699917       10.3016425513        7.2764119459
N             4.8669733544       10.3029146634       12.5639816579
End final coordinates

     Writing all to output data dir ./GaN.save/

     General routines

     Parallel routines

     PAW routines

   This run was terminated on:   9:55:26  11Apr2024

   JOB DONE.