     Program PWSCF v.7.1 starts on 19Feb2024 at 16:19:15

     Reading input from espresso.pwi
Warning: card &CELL ignored
Warning: card    CELL_DYNAMICS    = 'BFGS' ignored
Warning: card / ignored

     Current dimensions of program PWSCF are:
     Max number of different atomic species (ntypx) = 10
     Max number of k-points (npk) =  40000
     Max angular momentum in pseudopotentials (lmaxx) =  4
     file C.pbe-n-kjpaw_psl.1.0.0.UPF: wavefunction(s)  2S 2P renormalized

     IMPORTANT: XC functional enforced from input :
     Exchange-correlation= BEEF-VDW
                           (   1   4  43  14   2   0   0)
     Any further DFT definition will be discarded
     Please, verify this is what you really want

     K-points division:     npool     =       4
     R & G space division:  proc/nbgrp/npool/nimage =      64
     Subspace diagonalization in iterative solution of the eigenvalue problem:
     a serial algorithm will be used

     Using Slab Decomposition

     bravais-lattice index     =            1
     lattice parameter (alat)  =      20.2520  a.u.
     unit-cell volume          =    8306.2556 (a.u.)^3
     number of atoms/cell      =          215
     number of atomic types    =            1
     number of electrons       =       859.00
     number of Kohn-Sham states=          516
     kinetic-energy cutoff     =      70.0000  Ry
     charge density cutoff     =     350.0000  Ry
     scf convergence threshold =      1.0E-07
     mixing beta               =       0.7000
     number of iterations used =            8  plain     mixing
     Exchange-correlation= BEEF-VDW
                           (   1   4  43  14   2   0   0)

     celldm(1)=  20.252024  celldm(2)=   0.000000  celldm(3)=   0.000000
     celldm(4)=   0.000000  celldm(5)=   0.000000  celldm(6)=   0.000000

     crystal axes: (cart. coord. in units of alat)
               a(1) = (   1.000000   0.000000   0.000000 )
               a(2) = (   0.000000   1.000000   0.000000 )
               a(3) = (   0.000000   0.000000   1.000000 )

     reciprocal axes: (cart. coord. in units 2 pi/alat)
               b(1) = (  1.000000  0.000000  0.000000 )
               b(2) = (  0.000000  1.000000  0.000000 )
               b(3) = (  0.000000  0.000000  1.000000 )

     PseudoPot. # 1 for C  read from file:
     /trace/group/acmegroup/atimmins/packages/espresso/pseudo/psl_1.0.0/pslibrary.1.0.0/pbe/PSEUDOPOTENTIALS/C.pbe-n-kjpaw_psl.1.0.0.UPF
     MD5 check sum: 5459cf7f2c8c37df2f7cde8914797f4d
     Pseudo is Projector augmented-wave + core cor, Zval =  4.0
     Generated using 'atomic' code by A. Dal Corso  v.7.1
     Shape of augmentation charge: PSQ
     Using radial grid of 1073 points,  4 beta functions with:
                l(1) =   0
                l(2) =   0
                l(3) =   1
                l(4) =   1
     Q(r) pseudized with 0 coefficients

     atomic species   valence    mass     pseudopotential
        C              4.00    12.01100     C ( 1.00)

      6 Sym. Ops. (no inversion) found ( 4 have fractional translation)

                                    s                        frac. trans.

      isym =  1     identity

 cryst.   s( 1) = (     1          0          0      )
                  (     0          1          0      )
                  (     0          0          1      )

 cart.    s( 1) = (  1.0000000  0.0000000  0.0000000 )
                  (  0.0000000  1.0000000  0.0000000 )
                  (  0.0000000  0.0000000  1.0000000 )

      isym =  2     120 deg rotation - cart. axis [1,-1,1]

 cryst.   s( 2) = (     0          0          1      )    f =( -0.3333333 )
                  (    -1          0          0      )       ( -0.3333333 )
                  (     0         -1          0      )       (  0.0000000 )

 cart.    s( 2) = (  0.0000000 -1.0000000  0.0000000 )    f =( -0.3333333 )
                  (  0.0000000  0.0000000 -1.0000000 )       ( -0.3333333 )
                  (  1.0000000  0.0000000  0.0000000 )       (  0.0000000 )

      isym =  3     120 deg rotation - cart. axis [-1,1,-1]

[...]

      isym =  4     inv. 180 deg rotation - cart. axis [1,1,0]

[...]

 cryst.   s( 5) = (     0          0          1      )
                  (     0          1          0      )
                  (     1          0          0      )

 cart.    s( 5) = (  0.0000000  0.0000000  1.0000000 )
                  (  0.0000000  1.0000000  0.0000000 )
                  (  1.0000000  0.0000000  0.0000000 )

      isym =  6     inv. 180 deg rotation - cart. axis [0,1,1]

 cryst.   s( 6) = (     1          0          0      )    f =(  0.0000000 )
                  (     0          0         -1      )       ( -0.3333333 )
                  (     0         -1          0      )       ( -0.3333333 )

 cart.    s( 6) = (  1.0000000  0.0000000  0.0000000 )    f =(  0.0000000 )
                  (  0.0000000  0.0000000 -1.0000000 )       ( -0.3333333 )
                  (  0.0000000 -1.0000000  0.0000000 )       ( -0.3333333 )

     point group C_3v (3m)
     there are  3 classes
     the character table:

       E     2C3   3s_v
A_1    1.00  1.00  1.00
A_2    1.00  1.00 -1.00
E      2.00 -1.00  0.00

     the symmetry operations in each class and the name of the first element:

     E        1
          identity
     2C3      2    3
          120 deg rotation - cart. axis [1,-1,1]
     3s_v     4    5    6
          inv. 180 deg rotation - cart. axis [1,1,0]

   Cartesian axes

     site n.     atom                  positions (alat units)
         1           C   tau(   1) = (   0.0833353   0.2499980   0.4166687  )
         2           C   tau(   2) = (   0.0833353   0.2499980   0.7500020  )
         3           C   tau(   3) = (   0.0833353   0.5833313   0.0833353  )
         4           C   tau(   4) = (   0.0833353   0.5833313   0.4166687  )
         5           C   tau(   5) = (   0.0833353   0.5833313   0.7500020  )
         6           C   tau(   6) = (   0.0833353   0.9166647   0.0833353  )
         7           C   tau(   7) = (   0.0833353   0.9166647   0.4166687  )
         8           C   tau(   8) = (   0.0833353   0.9166647   0.7500020  )
         9           C   tau(   9) = (   0.4166687   0.2499980   0.0833353  )
        10           C   tau(  10) = (   0.4166687   0.2499980   0.4166687  )
        11           C   tau(  11) = (   0.4166687   0.2499980   0.7500020  )
        12           C   tau(  12) = (   0.4166687   0.5833313   0.0833353  )
        13           C   tau(  13) = (   0.4166687   0.5833313   0.4166687  )
        14           C   tau(  14) = (   0.4166687   0.5833313   0.7500020  )
        15           C   tau(  15) = (   0.4166687   0.9166647   0.0833353  )
        16           C   tau(  16) = (   0.4166687   0.9166647   0.4166687  )
        17           C   tau(  17) = (   0.4166687   0.9166647   0.7500020  )
        18           C   tau(  18) = (   0.7500020   0.2499980   0.0833353  )
        19           C   tau(  19) = (   0.7500020   0.2499980   0.4166687  )
        20           C   tau(  20) = (   0.7500020   0.2499980   0.7500020  )
        21           C   tau(  21) = (   0.7500020   0.5833313   0.0833353  )
        22           C   tau(  22) = (   0.7500020   0.5833313   0.4166687  )
        23           C   tau(  23) = (   0.7500020   0.5833313   0.7500020  )
        24           C   tau(  24) = (   0.7500020   0.9166647   0.0833353  )
        25           C   tau(  25) = (   0.7500020   0.9166647   0.4166687  )
        26           C   tau(  26) = (   0.7500020   0.9166647   0.7500020  )
        27           C   tau(  27) = (   0.0000000   0.0000000   0.1666667  )
        28           C   tau(  28) = (   0.0000000   0.0000000   0.5000000  )
        29           C   tau(  29) = (   0.0000000   0.0000000   0.8333333  )
        30           C   tau(  30) = (   0.0000000   0.3333333   0.1666667  )
        31           C   tau(  31) = (   0.0000000   0.3333333   0.5000000  )
        32           C   tau(  32) = (   0.0000000   0.3333333   0.8333333  )
        33           C   tau(  33) = (   0.0000000   0.6666667   0.1666667  )
        34           C   tau(  34) = (   0.0000000   0.6666667   0.5000000  )
        35           C   tau(  35) = (   0.0000000   0.6666667   0.8333333  )
        36           C   tau(  36) = (   0.3333333   0.0000000   0.1666667  )
        37           C   tau(  37) = (   0.3333333   0.0000000   0.5000000  )
        38           C   tau(  38) = (   0.3333333   0.0000000   0.8333333  )
        39           C   tau(  39) = (   0.3333333   0.3333333   0.1666667  )
        40           C   tau(  40) = (   0.3333333   0.3333333   0.5000000  )
        41           C   tau(  41) = (   0.3333333   0.3333333   0.8333333  )
        42           C   tau(  42) = (   0.3333333   0.6666667   0.1666667  )
        43           C   tau(  43) = (   0.3333333   0.6666667   0.5000000  )
        44           C   tau(  44) = (   0.3333333   0.6666667   0.8333333  )
        45           C   tau(  45) = (   0.6666667   0.0000000   0.1666667  )
        46           C   tau(  46) = (   0.6666667   0.0000000   0.5000000  )
        47           C   tau(  47) = (   0.6666667   0.0000000   0.8333333  )
        48           C   tau(  48) = (   0.6666667   0.3333333   0.1666667  )
        49           C   tau(  49) = (   0.6666667   0.3333333   0.5000000  )
        50           C   tau(  50) = (   0.6666667   0.3333333   0.8333333  )
        51           C   tau(  51) = (   0.6666667   0.6666667   0.1666667  )
        52           C   tau(  52) = (   0.6666667   0.6666667   0.5000000  )
        53           C   tau(  53) = (   0.6666667   0.6666667   0.8333333  )
        54           C   tau(  54) = (   0.0833353   0.0833353   0.2499980  )
        55           C   tau(  55) = (   0.0833353   0.0833353   0.5833313  )
        56           C   tau(  56) = (   0.0833353   0.0833353   0.9166647  )
        57           C   tau(  57) = (   0.0833353   0.4166687   0.2499980  )
        58           C   tau(  58) = (   0.0833353   0.4166687   0.5833313  )
        59           C   tau(  59) = (   0.0833353   0.4166687   0.9166647  )
        60           C   tau(  60) = (   0.0833353   0.7500020   0.2499980  )
[...]
       201           C   tau( 201) = (   0.5000000   0.5000000   0.1666667  )
       202           C   tau( 202) = (   0.5000000   0.5000000   0.5000000  )
       203           C   tau( 203) = (   0.5000000   0.5000000   0.8333333  )
       204           C   tau( 204) = (   0.5000000   0.8333333   0.1666667  )
       205           C   tau( 205) = (   0.5000000   0.8333333   0.5000000  )
       206           C   tau( 206) = (   0.5000000   0.8333333   0.8333333  )
       207           C   tau( 207) = (   0.8333333   0.1666667   0.1666667  )
       208           C   tau( 208) = (   0.8333333   0.1666667   0.5000000  )
       209           C   tau( 209) = (   0.8333333   0.1666667   0.8333333  )
       210           C   tau( 210) = (   0.8333333   0.5000000   0.1666667  )
       211           C   tau( 211) = (   0.8333333   0.5000000   0.5000000  )
       212           C   tau( 212) = (   0.8333333   0.5000000   0.8333333  )
[...]
     atom   26 type  1   force =     0.00000000    0.00000000    0.00000000
     atom   27 type  1   force =     0.00000000    0.00000000    0.00000000
     atom   28 type  1   force =     0.00000000    0.00000000    0.00000000
     atom   29 type  1   force =     0.00000000    0.00000000    0.00000000
     atom   30 type  1   force =     0.00000000    0.00000000    0.00000000
     atom   31 type  1   force =     0.00000000    0.00000000    0.00000000
     atom   32 type  1   force =     0.00000000    0.00000000    0.00000000
     atom   33 type  1   force =     0.00000000    0.00000000    0.00000000
     atom   34 type  1   force =     0.00000000    0.00000000    0.00000000
     atom   35 type  1   force =     0.00000000    0.00000000    0.00000000
     atom   36 type  1   force =     0.00000000    0.00000000    0.00000000
     atom   37 type  1   force =     0.00000000    0.00000000    0.00000000
     atom   38 type  1   force =     0.00000000    0.00000000    0.00000000
     atom   39 type  1   force =     0.00000000    0.00000000    0.00000000
     atom   40 type  1   force =     0.00000000    0.00000000    0.00000000
     atom   41 type  1   force =     0.00000000    0.00000000    0.00000000
     atom   42 type  1   force =     0.00000000    0.00000000    0.00000000
     atom   43 type  1   force =     0.00000000    0.00000000    0.00000000
     atom   44 type  1   force =     0.00000000    0.00000000    0.00000000
     atom   45 type  1   force =     0.00000000    0.00000000    0.00000000
     atom   46 type  1   force =     0.00000000    0.00000000    0.00000000
     atom   47 type  1   force =     0.00000000    0.00000000    0.00000000
     atom   48 type  1   force =     0.00000000    0.00000000    0.00000000
     atom   49 type  1   force =     0.00000000    0.00000000    0.00000000
     atom   50 type  1   force =     0.00000000    0.00000000    0.00000000
     atom   51 type  1   force =     0.00000000    0.00000000    0.00000000
     atom   52 type  1   force =     0.00000000    0.00000000    0.00000000
     atom   53 type  1   force =     0.00000000    0.00000000    0.00000000
     atom   54 type  1   force =     0.00000000    0.00000000    0.00000000
     atom   55 type  1   force =     0.00000000    0.00000000    0.00000000
     atom   56 type  1   force =     0.00000000    0.00000000    0.00000000
     atom   57 type  1   force =     0.00000000    0.00000000    0.00000000
     atom   58 type  1   force =     0.00000000    0.00000000    0.00000000
     atom   59 type  1   force =     0.00000000    0.00000000    0.00000000
     atom   60 type  1   force =     0.00000000    0.00000000    0.00000000
[...]
     atom  201 type  1   force =     0.00000000    0.00000000    0.00000000
     atom  202 type  1   force =     0.00000000    0.00000000    0.00000000
     atom  203 type  1   force =     0.00000000    0.00000000    0.00000000
     atom  204 type  1   force =     0.00000000    0.00000000    0.00000000
     atom  205 type  1   force =     0.00000000    0.00000000    0.00000000
     atom  206 type  1   force =     0.00000000    0.00000000    0.00000000
     atom  207 type  1   force =     0.00000000    0.00000000    0.00000000
     atom  208 type  1   force =     0.00000000    0.00000000    0.00000000
     atom  209 type  1   force =     0.00000000    0.00000000    0.00000000
     atom  210 type  1   force =     0.00000000    0.00000000    0.00000000
     atom  211 type  1   force =     0.00000000    0.00000000    0.00000000
     atom  212 type  1   force =     0.00000000    0.00000000    0.00000000
     atom  213 type  1   force =     0.00000000    0.00000000    0.00000000
     atom  214 type  1   force =     0.00000000    0.00000000    0.00000000
     atom  215 type  1   force =     0.00000000    0.00000000    0.00000000
     The SCF correction term to forces
     atom    1 type  1   force =     0.00002457   -0.00002457   -0.00013247
     atom    2 type  1   force =     0.00000096   -0.00000096    0.00008717
     atom    3 type  1   force =     0.00000096   -0.00008717    0.00000096
     atom    4 type  1   force =     0.00000999   -0.00000372   -0.00000250
     atom    5 type  1   force =    -0.00001126   -0.00000217    0.00000217
     atom    6 type  1   force =     0.00002457    0.00013247    0.00002457
     atom    7 type  1   force =     0.00000588    0.00002888   -0.00002888
     atom    8 type  1   force =     0.00000999    0.00000250    0.00000372
     atom    9 type  1   force =    -0.00013247   -0.00002457    0.00002457
     atom   10 type  1   force =    -0.00002888   -0.00000588   -0.00002888
     atom   11 type  1   force =    -0.00000250   -0.00000999    0.00000372
     atom   12 type  1   force =    -0.00000250   -0.00000372    0.00000999
     atom   13 type  1   force =     0.00000618    0.00000321    0.00000618
     atom   14 type  1   force =     0.00001426    0.00001142   -0.00001142
     atom   15 type  1   force =    -0.00002888    0.00002888    0.00000588
     atom   16 type  1   force =    -0.00000175    0.00000175   -0.00000175
     atom   17 type  1   force =     0.00000618   -0.00000618   -0.00000321
     atom   18 type  1   force =     0.00008717   -0.00000096    0.00000096
     atom   19 type  1   force =     0.00000372   -0.00000999   -0.00000250
     atom   20 type  1   force =     0.00000217    0.00001126    0.00000217
     atom   21 type  1   force =     0.00000217   -0.00000217   -0.00001126
     atom   22 type  1   force =    -0.00001142    0.00001142    0.00001426
     atom   23 type  1   force =    -0.00000677    0.00000677   -0.00000677
     atom   24 type  1   force =     0.00000372    0.00000250    0.00000999
     atom   25 type  1   force =    -0.00000321   -0.00000618    0.00000618
     atom   26 type  1   force =    -0.00001142   -0.00001426   -0.00001142
     atom   27 type  1   force =     0.00009500    0.00013991   -0.00001681
     atom   28 type  1   force =     0.00001338   -0.00000471   -0.00003217
     atom   29 type  1   force =     0.00001388    0.00003867    0.00004560
     atom   30 type  1   force =     0.00010311   -0.00010311   -0.00005363
     atom   31 type  1   force =     0.00000813   -0.00000813   -0.00004535
     atom   32 type  1   force =     0.00003034   -0.00003034    0.00009395
     atom   33 type  1   force =     0.00000257   -0.00003165   -0.00000153
     atom   34 type  1   force =     0.00000115    0.00001369    0.00001305
     atom   35 type  1   force =    -0.00000199   -0.00001346   -0.00001064
     atom   36 type  1   force =    -0.00010319    0.00010319   -0.00000808
     atom   37 type  1   force =    -0.00000206    0.00000206   -0.00002149
     atom   38 type  1   force =    -0.00001875    0.00001875    0.00002985
     atom   39 type  1   force =    -0.00013991   -0.00009500   -0.00001681
     atom   40 type  1   force =     0.00000471   -0.00001338   -0.00003217
     atom   41 type  1   force =    -0.00003867   -0.00001388    0.00004560
     atom   42 type  1   force =     0.00000834   -0.00000793   -0.00000013
     atom   43 type  1   force =     0.00000646    0.00000842    0.00000753
     atom   44 type  1   force =     0.00001058    0.00000284   -0.00000913
     atom   45 type  1   force =     0.00000793   -0.00000834   -0.00000013
     atom   46 type  1   force =    -0.00000842   -0.00000646    0.00000753
     atom   47 type  1   force =    -0.00000284   -0.00001058   -0.00000913
     atom   48 type  1   force =     0.00003165   -0.00000257   -0.00000153
     atom   49 type  1   force =    -0.00001369   -0.00000115    0.00001305
     atom   50 type  1   force =     0.00001346    0.00000199   -0.00001064
     atom   51 type  1   force =    -0.00001180    0.00001180   -0.00000395
     atom   52 type  1   force =    -0.00000888    0.00000888    0.00001324
     atom   53 type  1   force =    -0.00000656    0.00000656   -0.00000840
     atom   54 type  1   force =     0.00012018    0.00015712   -0.00015712
     atom   55 type  1   force =     0.00000449   -0.00000946   -0.00001753
     atom   56 type  1   force =     0.00002415    0.00008874    0.00012696
     atom   57 type  1   force =     0.00002415   -0.00012696   -0.00008874
     atom   58 type  1   force =    -0.00000010    0.00000743   -0.00000378
     atom   59 type  1   force =     0.00000180   -0.00008782    0.00008782
     atom   60 type  1   force =     0.00000449    0.00001753    0.00000946
[...]
     atom  201 type  1   force =    -0.00001667    0.00000403   -0.00000038
     atom  202 type  1   force =     0.00000828    0.00000453    0.00000828
     atom  203 type  1   force =     0.00000511    0.00000999   -0.00000999
     atom  204 type  1   force =     0.00000057   -0.00000057   -0.00000426
     atom  205 type  1   force =     0.00000906   -0.00000906    0.00000906
     atom  206 type  1   force =     0.00000828   -0.00000828   -0.00000453
     atom  207 type  1   force =     0.00011611    0.00002519   -0.00002519
     atom  208 type  1   force =    -0.00000403    0.00000038   -0.00001667
     atom  209 type  1   force =     0.00003846    0.00001133    0.00003846
     atom  210 type  1   force =     0.00003846   -0.00003846   -0.00001133
     atom  211 type  1   force =    -0.00000999    0.00000999    0.00000511
     atom  212 type  1   force =     0.00001212   -0.00001212    0.00001212
     atom  213 type  1   force =    -0.00000403    0.00001667   -0.00000038
     atom  214 type  1   force =    -0.00000453   -0.00000828    0.00000828
     atom  215 type  1   force =    -0.00000999   -0.00000511   -0.00000999

     Total force =     0.004100     Total SCF correction =     0.001032
     SCF correction compared to forces is large: reduce conv_thr to get better values

     Computing stress (Cartesian axis) and pressure

[...]

          total   stress  (Ry/bohr**3)                   (kbar)     P=      -21.22
  -0.00014427   0.00000009  -0.00000009          -21.22        0.01       -0.01
   0.00000009  -0.00014427   0.00000009            0.01      -21.22        0.01
  -0.00000009   0.00000009  -0.00014427           -0.01        0.01      -21.22

     kinetic stress (kbar)  18869.94      0.01     -0.01
                                0.01  18869.94      0.01
                               -0.01      0.01  18869.94

     local   stress (kbar)  -3595.44      0.14     -0.14
                                0.14  -3595.44      0.14
                               -0.14      0.14  -3595.44

     nonloc. stress (kbar)   4309.72     -0.00      0.00
                               -0.00   4309.72     -0.00
                                0.00     -0.00   4309.72

     hartree stress (kbar)   1309.80     -0.05      0.05
                               -0.05   1309.80     -0.05
                                0.05     -0.05   1309.80

     exc-cor stress (kbar)   -404.42     -0.00      0.00
                               -0.00   -404.42     -0.00
                                0.00     -0.00   -404.42

     corecor stress (kbar)  -4413.80      0.00     -0.00
                                0.00  -4413.80      0.00
                               -0.00      0.00  -4413.80

     ewald   stress (kbar) -16121.78     -0.10      0.10
                               -0.10 -16121.78     -0.10
                                0.10     -0.10 -16121.78

     hubbard stress (kbar)      0.00      0.00      0.00
                                0.00      0.00      0.00
                                0.00      0.00      0.00

     DFT-D   stress (kbar)      0.00      0.00      0.00
                                0.00      0.00      0.00
                                0.00      0.00      0.00

     XDM     stress (kbar)      0.00      0.00      0.00
                                0.00      0.00      0.00
                                0.00      0.00      0.00

     dft-nl  stress (kbar)     24.76      0.00     -0.00
                                0.00     24.76      0.00
                               -0.00      0.00     24.76

     TS-vdW  stress (kbar)      0.00      0.00      0.00
                                0.00      0.00      0.00
                                0.00      0.00      0.00

     MDB     stress (kbar)      0.00      0.00      0.00
                                0.00      0.00      0.00
                                0.00      0.00      0.00

     3D-RISM stress (kbar)      0.00      0.00      0.00
                                0.00      0.00      0.00
                                0.00      0.00      0.00

[...]

     Non-local corr. energy    =       7.36102854 Ry

 BEEFens 2000 ensemble energies
             -0.130144805615593E+02
             -0.905080628830742E+02
             -0.321086948265719E+02
              0.355755342669289E+02
             -0.598704751960425E+02
             -0.837927579110250E+02
              0.496387732263845E+02
             -0.103470223224864E+02
              0.687911886620315E+02
             -0.111681297868313E+01
              0.279958937255324E+02
              0.137404187556830E+01
              0.387156718683198E+01
             -0.821640778391418E+01
              0.465700527971227E+02
             -0.348518800962569E+02
             -0.799591838469966E+02
             -0.221540726816073E+02
              0.180385844802401E+02
              0.193482766089608E+01
              0.956582540813560E+02
              0.867293686034838E+02
             -0.425847165328597E+02
              0.239392103338834E+02
             -0.108687327360413E+03
              0.875254047967567E+02
              0.313480783206938E+02
              0.921738754137735E+02
              0.581104502459432E+02
             -0.363331258651853E+02
              0.226984734506192E+02
             -0.471590074355526E+02
              0.134364284632248E+01
              0.463483931269558E+02
              0.598692669695361E+02
             -0.146709322168802E+02
              0.128961886684588E+03
             -0.451734540664813E+02
             -0.326223088840907E+02
              0.499891976275280E+02
              0.171810843934142E+02
              0.421127248087455E+02
             -0.735225706811511E+02
             -0.301123309179354E+01
              0.779298316877061E+02
              0.950586366747395E+02
             -0.861198895518490E+02
              0.711281302920593E+01
              0.339394556407159E+02
              0.790520159622213E+01
              0.415300966640526E+02
              0.833150063304677E+02
             -0.558536145241017E+02
             -0.588056611485780E+02
             -0.744631774060676E+02
             -0.205360916166820E+02
             -0.621425810410828E+02
              0.330440939888899E+01
             -0.165266227661726E+02
             -0.564127700223686E+02
[...]
              0.731704661887782E+02
              0.298712786146123E+02
              0.509924061848602E+02
             -0.729893661698127E+02
             -0.568318839533400E+02
             -0.231791126864385E+02
             -0.625462075021396E+02
              0.112757311378682E+03
              0.967103000292754E+02
              0.420171534665783E+02
              0.114000318584735E+03
             -0.611413178004924E+02
             -0.294235890311180E+02
             -0.303669070086436E+02
              0.899460237245483E+02

 BEEF-vdW xc energy contributions
            1 :    -878.9094900816128
            2 :     775.2698295206950
            3 :    -596.6071087391572
            4 :     389.3342868484494
            5 :    -200.7947262627047
            6 :     63.59724002348264
            7 :     12.55795023732139
            8 :    -39.05849616861337
            9 :     38.70665957206540
           10 :    -33.55760282797974
           11 :     36.00509002071703
           12 :    -46.47280210679560
           13 :     57.40589013961539
           14 :    -60.27255068536510
           15 :     51.38783474973832
           16 :    -33.73752738686926
           17 :     14.58842105864449
           18 :   -0.9761801841328861
           19 :    -4.023740303527006
           20 :     2.241546751866167
           21 :     1.542838263850854
           22 :    -2.900480707088491
           23 :    0.2930981533727390
           24 :     4.514792823757716
           25 :    -8.103822837644429
           26 :     7.833752175326026
           27 :    -3.488813548974349
           28 :    -2.767221215733571
           29 :     7.896301796736680
           30 :    -9.861422499043897
           31 :    -115.0104045969299
           32 :    -83.40649553404091

     Writing all to output data dir ./diamond.save/

     General routines

     Parallel routines

     PAW routines

   This run was terminated on:  16:23:25  19Feb2024

   JOB DONE.