     Program PWSCF v.7.1 starts on 18Feb2024 at 11:52:39

     Reading input from espresso.pwi
Warning: card &CELL ignored
Warning: card    CELL_DYNAMICS    = 'BFGS' ignored
Warning: card / ignored

     Current dimensions of program PWSCF are:
     Max number of different atomic species (ntypx) = 10
     Max number of k-points (npk) =  40000
     Max angular momentum in pseudopotentials (lmaxx) =  4
     file Pb.pbe-dn-kjpaw_psl.1.0.0.UPF: wavefunction(s)  6S 6P 5D renormalized
     file I.pbe-dn-kjpaw_psl.1.0.0.UPF: wavefunction(s)  5S 5P renormalized

     IMPORTANT: XC functional enforced from input :
     Exchange-correlation= BEEF-VDW
                           (   1   4  43  14   2   0   0)
     Any further DFT definition will be discarded
     Please, verify this is what you really want

     K-points division:     npool     =       2
     R & G space division:  proc/nbgrp/npool/nimage =      64
     Subspace diagonalization in iterative solution of the eigenvalue problem:
     a serial algorithm will be used

     Using Slab Decomposition

     bravais-lattice index     =            4
     lattice parameter (alat)  =      26.7090  a.u.
     unit-cell volume          =   17226.5091 (a.u.)^3
     number of atoms/cell      =           54
     number of atomic types    =            2
     number of electrons       =       864.00
     number of Kohn-Sham states=          518
     kinetic-energy cutoff     =      70.0000  Ry
     charge density cutoff     =     350.0000  Ry
     scf convergence threshold =      1.0E-07
     mixing beta               =       0.7000
     number of iterations used =            8  plain     mixing
     Exchange-correlation= BEEF-VDW
                           (   1   4  43  14   2   0   0)

     celldm(1)=  26.709025  celldm(2)=   0.000000  celldm(3)=   1.043981
     celldm(4)=   0.000000  celldm(5)=   0.000000  celldm(6)=   0.000000

     crystal axes: (cart. coord. in units of alat)
               a(1) = (   1.000000   0.000000   0.000000 )
               a(2) = (  -0.500000   0.866025   0.000000 )
               a(3) = (   0.000000   0.000000   1.043981 )

     reciprocal axes: (cart. coord. in units 2 pi/alat)
               b(1) = (  1.000000  0.577350 -0.000000 )
               b(2) = (  0.000000  1.154701  0.000000 )
               b(3) = (  0.000000 -0.000000  0.957872 )

     PseudoPot. # 1 for Pb read from file:
     //group///packages/espresso/pseudo/psl_1.0.0/pslibrary.1.0.0/pbe/PSEUDOPOTENTIALS/Pb.pbe-dn-kjpaw_psl.1.0.0.UPF
     MD5 check sum: 39ab5b8a6bbd56b7735ad9f188aac93a
     Pseudo is Projector augmented-wave + core cor, Zval = 14.0
     Generated using 'atomic' code by A. Dal Corso  v.7.1
     Shape of augmentation charge: PSQ
     Using radial grid of 1281 points,  6 beta functions with:
                l(1) =   0
                l(2) =   0
                l(3) =   1
                l(4) =   1
                l(5) =   2
                l(6) =   2
     Q(r) pseudized with 0 coefficients

     PseudoPot. # 2 for I  read from file:
     //group///packages/espresso/pseudo/psl_1.0.0/pslibrary.1.0.0/pbe/PSEUDOPOTENTIALS/I.pbe-dn-kjpaw_psl.1.0.0.UPF
     MD5 check sum: bfa8781bc1224d19af3f3980e3fab11e
     Pseudo is Projector augmented-wave + core cor, Zval = 17.0
     Generated using 'atomic' code by A. Dal Corso  v.7.1
     Shape of augmentation charge: PSQ
     Using radial grid of 1247 points,  6 beta functions with:
                l(1) =   0
                l(2) =   0
                l(3) =   1
                l(4) =   1
                l(5) =   2
                l(6) =   2
     Q(r) pseudized with 0 coefficients

     atomic species   valence    mass     pseudopotential
        Pb            14.00   207.20000     Pb( 1.00)
        I             17.00   126.90447     I ( 1.00)

     No symmetry found

                                    s                        frac. trans.

      isym =  1     identity

 cryst.   s( 1) = (     1          0          0      )
                  (     0          1          0      )
                  (     0          0          1      )

 cart.    s( 1) = (  1.0000000  0.0000000  0.0000000 )
                  (  0.0000000  1.0000000  0.0000000 )
                  (  0.0000000  0.0000000  1.0000000 )

     point group C_1 (1)
     there are  1 classes
     the character table:

       E
A      1.00

     the symmetry operations in each class and the name of the first element:

     E        1
          identity

   Cartesian axes

     site n.     atom                  positions (alat units)
         1           Pb  tau(   1) = (   0.1666780   0.2886497   1.0439767  )
         2           Pb  tau(   2) = (   0.1666712   0.2886557   0.5219862  )
         3           Pb  tau(   3) = (   0.0000102   0.5773235   1.0439712  )
         4           Pb  tau(   4) = (   0.0000034   0.5773295   0.5219807  )
         5           Pb  tau(   5) = (  -0.1666576   0.8659973   1.0439657  )
         6           Pb  tau(   6) = (  -0.1666644   0.8660033   0.5219752  )
         7           Pb  tau(   7) = (   0.5000113   0.2886484   1.0439810  )
         8           Pb  tau(   8) = (   0.5000045   0.2886544   0.5219905  )
         9           Pb  tau(   9) = (   0.3333436   0.5773222   1.0439755  )
        10           Pb  tau(  10) = (   0.3333367   0.5773282   0.5219850  )
        11           Pb  tau(  11) = (   0.1666758   0.8659960   1.0439700  )
        12           Pb  tau(  12) = (   0.1666690   0.8660020   0.5219795  )
        13           Pb  tau(  13) = (   0.8333447   0.2886471   1.0439853  )
        14           Pb  tau(  14) = (   0.8333379   0.2886531   0.5219949  )
        15           Pb  tau(  15) = (   0.6666769   0.5773209   1.0439798  )
        16           Pb  tau(  16) = (   0.6666701   0.5773269   0.5219894  )
        17           Pb  tau(  17) = (   0.5000091   0.8659947   1.0439743  )
        18           Pb  tau(  18) = (   0.5000023   0.8660007   0.5219839  )
        19           I   tau(  19) = (   0.1666738   0.0962066   0.3879099  )
        20           I   tau(  20) = (   0.1666806   0.0962006   0.9099004  )
        21           I   tau(  21) = (   0.0000060   0.3848804   0.3879044  )
        22           I   tau(  22) = (   0.0000129   0.3848744   0.9098949  )
        23           I   tau(  23) = (  -0.1666617   0.6735542   0.3878990  )
        24           I   tau(  24) = (  -0.1666549   0.6735482   0.9098894  )
        25           I   tau(  25) = (   0.5000071   0.0962053   0.3879143  )
        26           I   tau(  26) = (   0.5000140   0.0961993   0.9099047  )
        27           I   tau(  27) = (   0.3333394   0.3848792   0.3879088  )
        28           I   tau(  28) = (   0.3333462   0.3848731   0.9098993  )
        29           I   tau(  29) = (   0.1666716   0.6735530   0.3879033  )
        30           I   tau(  30) = (   0.1666784   0.6735469   0.9098938  )
        31           I   tau(  31) = (   0.8333405   0.0962041   0.3879186  )
        32           I   tau(  32) = (   0.8333473   0.0961980   0.9099091  )
        33           I   tau(  33) = (   0.6666727   0.3848779   0.3879131  )
        34           I   tau(  34) = (   0.6666795   0.3848718   0.9099036  )
        35           I   tau(  35) = (   0.5000049   0.6735517   0.3879076  )
        36           I   tau(  36) = (   0.5000117   0.6735457   0.9098981  )
        37           I   tau(  37) = (  -0.0000023   0.1924396   0.1340740  )
        38           I   tau(  38) = (   0.0000045   0.1924336   0.6560644  )
        39           I   tau(  39) = (  -0.1666701   0.4811134   0.1340685  )
        40           I   tau(  40) = (  -0.1666632   0.4811074   0.6560589  )
        41           I   tau(  41) = (  -0.3333378   0.7697873   0.1340630  )
        42           I   tau(  42) = (  -0.3333310   0.7697812   0.6560534  )
        43           I   tau(  43) = (   0.3333311   0.1924384   0.1340783  )
        44           I   tau(  44) = (   0.3333379   0.1924323   0.6560688  )
        45           I   tau(  45) = (   0.1666633   0.4811122   0.1340728  )
        46           I   tau(  46) = (   0.1666701   0.4811061   0.6560633  )
        47           I   tau(  47) = (  -0.0000045   0.7697860   0.1340673  )
        48           I   tau(  48) = (   0.0000023   0.7697799   0.6560578  )
        49           I   tau(  49) = (   0.6666644   0.1924371   0.1340827  )
        50           I   tau(  50) = (   0.6666712   0.1924310   0.6560731  )
        51           I   tau(  51) = (   0.4999966   0.4811109   0.1340772  )
        52           I   tau(  52) = (   0.5000034   0.4811049   0.6560676  )
        53           I   tau(  53) = (   0.3333288   0.7697847   0.1340717  )
        54           I   tau(  54) = (   0.3333356   0.7697787   0.6560621  )

   Crystallographic axes

     site n.     atom                  positions (cryst. coord.)
         1           Pb  tau(   1) = (  0.3333300  0.3333039  0.9999959  )
         2           Pb  tau(   2) = (  0.3333266  0.3333109  0.4999959  )
         3           Pb  tau(   3) = (  0.3333281  0.6666357  0.9999906  )
         4           Pb  tau(   4) = (  0.3333248  0.6666427  0.4999906  )
         5           Pb  tau(   5) = (  0.3333262  0.9999675  0.9999854  )
         6           Pb  tau(   6) = (  0.3333229  0.9999745  0.4999854  )
         7           Pb  tau(   7) = (  0.6666626  0.3333025  1.0000001  )
         8           Pb  tau(   8) = (  0.6666592  0.3333094  0.5000001  )
         9           Pb  tau(   9) = (  0.6666607  0.6666343  0.9999948  )
        10           Pb  tau(  10) = (  0.6666573  0.6666412  0.4999948  )
        11           Pb  tau(  11) = (  0.6666588  0.9999661  0.9999895  )
        12           Pb  tau(  12) = (  0.6666555  0.9999730  0.4999895  )
        13           Pb  tau(  13) = (  0.9999951  0.3333010  1.0000042  )
        14           Pb  tau(  14) = (  0.9999918  0.3333079  0.5000042  )
        15           Pb  tau(  15) = (  0.9999933  0.6666328  0.9999990  )
        16           Pb  tau(  16) = (  0.9999899  0.6666397  0.4999990  )
        17           Pb  tau(  17) = (  0.9999914  0.9999646  0.9999937  )
        18           Pb  tau(  18) = (  0.9999881  0.9999715  0.4999937  )
        19           I   tau(  19) = (  0.2222187  0.1110899  0.3715680  )
        20           I   tau(  20) = (  0.2222221  0.1110829  0.8715680  )
        21           I   tau(  21) = (  0.2222169  0.4444217  0.3715628  )
        22           I   tau(  22) = (  0.2222202  0.4444147  0.8715628  )
        23           I   tau(  23) = (  0.2222150  0.7777534  0.3715575  )
        24           I   tau(  24) = (  0.2222183  0.7777465  0.8715575  )
        25           I   tau(  25) = (  0.5555513  0.1110884  0.3715722  )
        26           I   tau(  26) = (  0.5555547  0.1110814  0.8715722  )
        27           I   tau(  27) = (  0.5555495  0.4444202  0.3715669  )
        28           I   tau(  28) = (  0.5555528  0.4444132  0.8715669  )
        29           I   tau(  29) = (  0.5555476  0.7777520  0.3715617  )
        30           I   tau(  30) = (  0.5555509  0.7777450  0.8715617  )
        31           I   tau(  31) = (  0.8888839  0.1110869  0.3715764  )
[...]
     atom   38 type  2   force =    -0.00000035    0.00017059    0.00522408
     atom   39 type  2   force =     0.00013440    0.00008101    0.00521722
     atom   40 type  2   force =     0.00013425    0.00008102    0.00521691
     atom   41 type  2   force =     0.00015122   -0.00008659    0.00522301
     atom   42 type  2   force =     0.00015148   -0.00008703    0.00522270
     atom   43 type  2   force =    -0.00001395   -0.00001283    0.00521691
     atom   44 type  2   force =    -0.00001365   -0.00001340    0.00521660
     atom   45 type  2   force =    -0.00013522    0.00008071    0.00521735
     atom   46 type  2   force =    -0.00013550    0.00008109    0.00521715
     atom   47 type  2   force =    -0.00000048   -0.00015468    0.00521657
     atom   48 type  2   force =    -0.00000069   -0.00015480    0.00521636
     atom   49 type  2   force =     0.00001394   -0.00001205    0.00521730
     atom   50 type  2   force =     0.00001405   -0.00001225    0.00521711
     atom   51 type  2   force =     0.00000071    0.00001992    0.00521704
     atom   52 type  2   force =     0.00000118    0.00002020    0.00521648
     atom   53 type  2   force =    -0.00015117   -0.00008670    0.00522372
     atom   54 type  2   force =    -0.00015121   -0.00008645    0.00522348
     The Hubbard contrib.    to forces
     atom    1 type  1   force =     0.00000000    0.00000000    0.00000000
     atom    2 type  1   force =     0.00000000    0.00000000    0.00000000
     atom    3 type  1   force =     0.00000000    0.00000000    0.00000000
     atom    4 type  1   force =     0.00000000    0.00000000    0.00000000
     atom    5 type  1   force =     0.00000000    0.00000000    0.00000000
     atom    6 type  1   force =     0.00000000    0.00000000    0.00000000
     atom    7 type  1   force =     0.00000000    0.00000000    0.00000000
     atom    8 type  1   force =     0.00000000    0.00000000    0.00000000
     atom    9 type  1   force =     0.00000000    0.00000000    0.00000000
     atom   10 type  1   force =     0.00000000    0.00000000    0.00000000
     atom   11 type  1   force =     0.00000000    0.00000000    0.00000000
     atom   12 type  1   force =     0.00000000    0.00000000    0.00000000
     atom   13 type  1   force =     0.00000000    0.00000000    0.00000000
     atom   14 type  1   force =     0.00000000    0.00000000    0.00000000
     atom   15 type  1   force =     0.00000000    0.00000000    0.00000000
     atom   16 type  1   force =     0.00000000    0.00000000    0.00000000
     atom   17 type  1   force =     0.00000000    0.00000000    0.00000000
     atom   18 type  1   force =     0.00000000    0.00000000    0.00000000
     atom   19 type  2   force =     0.00000000    0.00000000    0.00000000
     atom   20 type  2   force =     0.00000000    0.00000000    0.00000000
     atom   21 type  2   force =     0.00000000    0.00000000    0.00000000
     atom   22 type  2   force =     0.00000000    0.00000000    0.00000000
     atom   23 type  2   force =     0.00000000    0.00000000    0.00000000
     atom   24 type  2   force =     0.00000000    0.00000000    0.00000000
     atom   25 type  2   force =     0.00000000    0.00000000    0.00000000
     atom   26 type  2   force =     0.00000000    0.00000000    0.00000000
     atom   27 type  2   force =     0.00000000    0.00000000    0.00000000
     atom   28 type  2   force =     0.00000000    0.00000000    0.00000000
     atom   29 type  2   force =     0.00000000    0.00000000    0.00000000
     atom   30 type  2   force =     0.00000000    0.00000000    0.00000000
     atom   31 type  2   force =     0.00000000    0.00000000    0.00000000
     atom   32 type  2   force =     0.00000000    0.00000000    0.00000000
     atom   33 type  2   force =     0.00000000    0.00000000    0.00000000
     atom   34 type  2   force =     0.00000000    0.00000000    0.00000000
     atom   35 type  2   force =     0.00000000    0.00000000    0.00000000
     atom   36 type  2   force =     0.00000000    0.00000000    0.00000000
     atom   37 type  2   force =     0.00000000    0.00000000    0.00000000
     atom   38 type  2   force =     0.00000000    0.00000000    0.00000000
     atom   39 type  2   force =     0.00000000    0.00000000    0.00000000
     atom   40 type  2   force =     0.00000000    0.00000000    0.00000000
     atom   41 type  2   force =     0.00000000    0.00000000    0.00000000
     atom   42 type  2   force =     0.00000000    0.00000000    0.00000000
     atom   43 type  2   force =     0.00000000    0.00000000    0.00000000
     atom   44 type  2   force =     0.00000000    0.00000000    0.00000000
     atom   45 type  2   force =     0.00000000    0.00000000    0.00000000
     atom   46 type  2   force =     0.00000000    0.00000000    0.00000000
     atom   47 type  2   force =     0.00000000    0.00000000    0.00000000
     atom   48 type  2   force =     0.00000000    0.00000000    0.00000000
     atom   49 type  2   force =     0.00000000    0.00000000    0.00000000
     atom   50 type  2   force =     0.00000000    0.00000000    0.00000000
     atom   51 type  2   force =     0.00000000    0.00000000    0.00000000
     atom   52 type  2   force =     0.00000000    0.00000000    0.00000000
     atom   53 type  2   force =     0.00000000    0.00000000    0.00000000
     atom   54 type  2   force =     0.00000000    0.00000000    0.00000000
     The SCF correction term to forces
     atom    1 type  1   force =     0.00001125   -0.00000785   -0.00000868
     atom    2 type  1   force =     0.00000654   -0.00000887    0.00001235
     atom    3 type  1   force =     0.00000072   -0.00000122   -0.00000277
     atom    4 type  1   force =     0.00000650   -0.00000849   -0.00000134
     atom    5 type  1   force =    -0.00000953    0.00000564   -0.00000150
     atom    6 type  1   force =    -0.00001182    0.00001969    0.00000602
     atom    7 type  1   force =    -0.00003061   -0.00000463   -0.00001198
     atom    8 type  1   force =    -0.00003317   -0.00001359    0.00001130
     atom    9 type  1   force =    -0.00001184   -0.00001916   -0.00001128
     atom   10 type  1   force =    -0.00001107   -0.00002081    0.00000283
     atom   11 type  1   force =    -0.00001858   -0.00001074   -0.00000057
     atom   12 type  1   force =    -0.00002072   -0.00000510   -0.00000331
     atom   13 type  1   force =     0.00001907    0.00000782   -0.00000071
     atom   14 type  1   force =     0.00002804    0.00000671    0.00000179
     atom   15 type  1   force =     0.00001221    0.00001653   -0.00000833
     atom   16 type  1   force =     0.00000628    0.00001541    0.00000472
     atom   17 type  1   force =     0.00002887    0.00001011    0.00000276
     atom   18 type  1   force =     0.00002793    0.00001298   -0.00000215
     atom   19 type  2   force =     0.00001585    0.00001527   -0.00028130
     atom   20 type  2   force =     0.00002558    0.00001172   -0.00030210
     atom   21 type  2   force =     0.00003975   -0.00000533   -0.00028825
     atom   22 type  2   force =     0.00002616    0.00000476   -0.00029435
     atom   23 type  2   force =     0.00001785    0.00002911   -0.00029564
     atom   24 type  2   force =    -0.00000278    0.00000786   -0.00027997
     atom   25 type  2   force =    -0.00002814   -0.00000386   -0.00028060
     atom   26 type  2   force =    -0.00004548   -0.00000176   -0.00029951
     atom   27 type  2   force =    -0.00003636   -0.00002032   -0.00029111
     atom   28 type  2   force =    -0.00002317   -0.00001643   -0.00030747
     atom   29 type  2   force =    -0.00001465   -0.00000759   -0.00030392
     atom   30 type  2   force =    -0.00001702   -0.00002867   -0.00028251
     atom   31 type  2   force =     0.00002189   -0.00000872   -0.00031679
     atom   32 type  2   force =     0.00001475    0.00000686   -0.00029956
     atom   33 type  2   force =     0.00001546    0.00000766   -0.00029316
     atom   34 type  2   force =    -0.00000985    0.00002391   -0.00029483
     atom   35 type  2   force =     0.00000394    0.00000910   -0.00029399
     atom   36 type  2   force =     0.00000791   -0.00001148   -0.00029958
     atom   37 type  2   force =     0.00003708   -0.00000565    0.00031289
     atom   38 type  2   force =     0.00005583    0.00002687    0.00030218
     atom   39 type  2   force =     0.00001878    0.00001185    0.00029157
     atom   40 type  2   force =     0.00002610    0.00000251    0.00031885
     atom   41 type  2   force =     0.00002352    0.00001357    0.00028464
     atom   42 type  2   force =     0.00001779    0.00003865    0.00030094
     atom   43 type  2   force =    -0.00003418   -0.00000917    0.00027492
     atom   44 type  2   force =    -0.00003551   -0.00000355    0.00029370
     atom   45 type  2   force =    -0.00000833   -0.00001962    0.00029149
     atom   46 type  2   force =     0.00000338   -0.00004791    0.00029716
     atom   47 type  2   force =    -0.00003350    0.00000135    0.00028149
     atom   48 type  2   force =    -0.00002160    0.00001948    0.00028921
     atom   49 type  2   force =    -0.00000577   -0.00000293    0.00029694
     atom   50 type  2   force =    -0.00003102   -0.00000527    0.00031029
     atom   51 type  2   force =    -0.00001979   -0.00000072    0.00028181
     atom   52 type  2   force =    -0.00002744   -0.00001912    0.00030883
     atom   53 type  2   force =     0.00001223    0.00000865    0.00030302
     atom   54 type  2   force =     0.00001326    0.00000087    0.00029413

     Total force =     0.000931     Total SCF correction =     0.001786
     SCF correction compared to forces is large: reduce conv_thr to get better values

     Computing stress (Cartesian axis) and pressure

[...]

          total   stress  (Ry/bohr**3)                   (kbar)     P=        1.47
   0.00000878  -0.00000001   0.00000001            1.29       -0.00        0.00
  -0.00000001   0.00000877  -0.00000001           -0.00        1.29       -0.00
   0.00000001  -0.00000001   0.00001249            0.00       -0.00        1.84

     kinetic stress (kbar)  14990.58      0.00      0.00
                                0.00  14990.58     -0.00
                                0.00     -0.00  15003.32

     local   stress (kbar)  -7569.84      0.14     -0.12
                                0.14  -7569.60      0.11
                               -0.12      0.11   1620.42

     nonloc. stress (kbar)  -1072.64     -0.00      0.00
                               -0.00  -1072.64     -0.00
                                0.00     -0.00  -1077.24

     hartree stress (kbar)  12064.11     -0.05      0.05
                               -0.05  12064.02     -0.04
                                0.05     -0.04   7923.32

     exc-cor stress (kbar)   6946.51     -0.00      0.00
                               -0.00   6946.51     -0.00
                                0.00     -0.00   6945.39

     corecor stress (kbar) -11310.08      0.00     -0.00
                                0.00 -11310.08      0.00
                               -0.00      0.00 -11310.06

     ewald   stress (kbar) -14130.63     -0.09      0.08
                               -0.09 -14130.78     -0.07
                                0.08     -0.07 -19187.95

     hubbard stress (kbar)      0.00      0.00      0.00
                                0.00      0.00      0.00
                                0.00      0.00      0.00

     DFT-D   stress (kbar)      0.00      0.00      0.00
                                0.00      0.00      0.00
                                0.00      0.00      0.00

     XDM     stress (kbar)      0.00      0.00      0.00
                                0.00      0.00      0.00
                                0.00      0.00      0.00

     dft-nl  stress (kbar)     83.28      0.00     -0.00
                                0.00     83.28      0.00
                               -0.00      0.00     84.64

     TS-vdW  stress (kbar)      0.00      0.00      0.00
                                0.00      0.00      0.00
                                0.00      0.00      0.00

     MDB     stress (kbar)      0.00      0.00      0.00
                                0.00      0.00      0.00
                                0.00      0.00      0.00

     3D-RISM stress (kbar)      0.00      0.00      0.00
                                0.00      0.00      0.00
                                0.00      0.00      0.00

[...]

     Non-local corr. energy    =      25.88794118 Ry

 BEEFens 2000 ensemble energies
             -0.217658032466834E+02
             -0.218964401084365E+03
             -0.996008799453702E+02
              0.764606099818229E+02
             -0.167346756764900E+03
             -0.204910053878763E+03
              0.105161613955717E+03
              0.449150278059278E+00
              0.177231566885661E+03
             -0.112211069398357E+02
              0.907704259504579E+02
              0.925077619790437E+01
             -0.694400066741821E+01
             -0.561990320557800E+01
              0.113112459461898E+03
             -0.851762090709639E+02
             -0.167247651400710E+03
             -0.539721416682850E+02
              0.483469510129836E+02
             -0.103157601401790E+01
              0.246571972811313E+03
              0.205807853990337E+03
             -0.126772988700751E+03
              0.438195057382724E+02
             -0.264133394076917E+03
              0.216794710616245E+03
              0.741270027741127E+02
              0.195751755608445E+03
              0.131936472819071E+03
             -0.612619962312115E+02
              0.482690536708204E+02
             -0.863164867424974E+02
              0.360520671492251E+02
              0.131264099517931E+03
              0.141239221785109E+03
             -0.613859962945116E+02
              0.311594268198500E+03
             -0.125397886975899E+03
             -0.835434272854077E+02
              0.124638736010484E+03
              0.549739149188881E+02
              0.947043210486805E+02
             -0.182889818687093E+03
             -0.118959611327741E+02
              0.175457236134083E+03
              0.229333290660672E+03
             -0.232861866431064E+03
              0.149418702981651E+02
              0.807855553307098E+02
              0.521516888962599E+02
              0.910586646509240E+02
              0.199958024401305E+03
             -0.129893497911831E+03
             -0.126066183752120E+03
             -0.175586637670802E+03
             -0.254672963517316E+02
             -0.149800956915373E+03
              0.193466191310649E+02
             -0.216085496074159E+02
             -0.118834033979965E+03
[...]
              0.148383507852152E+03
              0.950417282103311E+02
              0.969103403209472E+02
             -0.179337527447868E+03
             -0.185203309306462E+03
             -0.417647774203218E+02
             -0.165573964734414E+03
              0.262838796051494E+03
              0.221380117047260E+03
              0.104413364611366E+03
              0.287863449747300E+03
             -0.143831077419497E+03
             -0.619536769863338E+02
             -0.893180796903124E+02
              0.249016311907756E+03

 BEEF-vdW xc energy contributions
            1 :    -2251.129055312461
            2 :     2062.758817228153
            3 :    -1741.574164378065
            4 :     1373.195513785293
            5 :    -1038.243457759158
            6 :     786.3429191970881
            7 :    -628.0210122582876
            8 :     542.1774635953602
            9 :    -492.0859903282944
           10 :     443.0308491899482
           11 :    -375.5406541357765
           12 :     289.6436670283665
           13 :    -199.4372867281349
           14 :     122.2439767476462
           15 :    -68.90393735602993
           16 :     39.69777195204915
           17 :    -26.29584502604075
           18 :     17.23092049235584
           19 :    -3.721647898462834
           20 :    -16.68126618636006
           21 :     40.00846988744433
           22 :    -59.13489355829006
           23 :     68.46422434648593
           24 :    -67.32111804724900
           25 :     60.22656000072948
           26 :    -54.20119240143413
           27 :     54.87048914557636
           28 :    -63.52879643318283
           29 :     76.58325185420563
           30 :    -87.54836940229870
           31 :    -193.7920035930765
           32 :    -139.4330675065144

     Writing all to output data dir ./PbI2.save/

     General routines

     Parallel routines

     PAW routines

   This run was terminated on:  11:58:27  18Feb2024

   JOB DONE.