     Program PWSCF v.7.1 starts on  7Oct2023 at 23:45:22

     Reading input from espresso.pwi

     Current dimensions of program PWSCF are:
     Max number of different atomic species (ntypx) = 10
     Max number of k-points (npk) =  40000
     Max angular momentum in pseudopotentials (lmaxx) =  4
     file C.pbe-n-kjpaw_psl.1.0.0.UPF: wavefunction(s)  2S 2P renormalized

     IMPORTANT: XC functional enforced from input :
     Exchange-correlation= BEEF-VDW
                           (   1   4  43  14   2   0   0)
     Any further DFT definition will be discarded
     Please, verify this is what you really want

     Found identity + (  0.0000 -0.5000  0.5000) symmetry
     This is a supercell, fractional translations are disabled

     K-points division:     npool     =       8
     R & G space division:  proc/nbgrp/npool/nimage =      32
     Subspace diagonalization in iterative solution of the eigenvalue problem:
     a serial algorithm will be used

     Using Slab Decomposition

     bravais-lattice index     =            1
     lattice parameter (alat)  =       6.7533  a.u.
     unit-cell volume          =     308.0027 (a.u.)^3
     number of atoms/cell      =            8
     number of atomic types    =            1
     number of electrons       =        32.00
     number of Kohn-Sham states=           20
     kinetic-energy cutoff     =      70.0000  Ry
     charge density cutoff     =     350.0000  Ry
     scf convergence threshold =      1.0E-08
     mixing beta               =       0.7000
     number of iterations used =            8  plain     mixing
     energy convergence thresh.=      1.0E-04
     force convergence thresh. =      1.0E-03
     press convergence thresh. =      5.0E-01
     Exchange-correlation= BEEF-VDW
                           (   1   4  43  14   2   0   0)
     nstep                     =           50

     celldm(1)=   6.753333  celldm(2)=   0.000000  celldm(3)=   0.000000
     celldm(4)=   0.000000  celldm(5)=   0.000000  celldm(6)=   0.000000

     crystal axes: (cart. coord. in units of alat)
               a(1) = (   1.000000   0.000000   0.000000 )
               a(2) = (   0.000000   1.000000   0.000000 )
               a(3) = (   0.000000   0.000000   1.000000 )

     reciprocal axes: (cart. coord. in units 2 pi/alat)
               b(1) = (  1.000000  0.000000  0.000000 )
               b(2) = (  0.000000  1.000000  0.000000 )
               b(3) = (  0.000000  0.000000  1.000000 )

     PseudoPot. # 1 for C  read from file:
     //group///packages/espresso/pseudo/psl_1.0.0/pslibrary.1.0.0/pbe/PSEUDOPOTENTIALS/C.pbe-n-kjpaw_psl.1.0.0.UPF
     MD5 check sum: 5459cf7f2c8c37df2f7cde8914797f4d
     Pseudo is Projector augmented-wave + core cor, Zval =  4.0
     Generated using 'atomic' code by A. Dal Corso  v.7.1
     Shape of augmentation charge: PSQ
     Using radial grid of 1073 points,  4 beta functions with:
                l(1) =   0
                l(2) =   0
                l(3) =   1
                l(4) =   1
     Q(r) pseudized with 0 coefficients

     atomic species   valence    mass     pseudopotential
        C              4.00    12.01100     C ( 1.00)

     24 Sym. Ops. (no inversion) found

                                    s                        frac. trans.

      isym =  1     identity

 cryst.   s( 1) = (     1          0          0      )
                  (     0          1          0      )
                  (     0          0          1      )

 cart.    s( 1) = (  1.0000000  0.0000000  0.0000000 )
                  (  0.0000000  1.0000000  0.0000000 )
                  (  0.0000000  0.0000000  1.0000000 )

      isym =  2     180 deg rotation - cart. axis [0,0,1]

[...]

 cryst.   s(10) = (     0         -1          0      )
                  (     0          0         -1      )
                  (     1          0          0      )

 cart.    s(10) = (  0.0000000  0.0000000  1.0000000 )
                  ( -1.0000000  0.0000000  0.0000000 )
                  (  0.0000000 -1.0000000  0.0000000 )

[...]

      isym = 13     inv. 180 deg rotation - cart. axis [1,1,0]

[...]

     point group T_d (-43m)
     there are  5 classes
     the character table:

       E     8C3   3C2   6S4   6s_d
A_1    1.00  1.00  1.00  1.00  1.00
A_2    1.00  1.00  1.00 -1.00 -1.00
E      2.00 -1.00  2.00  0.00  0.00
T_1    3.00  0.00 -1.00  1.00 -1.00
T_2    3.00  0.00 -1.00 -1.00  1.00

     the symmetry operations in each class and the name of the first element:

     E        1
          identity
     8C3      5    7    8    6   12    9   10   11
          120 deg rotation - cart. axis [-1,-1,-1]
     3C2      2    3    4
          180 deg rotation - cart. axis [0,0,1]
     6S4     15   16   20   19   23   24
          inv.  90 deg rotation - cart. axis [0,0,-1]
     6s_d    13   14   17   18   21   22
          inv. 180 deg rotation - cart. axis [1,1,0]

   Cartesian axes

     site n.     atom                  positions (alat units)
         1           C   tau(   1) = (   0.2500000   0.7500000   0.2500000  )
         2           C   tau(   2) = (   0.0000000   0.0000000   0.5000000  )
         3           C   tau(   3) = (   0.2500000   0.2500000   0.7500000  )
         4           C   tau(   4) = (   0.0000000   0.5000000   0.0000000  )
         5           C   tau(   5) = (   0.7500000   0.7500000   0.7500000  )
         6           C   tau(   6) = (   0.5000000   0.0000000   0.0000000  )
         7           C   tau(   7) = (   0.7500000   0.2500000   0.2500000  )
         8           C   tau(   8) = (   0.5000000   0.5000000   0.5000000  )

   Crystallographic axes

     site n.     atom                  positions (cryst. coord.)
         1           C   tau(   1) = (  0.2500000  0.7500000  0.2500000  )
         2           C   tau(   2) = (  0.0000000  0.0000000  0.5000000  )
         3           C   tau(   3) = (  0.2500000  0.2500000  0.7500000  )
         4           C   tau(   4) = (  0.0000000  0.5000000  0.0000000  )
         5           C   tau(   5) = (  0.7500000  0.7500000  0.7500000  )
         6           C   tau(   6) = (  0.5000000  0.0000000  0.0000000  )
         7           C   tau(   7) = (  0.7500000  0.2500000  0.2500000  )
         8           C   tau(   8) = (  0.5000000  0.5000000  0.5000000  )

     number of k points=    10  Gaussian smearing, width (Ry)=  0.0100
                       cart. coord. in units 2pi/alat
        k(    1) = (   0.0000000   0.0000000   0.0000000), wk =   0.0312500
        k(    2) = (   0.0000000   0.0000000   0.2500000), wk =   0.1875000
        k(    3) = (   0.0000000   0.0000000  -0.5000000), wk =   0.0937500
        k(    4) = (   0.0000000   0.2500000   0.2500000), wk =   0.3750000
        k(    5) = (   0.0000000   0.2500000  -0.5000000), wk =   0.3750000
        k(    6) = (   0.0000000  -0.5000000  -0.5000000), wk =   0.0937500
        k(    7) = (   0.2500000   0.2500000   0.2500000), wk =   0.2500000
        k(    8) = (   0.2500000   0.2500000  -0.5000000), wk =   0.3750000
        k(    9) = (   0.2500000  -0.5000000  -0.5000000), wk =   0.1875000
        k(   10) = (  -0.5000000  -0.5000000  -0.5000000), wk =   0.0312500

                       cryst. coord.
        k(    1) = (   0.0000000   0.0000000   0.0000000), wk =   0.0312500
        k(    2) = (   0.0000000   0.0000000   0.2500000), wk =   0.1875000
        k(    3) = (   0.0000000   0.0000000  -0.5000000), wk =   0.0937500
        k(    4) = (   0.0000000   0.2500000   0.2500000), wk =   0.3750000
        k(    5) = (   0.0000000   0.2500000  -0.5000000), wk =   0.3750000
        k(    6) = (   0.0000000  -0.5000000  -0.5000000), wk =   0.0937500
        k(    7) = (   0.2500000   0.2500000   0.2500000), wk =   0.2500000
        k(    8) = (   0.2500000   0.2500000  -0.5000000), wk =   0.3750000
        k(    9) = (   0.2500000  -0.5000000  -0.5000000), wk =   0.1875000
        k(   10) = (  -0.5000000  -0.5000000  -0.5000000), wk =   0.0312500

     Atomic positions and unit cell read from directory:
     ./diamond.save/
     Atomic positions from file used, from input discarded

     Check: negative core charge=   -0.000014

     The initial density is read from file :
     ./diamond.save/charge-density

     %%%%%%%%%%%%%%%%%%%%%%%%%%%%%%%%%%%%%%%%%%%%%%%%%%%%%%%%%%%%%%%%%%%%%%%%
     %                                                                      %
     % You are using vdW-DF, which was implemented by the Thonhauser group. %
     % Please cite the following two papers that made this development      %
     % possible and the two reviews that describe the various versions:     %
     %                                                                      %
     %   T. Thonhauser et al., PRL 115, 136402 (2015).                      %
     %   T. Thonhauser et al., PRB 76, 125112 (2007).                       %
     %   K. Berland et al., Rep. Prog. Phys. 78, 066501 (2015).             %
     %   D.C. Langreth et al., J. Phys.: Condens. Matter 21, 084203 (2009). %
     %                                                                      %
     % If you are calculating stress with vdW-DF, please also cite:         %
     %                                                                      %
     %   R. Sabatini et al., J. Phys.: Condens. Matter 24, 424209 (2012).   %
     %                                                                      %
     %%%%%%%%%%%%%%%%%%%%%%%%%%%%%%%%%%%%%%%%%%%%%%%%%%%%%%%%%%%%%%%%%%%%%%%%

     %%%%%%%%%%%%%%%%%%%%%%%%%%%%%%%%%%%%%%%%%%%%%%%%%%%%%%%%%%%%%%%%%%%%%%%%
     %                                                                      %
     %  vdW-DF NEWS:                                                        %
     %                                                                      %
     %  * vdW-DF3 is now available. DOI: 10.1021/acs.jctc.0c00471           %
     %    use with input_dft = 'vdW-DF3-opt1' or 'vdW-DF3-opt2'             %
     %                                                                      %
     %  * Unscreened and range-separated vdW-DF hybrid functionals          %
     %    DOI: 10.1063/1.4986522 and 10.1088/1361-648X/ac2ad2               %
     %    use with input_dft = 'vdW-DF-cx0' (etc) and 'vdW-DF-ahcx'         %
     %                                                                      %
     %%%%%%%%%%%%%%%%%%%%%%%%%%%%%%%%%%%%%%%%%%%%%%%%%%%%%%%%%%%%%%%%%%%%%%%%

     Carrying out vdW-DF run using the following parameters:
     Nqs    =  20  Npoints =  1024  r_max =  100.000
     q_mesh =  0.00001000  0.04494208  0.09755937  0.15916263
               0.23128650  0.31572767  0.41458969  0.53033537
               0.66584808  0.82450364  1.01025438  1.22772762
               1.48234092  1.78043706  2.12944203  2.53805004
               3.01644009  3.57652955  4.23227104  5.00000000

     Non-local corr. energy    =       0.27348889 Ry

     Wavefunctions not found or not readable, recomputing them from scratch
     Starting wfcs are   32 randomized atomic wfcs
     Checking if some PAW data can be deallocated...

     Self-consistent Calculation

     iteration #  1     ecut=    70.00 Ry     beta= 0.70
[...]
     number of Kohn-Sham states=           20
     kinetic-energy cutoff     =      70.0000  Ry
     charge density cutoff     =     350.0000  Ry
     scf convergence threshold =      1.0E-08
     mixing beta               =       0.7000
     number of iterations used =            8  plain     mixing
     press convergence thresh. =      5.0E-01
     Exchange-correlation= BEEF-VDW
                           (   1   4  43  14   2   0   0)

     celldm(1)=   6.753333  celldm(2)=   0.000000  celldm(3)=   0.000000
     celldm(4)=   0.000000  celldm(5)=   0.000000  celldm(6)=   0.000000

     crystal axes: (cart. coord. in units of alat)
               a(1) = (   0.999606   0.000000   0.000000 )
               a(2) = (   0.000000   0.999606   0.000000 )
               a(3) = (   0.000000   0.000000   0.999606 )

     reciprocal axes: (cart. coord. in units 2 pi/alat)
               b(1) = (  1.000394  0.000000  0.000000 )
               b(2) = (  0.000000  1.000394  0.000000 )
               b(3) = (  0.000000  0.000000  1.000394 )

     PseudoPot. # 1 for C  read from file:
     //group///packages/espresso/pseudo/psl_1.0.0/pslibrary.1.0.0/pbe/PSEUDOPOTENTIALS/C.pbe-n-kjpaw_psl.1.0.0.UPF
     MD5 check sum: 5459cf7f2c8c37df2f7cde8914797f4d
     Pseudo is Projector augmented-wave + core cor, Zval =  4.0
     Generated using 'atomic' code by A. Dal Corso  v.7.1
     Shape of augmentation charge: PSQ
     Using radial grid of 1073 points,  4 beta functions with:
                l(1) =   0
                l(2) =   0
                l(3) =   1
                l(4) =   1
     Q(r) pseudized with 0 coefficients

     atomic species   valence    mass     pseudopotential
        C              4.00    12.01100     C ( 1.00)

     24 Sym. Ops. (no inversion) found

                                    s                        frac. trans.

      isym =  1     identity

[...]

 cryst.   s( 9) = (     0          1          0      )
                  (     0          0          1      )
                  (     1          0          0      )

 cart.    s( 9) = (  0.0000000  0.0000000  1.0000000 )
                  (  1.0000000  0.0000000  0.0000000 )
                  (  0.0000000  1.0000000  0.0000000 )

[...]

      isym = 12     120 deg rotation - cart. axis [-1,-1,1]

[...]

      isym = 24     inv.  90 deg rotation - cart. axis [1,0,0]

 cryst.   s(24) = (    -1          0          0      )
                  (     0          0         -1      )
                  (     0          1          0      )

 cart.    s(24) = ( -1.0000000  0.0000000  0.0000000 )
                  (  0.0000000  0.0000000  1.0000000 )
                  (  0.0000000 -1.0000000  0.0000000 )

     point group T_d (-43m)
     there are  5 classes
     the character table:

       E     8C3   3C2   6S4   6s_d
A_1    1.00  1.00  1.00  1.00  1.00
A_2    1.00  1.00  1.00 -1.00 -1.00
E      2.00 -1.00  2.00  0.00  0.00
T_1    3.00  0.00 -1.00  1.00 -1.00
T_2    3.00  0.00 -1.00 -1.00  1.00

     the symmetry operations in each class and the name of the first element:

     E        1
          identity
     8C3      5    7    8    6   12    9   10   11
          120 deg rotation - cart. axis [-1,-1,-1]
     3C2      2    3    4
          180 deg rotation - cart. axis [0,0,1]
     6S4     15   16   20   19   23   24
          inv.  90 deg rotation - cart. axis [0,0,-1]
     6s_d    13   14   17   18   21   22
          inv. 180 deg rotation - cart. axis [1,1,0]

   Cartesian axes

     site n.     atom                  positions (alat units)
         1           C   tau(   1) = (   0.2499076   0.7496987   0.2499076  )
         2           C   tau(   2) = (   0.0000000   0.0000000   0.4998032  )
         3           C   tau(   3) = (   0.2499076   0.2499076   0.7496987  )
         4           C   tau(   4) = (   0.0000000   0.4998032   0.0000000  )
         5           C   tau(   5) = (   0.7496987   0.7496987   0.7496987  )
         6           C   tau(   6) = (   0.4998032   0.0000000   0.0000000  )
         7           C   tau(   7) = (   0.7496987   0.2499076   0.2499076  )
         8           C   tau(   8) = (   0.4998032   0.4998032   0.4998032  )

   Crystallographic axes

     site n.     atom                  positions (cryst. coord.)
         1           C   tau(   1) = (  0.2500060  0.7499940  0.2500060  )
         2           C   tau(   2) = (  0.0000000  0.0000000  0.5000000  )
         3           C   tau(   3) = (  0.2500060  0.2500060  0.7499940  )
         4           C   tau(   4) = (  0.0000000  0.5000000  0.0000000  )
         5           C   tau(   5) = (  0.7499940  0.7499940  0.7499940  )
         6           C   tau(   6) = (  0.5000000  0.0000000  0.0000000  )
         7           C   tau(   7) = (  0.7499940  0.2500060  0.2500060  )
         8           C   tau(   8) = (  0.5000000  0.5000000  0.5000000  )

     number of k points=    10  Gaussian smearing, width (Ry)=  0.0100
                       cart. coord. in units 2pi/alat
        k(    1) = (   0.0000000   0.0000000   0.0000000), wk =   0.0312500
        k(    2) = (   0.0000000   0.0000000   0.2500985), wk =   0.1875000
        k(    3) = (   0.0000000   0.0000000  -0.5001969), wk =   0.0937500
        k(    4) = (   0.0000000   0.2500985   0.2500985), wk =   0.3750000
        k(    5) = (   0.0000000   0.2500985  -0.5001969), wk =   0.3750000
        k(    6) = (   0.0000000  -0.5001969  -0.5001969), wk =   0.0937500
        k(    7) = (   0.2500985   0.2500985   0.2500985), wk =   0.2500000
        k(    8) = (   0.2500985   0.2500985  -0.5001969), wk =   0.3750000
        k(    9) = (   0.2500985  -0.5001969  -0.5001969), wk =   0.1875000
        k(   10) = (  -0.5001969  -0.5001969  -0.5001969), wk =   0.0312500

                       cryst. coord.
        k(    1) = (   0.0000000   0.0000000   0.0000000), wk =   0.0312500
        k(    2) = (   0.0000000   0.0000000   0.2500000), wk =   0.1875000
        k(    3) = (   0.0000000   0.0000000  -0.5000000), wk =   0.0937500
        k(    4) = (   0.0000000   0.2500000   0.2500000), wk =   0.3750000
        k(    5) = (   0.0000000   0.2500000  -0.5000000), wk =   0.3750000
        k(    6) = (   0.0000000  -0.5000000  -0.5000000), wk =   0.0937500
        k(    7) = (   0.2500000   0.2500000   0.2500000), wk =   0.2500000
        k(    8) = (   0.2500000   0.2500000  -0.5000000), wk =   0.3750000
        k(    9) = (   0.2500000  -0.5000000  -0.5000000), wk =   0.1875000
        k(   10) = (  -0.5000000  -0.5000000  -0.5000000), wk =   0.0312500

     Atomic positions and unit cell read from directory:
     ./diamond.save/

     Check: negative core charge=   -0.000014

     Initial potential from superposition of free atoms

     starting charge      31.9997, renormalised to      32.0000

[...]

     Starting wfcs are   32 randomized atomic wfcs
     Checking if some PAW data can be deallocated...

     Self-consistent Calculation

[...]

     ethr =  1.00E-06,  avg # of iterations = 14.1

[...]

     total energy              =    -151.91507854 Ry
     estimated scf accuracy    <       0.47486816 Ry

[...]

     ethr =  9.12E-07,  avg # of iterations =  4.7

[...]

     total energy              =    -151.94218855 Ry
     estimated scf accuracy    <       0.00000003 Ry

     iteration #  7     ecut=    70.00 Ry     beta= 0.70
     Davidson diagonalization with overlap

     c_bands:  1 eigenvalues not converged
     c_bands:  1 eigenvalues not converged
     ethr =  1.05E-10,  avg # of iterations =  8.8

[...]

     End of self-consistent calculation

[...]

          k = 0.2501-0.5002-0.5002 (  3060 PWs)   bands (ev):

[...]

          k =-0.5002-0.5002-0.5002 (  3112 PWs)   bands (ev):

    -2.7975  -2.7971  -2.7971  -2.7971  -0.2750  -0.2750  -0.2750  -0.2747
    10.1709  10.1709  10.1709  10.1710  10.1710  10.1710  10.1715  10.1715
    21.5280  21.5281  21.5284  21.5285

     occupation numbers
     1.0000   1.0000   1.0000   1.0000   1.0000   1.0000   1.0000   1.0000
     1.0000   1.0000   1.0000   1.0000   1.0000   1.0000   1.0000   1.0000
     0.0000   0.0000   0.0000   0.0000

     the Fermi energy is    16.1135 ev

!    total energy              =    -151.94218856 Ry
     total all-electron energy =      -614.054965 Ry
     estimated scf accuracy    <          2.3E-10 Ry
     smearing contrib. (-TS)   =      -0.00000000 Ry
     internal energy E=F+TS    =    -151.94218856 Ry

     The total energy is F=E-TS. E is the sum of the following terms:
     one-electron contribution =      33.58036462 Ry
     hartree contribution      =       7.95039511 Ry
     xc contribution           =     -39.00434190 Ry
     ewald contribution        =    -102.13944346 Ry
     one-center paw contrib.   =     -52.32916292 Ry
      -> PAW hartree energy AE =       8.97860459 Ry
      -> PAW hartree energy PS =      -8.97029503 Ry
      -> PAW xc energy AE      =     -11.11066941 Ry
      -> PAW xc energy PS      =       4.56121329 Ry
      -> total E_H with PAW    =       7.95870466 Ry
      -> total E_XC with PAW   =     -45.55379801 Ry

     convergence has been achieved in   7 iterations

[...]

     Forces acting on atoms (cartesian axes, Ry/au):

     atom    1 type  1   force =     0.00002897   -0.00002897    0.00002897
     atom    2 type  1   force =     0.00000000    0.00000000    0.00000000
     atom    3 type  1   force =     0.00002897    0.00002897   -0.00002897
     atom    4 type  1   force =     0.00000000    0.00000000    0.00000000
     atom    5 type  1   force =    -0.00002897   -0.00002897   -0.00002897
     atom    6 type  1   force =     0.00000000    0.00000000    0.00000000
     atom    7 type  1   force =    -0.00002897    0.00002897    0.00002897
     atom    8 type  1   force =     0.00000000    0.00000000    0.00000000
     The non-local contrib.  to forces
     atom    1 type  1   force =     0.00009558   -0.00009558    0.00009558
     atom    2 type  1   force =     0.00000000    0.00000000    0.00000000
     atom    3 type  1   force =     0.00009558    0.00009558   -0.00009558
     atom    4 type  1   force =     0.00000000    0.00000000    0.00000000
     atom    5 type  1   force =    -0.00009558   -0.00009558   -0.00009558
     atom    6 type  1   force =     0.00000000    0.00000000    0.00000000
     atom    7 type  1   force =    -0.00009558    0.00009558    0.00009558
     atom    8 type  1   force =     0.00000000    0.00000000    0.00000000
     The ionic contribution  to forces
     atom    1 type  1   force =    -0.00021479    0.00021482   -0.00021479
     atom    2 type  1   force =    -0.00000006   -0.00000006    0.00000003
     atom    3 type  1   force =    -0.00021479   -0.00021479    0.00021482
     atom    4 type  1   force =    -0.00000006    0.00000003   -0.00000006
     atom    5 type  1   force =     0.00021482    0.00021482    0.00021482
     atom    6 type  1   force =     0.00000003   -0.00000006   -0.00000006
     atom    7 type  1   force =     0.00021482   -0.00021479   -0.00021479
     atom    8 type  1   force =     0.00000003    0.00000003    0.00000003
     The local contribution  to forces
     atom    1 type  1   force =     0.00003790   -0.00003775    0.00003790
     atom    2 type  1   force =    -0.00000000   -0.00000000    0.00000007
     atom    3 type  1   force =     0.00003790    0.00003790   -0.00003775
     atom    4 type  1   force =    -0.00000000    0.00000007   -0.00000000
     atom    5 type  1   force =    -0.00003775   -0.00003775   -0.00003775
     atom    6 type  1   force =     0.00000007    0.00000000    0.00000000
     atom    7 type  1   force =    -0.00003775    0.00003790    0.00003790
     atom    8 type  1   force =     0.00000007    0.00000007    0.00000007
     The core correction contribution to forces
     atom    1 type  1   force =     0.00010850   -0.00010851    0.00010850
     atom    2 type  1   force =    -0.00000000   -0.00000000   -0.00000000
     atom    3 type  1   force =     0.00010850    0.00010850   -0.00010851
     atom    4 type  1   force =    -0.00000000   -0.00000000   -0.00000000
     atom    5 type  1   force =    -0.00010851   -0.00010851   -0.00010851
     atom    6 type  1   force =    -0.00000000   -0.00000000   -0.00000000
     atom    7 type  1   force =    -0.00010851    0.00010850    0.00010850
     atom    8 type  1   force =    -0.00000000   -0.00000000   -0.00000000
     The Hubbard contrib.    to forces
     atom    1 type  1   force =     0.00000000    0.00000000    0.00000000
     atom    2 type  1   force =     0.00000000    0.00000000    0.00000000
     atom    3 type  1   force =     0.00000000    0.00000000    0.00000000
     atom    4 type  1   force =     0.00000000    0.00000000    0.00000000
     atom    5 type  1   force =     0.00000000    0.00000000    0.00000000
     atom    6 type  1   force =     0.00000000    0.00000000    0.00000000
     atom    7 type  1   force =     0.00000000    0.00000000    0.00000000
     atom    8 type  1   force =     0.00000000    0.00000000    0.00000000
     The SCF correction term to forces
     atom    1 type  1   force =     0.00000187   -0.00000187    0.00000187
     atom    2 type  1   force =     0.00000000    0.00000000   -0.00000000
     atom    3 type  1   force =     0.00000187    0.00000187   -0.00000187
     atom    4 type  1   force =     0.00000000   -0.00000000    0.00000000
     atom    5 type  1   force =    -0.00000187   -0.00000187   -0.00000187
     atom    6 type  1   force =    -0.00000000    0.00000000    0.00000000
     atom    7 type  1   force =    -0.00000187    0.00000187    0.00000187
     atom    8 type  1   force =    -0.00000000   -0.00000000   -0.00000000

     Total force =     0.000100     Total SCF correction =     0.000006

     Computing stress (Cartesian axis) and pressure

     Non-local corr. energy    =       0.27348971 Ry

          total   stress  (Ry/bohr**3)                   (kbar)     P=        0.00
   0.00000001   0.00000000   0.00000000            0.00        0.00        0.00
   0.00000000   0.00000001   0.00000000            0.00        0.00        0.00
   0.00000000   0.00000000   0.00000001            0.00        0.00        0.00

     kinetic stress (kbar)  18999.86      0.00      0.00
                                0.00  18999.86      0.00
                                0.00      0.00  18999.86

     local   stress (kbar)  -3484.16     -0.00     -0.00
                               -0.00  -3484.16     -0.00
                               -0.00     -0.00  -3484.16

     nonloc. stress (kbar)   4322.09      0.00      0.00
                                0.00   4322.09      0.00
                                0.00      0.00   4322.09

     hartree stress (kbar)   1267.22     -0.00     -0.00
                               -0.00   1267.22      0.00
                               -0.00      0.00   1267.22

     exc-cor stress (kbar)   -414.49      0.00      0.00
                                0.00   -414.49      0.00
                                0.00      0.00   -414.49

     corecor stress (kbar)  -4435.19     -0.00     -0.00
                               -0.00  -4435.19     -0.00
                               -0.00     -0.00  -4435.19

     ewald   stress (kbar) -16280.15      0.00      0.00
                                0.00 -16280.15      0.00
                                0.00      0.00 -16280.15

     hubbard stress (kbar)      0.00      0.00      0.00
                                0.00      0.00      0.00
                                0.00      0.00      0.00

     DFT-D   stress (kbar)      0.00      0.00      0.00
                                0.00      0.00      0.00
                                0.00      0.00      0.00

     XDM     stress (kbar)      0.00      0.00      0.00
                                0.00      0.00      0.00
                                0.00      0.00      0.00

     dft-nl  stress (kbar)     24.82     -0.00     -0.00
                               -0.00     24.82     -0.00
                               -0.00     -0.00     24.82

     TS-vdW  stress (kbar)      0.00      0.00      0.00
                                0.00      0.00      0.00
                                0.00      0.00      0.00

     MDB     stress (kbar)      0.00      0.00      0.00
                                0.00      0.00      0.00
                                0.00      0.00      0.00

     3D-RISM stress (kbar)      0.00      0.00      0.00
                                0.00      0.00      0.00
                                0.00      0.00      0.00

     Writing all to output data dir ./diamond.save/

     General routines

     Parallel routines

     PAW routines

   This run was terminated on:  23:45:33   7Oct2023

   JOB DONE.