     Program PWSCF v.7.1 starts on  2Oct2023 at 22:16:36

     Reading input from espresso.pwi

     Current dimensions of program PWSCF are:
     Max number of different atomic species (ntypx) = 10
     Max number of k-points (npk) =  40000
     Max angular momentum in pseudopotentials (lmaxx) =  4
     file C.pbe-n-kjpaw_psl.1.0.0.UPF: wavefunction(s)  2S 2P renormalized

     IMPORTANT: XC functional enforced from input :
     Exchange-correlation= BEEF-VDW
                           (   1   4  43  14   2   0   0)
     Any further DFT definition will be discarded
     Please, verify this is what you really want

     K-points division:     npool     =       4
     R & G space division:  proc/nbgrp/npool/nimage =      32
     Subspace diagonalization in iterative solution of the eigenvalue problem:
     a serial algorithm will be used

     Using Slab Decomposition

     bravais-lattice index     =            4
     lattice parameter (alat)  =       4.6625  a.u.
     unit-cell volume          =     277.6091 (a.u.)^3
     number of atoms/cell      =            4
     number of atomic types    =            1
     number of electrons       =        16.00
     number of Kohn-Sham states=           12
     kinetic-energy cutoff     =      70.0000  Ry
     charge density cutoff     =     350.0000  Ry
     scf convergence threshold =      1.0E-08
     mixing beta               =       0.7000
     number of iterations used =            8  plain     mixing
     energy convergence thresh.=      1.0E-04
     force convergence thresh. =      1.0E-03
     press convergence thresh. =      5.0E-01
     Exchange-correlation= BEEF-VDW
                           (   1   4  43  14   2   0   0)
     nstep                     =           50

     celldm(1)=   4.662504  celldm(2)=   0.000000  celldm(3)=   3.162607
     celldm(4)=   0.000000  celldm(5)=   0.000000  celldm(6)=   0.000000

     crystal axes: (cart. coord. in units of alat)
               a(1) = (   1.000000   0.000000   0.000000 )
               a(2) = (  -0.500000   0.866025   0.000000 )
               a(3) = (   0.000000   0.000000   3.162607 )

     reciprocal axes: (cart. coord. in units 2 pi/alat)
               b(1) = (  1.000000  0.577350 -0.000000 )
               b(2) = (  0.000000  1.154701  0.000000 )
               b(3) = (  0.000000 -0.000000  0.316195 )

     PseudoPot. # 1 for C  read from file:
     //group///packages/espresso/pseudo/psl_1.0.0/pslibrary.1.0.0/pbe/PSEUDOPOTENTIALS/C.pbe-n-kjpaw_psl.1.0.0.UPF
     MD5 check sum: 5459cf7f2c8c37df2f7cde8914797f4d
     Pseudo is Projector augmented-wave + core cor, Zval =  4.0
     Generated using 'atomic' code by A. Dal Corso  v.7.1
     Shape of augmentation charge: PSQ
     Using radial grid of 1073 points,  4 beta functions with:
                l(1) =   0
                l(2) =   0
                l(3) =   1
                l(4) =   1
     Q(r) pseudized with 0 coefficients

     atomic species   valence    mass     pseudopotential
        C              4.00    12.01100     C ( 1.00)

     24 Sym. Ops., with inversion, found (12 have fractional translation)

                                    s                        frac. trans.

      isym =  1     identity

 cryst.   s( 1) = (     1          0          0      )
                  (     0          1          0      )
                  (     0          0          1      )

 cart.    s( 1) = (  1.0000000  0.0000000  0.0000000 )
                  (  0.0000000  1.0000000  0.0000000 )
                  (  0.0000000  0.0000000  1.0000000 )

      isym =  2     180 deg rotation - cart. axis [0,0,1]

 cryst.   s( 2) = (    -1          0          0      )    f =(  0.0000000 )
                  (     0         -1          0      )       (  0.0000000 )
                  (     0          0          1      )       (  0.5000000 )

 cart.    s( 2) = ( -1.0000000  0.0000000  0.0000000 )    f =(  0.0000000 )
                  (  0.0000000 -1.0000000  0.0000000 )       (  0.0000000 )
                  (  0.0000000  0.0000000  1.0000000 )       (  1.5813037 )

[...]

      isym =  5      60 deg rotation - cryst. axis [0,0,1]

[...]

 cryst.   s(10) = (     1          1          0      )    f =(  0.0000000 )
                  (     0         -1          0      )       (  0.0000000 )
                  (     0          0         -1      )       ( -0.5000000 )

 cart.    s(10) = (  0.5000000  0.8660254  0.0000000 )    f =(  0.0000000 )
                  (  0.8660254 -0.5000000  0.0000000 )       (  0.0000000 )
                  (  0.0000000  0.0000000 -1.0000000 )       ( -1.5813037 )

[...]

 cryst.   s(11) = (    -1         -1          0      )
                  (     0          1          0      )
                  (     0          0         -1      )

 cart.    s(11) = ( -0.5000000 -0.8660254  0.0000000 )
                  ( -0.8660254  0.5000000  0.0000000 )
                  (  0.0000000  0.0000000 -1.0000000 )

[...]

      isym = 13     inversion

[...]

      isym = 14     inv. 180 deg rotation - cart. axis [0,0,1]

[...]

      isym = 17     inv.  60 deg rotation - cryst. axis [0,0,1]

[...]

     point group D_6h(6/mmm)
     there are 12 classes
     the character table:

       E     2C6   2C3   C2    3C2'  3C2'' i     2S3   2S6   s_h   3s_d  3s_v
A_1g   1.00  1.00  1.00  1.00  1.00  1.00  1.00  1.00  1.00  1.00  1.00  1.00
A_2g   1.00  1.00  1.00  1.00 -1.00 -1.00  1.00  1.00  1.00  1.00 -1.00 -1.00
B_1g   1.00 -1.00  1.00 -1.00  1.00 -1.00  1.00 -1.00  1.00 -1.00  1.00 -1.00
B_2g   1.00 -1.00  1.00 -1.00 -1.00  1.00  1.00 -1.00  1.00 -1.00 -1.00  1.00
E_1g   2.00  1.00 -1.00 -2.00  0.00  0.00  2.00  1.00 -1.00 -2.00  0.00  0.00
E_2g   2.00 -1.00 -1.00  2.00  0.00  0.00  2.00 -1.00 -1.00  2.00  0.00  0.00
A_1u   1.00  1.00  1.00  1.00  1.00  1.00 -1.00 -1.00 -1.00 -1.00 -1.00 -1.00
A_2u   1.00  1.00  1.00  1.00 -1.00 -1.00 -1.00 -1.00 -1.00 -1.00  1.00  1.00
B_1u   1.00 -1.00  1.00 -1.00  1.00 -1.00 -1.00  1.00 -1.00  1.00 -1.00  1.00
B_2u   1.00 -1.00  1.00 -1.00 -1.00  1.00 -1.00  1.00 -1.00  1.00  1.00 -1.00
E_1u   2.00  1.00 -1.00 -2.00  0.00  0.00 -2.00 -1.00  1.00  2.00  0.00  0.00
E_2u   2.00 -1.00 -1.00  2.00  0.00  0.00 -2.00  1.00  1.00 -2.00  0.00  0.00

     the symmetry operations in each class and the name of the first element:

     E        1
          identity
     2C6      5    6
           60 deg rotation - cryst. axis [0,0,1]
     2C3      7    8
          120 deg rotation - cryst. axis [0,0,1]
     C2       2
          180 deg rotation - cart. axis [0,0,1]
     3C2'     4   12   11
          180 deg rotation - cart. axis [1,0,0]
     3C2''    3    9   10
          180 deg rotation - cart. axis [0,1,0]
     i       13
          inversion
     2S3     17   18
          inv.  60 deg rotation - cryst. axis [0,0,1]
     2S6     19   20
          inv. 120 deg rotation - cryst. axis [0,0,1]
     s_h     14
          inv. 180 deg rotation - cart. axis [0,0,1]
     3s_d    16   24   23
          inv. 180 deg rotation - cart. axis [1,0,0]
     3s_v    15   21   22
          inv. 180 deg rotation - cart. axis [0,1,0]

   Cartesian axes

     site n.     atom                  positions (alat units)
         1           C   tau(   1) = (   0.0000000   0.0000000   0.7906519  )
         2           C   tau(   2) = (   0.0000000   0.0000000   2.3719556  )
         3           C   tau(   3) = (  -0.0000006   0.5773506   0.7906519  )
         4           C   tau(   4) = (   0.5000004   0.2886749   2.3719556  )

   Crystallographic axes

     site n.     atom                  positions (cryst. coord.)
         1           C   tau(   1) = (  0.0000000  0.0000000  0.2500000  )
         2           C   tau(   2) = (  0.0000000  0.0000000  0.7500000  )
         3           C   tau(   3) = (  0.3333329  0.6666671  0.2500000  )
         4           C   tau(   4) = (  0.6666670  0.3333330  0.7500000  )

     number of k points=    84  Gaussian smearing, width (Ry)=  0.0100
                       cart. coord. in units 2pi/alat
        k(    1) = (   0.0000000   0.0000000   0.0000000), wk =   0.0020000
        k(    2) = (   0.0000000   0.0000000   0.0316195), wk =   0.0040000
        k(    3) = (   0.0000000   0.0000000   0.0632390), wk =   0.0040000
        k(    4) = (   0.0000000   0.0000000   0.0948584), wk =   0.0040000
        k(    5) = (   0.0000000   0.0000000   0.1264779), wk =   0.0040000
        k(    6) = (   0.0000000   0.0000000  -0.1580974), wk =   0.0020000
        k(    7) = (   0.0000000   0.1154701   0.0000000), wk =   0.0120000
        k(    8) = (   0.0000000   0.1154701   0.0316195), wk =   0.0240000
        k(    9) = (   0.0000000   0.1154701   0.0632390), wk =   0.0240000
        k(   10) = (   0.0000000   0.1154701   0.0948584), wk =   0.0240000
        k(   11) = (   0.0000000   0.1154701   0.1264779), wk =   0.0240000
        k(   12) = (   0.0000000   0.1154701  -0.1580974), wk =   0.0120000
        k(   13) = (   0.0000000   0.2309401   0.0000000), wk =   0.0120000
        k(   14) = (   0.0000000   0.2309401   0.0316195), wk =   0.0240000
        k(   15) = (   0.0000000   0.2309401   0.0632390), wk =   0.0240000
        k(   16) = (   0.0000000   0.2309401   0.0948584), wk =   0.0240000
        k(   17) = (   0.0000000   0.2309401   0.1264779), wk =   0.0240000
        k(   18) = (   0.0000000   0.2309401  -0.1580974), wk =   0.0120000
        k(   19) = (   0.0000000   0.3464102   0.0000000), wk =   0.0120000
        k(   20) = (   0.0000000   0.3464102   0.0316195), wk =   0.0240000
        k(   21) = (   0.0000000   0.3464102   0.0632390), wk =   0.0240000
        k(   22) = (   0.0000000   0.3464102   0.0948584), wk =   0.0240000
        k(   23) = (   0.0000000   0.3464102   0.1264779), wk =   0.0240000
        k(   24) = (   0.0000000   0.3464102  -0.1580974), wk =   0.0120000
        k(   25) = (   0.0000000   0.4618802   0.0000000), wk =   0.0120000
        k(   26) = (   0.0000000   0.4618802   0.0316195), wk =   0.0240000
        k(   27) = (   0.0000000   0.4618802   0.0632390), wk =   0.0240000
        k(   28) = (   0.0000000   0.4618802   0.0948584), wk =   0.0240000
        k(   29) = (   0.0000000   0.4618802   0.1264779), wk =   0.0240000
        k(   30) = (   0.0000000   0.4618802  -0.1580974), wk =   0.0120000
        k(   31) = (   0.0000000  -0.5773503   0.0000000), wk =   0.0060000
        k(   32) = (   0.0000000  -0.5773503   0.0316195), wk =   0.0120000
        k(   33) = (   0.0000000  -0.5773503   0.0632390), wk =   0.0120000
        k(   34) = (   0.0000000  -0.5773503   0.0948584), wk =   0.0120000
        k(   35) = (   0.0000000  -0.5773503   0.1264779), wk =   0.0120000
        k(   36) = (   0.0000000  -0.5773503  -0.1580974), wk =   0.0060000
        k(   37) = (   0.1000000   0.1732051   0.0000000), wk =   0.0120000
        k(   38) = (   0.1000000   0.1732051   0.0316195), wk =   0.0240000
        k(   39) = (   0.1000000   0.1732051   0.0632390), wk =   0.0240000
        k(   40) = (   0.1000000   0.1732051   0.0948584), wk =   0.0240000
        k(   41) = (   0.1000000   0.1732051   0.1264779), wk =   0.0240000
[...]
        k(   34) = (  -0.0000000  -0.5778587   0.0994865), wk =   0.0120000
        k(   35) = (  -0.0000000  -0.5778587   0.1326487), wk =   0.0120000
        k(   36) = (  -0.0000000  -0.5778587  -0.1658109), wk =   0.0060000
        k(   37) = (   0.1000881   0.1733576  -0.0000000), wk =   0.0120000
        k(   38) = (   0.1000881   0.1733576   0.0331622), wk =   0.0240000
        k(   39) = (   0.1000881   0.1733576   0.0663244), wk =   0.0240000
        k(   40) = (   0.1000881   0.1733576   0.0994865), wk =   0.0240000
        k(   41) = (   0.1000881   0.1733576   0.1326487), wk =   0.0240000
        k(   42) = (   0.1000881   0.1733576  -0.1658109), wk =   0.0120000
        k(   43) = (   0.1000881   0.2889293  -0.0000000), wk =   0.0240000
        k(   44) = (   0.1000881   0.2889293   0.0331622), wk =   0.0480000
        k(   45) = (   0.1000881   0.2889293   0.0663244), wk =   0.0480000
        k(   46) = (   0.1000881   0.2889293   0.0994865), wk =   0.0480000
        k(   47) = (   0.1000881   0.2889293   0.1326487), wk =   0.0480000
        k(   48) = (   0.1000881   0.2889293  -0.1658109), wk =   0.0240000
        k(   49) = (   0.1000881   0.4045011  -0.0000000), wk =   0.0240000
        k(   50) = (   0.1000881   0.4045011   0.0331622), wk =   0.0480000
        k(   51) = (   0.1000881   0.4045011   0.0663244), wk =   0.0480000
        k(   52) = (   0.1000881   0.4045011   0.0994865), wk =   0.0480000
        k(   53) = (   0.1000881   0.4045011   0.1326487), wk =   0.0480000
        k(   54) = (   0.1000881   0.4045011  -0.1658109), wk =   0.0240000
        k(   55) = (   0.1000881   0.5200728  -0.0000000), wk =   0.0240000
        k(   56) = (   0.1000881   0.5200728   0.0331622), wk =   0.0480000
        k(   57) = (   0.1000881   0.5200728   0.0663244), wk =   0.0480000
        k(   58) = (   0.1000881   0.5200728   0.0994865), wk =   0.0480000
        k(   59) = (   0.1000881   0.5200728   0.1326487), wk =   0.0480000
        k(   60) = (   0.1000881   0.5200728  -0.1658109), wk =   0.0240000
[...]
        k(   70) = (   0.2001761   0.4622870   0.0994865), wk =   0.0480000
        k(   71) = (   0.2001761   0.4622870   0.1326487), wk =   0.0480000
        k(   72) = (   0.2001761   0.4622870  -0.1658109), wk =   0.0240000
        k(   73) = (   0.2001761   0.5778587  -0.0000000), wk =   0.0120000
        k(   74) = (   0.2001761   0.5778587   0.0331622), wk =   0.0240000
        k(   75) = (   0.2001761   0.5778587   0.0663244), wk =   0.0240000
        k(   76) = (   0.2001761   0.5778587   0.0994865), wk =   0.0240000
        k(   77) = (   0.2001761   0.5778587   0.1326487), wk =   0.0240000
        k(   78) = (   0.2001761   0.5778587  -0.1658109), wk =   0.0120000
        k(   79) = (   0.3002642   0.5200728  -0.0000000), wk =   0.0120000
        k(   80) = (   0.3002642   0.5200728   0.0331622), wk =   0.0240000
        k(   81) = (   0.3002642   0.5200728   0.0663244), wk =   0.0240000
        k(   82) = (   0.3002642   0.5200728   0.0994865), wk =   0.0240000
        k(   83) = (   0.3002642   0.5200728   0.1326487), wk =   0.0240000
        k(   84) = (   0.3002642   0.5200728  -0.1658109), wk =   0.0120000

                       cryst. coord.
        k(    1) = (   0.0000000   0.0000000   0.0000000), wk =   0.0020000
        k(    2) = (   0.0000000  -0.0000000   0.1000000), wk =   0.0040000
        k(    3) = (   0.0000000  -0.0000000   0.2000000), wk =   0.0040000
        k(    4) = (   0.0000000  -0.0000000   0.3000000), wk =   0.0040000
        k(    5) = (   0.0000000  -0.0000000   0.4000000), wk =   0.0040000
        k(    6) = (  -0.0000000   0.0000000  -0.5000000), wk =   0.0020000
        k(    7) = (   0.0000000   0.1000000  -0.0000000), wk =   0.0120000
        k(    8) = (  -0.0000000   0.1000000   0.1000000), wk =   0.0240000
        k(    9) = (  -0.0000000   0.1000000   0.2000000), wk =   0.0240000
        k(   10) = (   0.0000000   0.1000000   0.3000000), wk =   0.0240000
        k(   11) = (  -0.0000000   0.1000000   0.4000000), wk =   0.0240000
        k(   12) = (  -0.0000000   0.1000000  -0.5000000), wk =   0.0120000
        k(   13) = (   0.0000000   0.2000000  -0.0000000), wk =   0.0120000
        k(   14) = (  -0.0000000   0.2000000   0.1000000), wk =   0.0240000
        k(   15) = (  -0.0000000   0.2000000   0.2000000), wk =   0.0240000
        k(   16) = (  -0.0000000   0.2000000   0.3000000), wk =   0.0240000
        k(   17) = (  -0.0000000   0.2000000   0.4000000), wk =   0.0240000
        k(   18) = (  -0.0000000   0.2000000  -0.5000000), wk =   0.0120000
        k(   19) = (   0.0000000   0.3000000  -0.0000000), wk =   0.0120000
        k(   20) = (   0.0000000   0.3000000   0.1000000), wk =   0.0240000
        k(   21) = (   0.0000000   0.3000000   0.2000000), wk =   0.0240000
        k(   22) = (   0.0000000   0.3000000   0.3000000), wk =   0.0240000
        k(   23) = (   0.0000000   0.3000000   0.4000000), wk =   0.0240000
        k(   24) = (   0.0000000   0.3000000  -0.5000000), wk =   0.0120000
        k(   25) = (   0.0000000   0.4000000  -0.0000000), wk =   0.0120000
        k(   26) = (   0.0000000   0.4000000   0.1000000), wk =   0.0240000
        k(   27) = (  -0.0000000   0.4000000   0.2000000), wk =   0.0240000
        k(   28) = (   0.0000000   0.4000000   0.3000000), wk =   0.0240000
        k(   29) = (  -0.0000000   0.4000000   0.4000000), wk =   0.0240000
        k(   30) = (  -0.0000000   0.4000000  -0.5000000), wk =   0.0120000
        k(   31) = (  -0.0000000  -0.5000000   0.0000000), wk =   0.0060000
        k(   32) = (   0.0000000  -0.5000000   0.1000000), wk =   0.0120000
        k(   33) = (   0.0000000  -0.5000000   0.2000000), wk =   0.0120000
        k(   34) = (   0.0000000  -0.5000000   0.3000000), wk =   0.0120000
        k(   35) = (  -0.0000000  -0.5000000   0.4000000), wk =   0.0120000
        k(   36) = (  -0.0000000  -0.5000000  -0.5000000), wk =   0.0060000
        k(   37) = (   0.1000000   0.1000000   0.0000000), wk =   0.0120000
        k(   38) = (   0.1000000   0.1000000   0.1000000), wk =   0.0240000
        k(   39) = (   0.1000000   0.1000000   0.2000000), wk =   0.0240000
        k(   40) = (   0.1000000   0.1000000   0.3000000), wk =   0.0240000
        k(   41) = (   0.1000000   0.1000000   0.4000000), wk =   0.0240000
        k(   42) = (   0.1000000   0.1000000  -0.5000000), wk =   0.0120000
        k(   43) = (   0.1000000   0.2000000  -0.0000000), wk =   0.0240000
        k(   44) = (   0.1000000   0.2000000   0.1000000), wk =   0.0480000
        k(   45) = (   0.1000000   0.2000000   0.2000000), wk =   0.0480000
        k(   46) = (   0.1000000   0.2000000   0.3000000), wk =   0.0480000
        k(   47) = (   0.1000000   0.2000000   0.4000000), wk =   0.0480000
        k(   48) = (   0.1000000   0.2000000  -0.5000000), wk =   0.0240000
        k(   49) = (   0.1000000   0.3000000   0.0000000), wk =   0.0240000
        k(   50) = (   0.1000000   0.3000000   0.1000000), wk =   0.0480000
        k(   51) = (   0.1000000   0.3000000   0.2000000), wk =   0.0480000
        k(   52) = (   0.1000000   0.3000000   0.3000000), wk =   0.0480000
        k(   53) = (   0.1000000   0.3000000   0.4000000), wk =   0.0480000
        k(   54) = (   0.1000000   0.3000000  -0.5000000), wk =   0.0240000
        k(   55) = (   0.1000000   0.4000000   0.0000000), wk =   0.0240000
        k(   56) = (   0.1000000   0.4000000   0.1000000), wk =   0.0480000
        k(   57) = (   0.1000000   0.4000000   0.2000000), wk =   0.0480000
        k(   58) = (   0.1000000   0.4000000   0.3000000), wk =   0.0480000
        k(   59) = (   0.1000000   0.4000000   0.4000000), wk =   0.0480000
        k(   60) = (   0.1000000   0.4000000  -0.5000000), wk =   0.0240000
[...]
        k(   70) = (   0.2000000   0.3000000   0.3000000), wk =   0.0480000
        k(   71) = (   0.2000000   0.3000000   0.4000000), wk =   0.0480000
        k(   72) = (   0.2000000   0.3000000  -0.5000000), wk =   0.0240000
        k(   73) = (   0.2000000   0.4000000  -0.0000000), wk =   0.0120000
        k(   74) = (   0.2000000   0.4000000   0.1000000), wk =   0.0240000
        k(   75) = (   0.2000000   0.4000000   0.2000000), wk =   0.0240000
        k(   76) = (   0.2000000   0.4000000   0.3000000), wk =   0.0240000
        k(   77) = (   0.2000000   0.4000000   0.4000000), wk =   0.0240000
        k(   78) = (   0.2000000   0.4000000  -0.5000000), wk =   0.0120000
        k(   79) = (   0.3000000   0.3000000  -0.0000000), wk =   0.0120000
        k(   80) = (   0.3000000   0.3000000   0.1000000), wk =   0.0240000
        k(   81) = (   0.3000000   0.3000000   0.2000000), wk =   0.0240000
        k(   82) = (   0.3000000   0.3000000   0.3000000), wk =   0.0240000
        k(   83) = (   0.3000000   0.3000000   0.4000000), wk =   0.0240000
        k(   84) = (   0.3000000   0.3000000  -0.5000000), wk =   0.0120000

     Check: negative core charge=   -0.000012

     Initial potential from superposition of free atoms

     starting charge      15.9998, renormalised to      16.0000

[...]

     Starting wfcs are   16 randomized atomic wfcs
     Checking if some PAW data can be deallocated...

     Self-consistent Calculation

[...]

     ethr =  3.07E-09,  avg # of iterations =  4.2

[...]

     total energy              =     -76.01259670 Ry
     estimated scf accuracy    <          1.1E-09 Ry

     iteration #  8     ecut=    70.00 Ry     beta= 0.70
     Davidson diagonalization with overlap

     c_bands:  2 eigenvalues not converged
     c_bands:  1 eigenvalues not converged
     c_bands:  2 eigenvalues not converged
     c_bands:  2 eigenvalues not converged
     ethr =  6.72E-12,  avg # of iterations =  6.1

[...]

     End of self-consistent calculation

[...]

          k =-0.0000-0.5779-0.1658 (  2612 PWs)   bands (ev):

[...]

          k = 0.3003 0.5201-0.1658 (  2612 PWs)   bands (ev):

    -7.9994  -7.9994  -6.3180  -6.3180  -4.4580  -4.4579   4.6853   4.6853
     6.7232   6.7232  16.2852  16.2852

     occupation numbers
     1.0000   1.0000   1.0000   1.0000   1.0000   1.0000   1.0000   1.0000
     0.0000   0.0000   0.0000   0.0000

     the Fermi energy is     5.7679 ev

!    total energy              =     -76.01259670 Ry
     total all-electron energy =      -307.068985 Ry
     estimated scf accuracy    <          3.2E-11 Ry
     smearing contrib. (-TS)   =      -0.00000000 Ry
     internal energy E=F+TS    =     -76.01259670 Ry

     The total energy is F=E-TS. E is the sum of the following terms:
     one-electron contribution =     -18.78583634 Ry
     hartree contribution      =      17.21039131 Ry
     xc contribution           =     -19.32007985 Ry
     ewald contribution        =     -28.93576919 Ry
     one-center paw contrib.   =     -26.18130263 Ry
      -> PAW hartree energy AE =       9.54085037 Ry
      -> PAW hartree energy PS =      -9.53206731 Ry
      -> PAW xc energy AE      =     -11.25676878 Ry
      -> PAW xc energy PS      =       4.70263346 Ry
      -> total E_H with PAW    =      17.21917437 Ry
      -> total E_XC with PAW   =     -25.87421516 Ry

     convergence has been achieved in   8 iterations

[...]

     Forces acting on atoms (cartesian axes, Ry/au):

     atom    1 type  1   force =    -0.00000000   -0.00000000    0.00000000
     atom    2 type  1   force =     0.00000000    0.00000000   -0.00000000
     atom    3 type  1   force =    -0.00000000   -0.00000000    0.00000000
     atom    4 type  1   force =     0.00000000    0.00000000   -0.00000000
     The non-local contrib.  to forces
     atom    1 type  1   force =     0.00000000    0.00000000   -0.00000000
     atom    2 type  1   force =    -0.00000000   -0.00000000    0.00000000
     atom    3 type  1   force =    -0.00000000   -0.00000000    0.00000000
     atom    4 type  1   force =     0.00000000    0.00000000   -0.00000000
     The ionic contribution  to forces
     atom    1 type  1   force =    -0.00001084    0.00000633   -0.00000010
     atom    2 type  1   force =     0.00000734   -0.00000422    0.00000010
     atom    3 type  1   force =     0.00001085   -0.00000634   -0.00000010
     atom    4 type  1   force =    -0.00000735    0.00000423    0.00000010
     The local contribution  to forces
     atom    1 type  1   force =    -0.00000000   -0.00000000    0.00000022
     atom    2 type  1   force =     0.00000000    0.00000000    0.00000067
     atom    3 type  1   force =     0.00000787   -0.00000460    0.00000022
     atom    4 type  1   force =    -0.00000533    0.00000307    0.00000067
     The core correction contribution to forces
     atom    1 type  1   force =     0.00000000   -0.00000000   -0.00000000
     atom    2 type  1   force =    -0.00000000    0.00000000   -0.00000000
     atom    3 type  1   force =    -0.00000105    0.00000061   -0.00000000
     atom    4 type  1   force =     0.00000071   -0.00000041   -0.00000000
     The Hubbard contrib.    to forces
     atom    1 type  1   force =     0.00000000    0.00000000    0.00000000
     atom    2 type  1   force =     0.00000000    0.00000000    0.00000000
     atom    3 type  1   force =     0.00000000    0.00000000    0.00000000
     atom    4 type  1   force =     0.00000000    0.00000000    0.00000000
     The SCF correction term to forces
     atom    1 type  1   force =    -0.00000000    0.00000000   -0.00000000
     atom    2 type  1   force =     0.00000000   -0.00000000    0.00000000
     atom    3 type  1   force =     0.00000000   -0.00000000   -0.00000000
     atom    4 type  1   force =    -0.00000000    0.00000000    0.00000000

     Total force =     0.000000     Total SCF correction =     0.000000

     Computing stress (Cartesian axis) and pressure

     Non-local corr. energy    =       0.19727672 Ry

          total   stress  (Ry/bohr**3)                   (kbar)     P=       -0.09
  -0.00000065  -0.00000000   0.00000000           -0.10       -0.00        0.00
  -0.00000000  -0.00000065   0.00000000           -0.00       -0.10        0.00
   0.00000000   0.00000000  -0.00000056            0.00        0.00       -0.08

     kinetic stress (kbar)  10460.30      0.00     -0.00
                                0.00  10460.30     -0.00
                               -0.00     -0.00  11899.74

     local   stress (kbar) -24919.63      0.01      0.00
                                0.01 -24919.61     -0.00
                                0.00     -0.00  24142.33

     nonloc. stress (kbar)   2671.24      0.00     -0.00
                                0.00   2671.24      0.00
                                0.00     -0.00   2436.94

     hartree stress (kbar)   8633.96     -0.00     -0.00
                               -0.00   8633.96      0.00
                               -0.00      0.00  -7686.32

     exc-cor stress (kbar)   -149.49     -0.00     -0.00
                               -0.00   -149.49      0.00
                               -0.00      0.00   -388.66

     corecor stress (kbar)  -2605.51      0.00     -0.00
                                0.00  -2605.51      0.00
                               -0.00      0.00  -2559.55

     ewald   stress (kbar)   5904.63     -0.02     -0.00
                               -0.02   5904.60      0.00
                               -0.00      0.00 -27918.73

     hubbard stress (kbar)      0.00      0.00      0.00
                                0.00      0.00      0.00
                                0.00      0.00      0.00

     DFT-D   stress (kbar)      0.00      0.00      0.00
                                0.00      0.00      0.00
                                0.00      0.00      0.00

     XDM     stress (kbar)      0.00      0.00      0.00
                                0.00      0.00      0.00
                                0.00      0.00      0.00

     dft-nl  stress (kbar)      4.42      0.00      0.00
                                0.00      4.42     -0.00
                                0.00     -0.00     74.17

     TS-vdW  stress (kbar)      0.00      0.00      0.00
                                0.00      0.00      0.00
                                0.00      0.00      0.00

     MDB     stress (kbar)      0.00      0.00      0.00
                                0.00      0.00      0.00
                                0.00      0.00      0.00

     3D-RISM stress (kbar)      0.00      0.00      0.00
                                0.00      0.00      0.00
                                0.00      0.00      0.00

     Writing all to output data dir ./GaN.save/

     General routines

     Parallel routines

     PAW routines

   This run was terminated on:  22:17: 5   2Oct2023

   JOB DONE.