     Program PWSCF v.7.1 starts on 25Mar2024 at 14:27:17

     Reading input from espresso.pwi
Warning: card &CELL ignored
Warning: card    CELL_DYNAMICS    = 'BFGS' ignored
Warning: card / ignored

     Current dimensions of program PWSCF are:
     Max number of different atomic species (ntypx) = 10
     Max number of k-points (npk) =  40000
     Max angular momentum in pseudopotentials (lmaxx) =  4
     file Ga.pbe-dn-kjpaw_psl.1.0.0.UPF: wavefunction(s)  4S renormalized
     file N.pbe-n-kjpaw_psl.1.0.0.UPF: wavefunction(s)  2S renormalized

     IMPORTANT: XC functional enforced from input :
     Exchange-correlation= BEEF-VDW
                           (   1   4  43  14   2   0   0)
     Any further DFT definition will be discarded
     Please, verify this is what you really want

     K-points division:     npool     =       2
     R & G space division:  proc/nbgrp/npool/nimage =      30
     Subspace diagonalization in iterative solution of the eigenvalue problem:
     a serial algorithm will be used

     Using Slab Decomposition

     bravais-lattice index     =            4
     lattice parameter (alat)  =      18.3939  a.u.
     unit-cell volume          =    5856.2271 (a.u.)^3
     number of atoms/cell      =           72
     number of atomic types    =            2
     number of electrons       =       641.00
     number of Kohn-Sham states=          385
     kinetic-energy cutoff     =      70.0000  Ry
     charge density cutoff     =     350.0000  Ry
     scf convergence threshold =      1.0E-07
     mixing beta               =       0.7000
     number of iterations used =            8  plain     mixing
     energy convergence thresh.=      1.0E-04
     force convergence thresh. =      1.0E-03
     Exchange-correlation= BEEF-VDW
                           (   1   4  43  14   2   0   0)
     nstep                     =           50

     celldm(1)=  18.393924  celldm(2)=   0.000000  celldm(3)=   1.086586
     celldm(4)=   0.000000  celldm(5)=   0.000000  celldm(6)=   0.000000

     crystal axes: (cart. coord. in units of alat)
               a(1) = (   1.000000   0.000000   0.000000 )
               a(2) = (  -0.500000   0.866025   0.000000 )
               a(3) = (   0.000000   0.000000   1.086586 )

     reciprocal axes: (cart. coord. in units 2 pi/alat)
               b(1) = (  1.000000  0.577350 -0.000000 )
               b(2) = (  0.000000  1.154701  0.000000 )
               b(3) = (  0.000000 -0.000000  0.920314 )

     PseudoPot. # 1 for Ga read from file:
     /trace/group/acmegroup/atimmins/packages/espresso/pseudo/psl_1.0.0/pslibrary.1.0.0/pbe/PSEUDOPOTENTIALS/Ga.pbe-dn-kjpaw_psl.1.0.0.UPF
     MD5 check sum: cd2a01e492f15b435d17032472d8505c
     Pseudo is Projector augmented-wave + core cor, Zval = 13.0
     Generated using 'atomic' code by A. Dal Corso  v.7.1
     Shape of augmentation charge: PSQ
     Using radial grid of 1205 points,  6 beta functions with:
                l(1) =   0
                l(2) =   0
                l(3) =   1
                l(4) =   1
                l(5) =   2
                l(6) =   2
     Q(r) pseudized with 0 coefficients

     PseudoPot. # 2 for N  read from file:
     /trace/group/acmegroup/atimmins/packages/espresso/pseudo/psl_1.0.0/pslibrary.1.0.0/pbe/PSEUDOPOTENTIALS/N.pbe-n-kjpaw_psl.1.0.0.UPF
     MD5 check sum: f77f775694dac7e2c3fe1c82443d1a16
     Pseudo is Projector augmented-wave + core cor, Zval =  5.0
     Generated using 'atomic' code by A. Dal Corso  v.7.1
     Shape of augmentation charge: PSQ
     Using radial grid of 1085 points,  4 beta functions with:
                l(1) =   0
                l(2) =   0
                l(3) =   1
                l(4) =   1
     Q(r) pseudized with 0 coefficients

     atomic species   valence    mass     pseudopotential
        Ga            13.00    69.72300     Ga( 1.00)
        N              5.00    14.00700     N ( 1.00)

      6 Sym. Ops. (no inversion) found ( 4 have fractional translation)

                                    s                        frac. trans.

      isym =  1     identity

 cryst.   s( 1) = (     1          0          0      )
                  (     0          1          0      )
                  (     0          0          1      )

 cart.    s( 1) = (  1.0000000  0.0000000  0.0000000 )
                  (  0.0000000  1.0000000  0.0000000 )
                  (  0.0000000  0.0000000  1.0000000 )

      isym =  2     120 deg rotation - cryst. axis [0,0,1]

 cryst.   s( 2) = (     0          1          0      )    f =( -0.3333334 )
                  (    -1         -1          0      )       (  0.0000003 )
                  (     0          0          1      )       (  0.0000000 )

 cart.    s( 2) = ( -0.5000000 -0.8660254  0.0000000 )    f =( -0.3333335 )
                  (  0.8660254 -0.5000000  0.0000000 )       (  0.0000002 )
                  (  0.0000000  0.0000000  1.0000000 )       (  0.0000000 )

      isym =  3     120 deg rotation - cryst. axis [0,0,-1]

[...]

      isym =  4     inv. 180 deg rotation - cart. axis [1,0,0]

[...]

      isym =  5     inv. 180 deg rotation - cryst. axis [0,1,0]

 cryst.   s( 5) = (     1          1          0      )
                  (     0         -1          0      )
                  (     0          0          1      )

 cart.    s( 5) = (  0.5000000  0.8660254  0.0000000 )
                  (  0.8660254 -0.5000000  0.0000000 )
                  (  0.0000000  0.0000000  1.0000000 )

      isym =  6     inv. 180 deg rotation - cryst. axis [1,1,0]

 cryst.   s( 6) = (     0         -1          0      )    f =( -0.3333334 )
                  (    -1          0          0      )       ( -0.3333334 )
                  (     0          0          1      )       (  0.0000000 )

 cart.    s( 6) = (  0.5000000 -0.8660254  0.0000000 )    f =( -0.1666667 )
                  ( -0.8660254 -0.5000000  0.0000000 )       ( -0.2886752 )
                  (  0.0000000  0.0000000  1.0000000 )       (  0.0000000 )

     point group C_3v (3m)
     there are  3 classes
     the character table:

       E     2C3   3s_v
A_1    1.00  1.00  1.00
A_2    1.00  1.00 -1.00
E      2.00 -1.00  0.00

     the symmetry operations in each class and the name of the first element:

     E        1
          identity
     2C3      2    3
          120 deg rotation - cryst. axis [0,0,1]
     3s_v     4    5    6
          inv. 180 deg rotation - cart. axis [1,0,0]

   Cartesian axes

     site n.     atom                  positions (alat units)
         1           Ga  tau(   1) = (   0.1666668   0.0962250   0.8144844  )
         2           Ga  tau(   2) = (   0.0000001   0.3849001   0.2711914  )
         3           Ga  tau(   3) = (   0.0000001   0.3849001   0.8144844  )
         4           Ga  tau(   4) = (  -0.1666665   0.6735752   0.2711914  )
         5           Ga  tau(   5) = (  -0.1666665   0.6735752   0.8144844  )
         6           Ga  tau(   6) = (   0.5000001   0.0962250   0.2711914  )
         7           Ga  tau(   7) = (   0.5000001   0.0962250   0.8144844  )
         8           Ga  tau(   8) = (   0.3333335   0.3849001   0.2711914  )
         9           Ga  tau(   9) = (   0.3333335   0.3849001   0.8144844  )
        10           Ga  tau(  10) = (   0.1666668   0.6735752   0.2711914  )
        11           Ga  tau(  11) = (   0.1666668   0.6735752   0.8144844  )
        12           Ga  tau(  12) = (   0.8333335   0.0962250   0.2711914  )
        13           Ga  tau(  13) = (   0.8333335   0.0962250   0.8144844  )
        14           Ga  tau(  14) = (   0.6666668   0.3849001   0.2711914  )
        15           Ga  tau(  15) = (   0.6666668   0.3849001   0.8144844  )
        16           Ga  tau(  16) = (   0.5000001   0.6735752   0.2711914  )
        17           Ga  tau(  17) = (   0.5000001   0.6735752   0.8144844  )
        18           Ga  tau(  18) = (  -0.0000002   0.1924502   0.5428379  )
        19           Ga  tau(  19) = (  -0.0000002   0.1924502   1.0861309  )
        20           Ga  tau(  20) = (  -0.1666669   0.4811254   0.5428379  )
        21           Ga  tau(  21) = (  -0.1666669   0.4811254   1.0861309  )
        22           Ga  tau(  22) = (  -0.3333335   0.7698005   0.5428379  )
        23           Ga  tau(  23) = (  -0.3333335   0.7698005   1.0861309  )
        24           Ga  tau(  24) = (   0.3333331   0.1924502   0.5428379  )
        25           Ga  tau(  25) = (   0.3333331   0.1924502   1.0861309  )
        26           Ga  tau(  26) = (   0.1666665   0.4811254   0.5428379  )
        27           Ga  tau(  27) = (   0.1666665   0.4811254   1.0861309  )
        28           Ga  tau(  28) = (  -0.0000002   0.7698005   0.5428379  )
        29           Ga  tau(  29) = (  -0.0000002   0.7698005   1.0861309  )
        30           Ga  tau(  30) = (   0.6666665   0.1924502   0.5428379  )
        31           Ga  tau(  31) = (   0.6666665   0.1924502   1.0861309  )
        32           Ga  tau(  32) = (   0.4999998   0.4811254   0.5428379  )
        33           Ga  tau(  33) = (   0.4999998   0.4811254   1.0861309  )
        34           Ga  tau(  34) = (   0.3333331   0.7698005   0.5428379  )
        35           Ga  tau(  35) = (   0.3333331   0.7698005   1.0861309  )
        36           N   tau(  36) = (   0.1666668   0.0962250   0.4758365  )
        37           N   tau(  37) = (   0.1666668   0.0962250   1.0191295  )
        38           N   tau(  38) = (   0.0000001   0.3849001   0.4758365  )
        39           N   tau(  39) = (   0.0000001   0.3849001   1.0191295  )
        40           N   tau(  40) = (  -0.1666665   0.6735752   0.4758365  )
        41           N   tau(  41) = (  -0.1666665   0.6735752   1.0191295  )
        42           N   tau(  42) = (   0.5000001   0.0962250   0.4758365  )
        43           N   tau(  43) = (   0.5000001   0.0962250   1.0191295  )
        44           N   tau(  44) = (   0.3333335   0.3849001   0.4758365  )
        45           N   tau(  45) = (   0.3333335   0.3849001   1.0191295  )
        46           N   tau(  46) = (   0.1666668   0.6735752   0.4758365  )
        47           N   tau(  47) = (   0.1666668   0.6735752   1.0191295  )
        48           N   tau(  48) = (   0.8333335   0.0962250   0.4758365  )
        49           N   tau(  49) = (   0.8333335   0.0962250   1.0191295  )
        50           N   tau(  50) = (   0.6666668   0.3849001   0.4758365  )
        51           N   tau(  51) = (   0.6666668   0.3849001   1.0191295  )
        52           N   tau(  52) = (   0.5000001   0.6735752   0.4758365  )
        53           N   tau(  53) = (   0.5000001   0.6735752   1.0191295  )
        54           N   tau(  54) = (  -0.0000002   0.1924502   0.2041900  )
        55           N   tau(  55) = (  -0.0000002   0.1924502   0.7474830  )
        56           N   tau(  56) = (  -0.1666669   0.4811254   0.2041900  )
        57           N   tau(  57) = (  -0.1666669   0.4811254   0.7474830  )
        58           N   tau(  58) = (  -0.3333335   0.7698005   0.2041900  )
        59           N   tau(  59) = (  -0.3333335   0.7698005   0.7474830  )
[...]
     atom   35 type  1   force =     0.00000000    0.00000000    0.00000000
     atom   36 type  2   force =     0.00000000    0.00000000    0.00000000
     atom   37 type  2   force =     0.00000000    0.00000000    0.00000000
     atom   38 type  2   force =     0.00000000    0.00000000    0.00000000
     atom   39 type  2   force =     0.00000000    0.00000000    0.00000000
     atom   40 type  2   force =     0.00000000    0.00000000    0.00000000
     atom   41 type  2   force =     0.00000000    0.00000000    0.00000000
     atom   42 type  2   force =     0.00000000    0.00000000    0.00000000
     atom   43 type  2   force =     0.00000000    0.00000000    0.00000000
     atom   44 type  2   force =     0.00000000    0.00000000    0.00000000
     atom   45 type  2   force =     0.00000000    0.00000000    0.00000000
     atom   46 type  2   force =     0.00000000    0.00000000    0.00000000
     atom   47 type  2   force =     0.00000000    0.00000000    0.00000000
     atom   48 type  2   force =     0.00000000    0.00000000    0.00000000
     atom   49 type  2   force =     0.00000000    0.00000000    0.00000000
     atom   50 type  2   force =     0.00000000    0.00000000    0.00000000
     atom   51 type  2   force =     0.00000000    0.00000000    0.00000000
     atom   52 type  2   force =     0.00000000    0.00000000    0.00000000
     atom   53 type  2   force =     0.00000000    0.00000000    0.00000000
     atom   54 type  2   force =     0.00000000    0.00000000    0.00000000
     atom   55 type  2   force =     0.00000000    0.00000000    0.00000000
     atom   56 type  2   force =     0.00000000    0.00000000    0.00000000
     atom   57 type  2   force =     0.00000000    0.00000000    0.00000000
     atom   58 type  2   force =     0.00000000    0.00000000    0.00000000
     atom   59 type  2   force =     0.00000000    0.00000000    0.00000000
     atom   60 type  2   force =     0.00000000    0.00000000    0.00000000
     atom   61 type  2   force =     0.00000000    0.00000000    0.00000000
     atom   62 type  2   force =     0.00000000    0.00000000    0.00000000
     atom   63 type  2   force =     0.00000000    0.00000000    0.00000000
     atom   64 type  2   force =     0.00000000    0.00000000    0.00000000
     atom   65 type  2   force =     0.00000000    0.00000000    0.00000000
     atom   66 type  2   force =     0.00000000    0.00000000    0.00000000
     atom   67 type  2   force =     0.00000000    0.00000000    0.00000000
     atom   68 type  2   force =     0.00000000    0.00000000    0.00000000
     atom   69 type  2   force =     0.00000000    0.00000000    0.00000000
     atom   70 type  2   force =     0.00000000    0.00000000    0.00000000
     atom   71 type  2   force =     0.00000000    0.00000000    0.00000000
     atom   72 type  2   force =     0.00000000    0.00000000    0.00000000
     The SCF correction term to forces
     atom    1 type  1   force =    -0.00000000    0.00000000    0.00001286
     atom    2 type  1   force =    -0.00000455   -0.00000650    0.00001611
     atom    3 type  1   force =    -0.00000522    0.00000422   -0.00000871
     atom    4 type  1   force =    -0.00000790   -0.00000069    0.00001611
     atom    5 type  1   force =     0.00000104   -0.00000663   -0.00000871
     atom    6 type  1   force =    -0.00000335    0.00000719    0.00001611
     atom    7 type  1   force =     0.00000627    0.00000241   -0.00000871
     atom    8 type  1   force =     0.00000455   -0.00000650    0.00001611
     atom    9 type  1   force =     0.00000522    0.00000422   -0.00000871
     atom   10 type  1   force =     0.00000000   -0.00000000   -0.00000156
     atom   11 type  1   force =     0.00000000    0.00000000    0.00000095
     atom   12 type  1   force =     0.00000335    0.00000719    0.00001611
     atom   13 type  1   force =    -0.00000627    0.00000241   -0.00000871
     atom   14 type  1   force =    -0.00000000    0.00000000   -0.00000825
     atom   15 type  1   force =     0.00000000   -0.00000000    0.00000011
     atom   16 type  1   force =     0.00000790   -0.00000069    0.00001611
     atom   17 type  1   force =    -0.00000104   -0.00000663   -0.00000871
     atom   18 type  1   force =    -0.00001109    0.00000640   -0.00000691
     atom   19 type  1   force =    -0.00000616    0.00000356    0.00000489
     atom   20 type  1   force =     0.00000402    0.00000232   -0.00000238
     atom   21 type  1   force =     0.00000060    0.00000035   -0.00000183
     atom   22 type  1   force =     0.00000000   -0.00001280   -0.00000691
     atom   23 type  1   force =     0.00000000   -0.00000711    0.00000489
     atom   24 type  1   force =     0.00001109    0.00000640   -0.00000691
     atom   25 type  1   force =     0.00000616    0.00000356    0.00000489
     atom   26 type  1   force =    -0.00000000   -0.00000957   -0.00000606
     atom   27 type  1   force =    -0.00000000   -0.00000077   -0.00000537
     atom   28 type  1   force =    -0.00000829    0.00000479   -0.00000606
     atom   29 type  1   force =    -0.00000066    0.00000038   -0.00000537
     atom   30 type  1   force =    -0.00000000   -0.00000464   -0.00000238
     atom   31 type  1   force =     0.00000000   -0.00000069   -0.00000183
     atom   32 type  1   force =    -0.00000402    0.00000232   -0.00000238
     atom   33 type  1   force =    -0.00000060    0.00000035   -0.00000183
     atom   34 type  1   force =     0.00000829    0.00000479   -0.00000606
     atom   35 type  1   force =     0.00000066    0.00000038   -0.00000537
     atom   36 type  2   force =     0.00000000   -0.00000000   -0.00000278
     atom   37 type  2   force =    -0.00000000    0.00000000    0.00000590
     atom   38 type  2   force =    -0.00000114   -0.00000323   -0.00000002
     atom   39 type  2   force =    -0.00000131    0.00000167    0.00000090
     atom   40 type  2   force =    -0.00000337    0.00000063   -0.00000002
     atom   41 type  2   force =     0.00000080   -0.00000197    0.00000090
     atom   42 type  2   force =    -0.00000223    0.00000260   -0.00000002
     atom   43 type  2   force =     0.00000210    0.00000029    0.00000090
     atom   44 type  2   force =     0.00000114   -0.00000323   -0.00000002
     atom   45 type  2   force =     0.00000131    0.00000167    0.00000090
     atom   46 type  2   force =     0.00000000   -0.00000000    0.00000431
     atom   47 type  2   force =    -0.00000000    0.00000000   -0.00000318
     atom   48 type  2   force =     0.00000223    0.00000260   -0.00000002
     atom   49 type  2   force =    -0.00000210    0.00000029    0.00000090
     atom   50 type  2   force =     0.00000000   -0.00000000   -0.00000189
     atom   51 type  2   force =     0.00000000   -0.00000000    0.00000231
     atom   52 type  2   force =     0.00000337    0.00000063   -0.00000002
     atom   53 type  2   force =    -0.00000080   -0.00000197    0.00000090
     atom   54 type  2   force =    -0.00000228    0.00000131    0.00000330
     atom   55 type  2   force =    -0.00000541    0.00000312   -0.00000507
     atom   56 type  2   force =    -0.00000264   -0.00000152    0.00000137
     atom   57 type  2   force =     0.00000005    0.00000003   -0.00000225
     atom   58 type  2   force =    -0.00000000   -0.00000263    0.00000330
     atom   59 type  2   force =    -0.00000000   -0.00000625   -0.00000507
     atom   60 type  2   force =     0.00000228    0.00000131    0.00000330
     atom   61 type  2   force =     0.00000541    0.00000312   -0.00000507
     atom   62 type  2   force =    -0.00000000   -0.00000635    0.00000038
     atom   63 type  2   force =    -0.00000000    0.00000238   -0.00000172
     atom   64 type  2   force =    -0.00000550    0.00000317    0.00000038
     atom   65 type  2   force =     0.00000206   -0.00000119   -0.00000172
     atom   66 type  2   force =    -0.00000000    0.00000305    0.00000137
     atom   67 type  2   force =     0.00000000   -0.00000006   -0.00000225
     atom   68 type  2   force =     0.00000264   -0.00000152    0.00000137
     atom   69 type  2   force =    -0.00000005    0.00000003   -0.00000225
     atom   70 type  2   force =     0.00000550    0.00000317    0.00000038
     atom   71 type  2   force =    -0.00000206   -0.00000119   -0.00000172
     atom   72 type  2   force =     0.00000000   -0.00000000    0.00000399

     Total force =     0.003199     Total SCF correction =     0.000070

     Computing stress (Cartesian axis) and pressure

     Non-local corr. energy    =      19.20820621 Ry

          total   stress  (Ry/bohr**3)                   (kbar)     P=       27.53
   0.00014383   0.00000000   0.00000000           21.16        0.00        0.00
  -0.00000000   0.00014383   0.00000000           -0.00       21.16        0.00
   0.00000000   0.00000000   0.00027368            0.00        0.00       40.26

     kinetic stress (kbar)  18315.32      0.00      0.00
                                0.00  18315.32     -0.00
                                0.00     -0.00  18395.62

     local   stress (kbar)   4570.49     -0.07      0.00
                               -0.07   4570.40      0.01
                                0.00      0.01   3626.93

     nonloc. stress (kbar)     80.86     -0.00      0.00
                               -0.00     80.86      0.00
                                0.00      0.00     83.28

     hartree stress (kbar)  19390.02     -0.00     -0.00
                               -0.00  19390.02      0.00
                               -0.00      0.00  19852.67

     exc-cor stress (kbar)   5016.55      0.00     -0.00
                                0.00   5016.55      0.00
                               -0.00      0.00   5015.42

     corecor stress (kbar) -13753.21     -0.00     -0.00
                               -0.00 -13753.21     -0.00
                               -0.00     -0.00 -13754.24

     ewald   stress (kbar) -33757.13      0.09      0.00
                                0.09 -33757.01     -0.00
                                0.00     -0.00 -33337.41

     hubbard stress (kbar)      0.00      0.00      0.00
                                0.00      0.00      0.00
                                0.00      0.00      0.00

     DFT-D   stress (kbar)      0.00      0.00      0.00
                                0.00      0.00      0.00
                                0.00      0.00      0.00

     XDM     stress (kbar)      0.00      0.00      0.00
                                0.00      0.00      0.00
                                0.00      0.00      0.00

     dft-nl  stress (kbar)    158.23     -0.00     -0.00
                               -0.00    158.23     -0.00
                               -0.00     -0.00    157.99

     TS-vdW  stress (kbar)      0.00      0.00      0.00
                                0.00      0.00      0.00
                                0.00      0.00      0.00

     MDB     stress (kbar)      0.00      0.00      0.00
                                0.00      0.00      0.00
                                0.00      0.00      0.00

     3D-RISM stress (kbar)      0.00      0.00      0.00
                                0.00      0.00      0.00
                                0.00      0.00      0.00

     Energy error            =      2.3E-05 Ry
     Gradient error          =      7.1E-04 Ry/Bohr

     bfgs converged in  23 scf cycles and  22 bfgs steps
     (criteria: energy <  1.0E-04 Ry, force <  1.0E-03 Ry/Bohr)

     End of BFGS Geometry Optimization

     Final energy             =  -10986.6856388335 Ry

     File ./GaN.bfgs deleted, as requested
Begin final coordinates

ATOMIC_POSITIONS (angstrom)
Ga            1.6222756606        0.9366198184        7.8568557402
Ga            0.0265585699        3.7139265531        2.6435770274
Ga           -0.0056459365        3.7487864246        7.9367785759
Ga           -1.6371873242        6.5956189724        2.6435770274
Ga           -1.6231000431        6.5502991161        7.9367785759
Ga            4.8253523923        0.9298979890        2.6435770274
Ga            4.8716441797        0.9403579739        7.9367785759
Ga            3.2179927513        3.7139265531        2.6435770274
Ga            3.2501972577        3.7487864246        7.9367785759
Ga            1.6222756606        6.5563425246        2.6489182161
Ga            1.6222756606        6.5563425246        7.9258502076
Ga            8.1528441801        0.9298979890        2.6435770274
Ga            8.1065523927        0.9403579739        7.9367785759
Ga            6.4890982862        3.7464811715        2.6435073464
Ga            6.4890982862        3.7464811715        7.9246140253
Ga            4.8817386454        6.5956189724        2.6435770274
Ga            4.8676513643        6.5502991161        7.9367785759
Ga            0.0135344470        1.8654271955        5.2911140837
Ga            0.0219179968        1.8605869508       10.5432832938
Ga           -1.6193368369        4.6848008263        5.2742580924
Ga           -1.6216228750        4.6834809815       10.5900997724
Ga           -3.2445503819        7.5085956547        5.2911140837
Ga           -3.2445503819        7.5182761442       10.5432832938
Ga            3.2310100405        1.8654271955        5.2911140837
Ga            3.2226264907        1.8605869508       10.5432832938
Ga            1.6222722437        4.6752185596        5.2838165640
Ga            1.6222722437        4.6830958634       10.5775632830
Ga           -0.0068307830        7.4969077727        5.2838165640
Ga           -0.0000088378        7.4929691208       10.5775632830
Ga            6.4890948693        1.8698483932        5.2742580924
Ga            6.4890948693        1.8724880826       10.5900997724
Ga            4.8638813244        4.6848008263        5.2742580924
Ga            4.8661673625        4.6834809815       10.5900997724
Ga            3.2513752705        7.4969077727        5.2838165640
Ga            3.2445533253        7.4929691208       10.5775632830
N             1.6222756606        0.9366198184        4.9311210768
N             1.6222756606        0.9366198184        9.8568727181
N            -0.0004566245        3.7437117778        4.6289737179
N             0.0000341497        3.7532110986        9.9261528334
N            -1.6249001601        6.5573305155        4.6289737179
N            -1.6164281199        6.5530058779        9.9261528334
N             4.8646547507        0.9384012212        4.6289737179
N             4.8726360168        0.9332265379        9.9261528334
N             3.2450079457        3.7437117778        4.6289737179
N             3.2445171715        3.7532110986        9.9261528334
N             1.6222756606        6.5563425246        4.6380942172
N             1.6222756606        6.5563425246        9.9222531785
N             8.1135418217        0.9384012212        4.6289737179
N             8.1055605556        0.9332265379        9.9261528334
N             6.4890982862        3.7464811715        4.6336359584
N             6.4890982862        3.7464811715        9.9237191563
N             4.8694514813        6.5573305155        4.6289737179
N             4.8609794411        6.5530058779        9.9261528334
N             0.0514134346        1.8435577518        1.9403645726
N            -0.0307158741        1.8909751303        7.3043814291
N            -1.6164313398        4.6864783158        2.0020686031
N            -1.6211695329        4.6837427187        7.2708599855
N            -3.2445503819        7.5523345421        1.9403645726
N            -3.2445503819        7.4574997851        7.3043814291
N             3.1931310529        1.8435577518        1.9403645726
N             3.2752603616        1.8909751303        7.3043814291
N             1.6222722437        4.6869341650        1.9898917404
N             1.6222722437        4.6812503759        7.2775928711
N             0.0033152290        7.4910499700        1.9898917404
N            -0.0016070768        7.4938918645        7.2775928711
N             6.4890948693        1.8664934141        2.0020686031
N             6.4890948693        1.8719646083        7.2708599855
N             4.8609758273        4.6864783158        2.0020686031
N             4.8657140204        4.6837427187        7.2708599855
N             3.2412292585        7.4910499700        1.9898917404
N             3.2461515643        7.4938918645        7.2775928711
N             1.6222756606        0.9366198184        2.3887282300
End final coordinates

     Writing all to output data dir ./GaN.save/

     General routines

     Parallel routines

     PAW routines

   This run was terminated on:  17:20:20  25Mar2024

   JOB DONE.