     Program PWSCF v.7.1 starts on 21Mar2024 at 11:28:29

     Reading input from espresso.pwi
Warning: card &CELL ignored
Warning: card    CELL_DYNAMICS    = 'BFGS' ignored
Warning: card / ignored

     Current dimensions of program PWSCF are:
     Max number of different atomic species (ntypx) = 10
     Max number of k-points (npk) =  40000
     Max angular momentum in pseudopotentials (lmaxx) =  4

     File ./GaN.update deleted, as requested

     File ./GaN.bfgs deleted, as requested
     file Ga.pbe-dn-kjpaw_psl.1.0.0.UPF: wavefunction(s)  4S renormalized
     file N.pbe-n-kjpaw_psl.1.0.0.UPF: wavefunction(s)  2S renormalized

     IMPORTANT: XC functional enforced from input :
     Exchange-correlation= BEEF-VDW
                           (   1   4  43  14   2   0   0)
     Any further DFT definition will be discarded
     Please, verify this is what you really want

     K-points division:     npool     =       2
     R & G space division:  proc/nbgrp/npool/nimage =      30
     Subspace diagonalization in iterative solution of the eigenvalue problem:
     a serial algorithm will be used

     Using Slab Decomposition

     bravais-lattice index     =            4
     lattice parameter (alat)  =      18.3939  a.u.
     unit-cell volume          =    5856.2271 (a.u.)^3
     number of atoms/cell      =           72
     number of atomic types    =            2
     number of electrons       =       640.00
     number of Kohn-Sham states=          384
     kinetic-energy cutoff     =      70.0000  Ry
     charge density cutoff     =     350.0000  Ry
     scf convergence threshold =      1.0E-07
     mixing beta               =       0.7000
     number of iterations used =            8  plain     mixing
     energy convergence thresh.=      1.0E-04
     force convergence thresh. =      1.0E-03
     Exchange-correlation= BEEF-VDW
                           (   1   4  43  14   2   0   0)
     nstep                     =           50

     celldm(1)=  18.393924  celldm(2)=   0.000000  celldm(3)=   1.086586
     celldm(4)=   0.000000  celldm(5)=   0.000000  celldm(6)=   0.000000

     crystal axes: (cart. coord. in units of alat)
               a(1) = (   1.000000   0.000000   0.000000 )
               a(2) = (  -0.500000   0.866025   0.000000 )
               a(3) = (   0.000000   0.000000   1.086586 )

     reciprocal axes: (cart. coord. in units 2 pi/alat)
               b(1) = (  1.000000  0.577350 -0.000000 )
               b(2) = (  0.000000  1.154701  0.000000 )
               b(3) = (  0.000000 -0.000000  0.920314 )

     PseudoPot. # 1 for Ga read from file:
     /trace/group/acmegroup/atimmins/packages/espresso/pseudo/psl_1.0.0/pslibrary.1.0.0/pbe/PSEUDOPOTENTIALS/Ga.pbe-dn-kjpaw_psl.1.0.0.UPF
     MD5 check sum: cd2a01e492f15b435d17032472d8505c
     Pseudo is Projector augmented-wave + core cor, Zval = 13.0
     Generated using 'atomic' code by A. Dal Corso  v.7.1
     Shape of augmentation charge: PSQ
     Using radial grid of 1205 points,  6 beta functions with:
                l(1) =   0
                l(2) =   0
                l(3) =   1
                l(4) =   1
                l(5) =   2
                l(6) =   2
     Q(r) pseudized with 0 coefficients

     PseudoPot. # 2 for N  read from file:
     /trace/group/acmegroup/atimmins/packages/espresso/pseudo/psl_1.0.0/pslibrary.1.0.0/pbe/PSEUDOPOTENTIALS/N.pbe-n-kjpaw_psl.1.0.0.UPF
     MD5 check sum: f77f775694dac7e2c3fe1c82443d1a16
     Pseudo is Projector augmented-wave + core cor, Zval =  5.0
     Generated using 'atomic' code by A. Dal Corso  v.7.1
     Shape of augmentation charge: PSQ
     Using radial grid of 1085 points,  4 beta functions with:
                l(1) =   0
                l(2) =   0
                l(3) =   1
                l(4) =   1
     Q(r) pseudized with 0 coefficients

     atomic species   valence    mass     pseudopotential
        Ga            13.00    69.72300     Ga( 1.00)
        N              5.00    14.00700     N ( 1.00)

      6 Sym. Ops. (no inversion) found ( 4 have fractional translation)

                                    s                        frac. trans.

      isym =  1     identity

 cryst.   s( 1) = (     1          0          0      )
                  (     0          1          0      )
                  (     0          0          1      )

 cart.    s( 1) = (  1.0000000  0.0000000  0.0000000 )
                  (  0.0000000  1.0000000  0.0000000 )
                  (  0.0000000  0.0000000  1.0000000 )

      isym =  2     120 deg rotation - cryst. axis [0,0,1]

 cryst.   s( 2) = (     0          1          0      )    f =( -0.3333334 )
                  (    -1         -1          0      )       (  0.0000003 )
                  (     0          0          1      )       (  0.0000000 )

 cart.    s( 2) = ( -0.5000000 -0.8660254  0.0000000 )    f =( -0.3333335 )
                  (  0.8660254 -0.5000000  0.0000000 )       (  0.0000002 )
                  (  0.0000000  0.0000000  1.0000000 )       (  0.0000000 )

      isym =  3     120 deg rotation - cryst. axis [0,0,-1]

[...]

      isym =  4     inv. 180 deg rotation - cart. axis [1,0,0]

[...]

      isym =  5     inv. 180 deg rotation - cryst. axis [0,1,0]

 cryst.   s( 5) = (     1          1          0      )
                  (     0         -1          0      )
                  (     0          0          1      )

 cart.    s( 5) = (  0.5000000  0.8660254  0.0000000 )
                  (  0.8660254 -0.5000000  0.0000000 )
                  (  0.0000000  0.0000000  1.0000000 )

      isym =  6     inv. 180 deg rotation - cryst. axis [1,1,0]

 cryst.   s( 6) = (     0         -1          0      )    f =( -0.3333334 )
                  (    -1          0          0      )       ( -0.3333334 )
                  (     0          0          1      )       (  0.0000000 )

 cart.    s( 6) = (  0.5000000 -0.8660254  0.0000000 )    f =( -0.1666667 )
                  ( -0.8660254 -0.5000000  0.0000000 )       ( -0.2886752 )
                  (  0.0000000  0.0000000  1.0000000 )       (  0.0000000 )

     point group C_3v (3m)
     there are  3 classes
     the character table:

       E     2C3   3s_v
A_1    1.00  1.00  1.00
A_2    1.00  1.00 -1.00
E      2.00 -1.00  0.00

     the symmetry operations in each class and the name of the first element:

     E        1
          identity
     2C3      2    3
          120 deg rotation - cryst. axis [0,0,1]
     3s_v     4    5    6
          inv. 180 deg rotation - cart. axis [1,0,0]

   Cartesian axes

     site n.     atom                  positions (alat units)
         1           Ga  tau(   1) = (   0.1666668   0.0962250   0.8144844  )
         2           Ga  tau(   2) = (   0.0000001   0.3849001   0.2711914  )
         3           Ga  tau(   3) = (   0.0000001   0.3849001   0.8144844  )
         4           Ga  tau(   4) = (  -0.1666665   0.6735752   0.2711914  )
         5           Ga  tau(   5) = (  -0.1666665   0.6735752   0.8144844  )
         6           Ga  tau(   6) = (   0.5000001   0.0962250   0.2711914  )
         7           Ga  tau(   7) = (   0.5000001   0.0962250   0.8144844  )
         8           Ga  tau(   8) = (   0.3333335   0.3849001   0.2711914  )
         9           Ga  tau(   9) = (   0.3333335   0.3849001   0.8144844  )
        10           Ga  tau(  10) = (   0.1666668   0.6735752   0.2711914  )
        11           Ga  tau(  11) = (   0.1666668   0.6735752   0.8144844  )
        12           Ga  tau(  12) = (   0.8333335   0.0962250   0.2711914  )
        13           Ga  tau(  13) = (   0.8333335   0.0962250   0.8144844  )
        14           Ga  tau(  14) = (   0.6666668   0.3849001   0.2711914  )
        15           Ga  tau(  15) = (   0.6666668   0.3849001   0.8144844  )
        16           Ga  tau(  16) = (   0.5000001   0.6735752   0.2711914  )
        17           Ga  tau(  17) = (   0.5000001   0.6735752   0.8144844  )
        18           Ga  tau(  18) = (  -0.0000002   0.1924502   0.5428379  )
        19           Ga  tau(  19) = (  -0.0000002   0.1924502   1.0861309  )
        20           Ga  tau(  20) = (  -0.1666669   0.4811254   0.5428379  )
        21           Ga  tau(  21) = (  -0.1666669   0.4811254   1.0861309  )
        22           Ga  tau(  22) = (  -0.3333335   0.7698005   0.5428379  )
        23           Ga  tau(  23) = (  -0.3333335   0.7698005   1.0861309  )
        24           Ga  tau(  24) = (   0.3333331   0.1924502   0.5428379  )
        25           Ga  tau(  25) = (   0.3333331   0.1924502   1.0861309  )
        26           Ga  tau(  26) = (   0.1666665   0.4811254   0.5428379  )
        27           Ga  tau(  27) = (   0.1666665   0.4811254   1.0861309  )
        28           Ga  tau(  28) = (  -0.0000002   0.7698005   0.5428379  )
        29           Ga  tau(  29) = (  -0.0000002   0.7698005   1.0861309  )
        30           Ga  tau(  30) = (   0.6666665   0.1924502   0.5428379  )
        31           Ga  tau(  31) = (   0.6666665   0.1924502   1.0861309  )
        32           Ga  tau(  32) = (   0.4999998   0.4811254   0.5428379  )
        33           Ga  tau(  33) = (   0.4999998   0.4811254   1.0861309  )
        34           Ga  tau(  34) = (   0.3333331   0.7698005   0.5428379  )
        35           Ga  tau(  35) = (   0.3333331   0.7698005   1.0861309  )
        36           N   tau(  36) = (   0.1666668   0.0962250   0.4758365  )
        37           N   tau(  37) = (   0.1666668   0.0962250   1.0191295  )
        38           N   tau(  38) = (   0.0000001   0.3849001   0.4758365  )
        39           N   tau(  39) = (   0.0000001   0.3849001   1.0191295  )
        40           N   tau(  40) = (  -0.1666665   0.6735752   0.4758365  )
        41           N   tau(  41) = (  -0.1666665   0.6735752   1.0191295  )
        42           N   tau(  42) = (   0.5000001   0.0962250   0.4758365  )
        43           N   tau(  43) = (   0.5000001   0.0962250   1.0191295  )
        44           N   tau(  44) = (   0.3333335   0.3849001   0.4758365  )
        45           N   tau(  45) = (   0.3333335   0.3849001   1.0191295  )
        46           N   tau(  46) = (   0.1666668   0.6735752   0.4758365  )
        47           N   tau(  47) = (   0.1666668   0.6735752   1.0191295  )
        48           N   tau(  48) = (   0.8333335   0.0962250   0.4758365  )
        49           N   tau(  49) = (   0.8333335   0.0962250   1.0191295  )
        50           N   tau(  50) = (   0.6666668   0.3849001   0.4758365  )
        51           N   tau(  51) = (   0.6666668   0.3849001   1.0191295  )
        52           N   tau(  52) = (   0.5000001   0.6735752   0.4758365  )
        53           N   tau(  53) = (   0.5000001   0.6735752   1.0191295  )
        54           N   tau(  54) = (  -0.0000002   0.1924502   0.2041900  )
        55           N   tau(  55) = (  -0.0000002   0.1924502   0.7474830  )
        56           N   tau(  56) = (  -0.1666669   0.4811254   0.2041900  )
        57           N   tau(  57) = (  -0.1666669   0.4811254   0.7474830  )
        58           N   tau(  58) = (  -0.3333335   0.7698005   0.2041900  )
[...]
     atom   35 type  1   force =     0.00000000    0.00000000    0.00000000
     atom   36 type  2   force =     0.00000000    0.00000000    0.00000000
     atom   37 type  2   force =     0.00000000    0.00000000    0.00000000
     atom   38 type  2   force =     0.00000000    0.00000000    0.00000000
     atom   39 type  2   force =     0.00000000    0.00000000    0.00000000
     atom   40 type  2   force =     0.00000000    0.00000000    0.00000000
     atom   41 type  2   force =     0.00000000    0.00000000    0.00000000
     atom   42 type  2   force =     0.00000000    0.00000000    0.00000000
     atom   43 type  2   force =     0.00000000    0.00000000    0.00000000
     atom   44 type  2   force =     0.00000000    0.00000000    0.00000000
     atom   45 type  2   force =     0.00000000    0.00000000    0.00000000
     atom   46 type  2   force =     0.00000000    0.00000000    0.00000000
     atom   47 type  2   force =     0.00000000    0.00000000    0.00000000
     atom   48 type  2   force =     0.00000000    0.00000000    0.00000000
     atom   49 type  2   force =     0.00000000    0.00000000    0.00000000
     atom   50 type  2   force =     0.00000000    0.00000000    0.00000000
     atom   51 type  2   force =     0.00000000    0.00000000    0.00000000
     atom   52 type  2   force =     0.00000000    0.00000000    0.00000000
     atom   53 type  2   force =     0.00000000    0.00000000    0.00000000
     atom   54 type  2   force =     0.00000000    0.00000000    0.00000000
     atom   55 type  2   force =     0.00000000    0.00000000    0.00000000
     atom   56 type  2   force =     0.00000000    0.00000000    0.00000000
     atom   57 type  2   force =     0.00000000    0.00000000    0.00000000
     atom   58 type  2   force =     0.00000000    0.00000000    0.00000000
     atom   59 type  2   force =     0.00000000    0.00000000    0.00000000
     atom   60 type  2   force =     0.00000000    0.00000000    0.00000000
     atom   61 type  2   force =     0.00000000    0.00000000    0.00000000
     atom   62 type  2   force =     0.00000000    0.00000000    0.00000000
     atom   63 type  2   force =     0.00000000    0.00000000    0.00000000
     atom   64 type  2   force =     0.00000000    0.00000000    0.00000000
     atom   65 type  2   force =     0.00000000    0.00000000    0.00000000
     atom   66 type  2   force =     0.00000000    0.00000000    0.00000000
     atom   67 type  2   force =     0.00000000    0.00000000    0.00000000
     atom   68 type  2   force =     0.00000000    0.00000000    0.00000000
     atom   69 type  2   force =     0.00000000    0.00000000    0.00000000
     atom   70 type  2   force =     0.00000000    0.00000000    0.00000000
     atom   71 type  2   force =     0.00000000    0.00000000    0.00000000
     atom   72 type  2   force =     0.00000000    0.00000000    0.00000000
     The SCF correction term to forces
     atom    1 type  1   force =     0.00000000   -0.00000000   -0.00001211
     atom    2 type  1   force =     0.00000403   -0.00000266    0.00000382
     atom    3 type  1   force =     0.00000065   -0.00000712    0.00000049
     atom    4 type  1   force =    -0.00000029    0.00000482    0.00000382
     atom    5 type  1   force =    -0.00000584    0.00000412    0.00000049
     atom    6 type  1   force =    -0.00000432   -0.00000216    0.00000382
     atom    7 type  1   force =    -0.00000649    0.00000299    0.00000049
     atom    8 type  1   force =    -0.00000403   -0.00000266    0.00000382
     atom    9 type  1   force =    -0.00000065   -0.00000712    0.00000049
     atom   10 type  1   force =    -0.00000000    0.00000000    0.00000646
     atom   11 type  1   force =    -0.00000000    0.00000000    0.00000415
     atom   12 type  1   force =     0.00000432   -0.00000216    0.00000382
     atom   13 type  1   force =     0.00000649    0.00000299    0.00000049
     atom   14 type  1   force =     0.00000000   -0.00000000    0.00000742
     atom   15 type  1   force =    -0.00000000    0.00000000    0.00000156
     atom   16 type  1   force =     0.00000029    0.00000482    0.00000382
     atom   17 type  1   force =     0.00000584    0.00000412    0.00000049
     atom   18 type  1   force =    -0.00000310    0.00000179   -0.00001542
     atom   19 type  1   force =     0.00001051   -0.00000607    0.00000719
     atom   20 type  1   force =     0.00000271    0.00000156   -0.00000601
     atom   21 type  1   force =     0.00000347    0.00000200    0.00000354
     atom   22 type  1   force =    -0.00000000   -0.00000359   -0.00001542
     atom   23 type  1   force =     0.00000000    0.00001213    0.00000719
     atom   24 type  1   force =     0.00000310    0.00000179   -0.00001542
     atom   25 type  1   force =    -0.00001051   -0.00000607    0.00000719
     atom   26 type  1   force =     0.00000000   -0.00000173   -0.00000165
     atom   27 type  1   force =     0.00000000   -0.00000669    0.00000124
     atom   28 type  1   force =    -0.00000150    0.00000087   -0.00000165
     atom   29 type  1   force =    -0.00000579    0.00000334    0.00000124
     atom   30 type  1   force =     0.00000000   -0.00000313   -0.00000601
     atom   31 type  1   force =    -0.00000000   -0.00000400    0.00000354
     atom   32 type  1   force =    -0.00000271    0.00000156   -0.00000601
     atom   33 type  1   force =    -0.00000347    0.00000200    0.00000354
     atom   34 type  1   force =     0.00000150    0.00000087   -0.00000165
     atom   35 type  1   force =     0.00000579    0.00000334    0.00000124
     atom   36 type  2   force =     0.00000000   -0.00000000   -0.00001742
     atom   37 type  2   force =     0.00000000   -0.00000000    0.00000524
     atom   38 type  2   force =     0.00000145   -0.00000176   -0.00000236
     atom   39 type  2   force =     0.00000231   -0.00000218    0.00000097
     atom   40 type  2   force =    -0.00000080    0.00000213   -0.00000236
     atom   41 type  2   force =    -0.00000073    0.00000309    0.00000097
     atom   42 type  2   force =    -0.00000225   -0.00000038   -0.00000236
     atom   43 type  2   force =    -0.00000304   -0.00000091    0.00000097
     atom   44 type  2   force =    -0.00000145   -0.00000176   -0.00000236
     atom   45 type  2   force =    -0.00000231   -0.00000218    0.00000097
     atom   46 type  2   force =     0.00000000   -0.00000000   -0.00000376
     atom   47 type  2   force =    -0.00000000   -0.00000000    0.00000464
     atom   48 type  2   force =     0.00000225   -0.00000038   -0.00000236
     atom   49 type  2   force =     0.00000304   -0.00000091    0.00000097
     atom   50 type  2   force =     0.00000000   -0.00000000    0.00000161
     atom   51 type  2   force =    -0.00000000    0.00000000   -0.00000213
     atom   52 type  2   force =     0.00000080    0.00000213   -0.00000236
     atom   53 type  2   force =     0.00000073    0.00000309    0.00000097
     atom   54 type  2   force =     0.00001593   -0.00000920    0.00000495
     atom   55 type  2   force =    -0.00000006    0.00000004    0.00000212
     atom   56 type  2   force =     0.00000023    0.00000013    0.00000155
     atom   57 type  2   force =    -0.00000077   -0.00000045   -0.00000243
     atom   58 type  2   force =    -0.00000000    0.00001839    0.00000495
     atom   59 type  2   force =    -0.00000000   -0.00000007    0.00000212
     atom   60 type  2   force =    -0.00001593   -0.00000920    0.00000495
     atom   61 type  2   force =     0.00000006    0.00000004    0.00000212
     atom   62 type  2   force =    -0.00000000   -0.00000194    0.00000267
     atom   63 type  2   force =    -0.00000000    0.00000022   -0.00000252
     atom   64 type  2   force =    -0.00000168    0.00000097    0.00000267
     atom   65 type  2   force =     0.00000019   -0.00000011   -0.00000252
     atom   66 type  2   force =    -0.00000000   -0.00000026    0.00000155
     atom   67 type  2   force =    -0.00000000    0.00000089   -0.00000243
     atom   68 type  2   force =    -0.00000023    0.00000013    0.00000155
     atom   69 type  2   force =     0.00000077   -0.00000045   -0.00000243
     atom   70 type  2   force =     0.00000168    0.00000097    0.00000267
     atom   71 type  2   force =    -0.00000019   -0.00000011   -0.00000252
     atom   72 type  2   force =    -0.00000000    0.00000000   -0.00000359

     Total force =     0.003893     Total SCF correction =     0.000065

     Computing stress (Cartesian axis) and pressure

     Non-local corr. energy    =      19.20826567 Ry

          total   stress  (Ry/bohr**3)                   (kbar)     P=       -6.56
  -0.00004816   0.00000000   0.00000000           -7.09        0.00        0.00
   0.00000000  -0.00004816   0.00000000            0.00       -7.09        0.00
   0.00000000   0.00000000  -0.00003753            0.00        0.00       -5.52

     kinetic stress (kbar)  18283.04      0.00      0.00
                                0.00  18283.04      0.00
                                0.00      0.00  18275.39

     local   stress (kbar)   4851.24     -0.07      0.00
                               -0.07   4851.15      0.01
                                0.00      0.01   3282.03

     nonloc. stress (kbar)    112.36      0.00      0.00
                                0.00    112.36     -0.00
                                0.00     -0.00    123.86

     hartree stress (kbar)  19262.26     -0.00     -0.00
                               -0.00  19262.26      0.00
                               -0.00      0.00  19974.48

     exc-cor stress (kbar)   5024.34      0.00     -0.00
                                0.00   5024.34      0.00
                               -0.00      0.00   5024.67

     corecor stress (kbar) -13753.26     -0.00     -0.00
                               -0.00 -13753.26     -0.00
                               -0.00     -0.00 -13752.72

     ewald   stress (kbar) -33945.45      0.09      0.00
                                0.09 -33945.33     -0.00
                                0.00     -0.00 -33090.72

     hubbard stress (kbar)      0.00      0.00      0.00
                                0.00      0.00      0.00
                                0.00      0.00      0.00

     DFT-D   stress (kbar)      0.00      0.00      0.00
                                0.00      0.00      0.00
                                0.00      0.00      0.00

     XDM     stress (kbar)      0.00      0.00      0.00
                                0.00      0.00      0.00
                                0.00      0.00      0.00

     dft-nl  stress (kbar)    158.37     -0.00     -0.00
                               -0.00    158.37     -0.00
                               -0.00     -0.00    157.48

     TS-vdW  stress (kbar)      0.00      0.00      0.00
                                0.00      0.00      0.00
                                0.00      0.00      0.00

     MDB     stress (kbar)      0.00      0.00      0.00
                                0.00      0.00      0.00
                                0.00      0.00      0.00

     3D-RISM stress (kbar)      0.00      0.00      0.00
                                0.00      0.00      0.00
                                0.00      0.00      0.00

     Energy error            =      2.9E-05 Ry
     Gradient error          =      9.5E-04 Ry/Bohr

     bfgs converged in   8 scf cycles and   7 bfgs steps
     (criteria: energy <  1.0E-04 Ry, force <  1.0E-03 Ry/Bohr)

     End of BFGS Geometry Optimization

     Final energy             =  -10987.4409356307 Ry

     File ./GaN.bfgs deleted, as requested
Begin final coordinates

ATOMIC_POSITIONS (angstrom)
Ga            1.6222756606        0.9366198184        7.9094508403
Ga            0.0221824582        3.7381899300        2.6492122097
Ga            0.0003970044        3.7413854713        7.9270621385
Ga           -1.6183626792        6.5796974601        2.6492122097
Ga           -1.6264879862        6.5592329330        7.9270621385
Ga            4.8485531489        0.9215561244        2.6492122097
Ga            4.8622132957        0.9388251102        7.9270621385
Ga            3.2223688630        3.7381899300        2.6492122097
Ga            3.2441543168        3.7413854713        7.9270621385
Ga            1.6222756606        6.5563425246        2.6413533215
Ga            1.6222756606        6.5563425246        7.9300793902
Ga            8.1296434235        0.9215561244        2.6492122097
Ga            8.1159832767        0.9388251102        7.9270621385
Ga            6.4890982862        3.7464811715        2.6372257626
Ga            6.4890982862        3.7464811715        7.9285634191
Ga            4.8629140004        6.5796974601        2.6492122097
Ga            4.8710393074        6.5592329330        7.9270621385
Ga           -0.0003855113        1.8734638872        5.2523460101
Ga            0.0218615393        1.8606195466       10.5841731639
Ga           -1.6235525062        4.6823669084        5.2841599479
Ga           -1.6217601070        4.6834017506       10.5770696140
Ga           -3.2445503819        7.4925222714        5.2523460101
Ga           -3.2445503819        7.5182109526       10.5841731639
Ga            3.2449299988        1.8734638872        5.2523460101
Ga            3.2226829482        1.8606195466       10.5841731639
Ga            1.6222722437        4.6844682598        5.2894148956
Ga            1.6222722437        4.6819339426       10.5704541824
Ga            0.0011796924        7.4922829226        5.2894148956
Ga           -0.0010150907        7.4935500812       10.5704541824
Ga            6.4890948693        1.8747162288        5.2841599479
Ga            6.4890948693        1.8726465445       10.5770696140
Ga            4.8680969937        4.6823669084        5.2841599479
Ga            4.8663045945        4.6834017506       10.5770696140
Ga            3.2433647951        7.4922829226        5.2894148956
Ga            3.2455595782        7.4935500812       10.5704541824
N             1.6222756606        0.9366198184        4.5984980536
N             1.6222756606        0.9366198184        9.8981982241
N             0.0010573833        3.7503059365        4.6327563416
N             0.0013601274        3.7389423454        9.9244649113
N            -1.6184324472        6.5553446053        4.6327563416
N            -1.6281222337        6.5612885850        9.9244649113
N             4.8696084558        0.9337929727        4.6327563416
N             4.8596159252        0.9392125841        9.9244649113
N             3.2434939379        3.7503059365        4.6327563416
N             3.2431911938        3.7389423454        9.9244649113
N             1.6222756606        6.5563425246        4.6326022665
N             1.6222756606        6.5563425246        9.9202195328
N             8.1085881166        0.9337929727        4.6327563416
N             8.1185806472        0.9392125841        9.9244649113
N             6.4890982862        3.7464811715        4.6318552061
N             6.4890982862        3.7464811715        9.9202490217
N             4.8629837684        6.5553446053        4.6327563416
N             4.8726735549        6.5612885850        9.9244649113
N             0.0345448032        1.8532968607        2.0026668031
N             0.0019911367        1.8720917288        7.2556604711
N            -1.6161985309        4.6866127281        1.9937312107
N            -1.6212686934        4.6836854684        7.2765956440
N            -3.2445503819        7.5328563243        2.0026668031
N            -3.2445503819        7.4952665880        7.2556604711
N             3.2099996843        1.8532968607        2.0026668031
N             3.2425533508        1.8720917288        7.2556604711
N             1.6222722437        4.6875838077        1.9854499033
N             1.6222722437        4.6833270368        7.2779597141
N             0.0038778360        7.4907251487        1.9854499033
N             0.0001913643        7.4928535341        7.2779597141
N             6.4890948693        1.8662245896        1.9937312107
N             6.4890948693        1.8720791089        7.2765956440
N             4.8607430184        4.6866127281        1.9937312107
N             4.8658131809        4.6836854684        7.2765956440
N             3.2406666515        7.4907251487        1.9854499033
N             3.2443531232        7.4928535341        7.2779597141
N             1.6222756606        0.9366198184        2.6446325465
End final coordinates

     Writing all to output data dir ./GaN.save/

     General routines

     Parallel routines

     PAW routines

   This run was terminated on:  12:35:17  21Mar2024

   JOB DONE.