     Program PWSCF v.7.1 starts on 26Mar2024 at  7:14:22

     Reading input from espresso.pwi
Warning: card &CELL ignored
Warning: card    CELL_DYNAMICS    = 'BFGS' ignored
Warning: card / ignored

     Current dimensions of program PWSCF are:
     Max number of different atomic species (ntypx) = 10
     Max number of k-points (npk) =  40000
     Max angular momentum in pseudopotentials (lmaxx) =  4
     file Ga.pbe-dn-kjpaw_psl.1.0.0.UPF: wavefunction(s)  4S renormalized
     file N.pbe-n-kjpaw_psl.1.0.0.UPF: wavefunction(s)  2S renormalized

     IMPORTANT: XC functional enforced from input :
     Exchange-correlation= BEEF-VDW
                           (   1   4  43  14   2   0   0)
     Any further DFT definition will be discarded
     Please, verify this is what you really want

     K-points division:     npool     =       2
     R & G space division:  proc/nbgrp/npool/nimage =      30
     Subspace diagonalization in iterative solution of the eigenvalue problem:
     a serial algorithm will be used

     Using Slab Decomposition

     bravais-lattice index     =            4
     lattice parameter (alat)  =      18.3939  a.u.
     unit-cell volume          =    5856.2271 (a.u.)^3
     number of atoms/cell      =           72
     number of atomic types    =            2
     number of electrons       =       641.00
     number of Kohn-Sham states=          385
     kinetic-energy cutoff     =      70.0000  Ry
     charge density cutoff     =     350.0000  Ry
     scf convergence threshold =      1.0E-07
     mixing beta               =       0.7000
     number of iterations used =            8  plain     mixing
     Exchange-correlation= BEEF-VDW
                           (   1   4  43  14   2   0   0)

     celldm(1)=  18.393924  celldm(2)=   0.000000  celldm(3)=   1.086586
     celldm(4)=   0.000000  celldm(5)=   0.000000  celldm(6)=   0.000000

     crystal axes: (cart. coord. in units of alat)
               a(1) = (   1.000000   0.000000   0.000000 )
               a(2) = (  -0.500000   0.866025   0.000000 )
               a(3) = (   0.000000   0.000000   1.086586 )

     reciprocal axes: (cart. coord. in units 2 pi/alat)
               b(1) = (  1.000000  0.577350 -0.000000 )
               b(2) = (  0.000000  1.154701  0.000000 )
               b(3) = (  0.000000 -0.000000  0.920314 )

     PseudoPot. # 1 for Ga read from file:
     /trace/group/acmegroup/atimmins/packages/espresso/pseudo/psl_1.0.0/pslibrary.1.0.0/pbe/PSEUDOPOTENTIALS/Ga.pbe-dn-kjpaw_psl.1.0.0.UPF
     MD5 check sum: cd2a01e492f15b435d17032472d8505c
     Pseudo is Projector augmented-wave + core cor, Zval = 13.0
     Generated using 'atomic' code by A. Dal Corso  v.7.1
     Shape of augmentation charge: PSQ
     Using radial grid of 1205 points,  6 beta functions with:
                l(1) =   0
                l(2) =   0
                l(3) =   1
                l(4) =   1
                l(5) =   2
                l(6) =   2
     Q(r) pseudized with 0 coefficients

     PseudoPot. # 2 for N  read from file:
     /trace/group/acmegroup/atimmins/packages/espresso/pseudo/psl_1.0.0/pslibrary.1.0.0/pbe/PSEUDOPOTENTIALS/N.pbe-n-kjpaw_psl.1.0.0.UPF
     MD5 check sum: f77f775694dac7e2c3fe1c82443d1a16
     Pseudo is Projector augmented-wave + core cor, Zval =  5.0
     Generated using 'atomic' code by A. Dal Corso  v.7.1
     Shape of augmentation charge: PSQ
     Using radial grid of 1085 points,  4 beta functions with:
                l(1) =   0
                l(2) =   0
                l(3) =   1
                l(4) =   1
     Q(r) pseudized with 0 coefficients

     atomic species   valence    mass     pseudopotential
        Ga            13.00    69.72300     Ga( 1.00)
        N              5.00    14.00700     N ( 1.00)

      6 Sym. Ops. (no inversion) found ( 4 have fractional translation)

                                    s                        frac. trans.

      isym =  1     identity

 cryst.   s( 1) = (     1          0          0      )
                  (     0          1          0      )
                  (     0          0          1      )

 cart.    s( 1) = (  1.0000000  0.0000000  0.0000000 )
                  (  0.0000000  1.0000000  0.0000000 )
                  (  0.0000000  0.0000000  1.0000000 )

      isym =  2     120 deg rotation - cryst. axis [0,0,1]

 cryst.   s( 2) = (     0          1          0      )    f =( -0.3333334 )
                  (    -1         -1          0      )       (  0.0000003 )
                  (     0          0          1      )       (  0.0000000 )

 cart.    s( 2) = ( -0.5000000 -0.8660254  0.0000000 )    f =( -0.3333335 )
                  (  0.8660254 -0.5000000  0.0000000 )       (  0.0000002 )
                  (  0.0000000  0.0000000  1.0000000 )       (  0.0000000 )

      isym =  3     120 deg rotation - cryst. axis [0,0,-1]

[...]

      isym =  4     inv. 180 deg rotation - cart. axis [1,0,0]

[...]

      isym =  5     inv. 180 deg rotation - cryst. axis [0,1,0]

 cryst.   s( 5) = (     1          1          0      )
                  (     0         -1          0      )
                  (     0          0          1      )

 cart.    s( 5) = (  0.5000000  0.8660254  0.0000000 )
                  (  0.8660254 -0.5000000  0.0000000 )
                  (  0.0000000  0.0000000  1.0000000 )

      isym =  6     inv. 180 deg rotation - cryst. axis [1,1,0]

 cryst.   s( 6) = (     0         -1          0      )    f =( -0.3333334 )
                  (    -1          0          0      )       ( -0.3333334 )
                  (     0          0          1      )       (  0.0000000 )

 cart.    s( 6) = (  0.5000000 -0.8660254  0.0000000 )    f =( -0.1666667 )
                  ( -0.8660254 -0.5000000  0.0000000 )       ( -0.2886752 )
                  (  0.0000000  0.0000000  1.0000000 )       (  0.0000000 )

     point group C_3v (3m)
     there are  3 classes
     the character table:

       E     2C3   3s_v
A_1    1.00  1.00  1.00
A_2    1.00  1.00 -1.00
E      2.00 -1.00  0.00

     the symmetry operations in each class and the name of the first element:

     E        1
          identity
     2C3      2    3
          120 deg rotation - cryst. axis [0,0,1]
     3s_v     4    5    6
          inv. 180 deg rotation - cart. axis [1,0,0]

   Cartesian axes

     site n.     atom                  positions (alat units)
         1           Ga  tau(   1) = (   0.1666668   0.0962250   0.8144844  )
         2           Ga  tau(   2) = (   0.0000001   0.3849001   0.2711914  )
         3           Ga  tau(   3) = (   0.0000001   0.3849001   0.8144844  )
         4           Ga  tau(   4) = (  -0.1666665   0.6735752   0.2711914  )
         5           Ga  tau(   5) = (  -0.1666665   0.6735752   0.8144844  )
         6           Ga  tau(   6) = (   0.5000001   0.0962250   0.2711914  )
         7           Ga  tau(   7) = (   0.5000001   0.0962250   0.8144844  )
         8           Ga  tau(   8) = (   0.3333335   0.3849001   0.2711914  )
         9           Ga  tau(   9) = (   0.3333335   0.3849001   0.8144844  )
        10           Ga  tau(  10) = (   0.1666668   0.6735752   0.2711914  )
        11           Ga  tau(  11) = (   0.1666668   0.6735752   0.8144844  )
        12           Ga  tau(  12) = (   0.8333335   0.0962250   0.2711914  )
        13           Ga  tau(  13) = (   0.8333335   0.0962250   0.8144844  )
        14           Ga  tau(  14) = (   0.6666668   0.3849001   0.2711914  )
        15           Ga  tau(  15) = (   0.6666668   0.3849001   0.8144844  )
        16           Ga  tau(  16) = (   0.5000001   0.6735752   0.2711914  )
        17           Ga  tau(  17) = (   0.5000001   0.6735752   0.8144844  )
        18           Ga  tau(  18) = (  -0.0000002   0.1924502   0.5428379  )
        19           Ga  tau(  19) = (  -0.0000002   0.1924502   1.0861309  )
        20           Ga  tau(  20) = (  -0.1666669   0.4811254   0.5428379  )
        21           Ga  tau(  21) = (  -0.1666669   0.4811254   1.0861309  )
        22           Ga  tau(  22) = (  -0.3333335   0.7698005   0.5428379  )
        23           Ga  tau(  23) = (  -0.3333335   0.7698005   1.0861309  )
        24           Ga  tau(  24) = (   0.3333331   0.1924502   0.5428379  )
        25           Ga  tau(  25) = (   0.3333331   0.1924502   1.0861309  )
        26           Ga  tau(  26) = (   0.1666665   0.4811254   0.5428379  )
        27           Ga  tau(  27) = (   0.1666665   0.4811254   1.0861309  )
        28           Ga  tau(  28) = (  -0.0000002   0.7698005   0.5428379  )
        29           Ga  tau(  29) = (  -0.0000002   0.7698005   1.0861309  )
        30           Ga  tau(  30) = (   0.6666665   0.1924502   0.5428379  )
        31           Ga  tau(  31) = (   0.6666665   0.1924502   1.0861309  )
        32           Ga  tau(  32) = (   0.4999998   0.4811254   0.5428379  )
        33           Ga  tau(  33) = (   0.4999998   0.4811254   1.0861309  )
        34           Ga  tau(  34) = (   0.3333331   0.7698005   0.5428379  )
        35           Ga  tau(  35) = (   0.3333331   0.7698005   1.0861309  )
        36           N   tau(  36) = (   0.1666668   0.0962250   0.4758365  )
        37           N   tau(  37) = (   0.1666668   0.0962250   1.0191295  )
        38           N   tau(  38) = (   0.0000001   0.3849001   0.4758365  )
        39           N   tau(  39) = (   0.0000001   0.3849001   1.0191295  )
        40           N   tau(  40) = (  -0.1666665   0.6735752   0.4758365  )
        41           N   tau(  41) = (  -0.1666665   0.6735752   1.0191295  )
        42           N   tau(  42) = (   0.5000001   0.0962250   0.4758365  )
        43           N   tau(  43) = (   0.5000001   0.0962250   1.0191295  )
        44           N   tau(  44) = (   0.3333335   0.3849001   0.4758365  )
        45           N   tau(  45) = (   0.3333335   0.3849001   1.0191295  )
        46           N   tau(  46) = (   0.1666668   0.6735752   0.4758365  )
        47           N   tau(  47) = (   0.1666668   0.6735752   1.0191295  )
        48           N   tau(  48) = (   0.8333335   0.0962250   0.4758365  )
        49           N   tau(  49) = (   0.8333335   0.0962250   1.0191295  )
        50           N   tau(  50) = (   0.6666668   0.3849001   0.4758365  )
        51           N   tau(  51) = (   0.6666668   0.3849001   1.0191295  )
        52           N   tau(  52) = (   0.5000001   0.6735752   0.4758365  )
        53           N   tau(  53) = (   0.5000001   0.6735752   1.0191295  )
        54           N   tau(  54) = (  -0.0000002   0.1924502   0.2041900  )
        55           N   tau(  55) = (  -0.0000002   0.1924502   0.7474830  )
        56           N   tau(  56) = (  -0.1666669   0.4811254   0.2041900  )
        57           N   tau(  57) = (  -0.1666669   0.4811254   0.7474830  )
        58           N   tau(  58) = (  -0.3333335   0.7698005   0.2041900  )
        59           N   tau(  59) = (  -0.3333335   0.7698005   0.7474830  )
        60           N   tau(  60) = (   0.3333331   0.1924502   0.2041900  )
        61           N   tau(  61) = (   0.3333331   0.1924502   0.7474830  )
[...]
     atom   19 type  1   force =     0.00000000    0.00000000    0.00000000
     atom   20 type  1   force =     0.00000000    0.00000000    0.00000000
     atom   21 type  1   force =     0.00000000    0.00000000    0.00000000
     atom   22 type  1   force =     0.00000000    0.00000000    0.00000000
     atom   23 type  1   force =     0.00000000    0.00000000    0.00000000
     atom   24 type  1   force =     0.00000000    0.00000000    0.00000000
     atom   25 type  1   force =     0.00000000    0.00000000    0.00000000
     atom   26 type  1   force =     0.00000000    0.00000000    0.00000000
     atom   27 type  1   force =     0.00000000    0.00000000    0.00000000
     atom   28 type  1   force =     0.00000000    0.00000000    0.00000000
     atom   29 type  1   force =     0.00000000    0.00000000    0.00000000
     atom   30 type  1   force =     0.00000000    0.00000000    0.00000000
     atom   31 type  1   force =     0.00000000    0.00000000    0.00000000
     atom   32 type  1   force =     0.00000000    0.00000000    0.00000000
     atom   33 type  1   force =     0.00000000    0.00000000    0.00000000
     atom   34 type  1   force =     0.00000000    0.00000000    0.00000000
     atom   35 type  1   force =     0.00000000    0.00000000    0.00000000
     atom   36 type  2   force =     0.00000000    0.00000000    0.00000000
     atom   37 type  2   force =     0.00000000    0.00000000    0.00000000
     atom   38 type  2   force =     0.00000000    0.00000000    0.00000000
     atom   39 type  2   force =     0.00000000    0.00000000    0.00000000
     atom   40 type  2   force =     0.00000000    0.00000000    0.00000000
     atom   41 type  2   force =     0.00000000    0.00000000    0.00000000
     atom   42 type  2   force =     0.00000000    0.00000000    0.00000000
     atom   43 type  2   force =     0.00000000    0.00000000    0.00000000
     atom   44 type  2   force =     0.00000000    0.00000000    0.00000000
     atom   45 type  2   force =     0.00000000    0.00000000    0.00000000
     atom   46 type  2   force =     0.00000000    0.00000000    0.00000000
     atom   47 type  2   force =     0.00000000    0.00000000    0.00000000
     atom   48 type  2   force =     0.00000000    0.00000000    0.00000000
     atom   49 type  2   force =     0.00000000    0.00000000    0.00000000
     atom   50 type  2   force =     0.00000000    0.00000000    0.00000000
     atom   51 type  2   force =     0.00000000    0.00000000    0.00000000
     atom   52 type  2   force =     0.00000000    0.00000000    0.00000000
     atom   53 type  2   force =     0.00000000    0.00000000    0.00000000
     atom   54 type  2   force =     0.00000000    0.00000000    0.00000000
     atom   55 type  2   force =     0.00000000    0.00000000    0.00000000
     atom   56 type  2   force =     0.00000000    0.00000000    0.00000000
     atom   57 type  2   force =     0.00000000    0.00000000    0.00000000
     atom   58 type  2   force =     0.00000000    0.00000000    0.00000000
     atom   59 type  2   force =     0.00000000    0.00000000    0.00000000
     atom   60 type  2   force =     0.00000000    0.00000000    0.00000000
     atom   61 type  2   force =     0.00000000    0.00000000    0.00000000
     atom   62 type  2   force =     0.00000000    0.00000000    0.00000000
     atom   63 type  2   force =     0.00000000    0.00000000    0.00000000
     atom   64 type  2   force =     0.00000000    0.00000000    0.00000000
     atom   65 type  2   force =     0.00000000    0.00000000    0.00000000
     atom   66 type  2   force =     0.00000000    0.00000000    0.00000000
     atom   67 type  2   force =     0.00000000    0.00000000    0.00000000
     atom   68 type  2   force =     0.00000000    0.00000000    0.00000000
     atom   69 type  2   force =     0.00000000    0.00000000    0.00000000
     atom   70 type  2   force =     0.00000000    0.00000000    0.00000000
     atom   71 type  2   force =     0.00000000    0.00000000    0.00000000
     atom   72 type  2   force =     0.00000000    0.00000000    0.00000000
     The SCF correction term to forces
     atom    1 type  1   force =    -0.00000000    0.00000000    0.00007136
     atom    2 type  1   force =    -0.00007640   -0.00002083    0.00009423
     atom    3 type  1   force =    -0.00007675    0.00006925   -0.00002934
     atom    4 type  1   force =    -0.00005624   -0.00005575    0.00009423
     atom    5 type  1   force =     0.00002160   -0.00010109   -0.00002934
     atom    6 type  1   force =     0.00002016    0.00007658    0.00009423
     atom    7 type  1   force =     0.00009835    0.00003184   -0.00002934
     atom    8 type  1   force =     0.00007640   -0.00002083    0.00009423
     atom    9 type  1   force =     0.00007675    0.00006925   -0.00002934
     atom   10 type  1   force =     0.00000000    0.00000000    0.00006398
     atom   11 type  1   force =    -0.00000000    0.00000000    0.00004732
     atom   12 type  1   force =    -0.00002016    0.00007658    0.00009423
     atom   13 type  1   force =    -0.00009835    0.00003184   -0.00002934
     atom   14 type  1   force =    -0.00000000    0.00000000    0.00000089
     atom   15 type  1   force =     0.00000000   -0.00000000   -0.00004484
     atom   16 type  1   force =     0.00005624   -0.00005575    0.00009423
     atom   17 type  1   force =    -0.00002160   -0.00010109   -0.00002934
     atom   18 type  1   force =    -0.00026345    0.00015211   -0.00006420
     atom   19 type  1   force =    -0.00003839    0.00002217    0.00002728
     atom   20 type  1   force =     0.00005390    0.00003112   -0.00001783
     atom   21 type  1   force =    -0.00002101   -0.00001213   -0.00001009
     atom   22 type  1   force =    -0.00000000   -0.00030421   -0.00006420
     atom   23 type  1   force =    -0.00000000   -0.00004433    0.00002728
     atom   24 type  1   force =     0.00026345    0.00015211   -0.00006420
     atom   25 type  1   force =     0.00003839    0.00002217    0.00002728
     atom   26 type  1   force =    -0.00000000   -0.00001566   -0.00003695
     atom   27 type  1   force =     0.00000000    0.00006698   -0.00006410
     atom   28 type  1   force =    -0.00001357    0.00000783   -0.00003695
     atom   29 type  1   force =     0.00005801   -0.00003349   -0.00006410
     atom   30 type  1   force =    -0.00000000   -0.00006224   -0.00001783
     atom   31 type  1   force =     0.00000000    0.00002426   -0.00001009
     atom   32 type  1   force =    -0.00005390    0.00003112   -0.00001783
     atom   33 type  1   force =     0.00002101   -0.00001213   -0.00001009
     atom   34 type  1   force =     0.00001357    0.00000783   -0.00003695
     atom   35 type  1   force =    -0.00005801   -0.00003349   -0.00006410
     atom   36 type  2   force =     0.00000000   -0.00000000   -0.00000742
     atom   37 type  2   force =     0.00000000   -0.00000000    0.00002043
     atom   38 type  2   force =    -0.00002811    0.00001258   -0.00000526
     atom   39 type  2   force =    -0.00001685    0.00001851    0.00000192
     atom   40 type  2   force =    -0.00000316   -0.00003064   -0.00000526
     atom   41 type  2   force =     0.00000761   -0.00002385    0.00000192
     atom   42 type  2   force =     0.00002495    0.00001806   -0.00000526
     atom   43 type  2   force =     0.00002446    0.00000533    0.00000192
     atom   44 type  2   force =     0.00002811    0.00001258   -0.00000526
     atom   45 type  2   force =     0.00001685    0.00001851    0.00000192
     atom   46 type  2   force =     0.00000000   -0.00000000    0.00001424
     atom   47 type  2   force =    -0.00000000    0.00000000   -0.00001953
     atom   48 type  2   force =    -0.00002495    0.00001806   -0.00000526
     atom   49 type  2   force =    -0.00002446    0.00000533    0.00000192
     atom   50 type  2   force =     0.00000000   -0.00000000   -0.00000591
     atom   51 type  2   force =    -0.00000000   -0.00000000    0.00000336
     atom   52 type  2   force =     0.00000316   -0.00003064   -0.00000526
     atom   53 type  2   force =    -0.00000761   -0.00002385    0.00000192
     atom   54 type  2   force =    -0.00004379    0.00002528    0.00001435
     atom   55 type  2   force =    -0.00005166    0.00002983   -0.00001234
     atom   56 type  2   force =    -0.00001834   -0.00001059    0.00002535
     atom   57 type  2   force =    -0.00000543   -0.00000314   -0.00002153
     atom   58 type  2   force =    -0.00000000   -0.00005056    0.00001435
     atom   59 type  2   force =    -0.00000000   -0.00005965   -0.00001234
     atom   60 type  2   force =     0.00004379    0.00002528    0.00001435
     atom   61 type  2   force =     0.00005166    0.00002983   -0.00001234
     atom   62 type  2   force =    -0.00000000   -0.00001326    0.00001787
     atom   63 type  2   force =    -0.00000000    0.00002454   -0.00001336
     atom   64 type  2   force =    -0.00001148    0.00000663    0.00001787
     atom   65 type  2   force =     0.00002125   -0.00001227   -0.00001336
     atom   66 type  2   force =    -0.00000000    0.00002118    0.00002535
     atom   67 type  2   force =     0.00000000    0.00000627   -0.00002153
     atom   68 type  2   force =     0.00001834   -0.00001059    0.00002535
     atom   69 type  2   force =     0.00000543   -0.00000314   -0.00002153
     atom   70 type  2   force =     0.00001148    0.00000663    0.00001787
     atom   71 type  2   force =    -0.00002125   -0.00001227   -0.00001336
     atom   72 type  2   force =     0.00000000   -0.00000000   -0.00003380

     Total force =     0.003315     Total SCF correction =     0.000746
     SCF correction compared to forces is large: reduce conv_thr to get better values

     Computing stress (Cartesian axis) and pressure

[...]

          total   stress  (Ry/bohr**3)                   (kbar)     P=       27.53
   0.00014382   0.00000000   0.00000000           21.16        0.00        0.00
   0.00000000   0.00014382   0.00000000            0.00       21.16        0.00
   0.00000000   0.00000000   0.00027371            0.00        0.00       40.26

     kinetic stress (kbar)  18315.32     -0.00      0.00
                               -0.00  18315.32     -0.00
                                0.00     -0.00  18395.63

     local   stress (kbar)   4570.49     -0.07      0.00
                               -0.07   4570.40      0.01
                                0.00      0.01   3626.94

     nonloc. stress (kbar)     80.86      0.00      0.00
                                0.00     80.86      0.00
                                0.00      0.00     83.28

     hartree stress (kbar)  19390.02     -0.00     -0.00
                               -0.00  19390.02      0.00
                               -0.00      0.00  19852.66

     exc-cor stress (kbar)   5016.55      0.00     -0.00
                                0.00   5016.55      0.00
                               -0.00      0.00   5015.42

     corecor stress (kbar) -13753.21     -0.00     -0.00
                               -0.00 -13753.21     -0.00
                               -0.00     -0.00 -13754.24

     ewald   stress (kbar) -33757.13      0.09      0.00
                                0.09 -33757.01     -0.00
                                0.00     -0.00 -33337.41

     hubbard stress (kbar)      0.00      0.00      0.00
                                0.00      0.00      0.00
                                0.00      0.00      0.00

     DFT-D   stress (kbar)      0.00      0.00      0.00
                                0.00      0.00      0.00
                                0.00      0.00      0.00

     XDM     stress (kbar)      0.00      0.00      0.00
                                0.00      0.00      0.00
                                0.00      0.00      0.00

     dft-nl  stress (kbar)    158.23     -0.00     -0.00
                               -0.00    158.23     -0.00
                               -0.00     -0.00    157.99

     TS-vdW  stress (kbar)      0.00      0.00      0.00
                                0.00      0.00      0.00
                                0.00      0.00      0.00

     MDB     stress (kbar)      0.00      0.00      0.00
                                0.00      0.00      0.00
                                0.00      0.00      0.00

     3D-RISM stress (kbar)      0.00      0.00      0.00
                                0.00      0.00      0.00
                                0.00      0.00      0.00

[...]

     Non-local corr. energy    =      19.20820817 Ry

 BEEFens 2000 ensemble energies
             -0.156237299042122E+02
             -0.140061057330816E+03
             -0.601080823413019E+02
              0.493498163666762E+02
             -0.100569591832531E+03
             -0.129451372091902E+03
              0.666303609111910E+02
             -0.710869810351198E+01
              0.110875368995545E+03
             -0.475038761394489E+01
              0.542538375738484E+02
              0.223721564149378E+01
              0.231345074312298E+01
             -0.480722665096971E+01
              0.725724434748576E+02
             -0.528840551992283E+02
             -0.109120168872348E+03
             -0.355959358514979E+02
              0.265894371665777E+02
             -0.235157252127669E+01
              0.158881397587207E+03
              0.135351692552598E+03
             -0.773211946356691E+02
              0.281455033294462E+02
             -0.169834350885329E+03
              0.136170854054805E+03
              0.445107730134512E+02
              0.132540478017327E+03
              0.870550146963244E+02
             -0.425081882052846E+02
              0.320804547809943E+02
             -0.626967780880755E+02
              0.173316280687655E+02
              0.849859418112351E+02
              0.902951066771884E+02
             -0.324866958804815E+02
              0.200523943775670E+03
             -0.760266728382439E+02
             -0.547456895049249E+02
              0.803233342409286E+02
              0.358788431351505E+02
              0.601975466651051E+02
             -0.114627254347391E+03
             -0.323671889170032E+01
              0.112613119746795E+03
              0.146159033357522E+03
             -0.145407147655400E+03
              0.103755973962976E+02
              0.548768387456706E+02
              0.265273017411773E+02
              0.608757780136591E+02
              0.128922778101797E+03
             -0.779923186965004E+02
             -0.854674016589559E+02
             -0.111079455954595E+03
             -0.173215281075962E+02
             -0.101256640623527E+03
              0.985788505717835E+01
             -0.188579029753614E+02
             -0.790645659494612E+02
[...]
              0.987020646723095E+02
              0.543262246835059E+02
              0.692953918449284E+02
             -0.111792816247864E+03
             -0.106763016646702E+03
             -0.271642601561854E+02
             -0.104802260870827E+03
              0.167988735330844E+03
              0.143972879521809E+03
              0.687476507379358E+02
              0.186129049513497E+03
             -0.968914638275975E+02
             -0.395715824520267E+02
             -0.548841735907533E+02
              0.153865716811145E+03

 BEEF-vdW xc energy contributions
            1 :    -1411.354638589831
            2 :     1270.945530699189
            3 :    -1035.624513829294
            4 :     774.1700422944211
            5 :    -547.2057719014865
            6 :     384.1783309087209
            7 :    -279.9959212857134
            8 :     209.8519148464281
            9 :    -150.2864556794339
           10 :     92.80369619346902
           11 :    -43.50764307422855
           12 :     12.46072907775260
           13 :    -2.576208156411440
           14 :     6.273181909908317
           15 :    -11.05472390846990
           16 :     8.391705790021206
           17 :     1.357877982039327
           18 :    -11.27444271490663
           19 :     14.78142652389465
           20 :    -11.26419150603397
           21 :     6.194246876626494
           22 :    -6.264407505715553
           23 :     13.87434397326183
           24 :    -25.39112854469477
           25 :     34.24393737542891
           26 :    -36.03452935063183
           27 :     31.52175649796027
           28 :    -25.37204400663222
           29 :     22.06964426182503
           30 :    -22.47511051331139
           31 :    -121.3897916439851
           32 :    -83.17360450466367

     Writing all to output data dir ./GaN.save/

     General routines

     Parallel routines

     PAW routines

   This run was terminated on:   7:16:12  26Mar2024

   JOB DONE.