     Program PWSCF v.7.1 starts on 27Mar2024 at 22:35:47

     Reading input from espresso.pwi
Warning: card &CELL ignored
Warning: card    CELL_DYNAMICS    = 'BFGS' ignored
Warning: card / ignored

     Current dimensions of program PWSCF are:
     Max number of different atomic species (ntypx) = 10
     Max number of k-points (npk) =  40000
     Max angular momentum in pseudopotentials (lmaxx) =  4
     file Pb.pbe-dn-kjpaw_psl.1.0.0.UPF: wavefunction(s)  6S 6P 5D renormalized
     file I.pbe-dn-kjpaw_psl.1.0.0.UPF: wavefunction(s)  5S 5P renormalized

     IMPORTANT: XC functional enforced from input :
     Exchange-correlation= BEEF-VDW
                           (   1   4  43  14   2   0   0)
     Any further DFT definition will be discarded
     Please, verify this is what you really want

     R & G space division:  proc/nbgrp/npool/nimage =      20
     Subspace diagonalization in iterative solution of the eigenvalue problem:
     a serial algorithm will be used

     Using Slab Decomposition

     bravais-lattice index     =            4
     lattice parameter (alat)  =      17.8060  a.u.
     unit-cell volume          =    7656.2263 (a.u.)^3
     number of atoms/cell      =           23
     number of atomic types    =            2
     number of electrons       =       371.00
     number of Kohn-Sham states=          223
     kinetic-energy cutoff     =      70.0000  Ry
     charge density cutoff     =     350.0000  Ry
     scf convergence threshold =      1.0E-07
     mixing beta               =       0.7000
     number of iterations used =            8  plain     mixing
     energy convergence thresh.=      1.0E-04
     force convergence thresh. =      1.0E-03
     Exchange-correlation= BEEF-VDW
                           (   1   4  43  14   2   0   0)
     nstep                     =           50

     celldm(1)=  17.806016  celldm(2)=   0.000000  celldm(3)=   1.565971
     celldm(4)=   0.000000  celldm(5)=   0.000000  celldm(6)=   0.000000

     crystal axes: (cart. coord. in units of alat)
               a(1) = (   1.000000   0.000000   0.000000 )
               a(2) = (  -0.500000   0.866025   0.000000 )
               a(3) = (   0.000000   0.000000   1.565971 )

     reciprocal axes: (cart. coord. in units 2 pi/alat)
               b(1) = (  1.000000  0.577350 -0.000000 )
               b(2) = (  0.000000  1.154701  0.000000 )
               b(3) = (  0.000000 -0.000000  0.638581 )

     PseudoPot. # 1 for Pb read from file:
     /trace/group/acmegroup/atimmins/packages/espresso/pseudo/psl_1.0.0/pslibrary.1.0.0/pbe/PSEUDOPOTENTIALS/Pb.pbe-dn-kjpaw_psl.1.0.0.UPF
     MD5 check sum: 39ab5b8a6bbd56b7735ad9f188aac93a
     Pseudo is Projector augmented-wave + core cor, Zval = 14.0
     Generated using 'atomic' code by A. Dal Corso  v.7.1
     Shape of augmentation charge: PSQ
     Using radial grid of 1281 points,  6 beta functions with:
                l(1) =   0
                l(2) =   0
                l(3) =   1
                l(4) =   1
                l(5) =   2
                l(6) =   2
     Q(r) pseudized with 0 coefficients

     PseudoPot. # 2 for I  read from file:
     /trace/group/acmegroup/atimmins/packages/espresso/pseudo/psl_1.0.0/pslibrary.1.0.0/pbe/PSEUDOPOTENTIALS/I.pbe-dn-kjpaw_psl.1.0.0.UPF
     MD5 check sum: bfa8781bc1224d19af3f3980e3fab11e
     Pseudo is Projector augmented-wave + core cor, Zval = 17.0
     Generated using 'atomic' code by A. Dal Corso  v.7.1
     Shape of augmentation charge: PSQ
     Using radial grid of 1247 points,  6 beta functions with:
                l(1) =   0
                l(2) =   0
                l(3) =   1
                l(4) =   1
                l(5) =   2
                l(6) =   2
     Q(r) pseudized with 0 coefficients

     atomic species   valence    mass     pseudopotential
        Pb            14.00   207.20000     Pb( 1.00)
        I             17.00   126.90447     I ( 1.00)

     No symmetry found

                                    s                        frac. trans.

      isym =  1     identity

 cryst.   s( 1) = (     1          0          0      )
                  (     0          1          0      )
                  (     0          0          1      )

 cart.    s( 1) = (  1.0000000  0.0000000  0.0000000 )
                  (  0.0000000  1.0000000  0.0000000 )
                  (  0.0000000  0.0000000  1.0000000 )

     point group C_1 (1)
     there are  1 classes
     the character table:

       E
A      1.00

     the symmetry operations in each class and the name of the first element:

     E        1
          identity

   Cartesian axes

     site n.     atom                  positions (alat units)
         1           Pb  tau(   1) = (   0.2500068   0.4329836   0.7829793  )
         2           Pb  tau(   2) = (   0.0000153   0.8659852   1.5659567  )
         3           Pb  tau(   3) = (   0.0000051   0.8659943   0.7829710  )
         4           Pb  tau(   4) = (   0.7500170   0.4329726   1.5659715  )
         5           Pb  tau(   5) = (   0.7500068   0.4329816   0.7829858  )
         6           Pb  tau(   6) = (   0.5000153   0.8659833   1.5659633  )
         7           Pb  tau(   7) = (   0.5000051   0.8659923   0.7829776  )
         8           I   tau(   8) = (   0.2500107   0.1443099   0.5818649  )
         9           I   tau(   9) = (   0.2500209   0.1443009   1.3648506  )
        10           I   tau(  10) = (   0.0000091   0.5773207   0.5818567  )
        11           I   tau(  11) = (   0.0000193   0.5773116   1.3648424  )
        12           I   tau(  12) = (   0.7500107   0.1443080   0.5818714  )
        13           I   tau(  13) = (   0.7500209   0.1442990   1.3648571  )
        14           I   tau(  14) = (   0.5000091   0.5773187   0.5818632  )
        15           I   tau(  15) = (   0.5000193   0.5773097   1.3648489  )
        16           I   tau(  16) = (  -0.0000034   0.2886595   0.2011110  )
        17           I   tau(  17) = (   0.0000068   0.2886504   0.9840967  )
        18           I   tau(  18) = (  -0.2500051   0.7216702   0.2011027  )
        19           I   tau(  19) = (  -0.2499949   0.7216611   0.9840884  )
        20           I   tau(  20) = (   0.4999966   0.2886575   0.2011175  )
        21           I   tau(  21) = (   0.5000068   0.2886485   0.9841032  )
        22           I   tau(  22) = (   0.2499949   0.7216682   0.2011092  )
        23           I   tau(  23) = (   0.2500051   0.7216592   0.9840949  )

   Crystallographic axes

     site n.     atom                  positions (cryst. coord.)
         1           Pb  tau(   1) = (  0.4999900  0.4999663  0.4999959  )
         2           Pb  tau(   2) = (  0.4999921  0.9999536  0.9999906  )
         3           Pb  tau(   3) = (  0.4999871  0.9999640  0.4999906  )
         4           Pb  tau(   4) = (  0.9999938  0.4999537  1.0000001  )
         5           Pb  tau(   5) = (  0.9999888  0.4999641  0.5000001  )
         6           Pb  tau(   6) = (  0.9999910  0.9999514  0.9999948  )
         7           Pb  tau(   7) = (  0.9999860  0.9999618  0.4999948  )
         8           I   tau(   8) = (  0.3333281  0.1666348  0.3715680  )
         9           I   tau(   9) = (  0.3333331  0.1666243  0.8715680  )
        10           I   tau(  10) = (  0.3333253  0.6666325  0.3715628  )
        11           I   tau(  11) = (  0.3333303  0.6666220  0.8715628  )
        12           I   tau(  12) = (  0.8333270  0.1666326  0.3715722  )
        13           I   tau(  13) = (  0.8333320  0.1666221  0.8715722  )
        14           I   tau(  14) = (  0.8333242  0.6666303  0.3715669  )
        15           I   tau(  15) = (  0.8333292  0.6666198  0.8715669  )
        16           I   tau(  16) = (  0.1666542  0.3333152  0.1284257  )
        17           I   tau(  17) = (  0.1666592  0.3333048  0.6284257  )
        18           I   tau(  18) = (  0.1666514  0.8333129  0.1284204  )
        19           I   tau(  19) = (  0.1666564  0.8333025  0.6284204  )
        20           I   tau(  20) = (  0.6666531  0.3333130  0.1284299  )
        21           I   tau(  21) = (  0.6666581  0.3333026  0.6284299  )
        22           I   tau(  22) = (  0.6666503  0.8333107  0.1284246  )
        23           I   tau(  23) = (  0.6666553  0.8333003  0.6284246  )

     number of k points=     4  Gaussian smearing, width (Ry)=  0.0100
                       cart. coord. in units 2pi/alat
        k(    1) = (   0.0000000   0.0000000   0.0000000), wk =   0.5000000
        k(    2) = (   0.0000000  -0.5773503   0.0000000), wk =   0.5000000
        k(    3) = (   0.5000000  -0.2886751   0.0000000), wk =   0.5000000
        k(    4) = (  -0.5000000  -0.2886751   0.0000000), wk =   0.5000000

                       cryst. coord.
        k(    1) = (   0.0000000   0.0000000   0.0000000), wk =   0.5000000
        k(    2) = (   0.0000000  -0.5000000   0.0000000), wk =   0.5000000
        k(    3) = (   0.5000000  -0.5000000   0.0000000), wk =   0.5000000
        k(    4) = (  -0.5000000  -0.0000000   0.0000000), wk =   0.5000000

     Check: negative core charge=   -0.000002

     Initial potential from superposition of free atoms

     starting charge     369.9823, renormalised to     371.0000

     %%%%%%%%%%%%%%%%%%%%%%%%%%%%%%%%%%%%%%%%%%%%%%%%%%%%%%%%%%%%%%%%%%%%%%%%
     %                                                                      %
     % You are using vdW-DF, which was implemented by the Thonhauser group. %
     % Please cite the following two papers that made this development      %
     % possible and the two reviews that describe the various versions:     %
     %                                                                      %
     %   T. Thonhauser et al., PRL 115, 136402 (2015).                      %
     %   T. Thonhauser et al., PRB 76, 125112 (2007).                       %
     %   K. Berland et al., Rep. Prog. Phys. 78, 066501 (2015).             %
     %   D.C. Langreth et al., J. Phys.: Condens. Matter 21, 084203 (2009). %
     %                                                                      %
     % If you are calculating stress with vdW-DF, please also cite:         %
     %                                                                      %
     %   R. Sabatini et al., J. Phys.: Condens. Matter 24, 424209 (2012).   %
     %                                                                      %
     %%%%%%%%%%%%%%%%%%%%%%%%%%%%%%%%%%%%%%%%%%%%%%%%%%%%%%%%%%%%%%%%%%%%%%%%

     %%%%%%%%%%%%%%%%%%%%%%%%%%%%%%%%%%%%%%%%%%%%%%%%%%%%%%%%%%%%%%%%%%%%%%%%
     %                                                                      %
     %  vdW-DF NEWS:                                                        %
     %                                                                      %
     %  * vdW-DF3 is now available. DOI: 10.1021/acs.jctc.0c00471           %
     %    use with input_dft = 'vdW-DF3-opt1' or 'vdW-DF3-opt2'             %
     %                                                                      %
     %  * Unscreened and range-separated vdW-DF hybrid functionals          %
     %    DOI: 10.1063/1.4986522 and 10.1088/1361-648X/ac2ad2               %
[...]
     atom   11 type  2   force =     0.00011869   -0.00007956    0.00034235
     atom   12 type  2   force =    -0.00000087    0.00000753   -0.00013056
     atom   13 type  2   force =     0.00000530    0.00000909   -0.00087908
     atom   14 type  2   force =    -0.00009853   -0.00006231   -0.00026164
     atom   15 type  2   force =    -0.00012874   -0.00007779    0.00033389
     atom   16 type  2   force =     0.00011207    0.00006181   -0.00036367
     atom   17 type  2   force =     0.00009680    0.00006335    0.00026476
     atom   18 type  2   force =    -0.00000968   -0.00000771    0.00087887
     atom   19 type  2   force =     0.00000970    0.00000003    0.00014372
     atom   20 type  2   force =    -0.00011578    0.00008281   -0.00035366
     atom   21 type  2   force =    -0.00009760    0.00005314    0.00026202
     atom   22 type  2   force =     0.00001553   -0.00014238   -0.00036480
     atom   23 type  2   force =    -0.00000910   -0.00011248    0.00026755
     The non-local contrib.  to forces
     atom    1 type  1   force =     0.00003495   -0.00001010    0.00005028
     atom    2 type  1   force =    -0.00000624    0.00000010    0.00002443
     atom    3 type  1   force =     0.00000961   -0.00002744   -0.00012291
     atom    4 type  1   force =    -0.00003502    0.00004195   -0.00005232
     atom    5 type  1   force =    -0.00002039   -0.00001225    0.00003011
     atom    6 type  1   force =     0.00008435   -0.00011116   -0.00010106
     atom    7 type  1   force =     0.00000500   -0.00005477    0.00003058
     atom    8 type  2   force =     0.00002683   -0.00153470    0.26649691
     atom    9 type  2   force =    -0.00002452   -0.12003107    0.13545164
     atom   10 type  2   force =    -0.00133127    0.00080815    0.26650143
     atom   11 type  2   force =    -0.10394413    0.06000752    0.13542677
     atom   12 type  2   force =    -0.00002963   -0.00000019    0.28041148
     atom   13 type  2   force =    -0.00000742    0.00001288    0.21304706
     atom   14 type  2   force =     0.00132349    0.00076930    0.26649961
     atom   15 type  2   force =     0.10395448    0.06005019    0.13552021
     atom   16 type  2   force =    -0.10390940   -0.05995877   -0.13540456
     atom   17 type  2   force =    -0.00133258   -0.00074947   -0.26644842
     atom   18 type  2   force =    -0.00003664   -0.00000941   -0.21308212
     atom   19 type  2   force =    -0.00002180   -0.00001009   -0.28035662
     atom   20 type  2   force =     0.10390393   -0.05997755   -0.13549487
     atom   21 type  2   force =     0.00132604   -0.00072224   -0.26646396
     atom   22 type  2   force =    -0.00001178    0.11994630   -0.13548589
     atom   23 type  2   force =     0.00001777    0.00152433   -0.26646042
     The ionic contribution  to forces
     atom    1 type  1   force =    -0.00213513   -0.00056797    0.00470069
     atom    2 type  1   force =     0.00071479   -0.00014000   -0.00892425
     atom    3 type  1   force =    -0.00036470    0.00035774    0.01036549
     atom    4 type  1   force =     0.00092041   -0.00225157   -0.00524903
     atom    5 type  1   force =     0.00186703   -0.00037637    0.00585228
     atom    6 type  1   force =    -0.00353155    0.00341356   -0.00439180
     atom    7 type  1   force =     0.00003179    0.00261196    0.00550300
     atom    8 type  2   force =    -0.00196479    0.78195668  -17.46524576
     atom    9 type  2   force =    -0.00122615    8.56182953   -7.82741838
     atom   10 type  2   force =     0.67533514   -0.39379089  -17.46445411
     atom   11 type  2   force =     7.41358775   -4.28232476   -7.82820392
     atom   12 type  2   force =     0.00221683    0.00224539  -16.86053996
     atom   13 type  2   force =     0.00187342    0.00107430  -11.49640447
     atom   14 type  2   force =    -0.67537638   -0.39155708  -17.46785466
     atom   15 type  2   force =    -7.41489027   -4.28228849   -7.82829838
     atom   16 type  2   force =     7.41126855    4.27785314    7.80730038
     atom   17 type  2   force =     0.67529062    0.39107874   17.48114144
     atom   18 type  2   force =    -0.00233985   -0.00200041   11.48201915
     atom   19 type  2   force =     0.00379125    0.00034051   16.87757936
     atom   20 type  2   force =    -7.41128097    4.28423896    7.81031291
     atom   21 type  2   force =    -0.67525743    0.38695817   17.48146314
     atom   22 type  2   force =     0.00499243   -8.55923872    7.80856341
     atom   23 type  2   force =    -0.00352277   -0.77942244   17.48218346
     The local contribution  to forces
     atom    1 type  1   force =     0.00209446    0.00057789   -0.00474823
     atom    2 type  1   force =    -0.00069978    0.00013886    0.00890052
     atom    3 type  1   force =     0.00035337   -0.00032907   -0.01022833
     atom    4 type  1   force =    -0.00085812    0.00219089    0.00531789
     atom    5 type  1   force =    -0.00184199    0.00038955   -0.00587699
     atom    6 type  1   force =     0.00343380   -0.00326869    0.00451639
     atom    7 type  1   force =    -0.00003653   -0.00255002   -0.00552767
     atom    8 type  2   force =     0.00194097   -0.78029286   17.20414896
     atom    9 type  2   force =     0.00124530   -8.44433444    7.69540106
     atom   10 type  2   force =    -0.67389497    0.39291859   17.20335804
     atom   11 type  2   force =    -7.31183963    4.22357906    7.69620637
     atom   12 type  2   force =    -0.00218990   -0.00224061   16.58580783
     atom   13 type  2   force =    -0.00186373   -0.00108252   11.28727522
     atom   14 type  2   force =     0.67394295    0.39071911   17.20675124
     atom   15 type  2   force =     7.31312016    4.22349873    7.69620120
     atom   16 type  2   force =    -7.30957012   -4.21917275   -7.67537116
     atom   17 type  2   force =    -0.67385179   -0.39026181  -17.22006421
     atom   18 type  2   force =     0.00237106    0.00200416  -11.27287293
     atom   19 type  2   force =    -0.00375689   -0.00032925  -16.60287938
     atom   20 type  2   force =     7.30957987   -4.22552181   -7.67827993
     atom   21 type  2   force =     0.67382518   -0.38618178  -17.22037729
     atom   22 type  2   force =    -0.00496940    8.44183494   -7.67655001
     atom   23 type  2   force =     0.00349355    0.77777681  -17.22109524
     The core correction contribution to forces
     atom    1 type  1   force =    -0.00000018    0.00000013    0.00000046
     atom    2 type  1   force =     0.00000066    0.00000083   -0.00000109
     atom    3 type  1   force =     0.00000020    0.00000044    0.00000258
     atom    4 type  1   force =    -0.00000146   -0.00000071   -0.00000090
     atom    5 type  1   force =     0.00000004   -0.00000015    0.00000068
     atom    6 type  1   force =    -0.00000143   -0.00000012   -0.00000086
     atom    7 type  1   force =    -0.00000028    0.00000048    0.00000058
     atom    8 type  2   force =    -0.00000166   -0.00000053   -0.00564587
     atom    9 type  2   force =     0.00000056    0.00268367   -0.00310210
     atom   10 type  2   force =    -0.00000314    0.00000226   -0.00564658
     atom   11 type  2   force =     0.00232706   -0.00134278   -0.00310262
     atom   12 type  2   force =     0.00000046    0.00000280   -0.00580105
     atom   13 type  2   force =    -0.00000016    0.00000295   -0.00481158
     atom   14 type  2   force =     0.00000210    0.00000363   -0.00564675
     atom   15 type  2   force =    -0.00232508   -0.00134253   -0.00310410
     atom   16 type  2   force =     0.00232503    0.00134214    0.00309838
     atom   17 type  2   force =    -0.00000354    0.00000037    0.00563695
     atom   18 type  2   force =    -0.00000020    0.00000250    0.00481228
     atom   19 type  2   force =     0.00000069    0.00000294    0.00579711
     atom   20 type  2   force =    -0.00232228    0.00134060    0.00309937
     atom   21 type  2   force =     0.00000245   -0.00000113    0.00563855
     atom   22 type  2   force =    -0.00000009   -0.00268440    0.00309883
     atom   23 type  2   force =    -0.00000177    0.00000613    0.00563761
     The Hubbard contrib.    to forces
     atom    1 type  1   force =     0.00000000    0.00000000    0.00000000
     atom    2 type  1   force =     0.00000000    0.00000000    0.00000000
     atom    3 type  1   force =     0.00000000    0.00000000    0.00000000
     atom    4 type  1   force =     0.00000000    0.00000000    0.00000000
     atom    5 type  1   force =     0.00000000    0.00000000    0.00000000
     atom    6 type  1   force =     0.00000000    0.00000000    0.00000000
     atom    7 type  1   force =     0.00000000    0.00000000    0.00000000
     atom    8 type  2   force =     0.00000000    0.00000000    0.00000000
     atom    9 type  2   force =     0.00000000    0.00000000    0.00000000
     atom   10 type  2   force =     0.00000000    0.00000000    0.00000000
     atom   11 type  2   force =     0.00000000    0.00000000    0.00000000
     atom   12 type  2   force =     0.00000000    0.00000000    0.00000000
     atom   13 type  2   force =     0.00000000    0.00000000    0.00000000
     atom   14 type  2   force =     0.00000000    0.00000000    0.00000000
     atom   15 type  2   force =     0.00000000    0.00000000    0.00000000
     atom   16 type  2   force =     0.00000000    0.00000000    0.00000000
     atom   17 type  2   force =     0.00000000    0.00000000    0.00000000
     atom   18 type  2   force =     0.00000000    0.00000000    0.00000000
     atom   19 type  2   force =     0.00000000    0.00000000    0.00000000
     atom   20 type  2   force =     0.00000000    0.00000000    0.00000000
     atom   21 type  2   force =     0.00000000    0.00000000    0.00000000
     atom   22 type  2   force =     0.00000000    0.00000000    0.00000000
     atom   23 type  2   force =     0.00000000    0.00000000    0.00000000
     The SCF correction term to forces
     atom    1 type  1   force =     0.00000129    0.00000047   -0.00001646
     atom    2 type  1   force =    -0.00001132   -0.00000542    0.00000445
     atom    3 type  1   force =    -0.00000173   -0.00000078   -0.00001821
     atom    4 type  1   force =    -0.00000578    0.00001520    0.00000141
     atom    5 type  1   force =    -0.00000126    0.00000248   -0.00001717
     atom    6 type  1   force =     0.00001150   -0.00001187    0.00000053
     atom    7 type  1   force =     0.00000167   -0.00000215   -0.00001703
     atom    8 type  2   force =    -0.00000148   -0.00000858   -0.00001761
     atom    9 type  2   force =    -0.00000309   -0.00001163    0.00001319
     atom   10 type  2   force =    -0.00000898    0.00000258   -0.00001711
     atom   11 type  2   force =    -0.00001251    0.00000282    0.00001290
     atom   12 type  2   force =     0.00000122    0.00000156   -0.00001171
     atom   13 type  2   force =     0.00000304    0.00000291    0.00001184
     atom   14 type  2   force =     0.00000917    0.00000415   -0.00001392
     atom   15 type  2   force =     0.00001182    0.00000573    0.00001211
     atom   16 type  2   force =    -0.00000214   -0.00000053    0.00001044
     atom   17 type  2   force =    -0.00000607   -0.00000305   -0.00000385
     atom   18 type  2   force =    -0.00000421   -0.00000311   -0.00000036
     atom   19 type  2   force =    -0.00000370   -0.00000265    0.00000040
     atom   20 type  2   force =     0.00000353    0.00000403    0.00000601
     atom   21 type  2   force =     0.00000602    0.00000155   -0.00000128
     atom   22 type  2   force =     0.00000423    0.00000093    0.00000602
     atom   23 type  2   force =     0.00000397    0.00000413   -0.00000072

     Total force =     0.001713     Total SCF correction =     0.000068

     Computing stress (Cartesian axis) and pressure

     Non-local corr. energy    =      11.26224398 Ry

          total   stress  (Ry/bohr**3)                   (kbar)     P=       13.50
   0.00008924  -0.00000000   0.00000001           13.13       -0.00        0.00
  -0.00000000   0.00008925   0.00000000           -0.00       13.13        0.00
   0.00000001   0.00000000   0.00009683            0.00        0.00       14.24

     kinetic stress (kbar)  14173.47      0.00     -0.00
                                0.00  14173.46     -0.00
                               -0.00     -0.00  14187.09

     local   stress (kbar)  -7552.20     -0.18     -0.33
                               -0.18  -7551.97     -0.14
                               -0.33     -0.14    207.19

     nonloc. stress (kbar)   -735.65      0.00     -0.00
                                0.00   -735.65     -0.00
                               -0.00     -0.00   -737.39

     hartree stress (kbar)  11846.55      0.09      0.14
                                0.09  11846.43      0.05
                                0.14      0.05   8338.30

     exc-cor stress (kbar)   6751.56     -0.00      0.00
                               -0.00   6751.56      0.00
                                0.00      0.00   6750.70

     corecor stress (kbar) -10976.67      0.00     -0.00
                                0.00 -10976.67     -0.00
                               -0.00     -0.00 -10976.68

     ewald   stress (kbar) -13575.49      0.09      0.20
                                0.09 -13575.60      0.09
                                0.20      0.09 -17837.56

     hubbard stress (kbar)      0.00      0.00      0.00
                                0.00      0.00      0.00
                                0.00      0.00      0.00

     DFT-D   stress (kbar)      0.00      0.00      0.00
                                0.00      0.00      0.00
                                0.00      0.00      0.00

     XDM     stress (kbar)      0.00      0.00      0.00
                                0.00      0.00      0.00
                                0.00      0.00      0.00

     dft-nl  stress (kbar)     81.56      0.00     -0.00
                                0.00     81.56     -0.00
                               -0.00     -0.00     82.59

     TS-vdW  stress (kbar)      0.00      0.00      0.00
                                0.00      0.00      0.00
                                0.00      0.00      0.00

     MDB     stress (kbar)      0.00      0.00      0.00
                                0.00      0.00      0.00
                                0.00      0.00      0.00

     3D-RISM stress (kbar)      0.00      0.00      0.00
                                0.00      0.00      0.00
                                0.00      0.00      0.00

     Energy error            =      1.2E-05 Ry
     Gradient error          =      8.8E-04 Ry/Bohr

     bfgs converged in  11 scf cycles and  10 bfgs steps
     (criteria: energy <  1.0E-04 Ry, force <  1.0E-03 Ry/Bohr)

     End of BFGS Geometry Optimization

     Final energy             =  -15292.2561205576 Ry

     File ./PbI2.bfgs deleted, as requested
Begin final coordinates

ATOMIC_POSITIONS (angstrom)
Pb            2.3557755672        4.0797924486        7.3774719127
Pb            0.0001287011        8.1598893355       14.7555179076
Pb            0.0000883559        8.1598437481        7.3773974638
Pb            7.0668441587        4.0797497575       14.7554890042
Pb            7.0669338306        4.0797830759        7.3775122799
Pb            4.7113975408        8.1596823866       14.7553645621
Pb            4.7113507471        8.1597892770        7.3774844505
I             2.3557542900        1.3625344065        5.4967775295
I             2.3557855892        1.3257579805       12.9179911270
I             0.0025062773        5.4385358145        5.4967465688
I            -0.0292824477        5.4568189879       12.9181047303
I             7.0669239169        1.3597077448        5.5071073556
I             7.0669200102        1.3596868864       12.8447527725
I             4.7089030622        5.4384807835        5.4967158866
I             4.7408823590        5.4568984475       12.9181033034
I            -0.0292631308        2.7028576669        1.8378531072
I             0.0025604797        2.7211864568        9.2580550227
I            -2.3555057292        6.7999442687        1.9107609358
I            -2.3557067478        6.7998497165        9.2478434110
I             4.7408139358        2.7024916341        1.8378971066
I             4.7088429411        2.7213472479        9.2581471023
I             2.3555109561        6.8339614235        1.8379903572
I             2.3558364377        6.7969690983        9.2580837622
End final coordinates

     Writing all to output data dir ./PbI2.save/

     General routines

     Parallel routines

     PAW routines

   This run was terminated on:  23:43: 9  27Mar2024

   JOB DONE.