     Program PWSCF v.7.1 starts on 28Mar2024 at  6:31:37

     Reading input from espresso.pwi
Warning: card &CELL ignored
Warning: card    CELL_DYNAMICS    = 'BFGS' ignored
Warning: card / ignored

     Current dimensions of program PWSCF are:
     Max number of different atomic species (ntypx) = 10
     Max number of k-points (npk) =  40000
     Max angular momentum in pseudopotentials (lmaxx) =  4
     file Pb.pbe-dn-kjpaw_psl.1.0.0.UPF: wavefunction(s)  6S 6P 5D renormalized
     file I.pbe-dn-kjpaw_psl.1.0.0.UPF: wavefunction(s)  5S 5P renormalized

     IMPORTANT: XC functional enforced from input :
     Exchange-correlation= BEEF-VDW
                           (   1   4  43  14   2   0   0)
     Any further DFT definition will be discarded
     Please, verify this is what you really want

     R & G space division:  proc/nbgrp/npool/nimage =      20
     Subspace diagonalization in iterative solution of the eigenvalue problem:
     a serial algorithm will be used

     Using Slab Decomposition

     bravais-lattice index     =            4
     lattice parameter (alat)  =      17.8060  a.u.
     unit-cell volume          =    7656.2263 (a.u.)^3
     number of atoms/cell      =           23
     number of atomic types    =            2
     number of electrons       =       371.00
     number of Kohn-Sham states=          223
     kinetic-energy cutoff     =      70.0000  Ry
     charge density cutoff     =     350.0000  Ry
     scf convergence threshold =      1.0E-07
     mixing beta               =       0.7000
     number of iterations used =            8  plain     mixing
     Exchange-correlation= BEEF-VDW
                           (   1   4  43  14   2   0   0)

     celldm(1)=  17.806016  celldm(2)=   0.000000  celldm(3)=   1.565971
     celldm(4)=   0.000000  celldm(5)=   0.000000  celldm(6)=   0.000000

     crystal axes: (cart. coord. in units of alat)
               a(1) = (   1.000000   0.000000   0.000000 )
               a(2) = (  -0.500000   0.866025   0.000000 )
               a(3) = (   0.000000   0.000000   1.565971 )

     reciprocal axes: (cart. coord. in units 2 pi/alat)
               b(1) = (  1.000000  0.577350 -0.000000 )
               b(2) = (  0.000000  1.154701  0.000000 )
               b(3) = (  0.000000 -0.000000  0.638581 )

     PseudoPot. # 1 for Pb read from file:
     /trace/group/acmegroup/atimmins/packages/espresso/pseudo/psl_1.0.0/pslibrary.1.0.0/pbe/PSEUDOPOTENTIALS/Pb.pbe-dn-kjpaw_psl.1.0.0.UPF
     MD5 check sum: 39ab5b8a6bbd56b7735ad9f188aac93a
     Pseudo is Projector augmented-wave + core cor, Zval = 14.0
     Generated using 'atomic' code by A. Dal Corso  v.7.1
     Shape of augmentation charge: PSQ
     Using radial grid of 1281 points,  6 beta functions with:
                l(1) =   0
                l(2) =   0
                l(3) =   1
                l(4) =   1
                l(5) =   2
                l(6) =   2
     Q(r) pseudized with 0 coefficients

     PseudoPot. # 2 for I  read from file:
     /trace/group/acmegroup/atimmins/packages/espresso/pseudo/psl_1.0.0/pslibrary.1.0.0/pbe/PSEUDOPOTENTIALS/I.pbe-dn-kjpaw_psl.1.0.0.UPF
     MD5 check sum: bfa8781bc1224d19af3f3980e3fab11e
     Pseudo is Projector augmented-wave + core cor, Zval = 17.0
     Generated using 'atomic' code by A. Dal Corso  v.7.1
     Shape of augmentation charge: PSQ
     Using radial grid of 1247 points,  6 beta functions with:
                l(1) =   0
                l(2) =   0
                l(3) =   1
                l(4) =   1
                l(5) =   2
                l(6) =   2
     Q(r) pseudized with 0 coefficients

     atomic species   valence    mass     pseudopotential
        Pb            14.00   207.20000     Pb( 1.00)
        I             17.00   126.90447     I ( 1.00)

     No symmetry found

                                    s                        frac. trans.

      isym =  1     identity

 cryst.   s( 1) = (     1          0          0      )
                  (     0          1          0      )
                  (     0          0          1      )

 cart.    s( 1) = (  1.0000000  0.0000000  0.0000000 )
                  (  0.0000000  1.0000000  0.0000000 )
                  (  0.0000000  0.0000000  1.0000000 )

     point group C_1 (1)
     there are  1 classes
     the character table:

       E
A      1.00

     the symmetry operations in each class and the name of the first element:

     E        1
          identity

   Cartesian axes

     site n.     atom                  positions (alat units)
         1           Pb  tau(   1) = (   0.2500068   0.4329836   0.7829793  )
         2           Pb  tau(   2) = (   0.0000153   0.8659852   1.5659567  )
         3           Pb  tau(   3) = (   0.0000051   0.8659943   0.7829710  )
         4           Pb  tau(   4) = (   0.7500170   0.4329726   1.5659715  )
         5           Pb  tau(   5) = (   0.7500068   0.4329816   0.7829858  )
         6           Pb  tau(   6) = (   0.5000153   0.8659833   1.5659633  )
         7           Pb  tau(   7) = (   0.5000051   0.8659923   0.7829776  )
         8           I   tau(   8) = (   0.2500107   0.1443099   0.5818649  )
         9           I   tau(   9) = (   0.2500209   0.1443009   1.3648506  )
        10           I   tau(  10) = (   0.0000091   0.5773207   0.5818567  )
        11           I   tau(  11) = (   0.0000193   0.5773116   1.3648424  )
        12           I   tau(  12) = (   0.7500107   0.1443080   0.5818714  )
        13           I   tau(  13) = (   0.7500209   0.1442990   1.3648571  )
        14           I   tau(  14) = (   0.5000091   0.5773187   0.5818632  )
        15           I   tau(  15) = (   0.5000193   0.5773097   1.3648489  )
        16           I   tau(  16) = (  -0.0000034   0.2886595   0.2011110  )
        17           I   tau(  17) = (   0.0000068   0.2886504   0.9840967  )
        18           I   tau(  18) = (  -0.2500051   0.7216702   0.2011027  )
        19           I   tau(  19) = (  -0.2499949   0.7216611   0.9840884  )
        20           I   tau(  20) = (   0.4999966   0.2886575   0.2011175  )
        21           I   tau(  21) = (   0.5000068   0.2886485   0.9841032  )
        22           I   tau(  22) = (   0.2499949   0.7216682   0.2011092  )
        23           I   tau(  23) = (   0.2500051   0.7216592   0.9840949  )

   Crystallographic axes

     site n.     atom                  positions (cryst. coord.)
         1           Pb  tau(   1) = (  0.4999900  0.4999663  0.4999959  )
         2           Pb  tau(   2) = (  0.4999921  0.9999536  0.9999906  )
         3           Pb  tau(   3) = (  0.4999871  0.9999640  0.4999906  )
         4           Pb  tau(   4) = (  0.9999938  0.4999537  1.0000001  )
         5           Pb  tau(   5) = (  0.9999888  0.4999641  0.5000001  )
         6           Pb  tau(   6) = (  0.9999910  0.9999514  0.9999948  )
         7           Pb  tau(   7) = (  0.9999860  0.9999618  0.4999948  )
         8           I   tau(   8) = (  0.3333281  0.1666348  0.3715680  )
         9           I   tau(   9) = (  0.3333331  0.1666243  0.8715680  )
        10           I   tau(  10) = (  0.3333253  0.6666325  0.3715628  )
        11           I   tau(  11) = (  0.3333303  0.6666220  0.8715628  )
        12           I   tau(  12) = (  0.8333270  0.1666326  0.3715722  )
        13           I   tau(  13) = (  0.8333320  0.1666221  0.8715722  )
        14           I   tau(  14) = (  0.8333242  0.6666303  0.3715669  )
        15           I   tau(  15) = (  0.8333292  0.6666198  0.8715669  )
        16           I   tau(  16) = (  0.1666542  0.3333152  0.1284257  )
        17           I   tau(  17) = (  0.1666592  0.3333048  0.6284257  )
        18           I   tau(  18) = (  0.1666514  0.8333129  0.1284204  )
        19           I   tau(  19) = (  0.1666564  0.8333025  0.6284204  )
        20           I   tau(  20) = (  0.6666531  0.3333130  0.1284299  )
        21           I   tau(  21) = (  0.6666581  0.3333026  0.6284299  )
        22           I   tau(  22) = (  0.6666503  0.8333107  0.1284246  )
        23           I   tau(  23) = (  0.6666553  0.8333003  0.6284246  )

     number of k points=     4  Gaussian smearing, width (Ry)=  0.0100
                       cart. coord. in units 2pi/alat
        k(    1) = (   0.0000000   0.0000000   0.0000000), wk =   0.5000000
        k(    2) = (   0.0000000  -0.5773503   0.0000000), wk =   0.5000000
        k(    3) = (   0.5000000  -0.2886751   0.0000000), wk =   0.5000000
        k(    4) = (  -0.5000000  -0.2886751   0.0000000), wk =   0.5000000

                       cryst. coord.
        k(    1) = (   0.0000000   0.0000000   0.0000000), wk =   0.5000000
        k(    2) = (   0.0000000  -0.5000000   0.0000000), wk =   0.5000000
        k(    3) = (   0.5000000  -0.5000000   0.0000000), wk =   0.5000000
        k(    4) = (  -0.5000000  -0.0000000   0.0000000), wk =   0.5000000

     Atomic positions and unit cell read from directory:
     ./PbI2.save/
     Atomic positions from file used, from input discarded

     Check: negative core charge=   -0.000002

     The initial density is read from file :
     ./PbI2.save/charge-density

     %%%%%%%%%%%%%%%%%%%%%%%%%%%%%%%%%%%%%%%%%%%%%%%%%%%%%%%%%%%%%%%%%%%%%%%%
     %                                                                      %
     % You are using vdW-DF, which was implemented by the Thonhauser group. %
     % Please cite the following two papers that made this development      %
     % possible and the two reviews that describe the various versions:     %
     %                                                                      %
     %   T. Thonhauser et al., PRL 115, 136402 (2015).                      %
     %   T. Thonhauser et al., PRB 76, 125112 (2007).                       %
     %   K. Berland et al., Rep. Prog. Phys. 78, 066501 (2015).             %
     %   D.C. Langreth et al., J. Phys.: Condens. Matter 21, 084203 (2009). %
     %                                                                      %
     % If you are calculating stress with vdW-DF, please also cite:         %
     %                                                                      %
     %   R. Sabatini et al., J. Phys.: Condens. Matter 24, 424209 (2012).   %
     %                                                                      %
     %%%%%%%%%%%%%%%%%%%%%%%%%%%%%%%%%%%%%%%%%%%%%%%%%%%%%%%%%%%%%%%%%%%%%%%%

     %%%%%%%%%%%%%%%%%%%%%%%%%%%%%%%%%%%%%%%%%%%%%%%%%%%%%%%%%%%%%%%%%%%%%%%%
     %                                                                      %
     %  vdW-DF NEWS:                                                        %
     %                                                                      %
     %  * vdW-DF3 is now available. DOI: 10.1021/acs.jctc.0c00471           %
     %    use with input_dft = 'vdW-DF3-opt1' or 'vdW-DF3-opt2'             %
     %                                                                      %
     %  * Unscreened and range-separated vdW-DF hybrid functionals          %
     %    DOI: 10.1063/1.4986522 and 10.1088/1361-648X/ac2ad2               %
[...]
     atom   16 type  2   force =    -0.10390737   -0.05995858   -0.13541868
     atom   17 type  2   force =    -0.00132672   -0.00074691   -0.26644350
     atom   18 type  2   force =    -0.00002768   -0.00000326   -0.21308135
     atom   19 type  2   force =    -0.00001387   -0.00000458   -0.28035512
     atom   20 type  2   force =     0.10390164   -0.05998683   -0.13550314
     atom   21 type  2   force =     0.00132010   -0.00072901   -0.26646438
     atom   22 type  2   force =    -0.00001999    0.11994944   -0.13549537
     atom   23 type  2   force =     0.00000959    0.00152303   -0.26646177
     The ionic contribution  to forces
     atom    1 type  1   force =    -0.00213513   -0.00056797    0.00470069
     atom    2 type  1   force =     0.00071479   -0.00014000   -0.00892425
     atom    3 type  1   force =    -0.00036470    0.00035774    0.01036549
     atom    4 type  1   force =     0.00092041   -0.00225157   -0.00524903
     atom    5 type  1   force =     0.00186703   -0.00037637    0.00585228
     atom    6 type  1   force =    -0.00353155    0.00341356   -0.00439180
     atom    7 type  1   force =     0.00003179    0.00261196    0.00550300
     atom    8 type  2   force =    -0.00196479    0.78195668  -17.46524576
     atom    9 type  2   force =    -0.00122615    8.56182953   -7.82741838
     atom   10 type  2   force =     0.67533514   -0.39379089  -17.46445411
     atom   11 type  2   force =     7.41358775   -4.28232476   -7.82820392
     atom   12 type  2   force =     0.00221683    0.00224539  -16.86053996
     atom   13 type  2   force =     0.00187342    0.00107430  -11.49640447
     atom   14 type  2   force =    -0.67537638   -0.39155708  -17.46785466
     atom   15 type  2   force =    -7.41489027   -4.28228849   -7.82829838
     atom   16 type  2   force =     7.41126855    4.27785314    7.80730038
     atom   17 type  2   force =     0.67529062    0.39107874   17.48114144
     atom   18 type  2   force =    -0.00233985   -0.00200041   11.48201915
     atom   19 type  2   force =     0.00379125    0.00034051   16.87757936
     atom   20 type  2   force =    -7.41128097    4.28423896    7.81031291
     atom   21 type  2   force =    -0.67525743    0.38695817   17.48146314
     atom   22 type  2   force =     0.00499243   -8.55923872    7.80856341
     atom   23 type  2   force =    -0.00352277   -0.77942244   17.48218346
     The local contribution  to forces
     atom    1 type  1   force =     0.00210089    0.00058003   -0.00483207
     atom    2 type  1   force =    -0.00074775    0.00011959    0.00893308
     atom    3 type  1   force =     0.00034474   -0.00033260   -0.01031878
     atom    4 type  1   force =    -0.00089434    0.00225936    0.00533340
     atom    5 type  1   force =    -0.00184834    0.00040171   -0.00596306
     atom    6 type  1   force =     0.00348295   -0.00332988    0.00452700
     atom    7 type  1   force =    -0.00002800   -0.00256073   -0.00561299
     atom    8 type  2   force =     0.00192845   -0.78032020   17.20407952
     atom    9 type  2   force =     0.00122771   -8.44436600    7.69545914
     atom   10 type  2   force =    -0.67393039    0.39291825   17.20329251
     atom   11 type  2   force =    -7.31188213    4.22357609    7.69626157
     atom   12 type  2   force =    -0.00217774   -0.00222747   16.58576300
     atom   13 type  2   force =    -0.00184458   -0.00106425   11.28730826
     atom   14 type  2   force =     0.67397854    0.39073292   17.20670122
     atom   15 type  2   force =     7.31315941    4.22351430    7.69625187
     atom   16 type  2   force =    -7.30957615   -4.21917239   -7.67532110
     atom   17 type  2   force =    -0.67387286   -0.39027117  -17.22009497
     atom   18 type  2   force =     0.00233932    0.00198205  -11.27285630
     atom   19 type  2   force =    -0.00378397   -0.00034779  -16.60289107
     atom   20 type  2   force =     7.30958914   -4.22548776   -7.67825299
     atom   21 type  2   force =     0.67384610   -0.38615958  -17.22038698
     atom   22 type  2   force =    -0.00493925    8.44182515   -7.67652324
     atom   23 type  2   force =     0.00352093    0.77778230  -17.22110244
     The core correction contribution to forces
     atom    1 type  1   force =    -0.00000008    0.00000017   -0.00000092
     atom    2 type  1   force =    -0.00000016    0.00000042   -0.00000069
     atom    3 type  1   force =     0.00000006    0.00000038    0.00000108
     atom    4 type  1   force =    -0.00000183    0.00000041   -0.00000072
     atom    5 type  1   force =    -0.00000006    0.00000004   -0.00000074
     atom    6 type  1   force =    -0.00000056   -0.00000096   -0.00000074
     atom    7 type  1   force =    -0.00000014    0.00000031   -0.00000084
     atom    8 type  2   force =    -0.00000168   -0.00000067   -0.00564610
     atom    9 type  2   force =     0.00000058    0.00268345   -0.00310192
     atom   10 type  2   force =    -0.00000328    0.00000230   -0.00564682
     atom   11 type  2   force =     0.00232685   -0.00134265   -0.00310241
     atom   12 type  2   force =     0.00000048    0.00000281   -0.00580118
     atom   13 type  2   force =    -0.00000015    0.00000297   -0.00481154
     atom   14 type  2   force =     0.00000224    0.00000369   -0.00564689
     atom   15 type  2   force =    -0.00232481   -0.00134239   -0.00310370
     atom   16 type  2   force =     0.00232503    0.00134214    0.00309857
     atom   17 type  2   force =    -0.00000363    0.00000033    0.00563709
     atom   18 type  2   force =    -0.00000022    0.00000248    0.00481216
     atom   19 type  2   force =     0.00000065    0.00000290    0.00579723
     atom   20 type  2   force =    -0.00232223    0.00134060    0.00309951
     atom   21 type  2   force =     0.00000255   -0.00000111    0.00563870
     atom   22 type  2   force =    -0.00000008   -0.00268436    0.00309901
     atom   23 type  2   force =    -0.00000170    0.00000619    0.00563778
     The Hubbard contrib.    to forces
     atom    1 type  1   force =     0.00000000    0.00000000    0.00000000
     atom    2 type  1   force =     0.00000000    0.00000000    0.00000000
     atom    3 type  1   force =     0.00000000    0.00000000    0.00000000
     atom    4 type  1   force =     0.00000000    0.00000000    0.00000000
     atom    5 type  1   force =     0.00000000    0.00000000    0.00000000
     atom    6 type  1   force =     0.00000000    0.00000000    0.00000000
     atom    7 type  1   force =     0.00000000    0.00000000    0.00000000
     atom    8 type  2   force =     0.00000000    0.00000000    0.00000000
     atom    9 type  2   force =     0.00000000    0.00000000    0.00000000
     atom   10 type  2   force =     0.00000000    0.00000000    0.00000000
     atom   11 type  2   force =     0.00000000    0.00000000    0.00000000
     atom   12 type  2   force =     0.00000000    0.00000000    0.00000000
     atom   13 type  2   force =     0.00000000    0.00000000    0.00000000
     atom   14 type  2   force =     0.00000000    0.00000000    0.00000000
     atom   15 type  2   force =     0.00000000    0.00000000    0.00000000
     atom   16 type  2   force =     0.00000000    0.00000000    0.00000000
     atom   17 type  2   force =     0.00000000    0.00000000    0.00000000
     atom   18 type  2   force =     0.00000000    0.00000000    0.00000000
     atom   19 type  2   force =     0.00000000    0.00000000    0.00000000
     atom   20 type  2   force =     0.00000000    0.00000000    0.00000000
     atom   21 type  2   force =     0.00000000    0.00000000    0.00000000
     atom   22 type  2   force =     0.00000000    0.00000000    0.00000000
     atom   23 type  2   force =     0.00000000    0.00000000    0.00000000
     The SCF correction term to forces
     atom    1 type  1   force =    -0.00000528   -0.00000174    0.00006766
     atom    2 type  1   force =     0.00003791    0.00001440   -0.00002817
     atom    3 type  1   force =     0.00000701    0.00000281    0.00007292
     atom    4 type  1   force =     0.00003131   -0.00005480   -0.00001378
     atom    5 type  1   force =     0.00000524   -0.00000987    0.00006940
     atom    6 type  1   force =    -0.00003871    0.00005066   -0.00000965
     atom    7 type  1   force =    -0.00000694    0.00000875    0.00006872
     atom    8 type  2   force =     0.00001180    0.00002333    0.00006156
     atom    9 type  2   force =     0.00001754    0.00002628   -0.00005181
     atom   10 type  2   force =     0.00003122    0.00000149    0.00005779
     atom   11 type  2   force =     0.00003745    0.00000544   -0.00004893
     atom   12 type  2   force =    -0.00001158   -0.00001246    0.00003963
     atom   13 type  2   force =    -0.00001812   -0.00001724   -0.00003011
     atom   14 type  2   force =    -0.00003145   -0.00001199    0.00004396
     atom   15 type  2   force =    -0.00003434   -0.00001306   -0.00004405
     atom   16 type  2   force =     0.00000588   -0.00000035   -0.00004490
     atom   17 type  2   force =     0.00001853    0.00000812    0.00003011
     atom   18 type  2   force =     0.00002999    0.00002094   -0.00001640
     atom   19 type  2   force =     0.00002552    0.00001737    0.00001229
     atom   20 type  2   force =    -0.00000852   -0.00003312   -0.00002428
     atom   21 type  2   force =    -0.00001837   -0.00002135    0.00001007
     atom   22 type  2   force =    -0.00002924    0.00001011   -0.00002388
     atom   23 type  2   force =    -0.00002552   -0.00000384    0.00000787

     Total force =     0.001718     Total SCF correction =     0.000260
     SCF correction compared to forces is large: reduce conv_thr to get better values

     Computing stress (Cartesian axis) and pressure

[...]

          total   stress  (Ry/bohr**3)                   (kbar)     P=       13.50
   0.00008923  -0.00000000   0.00000001           13.13       -0.00        0.00
  -0.00000000   0.00008924   0.00000000           -0.00       13.13        0.00
   0.00000001   0.00000000   0.00009681            0.00        0.00       14.24

     kinetic stress (kbar)  14173.47      0.00     -0.00
                                0.00  14173.47     -0.00
                               -0.00     -0.00  14187.09

     local   stress (kbar)  -7552.20     -0.18     -0.34
                               -0.18  -7551.97     -0.14
                               -0.34     -0.14    207.19

     nonloc. stress (kbar)   -735.65      0.00     -0.00
                                0.00   -735.65     -0.00
                               -0.00     -0.00   -737.39

     hartree stress (kbar)  11846.55      0.09      0.14
                                0.09  11846.43      0.06
                                0.14      0.06   8338.30

     exc-cor stress (kbar)   6751.56     -0.00      0.00
                               -0.00   6751.56      0.00
                                0.00      0.00   6750.70

     corecor stress (kbar) -10976.67      0.00      0.00
                                0.00 -10976.67      0.00
                                0.00      0.00 -10976.68

     ewald   stress (kbar) -13575.49      0.09      0.20
                                0.09 -13575.60      0.09
                                0.20      0.09 -17837.56

     hubbard stress (kbar)      0.00      0.00      0.00
                                0.00      0.00      0.00
                                0.00      0.00      0.00

     DFT-D   stress (kbar)      0.00      0.00      0.00
                                0.00      0.00      0.00
                                0.00      0.00      0.00

     XDM     stress (kbar)      0.00      0.00      0.00
                                0.00      0.00      0.00
                                0.00      0.00      0.00

     dft-nl  stress (kbar)     81.56      0.00     -0.00
                                0.00     81.56     -0.00
                               -0.00     -0.00     82.59

     TS-vdW  stress (kbar)      0.00      0.00      0.00
                                0.00      0.00      0.00
                                0.00      0.00      0.00

     MDB     stress (kbar)      0.00      0.00      0.00
                                0.00      0.00      0.00
                                0.00      0.00      0.00

     3D-RISM stress (kbar)      0.00      0.00      0.00
                                0.00      0.00      0.00
                                0.00      0.00      0.00

[...]

     Non-local corr. energy    =      11.26224482 Ry

 BEEFens 2000 ensemble energies
             -0.939972839999871E+01
             -0.945208283426162E+02
             -0.430036778726436E+02
              0.329937274758099E+02
             -0.721777877827036E+02
             -0.884303978988694E+02
              0.453951181193995E+02
              0.243810764511409E+00
              0.765081484775968E+02
             -0.486124699248501E+01
              0.391354748093151E+02
              0.403741234674436E+01
             -0.298667721235191E+01
             -0.239635099683352E+01
              0.488772142662071E+02
             -0.367176924957193E+02
             -0.721787382500555E+02
             -0.233066279346974E+02
              0.209203104046102E+02
             -0.383309571884865E+00
              0.106398021111857E+03
              0.888460571431454E+02
             -0.547024195435558E+02
              0.189325949623625E+02
             -0.113991270958208E+03
              0.936029198650975E+02
              0.319962670199588E+02
              0.845261455442825E+02
              0.569720073469098E+02
             -0.264682143416547E+02
              0.208226598040680E+02
             -0.373567667360302E+02
              0.155575756536631E+02
              0.566485991030511E+02
              0.608957319650328E+02
             -0.265548690016653E+02
              0.134523646423505E+03
             -0.540525655168589E+02
             -0.361077217597304E+02
              0.538126103913539E+02
              0.236904191715188E+02
              0.408146529747384E+02
             -0.789193463770582E+02
             -0.513244271660369E+01
              0.757430281386621E+02
              0.989798354209147E+02
             -0.100445009943363E+03
              0.648937020706368E+01
              0.348711248275829E+02
              0.224916077199171E+02
              0.393260424872125E+02
              0.862944364177959E+02
             -0.560136773611310E+02
             -0.543214482982094E+02
             -0.757955760369287E+02
             -0.110578844518184E+02
             -0.646859502285576E+02
              0.835041110853348E+01
             -0.932969881698511E+01
             -0.512614754256311E+02
[...]
              0.640346414599472E+02
              0.410468513624364E+02
              0.418271023357748E+02
             -0.773898729231905E+02
             -0.799179713089657E+02
             -0.180250697997809E+02
             -0.714506735696799E+02
              0.113443349983732E+03
              0.956028089479625E+02
              0.450655334098368E+02
              0.124258940454275E+03
             -0.621435270051740E+02
             -0.267247253739261E+02
             -0.385043209912888E+02
              0.107459109807662E+03

 BEEF-vdW xc energy contributions
            1 :    -971.5406717524925
            2 :     890.2581104977637
            3 :    -751.6951589245050
            4 :     592.7381084628785
            5 :    -448.0156562193383
            6 :     338.8665435811924
            7 :    -270.0066191236660
            8 :     232.6552870478798
            9 :    -211.1561807627754
           10 :     190.4171773284536
           11 :    -161.7280553115620
           12 :     124.8476660788738
           13 :    -85.81916154175951
           14 :     52.26606090887753
           15 :    -29.07478877335870
           16 :     16.51380084437278
           17 :    -11.01210175770120
           18 :     7.522666750615826
           19 :    -2.094124324527002
           20 :    -6.465087395863975
           21 :     16.47467764715111
           22 :    -24.77742575847878
           23 :     28.81596183543968
           24 :    -28.18228323951553
           25 :     24.79973905981069
           26 :    -21.76997570599951
           27 :     21.65702868888002
           28 :    -25.16627698629190
           29 :     30.85387416798017
           30 :    -35.95030321996683
           31 :    -83.27452976813925
           32 :    -59.84321339702967

     Writing all to output data dir ./PbI2.save/

     General routines

     Parallel routines

     PAW routines

   This run was terminated on:   6:33:34  28Mar2024

   JOB DONE.