     Program PWSCF v.7.1 starts on  2Mar2024 at  9:49:23

     Reading input from espresso.pwi
Warning: card &CELL ignored
Warning: card    CELL_DYNAMICS    = 'BFGS' ignored
Warning: card / ignored

     Current dimensions of program PWSCF are:
     Max number of different atomic species (ntypx) = 10
     Max number of k-points (npk) =  40000
     Max angular momentum in pseudopotentials (lmaxx) =  4
     file Pb.pbe-dn-kjpaw_psl.1.0.0.UPF: wavefunction(s)  6S 6P 5D renormalized
     file I.pbe-dn-kjpaw_psl.1.0.0.UPF: wavefunction(s)  5S 5P renormalized

     IMPORTANT: XC functional enforced from input :
     Exchange-correlation= BEEF-VDW
                           (   1   4  43  14   2   0   0)
     Any further DFT definition will be discarded
     Please, verify this is what you really want

     R & G space division:  proc/nbgrp/npool/nimage =     128
     Subspace diagonalization in iterative solution of the eigenvalue problem:
     a serial algorithm will be used

     Using Slab Decomposition

     bravais-lattice index     =            4
     lattice parameter (alat)  =      35.6073  a.u.
     unit-cell volume          =   30614.2220 (a.u.)^3
     number of atoms/cell      =           96
     number of atomic types    =            2
     number of electrons       =      1530.00
     number of Kohn-Sham states=          918
     kinetic-energy cutoff     =      70.0000  Ry
     charge density cutoff     =     350.0000  Ry
     scf convergence threshold =      1.0E-07
     mixing beta               =       0.7000
     number of iterations used =            8  plain     mixing
     energy convergence thresh.=      1.0E-04
     force convergence thresh. =      1.0E-03
     Exchange-correlation= BEEF-VDW
                           (   1   4  43  14   2   0   0)
     nstep                     =           50

     celldm(1)=  35.607290  celldm(2)=   0.000000  celldm(3)=   0.783025
     celldm(4)=   0.000000  celldm(5)=   0.000000  celldm(6)=   0.000000

     crystal axes: (cart. coord. in units of alat)
               a(1) = (   1.000000   0.000000   0.000000 )
               a(2) = (  -0.500000   0.866025   0.000000 )
               a(3) = (   0.000000   0.000000   0.783025 )

     reciprocal axes: (cart. coord. in units 2 pi/alat)
               b(1) = (  1.000000  0.577350 -0.000000 )
               b(2) = (  0.000000  1.154701  0.000000 )
               b(3) = (  0.000000 -0.000000  1.277098 )

     PseudoPot. # 1 for Pb read from file:
     //group///packages/espresso/pseudo/psl_1.0.0/pslibrary.1.0.0/pbe/PSEUDOPOTENTIALS/Pb.pbe-dn-kjpaw_psl.1.0.0.UPF
     MD5 check sum: 39ab5b8a6bbd56b7735ad9f188aac93a
     Pseudo is Projector augmented-wave + core cor, Zval = 14.0
     Generated using 'atomic' code by A. Dal Corso  v.7.1
     Shape of augmentation charge: PSQ
     Using radial grid of 1281 points,  6 beta functions with:
                l(1) =   0
                l(2) =   0
                l(3) =   1
                l(4) =   1
                l(5) =   2
                l(6) =   2
     Q(r) pseudized with 0 coefficients

     PseudoPot. # 2 for I  read from file:
     //group///packages/espresso/pseudo/psl_1.0.0/pslibrary.1.0.0/pbe/PSEUDOPOTENTIALS/I.pbe-dn-kjpaw_psl.1.0.0.UPF
     MD5 check sum: bfa8781bc1224d19af3f3980e3fab11e
     Pseudo is Projector augmented-wave + core cor, Zval = 17.0
     Generated using 'atomic' code by A. Dal Corso  v.7.1
     Shape of augmentation charge: PSQ
     Using radial grid of 1247 points,  6 beta functions with:
                l(1) =   0
                l(2) =   0
                l(3) =   1
                l(4) =   1
                l(5) =   2
                l(6) =   2
     Q(r) pseudized with 0 coefficients

     atomic species   valence    mass     pseudopotential
        Pb            14.00   207.20000     Pb( 1.00)
        I             17.00   126.90447     I ( 1.00)

     No symmetry found

                                    s                        frac. trans.

      isym =  1     identity

 cryst.   s( 1) = (     1          0          0      )
                  (     0          1          0      )
                  (     0          0          1      )

 cart.    s( 1) = (  1.0000000  0.0000000  0.0000000 )
                  (  0.0000000  1.0000000  0.0000000 )
                  (  0.0000000  0.0000000  1.0000000 )

     point group C_1 (1)
     there are  1 classes
     the character table:

       E
A      1.00

     the symmetry operations in each class and the name of the first element:

     E        1
          identity

   Cartesian axes

     site n.     atom                  positions (alat units)
         1           Pb  tau(   1) = (   0.1250086   0.2164870   0.7830203  )
         2           Pb  tau(   2) = (   0.1250034   0.2164916   0.3915076  )
         3           Pb  tau(   3) = (   0.0000077   0.4329922   0.7830161  )
         4           Pb  tau(   4) = (   0.0000025   0.4329968   0.3915034  )
         5           Pb  tau(   5) = (  -0.1249932   0.6494975   0.7830119  )
         6           Pb  tau(   6) = (  -0.1249984   0.6495021   0.3914992  )
         7           Pb  tau(   7) = (  -0.2499941   0.8660028   0.7830077  )
         8           Pb  tau(   8) = (  -0.2499993   0.8660074   0.3914950  )
         9           Pb  tau(   9) = (   0.3750086   0.2164859   0.7830237  )
        10           Pb  tau(  10) = (   0.3750034   0.2164905   0.3915110  )
        11           Pb  tau(  11) = (   0.2500077   0.4329912   0.7830194  )
        12           Pb  tau(  12) = (   0.2500025   0.4329958   0.3915068  )
        13           Pb  tau(  13) = (   0.1250068   0.6494965   0.7830152  )
        14           Pb  tau(  14) = (   0.1250016   0.6495011   0.3915026  )
        15           Pb  tau(  15) = (   0.0000059   0.8660017   0.7830110  )
        16           Pb  tau(  16) = (   0.0000007   0.8660063   0.3914983  )
        17           Pb  tau(  17) = (   0.6250086   0.2164849   0.7830270  )
        18           Pb  tau(  18) = (   0.6250034   0.2164895   0.3915143  )
        19           Pb  tau(  19) = (   0.5000077   0.4329901   0.7830228  )
        20           Pb  tau(  20) = (   0.5000025   0.4329947   0.3915101  )
        21           Pb  tau(  21) = (   0.3750068   0.6494954   0.7830186  )
        22           Pb  tau(  22) = (   0.3750016   0.6495000   0.3915059  )
        23           Pb  tau(  23) = (   0.2500059   0.8660007   0.7830144  )
        24           Pb  tau(  24) = (   0.2500007   0.8660053   0.3915017  )
        25           Pb  tau(  25) = (   0.8750086   0.2164838   0.7830303  )
        26           Pb  tau(  26) = (   0.8750034   0.2164884   0.3915177  )
        27           Pb  tau(  27) = (   0.7500077   0.4329891   0.7830261  )
        28           Pb  tau(  28) = (   0.7500025   0.4329937   0.3915135  )
        29           Pb  tau(  29) = (   0.6250068   0.6494944   0.7830219  )
        30           Pb  tau(  30) = (   0.6250016   0.6494990   0.3915092  )
        31           Pb  tau(  31) = (   0.5000059   0.8659996   0.7830177  )
        32           Pb  tau(  32) = (   0.5000007   0.8660042   0.3915050  )
        33           I   tau(  33) = (   0.1250108   0.0721500   0.6824290  )
        34           I   tau(  34) = (   0.0000047   0.2886599   0.2909121  )
        35           I   tau(  35) = (   0.0000099   0.2886553   0.6824248  )
        36           I   tau(  36) = (  -0.1249962   0.5051652   0.2909079  )
        37           I   tau(  37) = (  -0.1249910   0.5051606   0.6824206  )
        38           I   tau(  38) = (  -0.2499972   0.7216704   0.2909037  )
        39           I   tau(  39) = (  -0.2499919   0.7216658   0.6824164  )
        40           I   tau(  40) = (   0.3750056   0.0721536   0.2909197  )
        41           I   tau(  41) = (   0.3750108   0.0721490   0.6824324  )
        42           I   tau(  42) = (   0.2500047   0.2886589   0.2909155  )
        43           I   tau(  43) = (   0.2500099   0.2886543   0.6824282  )
        44           I   tau(  44) = (   0.1250038   0.5051641   0.2909113  )
        45           I   tau(  45) = (   0.1250090   0.5051595   0.6824240  )
        46           I   tau(  46) = (   0.0000028   0.7216694   0.2909071  )
        47           I   tau(  47) = (   0.0000081   0.7216648   0.6824197  )
        48           I   tau(  48) = (   0.6250056   0.0721525   0.2909230  )
        49           I   tau(  49) = (   0.6250108   0.0721479   0.6824357  )
        50           I   tau(  50) = (   0.5000047   0.2886578   0.2909188  )
        51           I   tau(  51) = (   0.5000099   0.2886532   0.6824315  )
        52           I   tau(  52) = (   0.3750038   0.5051631   0.2909146  )
        53           I   tau(  53) = (   0.3750090   0.5051585   0.6824273  )
        54           I   tau(  54) = (   0.2500028   0.7216683   0.2909104  )
        55           I   tau(  55) = (   0.2500081   0.7216637   0.6824231  )
        56           I   tau(  56) = (   0.8750056   0.0721515   0.2909264  )
        57           I   tau(  57) = (   0.8750108   0.0721469   0.6824391  )
        58           I   tau(  58) = (   0.7500047   0.2886567   0.2909222  )
        59           I   tau(  59) = (   0.7500099   0.2886521   0.6824348  )
        60           I   tau(  60) = (   0.6250038   0.5051620   0.2909180  )
[...]
        82           I   tau(  82) = (   0.3749973   0.3608329   0.1005958  )
        83           I   tau(  83) = (   0.3750025   0.3608283   0.4921084  )
        84           I   tau(  84) = (   0.2499964   0.5773382   0.1005915  )
        85           I   tau(  85) = (   0.2500016   0.5773336   0.4921042  )
        86           I   tau(  86) = (   0.1249955   0.7938434   0.1005873  )
        87           I   tau(  87) = (   0.1250007   0.7938388   0.4921000  )
        88           I   tau(  88) = (   0.7499982   0.1443266   0.1006033  )
        89           I   tau(  89) = (   0.7500034   0.1443220   0.4921160  )
        90           I   tau(  90) = (   0.6249973   0.3608319   0.1005991  )
        91           I   tau(  91) = (   0.6250025   0.3608273   0.4921118  )
        92           I   tau(  92) = (   0.4999964   0.5773371   0.1005949  )
        93           I   tau(  93) = (   0.5000016   0.5773325   0.4921076  )
        94           I   tau(  94) = (   0.3749955   0.7938424   0.1005907  )
        95           I   tau(  95) = (   0.3750007   0.7938378   0.4921034  )
        96           Pb  tau(  96) = (   0.1250056   0.0721546   0.2909163  )

   Crystallographic axes

     site n.     atom                  positions (cryst. coord.)
         1           Pb  tau(   1) = (  0.2499975  0.2499776  0.9999935  )
         2           Pb  tau(   2) = (  0.2499949  0.2499829  0.4999935  )
         3           Pb  tau(   3) = (  0.2499959  0.4999764  0.9999882  )
         4           Pb  tau(   4) = (  0.2499933  0.4999817  0.4999882  )
         5           Pb  tau(   5) = (  0.2499944  0.7499751  0.9999828  )
         6           Pb  tau(   6) = (  0.2499918  0.7499804  0.4999828  )
         7           Pb  tau(   7) = (  0.2499928  0.9999739  0.9999774  )
         8           Pb  tau(   8) = (  0.2499903  0.9999792  0.4999774  )
[...]
     atom   44 type  2   force =     0.00000000    0.00000000    0.00000000
     atom   45 type  2   force =     0.00000000    0.00000000    0.00000000
     atom   46 type  2   force =     0.00000000    0.00000000    0.00000000
     atom   47 type  2   force =     0.00000000    0.00000000    0.00000000
     atom   48 type  2   force =     0.00000000    0.00000000    0.00000000
     atom   49 type  2   force =     0.00000000    0.00000000    0.00000000
     atom   50 type  2   force =     0.00000000    0.00000000    0.00000000
     atom   51 type  2   force =     0.00000000    0.00000000    0.00000000
     atom   52 type  2   force =     0.00000000    0.00000000    0.00000000
     atom   53 type  2   force =     0.00000000    0.00000000    0.00000000
     atom   54 type  2   force =     0.00000000    0.00000000    0.00000000
     atom   55 type  2   force =     0.00000000    0.00000000    0.00000000
     atom   56 type  2   force =     0.00000000    0.00000000    0.00000000
     atom   57 type  2   force =     0.00000000    0.00000000    0.00000000
     atom   58 type  2   force =     0.00000000    0.00000000    0.00000000
     atom   59 type  2   force =     0.00000000    0.00000000    0.00000000
     atom   60 type  2   force =     0.00000000    0.00000000    0.00000000
[...]
     atom   82 type  2   force =     0.00000000    0.00000000    0.00000000
     atom   83 type  2   force =     0.00000000    0.00000000    0.00000000
     atom   84 type  2   force =     0.00000000    0.00000000    0.00000000
     atom   85 type  2   force =     0.00000000    0.00000000    0.00000000
     atom   86 type  2   force =     0.00000000    0.00000000    0.00000000
     atom   87 type  2   force =     0.00000000    0.00000000    0.00000000
     atom   88 type  2   force =     0.00000000    0.00000000    0.00000000
     atom   89 type  2   force =     0.00000000    0.00000000    0.00000000
     atom   90 type  2   force =     0.00000000    0.00000000    0.00000000
     atom   91 type  2   force =     0.00000000    0.00000000    0.00000000
     atom   92 type  2   force =     0.00000000    0.00000000    0.00000000
     atom   93 type  2   force =     0.00000000    0.00000000    0.00000000
     atom   94 type  2   force =     0.00000000    0.00000000    0.00000000
     atom   95 type  2   force =     0.00000000    0.00000000    0.00000000
     atom   96 type  1   force =     0.00000000    0.00000000    0.00000000
     The SCF correction term to forces
     atom    1 type  1   force =     0.00000006   -0.00000794    0.00000605
     atom    2 type  1   force =     0.00000002   -0.00000719   -0.00000240
     atom    3 type  1   force =    -0.00000197   -0.00000769    0.00000318
     atom    4 type  1   force =    -0.00000852   -0.00001016   -0.00000490
     atom    5 type  1   force =    -0.00000769    0.00000243    0.00000311
     atom    6 type  1   force =    -0.00001298   -0.00000204   -0.00000494
     atom    7 type  1   force =    -0.00000667    0.00000386    0.00000606
     atom    8 type  1   force =    -0.00000600    0.00000359   -0.00000238
     atom    9 type  1   force =     0.00000557    0.00000300   -0.00001299
     atom   10 type  1   force =    -0.00000148   -0.00000097    0.00000348
     atom   11 type  1   force =     0.00000196   -0.00000780    0.00000316
     atom   12 type  1   force =     0.00000846   -0.00001019   -0.00000490
     atom   13 type  1   force =    -0.00000007    0.00000016    0.00002595
     atom   14 type  1   force =    -0.00000004    0.00000010   -0.00002142
     atom   15 type  1   force =    -0.00000577    0.00000560    0.00000311
     atom   16 type  1   force =    -0.00000468    0.00001244   -0.00000485
     atom   17 type  1   force =    -0.00000004    0.00000210   -0.00001108
     atom   18 type  1   force =    -0.00000001    0.00000728    0.00000393
     atom   19 type  1   force =     0.00000200   -0.00000117   -0.00001096
     atom   20 type  1   force =     0.00000645   -0.00000378    0.00000403
     atom   21 type  1   force =     0.00000765    0.00000241    0.00000313
     atom   22 type  1   force =     0.00001296   -0.00000207   -0.00000495
     atom   23 type  1   force =     0.00000566    0.00000564    0.00000312
     atom   24 type  1   force =     0.00000463    0.00001240   -0.00000483
     atom   25 type  1   force =    -0.00000562    0.00000304   -0.00001300
     atom   26 type  1   force =     0.00000147   -0.00000094    0.00000339
     atom   27 type  1   force =    -0.00000201   -0.00000104   -0.00001097
     atom   28 type  1   force =    -0.00000643   -0.00000379    0.00000405
     atom   29 type  1   force =     0.00000009   -0.00000630   -0.00001305
     atom   30 type  1   force =     0.00000003    0.00000174    0.00000364
     atom   31 type  1   force =     0.00000678    0.00000391    0.00000610
     atom   32 type  1   force =     0.00000602    0.00000360   -0.00000244
     atom   33 type  2   force =     0.00000012   -0.00000001    0.00000953
     atom   34 type  2   force =     0.00000362   -0.00001021    0.00000354
     atom   35 type  2   force =    -0.00000757   -0.00000436    0.00000053
     atom   36 type  2   force =    -0.00000734   -0.00000427   -0.00000064
     atom   37 type  2   force =    -0.00001592   -0.00000905    0.00000149
     atom   38 type  2   force =    -0.00000688    0.00000715    0.00000378
     atom   39 type  2   force =    -0.00000739   -0.00000434    0.00000072
     atom   40 type  2   force =    -0.00000971    0.00000235    0.00000358
     atom   41 type  2   force =     0.00000029    0.00000842    0.00000055
     atom   42 type  2   force =    -0.00000345   -0.00001019    0.00000367
     atom   43 type  2   force =     0.00000761   -0.00000442    0.00000052
     atom   44 type  2   force =     0.00000002   -0.00000325   -0.00001526
     atom   45 type  2   force =    -0.00000007   -0.00001671    0.00001315
     atom   46 type  2   force =    -0.00000314    0.00000199   -0.00001494
     atom   47 type  2   force =    -0.00001465    0.00000859    0.00001289
     atom   48 type  2   force =    -0.00000003    0.00000874   -0.00000078
     atom   49 type  2   force =    -0.00000005    0.00001787    0.00000090
     atom   50 type  2   force =     0.00000555    0.00000285    0.00001048
     atom   51 type  2   force =    -0.00000051   -0.00000058   -0.00000618
     atom   52 type  2   force =     0.00000730   -0.00000429   -0.00000063
     atom   53 type  2   force =     0.00001588   -0.00000923    0.00000144
     atom   54 type  2   force =     0.00000311    0.00000202   -0.00001512
     atom   55 type  2   force =     0.00001458    0.00000856    0.00001300
     atom   56 type  2   force =     0.00000978    0.00000216    0.00000369
     atom   57 type  2   force =    -0.00000032    0.00000854    0.00000057
     atom   58 type  2   force =    -0.00000536    0.00000274    0.00001058
     atom   59 type  2   force =     0.00000044   -0.00000049   -0.00000621
     atom   60 type  2   force =     0.00000009   -0.00000695    0.00001024
[...]
     atom   82 type  2   force =     0.00000018   -0.00000046   -0.00000614
     atom   83 type  2   force =     0.00001100   -0.00000830    0.00000290
     atom   84 type  2   force =    -0.00000523    0.00000321    0.00000613
     atom   85 type  2   force =     0.00001843   -0.00001050   -0.00000466
     atom   86 type  2   force =    -0.00000005   -0.00000557    0.00000624
     atom   87 type  2   force =    -0.00000006    0.00002173   -0.00000488
     atom   88 type  2   force =     0.00000014    0.00000031   -0.00000635
     atom   89 type  2   force =     0.00000146    0.00001336    0.00000275
     atom   90 type  2   force =     0.00000004   -0.00000024   -0.00000611
     atom   91 type  2   force =     0.00000002   -0.00000012    0.00000571
     atom   92 type  2   force =     0.00000051    0.00000002   -0.00000621
     atom   93 type  2   force =     0.00001264   -0.00000544    0.00000294
     atom   94 type  2   force =     0.00000424    0.00000267   -0.00000033
     atom   95 type  2   force =     0.00001618    0.00000922    0.00000174
     atom   96 type  1   force =     0.00000007   -0.00000015   -0.00000591

     Total force =     0.003500     Total SCF correction =     0.000122

     Computing stress (Cartesian axis) and pressure

     Non-local corr. energy    =      45.72760527 Ry

          total   stress  (Ry/bohr**3)                   (kbar)     P=       -8.55
  -0.00005812  -0.00000000  -0.00000000           -8.55       -0.00       -0.00
  -0.00000000  -0.00005813   0.00000000           -0.00       -8.55        0.00
  -0.00000000   0.00000000  -0.00005808           -0.00        0.00       -8.54

     kinetic stress (kbar)  15065.29     -0.00     -0.00
                               -0.00  15065.29      0.00
                               -0.00      0.00  15076.43

     local   stress (kbar)  -7298.20     -0.02     -0.00
                               -0.02  -7298.27      0.01
                               -0.00      0.01   1094.10

     nonloc. stress (kbar)  -1185.04     -0.00      0.00
                               -0.00  -1185.04     -0.00
                                0.00     -0.00  -1190.88

     hartree stress (kbar)  11883.22      0.01      0.00
                                0.01  11883.25     -0.01
                                0.00     -0.01   8110.46

     exc-cor stress (kbar)   6915.00      0.00     -0.00
                                0.00   6915.01     -0.00
                               -0.00     -0.00   6913.88

     corecor stress (kbar) -11262.17     -0.00      0.00
                               -0.00 -11262.17     -0.00
                                0.00     -0.00 -11262.08

     ewald   stress (kbar) -14209.42      0.01      0.00
                                0.01 -14209.38     -0.01
                                0.00     -0.01 -18834.50

     hubbard stress (kbar)      0.00      0.00      0.00
                                0.00      0.00      0.00
                                0.00      0.00      0.00

     DFT-D   stress (kbar)      0.00      0.00      0.00
                                0.00      0.00      0.00
                                0.00      0.00      0.00

     XDM     stress (kbar)      0.00      0.00      0.00
                                0.00      0.00      0.00
                                0.00      0.00      0.00

     dft-nl  stress (kbar)     82.77     -0.00      0.00
                               -0.00     82.77      0.00
                                0.00      0.00     84.05

     TS-vdW  stress (kbar)      0.00      0.00      0.00
                                0.00      0.00      0.00
                                0.00      0.00      0.00

     MDB     stress (kbar)      0.00      0.00      0.00
                                0.00      0.00      0.00
                                0.00      0.00      0.00

     3D-RISM stress (kbar)      0.00      0.00      0.00
                                0.00      0.00      0.00
                                0.00      0.00      0.00

     Energy error            =      6.8E-05 Ry
     Gradient error          =      9.0E-04 Ry/Bohr

     bfgs converged in  26 scf cycles and  25 bfgs steps
     (criteria: energy <  1.0E-04 Ry, force <  1.0E-03 Ry/Bohr)

     End of BFGS Geometry Optimization

     Final energy             =  -65089.8946053304 Ry

     File ./PbI2.bfgs deleted, as requested
Begin final coordinates

ATOMIC_POSITIONS (angstrom)
Pb            2.3554264576        4.2178432626       14.5775544552
Pb            2.3553670228        4.3179849558        7.6122390341
Pb            0.0091231665        8.2138916631       14.7736057454
Pb           -0.0466452372        8.2003717202        7.3422848403
Pb           -2.3029577490       12.2185078193       14.7736474138
Pb           -2.3425207444       12.1770767683        7.3422497805
Pb           -4.5904642831       16.2483395598       14.5773613511
Pb           -4.5037295967       16.1984373330        7.6123385429
Pb            7.2262899955        4.1716853003       14.7068049530
Pb            7.0941532306        4.0954562857        7.4240144530
Pb            4.7016555591        8.2138955758       14.7736088992
Pb            4.7573914081        8.2003688494        7.3422920650
Pb            2.3553915776       12.2382609963       14.7158384839
Pb            2.3553710493       12.2383135198        7.3145803145
Pb            0.0433481317       16.2823977629       14.7737255168
Pb            0.0594607920       16.3374215253        7.3423236801
Pb           11.7766929341        4.0405289239       14.8474124421
Pb           11.7766553397        4.0987359810        7.4125575608
Pb            9.3878329764        8.1780247656       14.8473016455
Pb            9.4382310981        8.1490435723        7.4124766197
Pb            7.0137312625       12.2185172574       14.7736854503
Pb            7.0532990941       12.1770775491        7.3422937756
Pb            4.6674428091       16.2823901215       14.7737587600
Pb            4.6513020458       16.3374470633        7.3423612308
Pb           16.3271587058        4.1716379402       14.7069488666
Pb           16.4591508557        4.0954728785        7.4240556834
Pb           14.1655217550        8.1780076344       14.8473189319
Pb           14.1150891867        8.1490505818        7.4124676952
Pb           11.7766824623       12.0529351102       14.7064105731
Pb           11.7766646171       12.2058632353        7.4239664006
Pb            9.3012879329       16.2483173904       14.5774598060
Pb            9.2144949256       16.1984574472        7.6123277426
I             2.3553645996        1.3595748099       12.8982921298
I             0.0428724316        5.3966259131        5.5324570760
I            -0.0217935914        5.4354770423       12.8736342810
I            -2.3609214201        9.5153835912        5.4774826164
I            -2.3604648067        9.5156568104       12.8958634545
I            -4.7258088500       13.6564511832        5.5324195723
I            -4.7245663653       13.5808518570       12.8733597663
I             7.0079644226        1.3436163939        5.5324675721
I             7.0739280566        1.3802014777       12.8735613622
I             4.6678458926        5.3966280267        5.5324361628
I             4.7326008439        5.4355031701       12.8735789739
I             2.3553711228        9.5064309795        5.4789252954
I             2.3553745976        9.5103019452       12.8564949417
I            -0.0104704334       13.6042888558        5.4788528538
I            -0.0071474407       13.6023716945       12.8565871964
I            11.7766626219        1.3661411418        5.4775857426
I            11.7766719529        1.3655868776       12.8959456783
I             9.4218326042        5.4394135175        5.5219836815
I             9.4050876720        5.4296338542       12.8804262290
I             7.0716593803        9.5153953475        5.4774999514
I             7.0712067374        9.5156767780       12.8958719814
I             4.7212402317       13.6043041134        5.4789179350
I             4.7179170720       13.6023834447       12.8566026253
I            16.5453630326        1.3436494683        5.5324974134
I            16.4794541459        1.3801768131       12.8736741247
I            14.1314586827        5.4394124972        5.5219882967
I            14.1483943709        5.4295576688       12.8805070343
I            11.7766445370        9.5181450859        5.5219458562
[...]
I             7.0681117493        6.7917804378        1.9138387263
I             7.0523232720        6.8117753976        9.2796121141
I             4.6919543121       10.8892516975        1.8981665416
I             4.7179636208       10.8742780091        9.2386666776
I             2.3553733200       14.9362412200        1.8982434235
I             2.3553640185       14.9663790957        9.2387274057
I            14.1371075104        2.7248407586        1.9139521006
I            14.1277014928        2.7010844898        9.2796829403
I            11.7766553739        6.7989965067        1.9141099281
I            11.7766587231        6.7990108317        9.3106290212
I             9.4286644238       10.8802010667        1.9137594640
I             9.4033848788       10.8839939876        9.2795746554
I             7.0773617838       14.9645493447        1.8713800324
I             7.0317173196       14.9381826870        9.3467377937
Pb            2.3555841021        1.3588340552        3.6106565424
End final coordinates

     Writing all to output data dir ./PbI2.save/

     General routines

     Parallel routines

     PAW routines

   This run was terminated on:   3:25: 6   3Mar2024

   JOB DONE.