     Program PWSCF v.7.1 starts on 27Feb2024 at 11: 0:13

     Reading input from espresso.pwi
Warning: card &CELL ignored
Warning: card    CELL_DYNAMICS    = 'BFGS' ignored
Warning: card / ignored

     Current dimensions of program PWSCF are:
     Max number of different atomic species (ntypx) = 10
     Max number of k-points (npk) =  40000
     Max angular momentum in pseudopotentials (lmaxx) =  4
     file Pb.pbe-dn-kjpaw_psl.1.0.0.UPF: wavefunction(s)  6S 6P 5D renormalized
     file I.pbe-dn-kjpaw_psl.1.0.0.UPF: wavefunction(s)  5S 5P renormalized

     IMPORTANT: XC functional enforced from input :
     Exchange-correlation= BEEF-VDW
                           (   1   4  43  14   2   0   0)
     Any further DFT definition will be discarded
     Please, verify this is what you really want

     R & G space division:  proc/nbgrp/npool/nimage =     128
     Subspace diagonalization in iterative solution of the eigenvalue problem:
     a serial algorithm will be used

     Using Slab Decomposition

     bravais-lattice index     =            4
     lattice parameter (alat)  =      35.6073  a.u.
     unit-cell volume          =   30614.2220 (a.u.)^3
     number of atoms/cell      =           96
     number of atomic types    =            2
     number of electrons       =      1533.00
     number of Kohn-Sham states=          920
     kinetic-energy cutoff     =      70.0000  Ry
     charge density cutoff     =     350.0000  Ry
     scf convergence threshold =      1.0E-07
     mixing beta               =       0.7000
     number of iterations used =            8  plain     mixing
     energy convergence thresh.=      1.0E-04
     force convergence thresh. =      1.0E-03
     Exchange-correlation= BEEF-VDW
                           (   1   4  43  14   2   0   0)
     nstep                     =           50

     celldm(1)=  35.607290  celldm(2)=   0.000000  celldm(3)=   0.783025
     celldm(4)=   0.000000  celldm(5)=   0.000000  celldm(6)=   0.000000

     crystal axes: (cart. coord. in units of alat)
               a(1) = (   1.000000   0.000000   0.000000 )
               a(2) = (  -0.500000   0.866025   0.000000 )
               a(3) = (   0.000000   0.000000   0.783025 )

     reciprocal axes: (cart. coord. in units 2 pi/alat)
               b(1) = (  1.000000  0.577350 -0.000000 )
               b(2) = (  0.000000  1.154701  0.000000 )
               b(3) = (  0.000000 -0.000000  1.277098 )

     PseudoPot. # 1 for Pb read from file:
     //group///packages/espresso/pseudo/psl_1.0.0/pslibrary.1.0.0/pbe/PSEUDOPOTENTIALS/Pb.pbe-dn-kjpaw_psl.1.0.0.UPF
     MD5 check sum: 39ab5b8a6bbd56b7735ad9f188aac93a
     Pseudo is Projector augmented-wave + core cor, Zval = 14.0
     Generated using 'atomic' code by A. Dal Corso  v.7.1
     Shape of augmentation charge: PSQ
     Using radial grid of 1281 points,  6 beta functions with:
                l(1) =   0
                l(2) =   0
                l(3) =   1
                l(4) =   1
                l(5) =   2
                l(6) =   2
     Q(r) pseudized with 0 coefficients

     PseudoPot. # 2 for I  read from file:
     //group///packages/espresso/pseudo/psl_1.0.0/pslibrary.1.0.0/pbe/PSEUDOPOTENTIALS/I.pbe-dn-kjpaw_psl.1.0.0.UPF
     MD5 check sum: bfa8781bc1224d19af3f3980e3fab11e
     Pseudo is Projector augmented-wave + core cor, Zval = 17.0
     Generated using 'atomic' code by A. Dal Corso  v.7.1
     Shape of augmentation charge: PSQ
     Using radial grid of 1247 points,  6 beta functions with:
                l(1) =   0
                l(2) =   0
                l(3) =   1
                l(4) =   1
                l(5) =   2
                l(6) =   2
     Q(r) pseudized with 0 coefficients

     atomic species   valence    mass     pseudopotential
        Pb            14.00   207.20000     Pb( 1.00)
        I             17.00   126.90447     I ( 1.00)

     No symmetry found

                                    s                        frac. trans.

      isym =  1     identity

 cryst.   s( 1) = (     1          0          0      )
                  (     0          1          0      )
                  (     0          0          1      )

 cart.    s( 1) = (  1.0000000  0.0000000  0.0000000 )
                  (  0.0000000  1.0000000  0.0000000 )
                  (  0.0000000  0.0000000  1.0000000 )

     point group C_1 (1)
     there are  1 classes
     the character table:

       E
A      1.00

     the symmetry operations in each class and the name of the first element:

     E        1
          identity

   Cartesian axes

     site n.     atom                  positions (alat units)
         1           Pb  tau(   1) = (   0.1250086   0.2164870   0.7830203  )
         2           Pb  tau(   2) = (   0.1250034   0.2164916   0.3915076  )
         3           Pb  tau(   3) = (   0.0000077   0.4329922   0.7830161  )
         4           Pb  tau(   4) = (   0.0000025   0.4329968   0.3915034  )
         5           Pb  tau(   5) = (  -0.1249932   0.6494975   0.7830119  )
         6           Pb  tau(   6) = (  -0.1249984   0.6495021   0.3914992  )
         7           Pb  tau(   7) = (  -0.2499941   0.8660028   0.7830077  )
         8           Pb  tau(   8) = (  -0.2499993   0.8660074   0.3914950  )
         9           Pb  tau(   9) = (   0.3750086   0.2164859   0.7830237  )
        10           Pb  tau(  10) = (   0.3750034   0.2164905   0.3915110  )
        11           Pb  tau(  11) = (   0.2500077   0.4329912   0.7830194  )
        12           Pb  tau(  12) = (   0.2500025   0.4329958   0.3915068  )
        13           Pb  tau(  13) = (   0.1250068   0.6494965   0.7830152  )
        14           Pb  tau(  14) = (   0.1250016   0.6495011   0.3915026  )
        15           Pb  tau(  15) = (   0.0000059   0.8660017   0.7830110  )
        16           Pb  tau(  16) = (   0.0000007   0.8660063   0.3914983  )
        17           Pb  tau(  17) = (   0.6250086   0.2164849   0.7830270  )
        18           Pb  tau(  18) = (   0.6250034   0.2164895   0.3915143  )
        19           Pb  tau(  19) = (   0.5000077   0.4329901   0.7830228  )
        20           Pb  tau(  20) = (   0.5000025   0.4329947   0.3915101  )
        21           Pb  tau(  21) = (   0.3750068   0.6494954   0.7830186  )
        22           Pb  tau(  22) = (   0.3750016   0.6495000   0.3915059  )
        23           Pb  tau(  23) = (   0.2500059   0.8660007   0.7830144  )
        24           Pb  tau(  24) = (   0.2500007   0.8660053   0.3915017  )
        25           Pb  tau(  25) = (   0.8750086   0.2164838   0.7830303  )
        26           Pb  tau(  26) = (   0.8750034   0.2164884   0.3915177  )
        27           Pb  tau(  27) = (   0.7500077   0.4329891   0.7830261  )
        28           Pb  tau(  28) = (   0.7500025   0.4329937   0.3915135  )
        29           Pb  tau(  29) = (   0.6250068   0.6494944   0.7830219  )
        30           Pb  tau(  30) = (   0.6250016   0.6494990   0.3915092  )
        31           Pb  tau(  31) = (   0.5000059   0.8659996   0.7830177  )
        32           Pb  tau(  32) = (   0.5000007   0.8660042   0.3915050  )
        33           I   tau(  33) = (   0.1250108   0.0721500   0.6824290  )
        34           I   tau(  34) = (   0.0000047   0.2886599   0.2909121  )
        35           I   tau(  35) = (   0.0000099   0.2886553   0.6824248  )
        36           I   tau(  36) = (  -0.1249962   0.5051652   0.2909079  )
        37           I   tau(  37) = (  -0.1249910   0.5051606   0.6824206  )
        38           I   tau(  38) = (  -0.2499972   0.7216704   0.2909037  )
        39           I   tau(  39) = (  -0.2499919   0.7216658   0.6824164  )
        40           I   tau(  40) = (   0.3750056   0.0721536   0.2909197  )
        41           I   tau(  41) = (   0.3750108   0.0721490   0.6824324  )
        42           I   tau(  42) = (   0.2500047   0.2886589   0.2909155  )
        43           I   tau(  43) = (   0.2500099   0.2886543   0.6824282  )
        44           I   tau(  44) = (   0.1250038   0.5051641   0.2909113  )
        45           I   tau(  45) = (   0.1250090   0.5051595   0.6824240  )
        46           I   tau(  46) = (   0.0000028   0.7216694   0.2909071  )
        47           I   tau(  47) = (   0.0000081   0.7216648   0.6824197  )
        48           I   tau(  48) = (   0.6250056   0.0721525   0.2909230  )
        49           I   tau(  49) = (   0.6250108   0.0721479   0.6824357  )
        50           I   tau(  50) = (   0.5000047   0.2886578   0.2909188  )
        51           I   tau(  51) = (   0.5000099   0.2886532   0.6824315  )
        52           I   tau(  52) = (   0.3750038   0.5051631   0.2909146  )
        53           I   tau(  53) = (   0.3750090   0.5051585   0.6824273  )
        54           I   tau(  54) = (   0.2500028   0.7216683   0.2909104  )
        55           I   tau(  55) = (   0.2500081   0.7216637   0.6824231  )
        56           I   tau(  56) = (   0.8750056   0.0721515   0.2909264  )
        57           I   tau(  57) = (   0.8750108   0.0721469   0.6824391  )
        58           I   tau(  58) = (   0.7500047   0.2886567   0.2909222  )
        59           I   tau(  59) = (   0.7500099   0.2886521   0.6824348  )
        60           I   tau(  60) = (   0.6250038   0.5051620   0.2909180  )
[...]
        82           I   tau(  82) = (   0.3749973   0.3608329   0.1005958  )
        83           I   tau(  83) = (   0.3750025   0.3608283   0.4921084  )
        84           I   tau(  84) = (   0.2499964   0.5773382   0.1005915  )
        85           I   tau(  85) = (   0.2500016   0.5773336   0.4921042  )
        86           I   tau(  86) = (   0.1249955   0.7938434   0.1005873  )
        87           I   tau(  87) = (   0.1250007   0.7938388   0.4921000  )
        88           I   tau(  88) = (   0.7499982   0.1443266   0.1006033  )
        89           I   tau(  89) = (   0.7500034   0.1443220   0.4921160  )
        90           I   tau(  90) = (   0.6249973   0.3608319   0.1005991  )
        91           I   tau(  91) = (   0.6250025   0.3608273   0.4921118  )
        92           I   tau(  92) = (   0.4999964   0.5773371   0.1005949  )
        93           I   tau(  93) = (   0.5000016   0.5773325   0.4921076  )
        94           I   tau(  94) = (   0.3749955   0.7938424   0.1005907  )
        95           I   tau(  95) = (   0.3750007   0.7938378   0.4921034  )
        96           Pb  tau(  96) = (   0.1250056   0.0721546   0.2909163  )

   Crystallographic axes

     site n.     atom                  positions (cryst. coord.)
         1           Pb  tau(   1) = (  0.2499975  0.2499776  0.9999935  )
         2           Pb  tau(   2) = (  0.2499949  0.2499829  0.4999935  )
         3           Pb  tau(   3) = (  0.2499959  0.4999764  0.9999882  )
         4           Pb  tau(   4) = (  0.2499933  0.4999817  0.4999882  )
         5           Pb  tau(   5) = (  0.2499944  0.7499751  0.9999828  )
         6           Pb  tau(   6) = (  0.2499918  0.7499804  0.4999828  )
         7           Pb  tau(   7) = (  0.2499928  0.9999739  0.9999774  )
         8           Pb  tau(   8) = (  0.2499903  0.9999792  0.4999774  )
[...]
     atom   44 type  2   force =     0.00000000    0.00000000    0.00000000
     atom   45 type  2   force =     0.00000000    0.00000000    0.00000000
     atom   46 type  2   force =     0.00000000    0.00000000    0.00000000
     atom   47 type  2   force =     0.00000000    0.00000000    0.00000000
     atom   48 type  2   force =     0.00000000    0.00000000    0.00000000
     atom   49 type  2   force =     0.00000000    0.00000000    0.00000000
     atom   50 type  2   force =     0.00000000    0.00000000    0.00000000
     atom   51 type  2   force =     0.00000000    0.00000000    0.00000000
     atom   52 type  2   force =     0.00000000    0.00000000    0.00000000
     atom   53 type  2   force =     0.00000000    0.00000000    0.00000000
     atom   54 type  2   force =     0.00000000    0.00000000    0.00000000
     atom   55 type  2   force =     0.00000000    0.00000000    0.00000000
     atom   56 type  2   force =     0.00000000    0.00000000    0.00000000
     atom   57 type  2   force =     0.00000000    0.00000000    0.00000000
     atom   58 type  2   force =     0.00000000    0.00000000    0.00000000
     atom   59 type  2   force =     0.00000000    0.00000000    0.00000000
     atom   60 type  2   force =     0.00000000    0.00000000    0.00000000
[...]
     atom   82 type  2   force =     0.00000000    0.00000000    0.00000000
     atom   83 type  2   force =     0.00000000    0.00000000    0.00000000
     atom   84 type  2   force =     0.00000000    0.00000000    0.00000000
     atom   85 type  2   force =     0.00000000    0.00000000    0.00000000
     atom   86 type  2   force =     0.00000000    0.00000000    0.00000000
     atom   87 type  2   force =     0.00000000    0.00000000    0.00000000
     atom   88 type  2   force =     0.00000000    0.00000000    0.00000000
     atom   89 type  2   force =     0.00000000    0.00000000    0.00000000
     atom   90 type  2   force =     0.00000000    0.00000000    0.00000000
     atom   91 type  2   force =     0.00000000    0.00000000    0.00000000
     atom   92 type  2   force =     0.00000000    0.00000000    0.00000000
     atom   93 type  2   force =     0.00000000    0.00000000    0.00000000
     atom   94 type  2   force =     0.00000000    0.00000000    0.00000000
     atom   95 type  2   force =     0.00000000    0.00000000    0.00000000
     atom   96 type  1   force =     0.00000000    0.00000000    0.00000000
     The SCF correction term to forces
     atom    1 type  1   force =     0.00000351   -0.00000712    0.00002172
     atom    2 type  1   force =     0.00001291   -0.00002383   -0.00000993
     atom    3 type  1   force =    -0.00000620   -0.00000069   -0.00000588
     atom    4 type  1   force =    -0.00000644    0.00000154    0.00001278
     atom    5 type  1   force =    -0.00000614    0.00000270   -0.00000701
     atom    6 type  1   force =    -0.00000823    0.00000798    0.00001500
     atom    7 type  1   force =     0.00000087    0.00000135    0.00002067
     atom    8 type  1   force =    -0.00000021    0.00000664   -0.00000989
     atom    9 type  1   force =    -0.00000938   -0.00001116    0.00000468
     atom   10 type  1   force =    -0.00000632   -0.00001325    0.00000219
     atom   11 type  1   force =     0.00000296   -0.00000667   -0.00000620
     atom   12 type  1   force =     0.00000368   -0.00000741    0.00001217
     atom   13 type  1   force =    -0.00000673    0.00000075   -0.00002066
     atom   14 type  1   force =    -0.00000947    0.00000091    0.00002701
     atom   15 type  1   force =    -0.00000816    0.00000446   -0.00000739
     atom   16 type  1   force =    -0.00001451    0.00000421    0.00001474
     atom   17 type  1   force =    -0.00000398   -0.00001030   -0.00000393
     atom   18 type  1   force =    -0.00000635   -0.00001188    0.00000577
     atom   19 type  1   force =    -0.00000665    0.00000191   -0.00000401
     atom   20 type  1   force =    -0.00000823    0.00000134    0.00000562
     atom   21 type  1   force =     0.00000511   -0.00000434   -0.00000576
     atom   22 type  1   force =     0.00000360   -0.00000943    0.00001090
     atom   23 type  1   force =    -0.00000502    0.00000699   -0.00000545
     atom   24 type  1   force =    -0.00001183    0.00000696    0.00001137
     atom   25 type  1   force =     0.00000965   -0.00000218    0.00000733
     atom   26 type  1   force =     0.00000163    0.00000557    0.00000019
     atom   27 type  1   force =     0.00000967    0.00000824   -0.00000363
     atom   28 type  1   force =     0.00001066    0.00001028    0.00000578
     atom   29 type  1   force =     0.00000811    0.00001173    0.00000610
     atom   30 type  1   force =     0.00001394    0.00000661    0.00000144
     atom   31 type  1   force =     0.00001167    0.00000454    0.00002260
     atom   32 type  1   force =     0.00003562    0.00001185   -0.00001035
     atom   33 type  2   force =     0.00001405   -0.00000131    0.00000780
     atom   34 type  2   force =     0.00000310   -0.00001123   -0.00001374
     atom   35 type  2   force =    -0.00000042    0.00000386    0.00000449
     atom   36 type  2   force =    -0.00001029    0.00000354    0.00000371
     atom   37 type  2   force =     0.00000217    0.00000919   -0.00000882
     atom   38 type  2   force =    -0.00000395    0.00002307   -0.00000160
     atom   39 type  2   force =     0.00000759    0.00000148   -0.00000077
     atom   40 type  2   force =    -0.00002479   -0.00000274    0.00000094
     atom   41 type  2   force =     0.00000022   -0.00000322   -0.00000195
     atom   42 type  2   force =     0.00000627   -0.00002462   -0.00000762
     atom   43 type  2   force =     0.00000599   -0.00000636    0.00000184
     atom   44 type  2   force =    -0.00000570   -0.00001495    0.00000364
     atom   45 type  2   force =    -0.00000576    0.00000484   -0.00001088
     atom   46 type  2   force =    -0.00002806    0.00001372    0.00000830
     atom   47 type  2   force =    -0.00000673    0.00000159   -0.00001387
     atom   48 type  2   force =    -0.00001397    0.00001025    0.00000310
     atom   49 type  2   force =    -0.00001139   -0.00000385   -0.00000842
     atom   50 type  2   force =    -0.00001019   -0.00001090   -0.00000574
     atom   51 type  2   force =    -0.00000987   -0.00001045   -0.00001016
     atom   52 type  2   force =     0.00000864   -0.00001276    0.00000123
     atom   53 type  2   force =    -0.00000313   -0.00000399   -0.00000730
     atom   54 type  2   force =     0.00000279    0.00000538    0.00000048
     atom   55 type  2   force =    -0.00001232   -0.00000314   -0.00000945
     atom   56 type  2   force =     0.00000806    0.00001700   -0.00002019
     atom   57 type  2   force =    -0.00000226    0.00000692    0.00000726
     atom   58 type  2   force =     0.00000245    0.00000189   -0.00000871
     atom   59 type  2   force =     0.00000487    0.00000018   -0.00000859
     atom   60 type  2   force =     0.00000732    0.00000874   -0.00000710
[...]
     atom   82 type  2   force =    -0.00000508   -0.00001408   -0.00000030
     atom   83 type  2   force =    -0.00000016   -0.00000451    0.00000730
     atom   84 type  2   force =     0.00000660   -0.00000958   -0.00001409
     atom   85 type  2   force =    -0.00000379   -0.00000571    0.00002152
     atom   86 type  2   force =    -0.00001171    0.00001457   -0.00001449
     atom   87 type  2   force =    -0.00001739    0.00000431    0.00002089
     atom   88 type  2   force =     0.00000295    0.00000226   -0.00000222
     atom   89 type  2   force =    -0.00001487    0.00000220    0.00000985
     atom   90 type  2   force =     0.00000047    0.00000011    0.00000843
     atom   91 type  2   force =    -0.00000054   -0.00000020    0.00001331
     atom   92 type  2   force =     0.00001021    0.00000488   -0.00000117
     atom   93 type  2   force =     0.00000347   -0.00000814    0.00000936
     atom   94 type  2   force =     0.00001825    0.00001129   -0.00000372
     atom   95 type  2   force =    -0.00001694   -0.00001048    0.00002257
     atom   96 type  1   force =     0.00002111   -0.00000233   -0.00002122

     Total force =     0.003968     Total SCF correction =     0.000181

     Computing stress (Cartesian axis) and pressure

     Non-local corr. energy    =      45.71066661 Ry

          total   stress  (Ry/bohr**3)                   (kbar)     P=        1.04
   0.00000541  -0.00000000   0.00000001            0.80       -0.00        0.00
  -0.00000000   0.00000541  -0.00000000           -0.00        0.80       -0.00
   0.00000001  -0.00000000   0.00001045            0.00       -0.00        1.54

     kinetic stress (kbar)  15069.25     -0.00      0.00
                               -0.00  15069.26      0.00
                                0.00      0.00  15081.61

     local   stress (kbar)  -7331.84      0.08     -0.08
                                0.08  -7331.68      0.05
                               -0.08      0.05   1367.46

     nonloc. stress (kbar)  -1181.51     -0.00      0.00
                               -0.00  -1181.50      0.00
                                0.00      0.00  -1185.50

     hartree stress (kbar)  11903.19     -0.03      0.03
                               -0.03  11903.13     -0.02
                                0.03     -0.02   7977.66

     exc-cor stress (kbar)   6912.51     -0.00      0.00
                               -0.00   6912.51     -0.00
                                0.00     -0.00   6911.63

     corecor stress (kbar) -11262.27      0.00     -0.00
                                0.00 -11262.27     -0.00
                               -0.00     -0.00 -11262.29

     ewald   stress (kbar) -14191.32     -0.05      0.05
                               -0.05 -14191.43     -0.04
                                0.05     -0.04 -18973.05

     hubbard stress (kbar)      0.00      0.00      0.00
                                0.00      0.00      0.00
                                0.00      0.00      0.00

     DFT-D   stress (kbar)      0.00      0.00      0.00
                                0.00      0.00      0.00
                                0.00      0.00      0.00

     XDM     stress (kbar)      0.00      0.00      0.00
                                0.00      0.00      0.00
                                0.00      0.00      0.00

     dft-nl  stress (kbar)     82.77      0.00     -0.00
                                0.00     82.77      0.00
                               -0.00      0.00     84.01

     TS-vdW  stress (kbar)      0.00      0.00      0.00
                                0.00      0.00      0.00
                                0.00      0.00      0.00

     MDB     stress (kbar)      0.00      0.00      0.00
                                0.00      0.00      0.00
                                0.00      0.00      0.00

     3D-RISM stress (kbar)      0.00      0.00      0.00
                                0.00      0.00      0.00
                                0.00      0.00      0.00

     Energy error            =      5.2E-05 Ry
     Gradient error          =      9.1E-04 Ry/Bohr

     bfgs converged in  33 scf cycles and  32 bfgs steps
     (criteria: energy <  1.0E-04 Ry, force <  1.0E-03 Ry/Bohr)

     End of BFGS Geometry Optimization

     Final energy             =  -65088.7499877853 Ry

     File ./PbI2.bfgs deleted, as requested
Begin final coordinates

ATOMIC_POSITIONS (angstrom)
Pb            2.3554171634        4.0990040106       14.7475973380
Pb            2.3552931947        3.7545546721        7.3831987228
Pb            0.0020789641        8.1699329449       14.7602065194
Pb            0.0363274043        8.1286669094        7.3862451476
Pb           -2.3445207986       12.2343829287       14.7602554356
Pb           -2.3630730825       12.2845212132        7.3860946853
Pb           -4.6933662668       16.3077759201       14.7475705648
Pb           -4.9915171584       16.4797679226        7.3832567279
Pb            7.0906105491        4.0933509721       14.7658458814
Pb            7.0705780397        4.0818223894        7.3578310335
Pb            4.7086789374        8.1699307290       14.7602420650
Pb            4.6742986263        8.1286269083        7.3863689106
Pb            2.3553739210       12.2382527304       14.7663507964
Pb            2.3553432423       12.2382562829        7.3601781197
Pb            0.0087547799       16.3103987584       14.7604805328
Pb           -0.0440962895       16.3013510027        7.3862041941
Pb           11.7767337806        4.0670970968       14.7704364386
Pb           11.7766776631        4.0542362647        7.3809734545
Pb            9.4109360057        8.1647807733       14.7702191229
Pb            9.3997043672        8.1712050580        7.3809155235
Pb            7.0553337465       12.2344367730       14.7604546490
Pb            7.0739152360       12.2847069373        7.3864667839
Pb            4.7020598715       16.3104306443       14.7606243677
Pb            4.7549225458       16.3014316128        7.3864930946
Pb           16.4627955052        4.0933681294       14.7660219850
Pb           16.4826903065        4.0818621029        7.3580537094
Pb           14.1425163072        8.1647486330       14.7701935164
Pb           14.1536970537        8.1712282197        7.3807387883
Pb           11.7767301288       12.2097996520       14.7656736930
Pb           11.7766736200       12.2327684544        7.3578378911
Pb            9.4042339345       16.3078005208       14.7477559178
Pb            9.7024058812       16.4799525662        7.3836717376
I             2.3554189619        1.3595290478       12.8985268554
I             0.0480608532        5.3505644693        5.5235021469
I             0.0040029151        5.4340548812       12.8835967598
I            -2.3639439154        9.5135678159        5.4978669939
I            -2.3544698835        9.5191051487       12.8704848167
I            -4.7631921301       13.6839172563        5.5234321002
I            -4.7128824908       13.6040430382       12.8834617411
I             6.9652304967        1.3621490915        5.5233958668
I             7.0597568495        1.3585998430       12.8836785537
I             4.6625627885        5.3505422090        5.5234225159
I             4.7067777752        5.4340242726       12.8835412167
I             2.3553672699        9.5179850578        5.4735902324
I             2.3553551911        9.5257055559       12.8813489940
I            -0.0004763744       13.5984577233        5.4735188397
I             0.0061824544       13.5946639085       12.8814379659
I            11.7766998907        1.3695051080        5.4982999316
I            11.7766648685        1.3586382267       12.8709245679
I             9.4027187408        5.4283383608        5.4935876135
I             9.4113924598        5.4332426064       12.8811098237
I             7.0746377953        9.5136262689        5.4983277084
I             7.0652700853        9.5190906131       12.8706501750
I             4.7112617874       13.5984880204        5.4737860399
I             4.7045737619       13.5946847759       12.8815612041
I            16.5881545340        1.3622089013        5.5236091957
I            16.4936427842        1.3586143481       12.8838675542
I            14.1506802801        5.4282761701        5.4935800663
I            14.1420355498        5.4332383011       12.8811570142
I            11.7766462984        9.5400054027        5.4934289059
[...]
I             7.0655637960        6.8004566033        1.8941080481
I             7.0590153578        6.8020763649        9.2653754430
I             4.7179245133       10.8742870769        1.8960379745
I             4.7177192664       10.8743956596        9.2338872986
I             2.3553635368       14.9662840654        1.8962064730
I             2.3553552482       14.9661995660        9.2338335077
I            14.1309867227        2.7183677459        1.8944616239
I            14.1327090824        2.7118085448        9.2656358448
I            11.7766740462        6.7990367898        1.8837749550
I            11.7767284440        6.7989501172        9.2559788883
I             9.4199181679       10.8781535073        1.8941746419
I             9.4151626733       10.8829078283        9.2655023542
I             7.0636987875       14.9566140056        1.8912805308
I             7.0548971562       14.9515130951        9.2356707071
Pb            2.3554732956        1.3595576879        4.6805266381
End final coordinates

     Writing all to output data dir ./PbI2.save/

     General routines

     Parallel routines

     PAW routines

   This run was terminated on:  14:18:34  28Feb2024

   JOB DONE.