     Program PWSCF v.7.1 starts on 27Mar2024 at 23:44:22

     Reading input from espresso.pwi
Warning: card &CELL ignored
Warning: card    CELL_DYNAMICS    = 'BFGS' ignored
Warning: card / ignored

     Current dimensions of program PWSCF are:
     Max number of different atomic species (ntypx) = 10
     Max number of k-points (npk) =  40000
     Max angular momentum in pseudopotentials (lmaxx) =  4
     file Pb.pbe-dn-kjpaw_psl.1.0.0.UPF: wavefunction(s)  6S 6P 5D renormalized
     file I.pbe-dn-kjpaw_psl.1.0.0.UPF: wavefunction(s)  5S 5P renormalized

     IMPORTANT: XC functional enforced from input :
     Exchange-correlation= BEEF-VDW
                           (   1   4  43  14   2   0   0)
     Any further DFT definition will be discarded
     Please, verify this is what you really want

     R & G space division:  proc/nbgrp/npool/nimage =      20
     Subspace diagonalization in iterative solution of the eigenvalue problem:
     a serial algorithm will be used

     Using Slab Decomposition

     bravais-lattice index     =            4
     lattice parameter (alat)  =      17.8060  a.u.
     unit-cell volume          =    7656.2263 (a.u.)^3
     number of atoms/cell      =           23
     number of atomic types    =            2
     number of electrons       =       372.00
     number of Kohn-Sham states=          223
     kinetic-energy cutoff     =      70.0000  Ry
     charge density cutoff     =     350.0000  Ry
     scf convergence threshold =      1.0E-07
     mixing beta               =       0.7000
     number of iterations used =            8  plain     mixing
     energy convergence thresh.=      1.0E-04
     force convergence thresh. =      1.0E-03
     Exchange-correlation= BEEF-VDW
                           (   1   4  43  14   2   0   0)
     nstep                     =           50

     celldm(1)=  17.806016  celldm(2)=   0.000000  celldm(3)=   1.565971
     celldm(4)=   0.000000  celldm(5)=   0.000000  celldm(6)=   0.000000

     crystal axes: (cart. coord. in units of alat)
               a(1) = (   1.000000   0.000000   0.000000 )
               a(2) = (  -0.500000   0.866025   0.000000 )
               a(3) = (   0.000000   0.000000   1.565971 )

     reciprocal axes: (cart. coord. in units 2 pi/alat)
               b(1) = (  1.000000  0.577350 -0.000000 )
               b(2) = (  0.000000  1.154701  0.000000 )
               b(3) = (  0.000000 -0.000000  0.638581 )

     PseudoPot. # 1 for Pb read from file:
     /trace/group/acmegroup/atimmins/packages/espresso/pseudo/psl_1.0.0/pslibrary.1.0.0/pbe/PSEUDOPOTENTIALS/Pb.pbe-dn-kjpaw_psl.1.0.0.UPF
     MD5 check sum: 39ab5b8a6bbd56b7735ad9f188aac93a
     Pseudo is Projector augmented-wave + core cor, Zval = 14.0
     Generated using 'atomic' code by A. Dal Corso  v.7.1
     Shape of augmentation charge: PSQ
     Using radial grid of 1281 points,  6 beta functions with:
                l(1) =   0
                l(2) =   0
                l(3) =   1
                l(4) =   1
                l(5) =   2
                l(6) =   2
     Q(r) pseudized with 0 coefficients

     PseudoPot. # 2 for I  read from file:
     /trace/group/acmegroup/atimmins/packages/espresso/pseudo/psl_1.0.0/pslibrary.1.0.0/pbe/PSEUDOPOTENTIALS/I.pbe-dn-kjpaw_psl.1.0.0.UPF
     MD5 check sum: bfa8781bc1224d19af3f3980e3fab11e
     Pseudo is Projector augmented-wave + core cor, Zval = 17.0
     Generated using 'atomic' code by A. Dal Corso  v.7.1
     Shape of augmentation charge: PSQ
     Using radial grid of 1247 points,  6 beta functions with:
                l(1) =   0
                l(2) =   0
                l(3) =   1
                l(4) =   1
                l(5) =   2
                l(6) =   2
     Q(r) pseudized with 0 coefficients

     atomic species   valence    mass     pseudopotential
        Pb            14.00   207.20000     Pb( 1.00)
        I             17.00   126.90447     I ( 1.00)

     No symmetry found

                                    s                        frac. trans.

      isym =  1     identity

 cryst.   s( 1) = (     1          0          0      )
                  (     0          1          0      )
                  (     0          0          1      )

 cart.    s( 1) = (  1.0000000  0.0000000  0.0000000 )
                  (  0.0000000  1.0000000  0.0000000 )
                  (  0.0000000  0.0000000  1.0000000 )

     point group C_1 (1)
     there are  1 classes
     the character table:

       E
A      1.00

     the symmetry operations in each class and the name of the first element:

     E        1
          identity

   Cartesian axes

     site n.     atom                  positions (alat units)
         1           Pb  tau(   1) = (   0.2500068   0.4329836   0.7829793  )
         2           Pb  tau(   2) = (   0.0000153   0.8659852   1.5659567  )
         3           Pb  tau(   3) = (   0.0000051   0.8659943   0.7829710  )
         4           Pb  tau(   4) = (   0.7500170   0.4329726   1.5659715  )
         5           Pb  tau(   5) = (   0.7500068   0.4329816   0.7829858  )
         6           Pb  tau(   6) = (   0.5000153   0.8659833   1.5659633  )
         7           Pb  tau(   7) = (   0.5000051   0.8659923   0.7829776  )
         8           I   tau(   8) = (   0.2500107   0.1443099   0.5818649  )
         9           I   tau(   9) = (   0.2500209   0.1443009   1.3648506  )
        10           I   tau(  10) = (   0.0000091   0.5773207   0.5818567  )
        11           I   tau(  11) = (   0.0000193   0.5773116   1.3648424  )
        12           I   tau(  12) = (   0.7500107   0.1443080   0.5818714  )
        13           I   tau(  13) = (   0.7500209   0.1442990   1.3648571  )
        14           I   tau(  14) = (   0.5000091   0.5773187   0.5818632  )
        15           I   tau(  15) = (   0.5000193   0.5773097   1.3648489  )
        16           I   tau(  16) = (  -0.0000034   0.2886595   0.2011110  )
        17           I   tau(  17) = (   0.0000068   0.2886504   0.9840967  )
        18           I   tau(  18) = (  -0.2500051   0.7216702   0.2011027  )
        19           I   tau(  19) = (  -0.2499949   0.7216611   0.9840884  )
        20           I   tau(  20) = (   0.4999966   0.2886575   0.2011175  )
        21           I   tau(  21) = (   0.5000068   0.2886485   0.9841032  )
        22           I   tau(  22) = (   0.2499949   0.7216682   0.2011092  )
        23           I   tau(  23) = (   0.2500051   0.7216592   0.9840949  )

   Crystallographic axes

     site n.     atom                  positions (cryst. coord.)
         1           Pb  tau(   1) = (  0.4999900  0.4999663  0.4999959  )
         2           Pb  tau(   2) = (  0.4999921  0.9999536  0.9999906  )
         3           Pb  tau(   3) = (  0.4999871  0.9999640  0.4999906  )
         4           Pb  tau(   4) = (  0.9999938  0.4999537  1.0000001  )
         5           Pb  tau(   5) = (  0.9999888  0.4999641  0.5000001  )
         6           Pb  tau(   6) = (  0.9999910  0.9999514  0.9999948  )
         7           Pb  tau(   7) = (  0.9999860  0.9999618  0.4999948  )
         8           I   tau(   8) = (  0.3333281  0.1666348  0.3715680  )
         9           I   tau(   9) = (  0.3333331  0.1666243  0.8715680  )
        10           I   tau(  10) = (  0.3333253  0.6666325  0.3715628  )
        11           I   tau(  11) = (  0.3333303  0.6666220  0.8715628  )
        12           I   tau(  12) = (  0.8333270  0.1666326  0.3715722  )
        13           I   tau(  13) = (  0.8333320  0.1666221  0.8715722  )
        14           I   tau(  14) = (  0.8333242  0.6666303  0.3715669  )
        15           I   tau(  15) = (  0.8333292  0.6666198  0.8715669  )
        16           I   tau(  16) = (  0.1666542  0.3333152  0.1284257  )
        17           I   tau(  17) = (  0.1666592  0.3333048  0.6284257  )
        18           I   tau(  18) = (  0.1666514  0.8333129  0.1284204  )
        19           I   tau(  19) = (  0.1666564  0.8333025  0.6284204  )
        20           I   tau(  20) = (  0.6666531  0.3333130  0.1284299  )
        21           I   tau(  21) = (  0.6666581  0.3333026  0.6284299  )
        22           I   tau(  22) = (  0.6666503  0.8333107  0.1284246  )
        23           I   tau(  23) = (  0.6666553  0.8333003  0.6284246  )

     number of k points=     4  Gaussian smearing, width (Ry)=  0.0100
                       cart. coord. in units 2pi/alat
        k(    1) = (   0.0000000   0.0000000   0.0000000), wk =   0.5000000
        k(    2) = (   0.0000000  -0.5773503   0.0000000), wk =   0.5000000
        k(    3) = (   0.5000000  -0.2886751   0.0000000), wk =   0.5000000
        k(    4) = (  -0.5000000  -0.2886751   0.0000000), wk =   0.5000000

                       cryst. coord.
        k(    1) = (   0.0000000   0.0000000   0.0000000), wk =   0.5000000
        k(    2) = (   0.0000000  -0.5000000   0.0000000), wk =   0.5000000
        k(    3) = (   0.5000000  -0.5000000   0.0000000), wk =   0.5000000
        k(    4) = (  -0.5000000  -0.0000000   0.0000000), wk =   0.5000000

     Check: negative core charge=   -0.000002

     Initial potential from superposition of free atoms

     starting charge     369.9823, renormalised to     372.0000

     %%%%%%%%%%%%%%%%%%%%%%%%%%%%%%%%%%%%%%%%%%%%%%%%%%%%%%%%%%%%%%%%%%%%%%%%
     %                                                                      %
     % You are using vdW-DF, which was implemented by the Thonhauser group. %
     % Please cite the following two papers that made this development      %
     % possible and the two reviews that describe the various versions:     %
     %                                                                      %
     %   T. Thonhauser et al., PRL 115, 136402 (2015).                      %
     %   T. Thonhauser et al., PRB 76, 125112 (2007).                       %
     %   K. Berland et al., Rep. Prog. Phys. 78, 066501 (2015).             %
     %   D.C. Langreth et al., J. Phys.: Condens. Matter 21, 084203 (2009). %
     %                                                                      %
     % If you are calculating stress with vdW-DF, please also cite:         %
     %                                                                      %
     %   R. Sabatini et al., J. Phys.: Condens. Matter 24, 424209 (2012).   %
     %                                                                      %
     %%%%%%%%%%%%%%%%%%%%%%%%%%%%%%%%%%%%%%%%%%%%%%%%%%%%%%%%%%%%%%%%%%%%%%%%

     %%%%%%%%%%%%%%%%%%%%%%%%%%%%%%%%%%%%%%%%%%%%%%%%%%%%%%%%%%%%%%%%%%%%%%%%
     %                                                                      %
     %  vdW-DF NEWS:                                                        %
     %                                                                      %
     %  * vdW-DF3 is now available. DOI: 10.1021/acs.jctc.0c00471           %
     %    use with input_dft = 'vdW-DF3-opt1' or 'vdW-DF3-opt2'             %
     %                                                                      %
     %  * Unscreened and range-separated vdW-DF hybrid functionals          %
     %    DOI: 10.1063/1.4986522 and 10.1088/1361-648X/ac2ad2               %
[...]
     atom   13 type  2   force =    -0.00000069    0.00000098   -0.00024172
     atom   14 type  2   force =     0.00001132    0.00000765   -0.00029078
     atom   15 type  2   force =     0.00025742    0.00014572   -0.00056972
     atom   16 type  2   force =    -0.00024921   -0.00014648    0.00054845
     atom   17 type  2   force =    -0.00000817   -0.00000304    0.00031962
     atom   18 type  2   force =     0.00000470    0.00000294    0.00023081
     atom   19 type  2   force =    -0.00000000    0.00000309    0.00014748
     atom   20 type  2   force =     0.00025179   -0.00015202    0.00054801
     atom   21 type  2   force =     0.00000721   -0.00000538    0.00032095
     atom   22 type  2   force =    -0.00000307    0.00028224    0.00055130
     atom   23 type  2   force =    -0.00000126    0.00001146    0.00032308
     The non-local contrib.  to forces
     atom    1 type  1   force =     0.00001639   -0.00000433   -0.00000439
     atom    2 type  1   force =     0.00001252   -0.00001885   -0.00003302
     atom    3 type  1   force =     0.00001929   -0.00001807   -0.00001862
     atom    4 type  1   force =    -0.00002869   -0.00004917    0.00005639
     atom    5 type  1   force =     0.00000254   -0.00004426    0.00002413
     atom    6 type  1   force =     0.00000222   -0.00006375    0.00001944
     atom    7 type  1   force =    -0.00001632   -0.00001936    0.00001085
     atom    8 type  2   force =     0.00000745   -0.00242100    0.28518544
     atom    9 type  2   force =     0.00000967   -0.12156749    0.11524939
     atom   10 type  2   force =    -0.00209572    0.00123336    0.28518201
     atom   11 type  2   force =    -0.10524668    0.06080947    0.11525200
     atom   12 type  2   force =    -0.00001081    0.00000073    0.30244423
     atom   13 type  2   force =    -0.00001505    0.00000048    0.18841717
     atom   14 type  2   force =     0.00208930    0.00122401    0.28519042
     atom   15 type  2   force =     0.10525591    0.06080710    0.11526671
     atom   16 type  2   force =    -0.10524967   -0.06072617   -0.11528554
     atom   17 type  2   force =    -0.00210501   -0.00119881   -0.28515678
     atom   18 type  2   force =    -0.00000819    0.00000431   -0.18843317
     atom   19 type  2   force =    -0.00000726    0.00000224   -0.30239979
     atom   20 type  2   force =     0.10528981   -0.06074874   -0.11527829
     atom   21 type  2   force =     0.00209754   -0.00119080   -0.28515934
     atom   22 type  2   force =     0.00000330    0.12151151   -0.11530076
     atom   23 type  2   force =     0.00000648    0.00242339   -0.28515826
     The ionic contribution  to forces
     atom    1 type  1   force =    -0.00057912   -0.00030461    0.00354662
     atom    2 type  1   force =    -0.00087005   -0.00078496   -0.00322754
     atom    3 type  1   force =    -0.00140126   -0.00003103    0.00324204
     atom    4 type  1   force =     0.00190886    0.00169923   -0.00507635
     atom    5 type  1   force =     0.00014583    0.00183993    0.00277355
     atom    6 type  1   force =     0.00045000    0.00158491   -0.00559647
     atom    7 type  1   force =     0.00140903    0.00013998    0.00286546
     atom    8 type  2   force =     0.00005256    0.75090634  -17.55850744
     atom    9 type  2   force =    -0.00078309    8.60237168   -6.81848878
     atom   10 type  2   force =     0.65026327   -0.37582202  -17.55935259
     atom   11 type  2   force =     7.44894759   -4.30197499   -6.81780750
     atom   12 type  2   force =    -0.00019652   -0.00004042  -16.80226098
     atom   13 type  2   force =     0.00081247   -0.00007155  -10.45326489
     atom   14 type  2   force =    -0.64993552   -0.37578234  -17.55866119
     atom   15 type  2   force =    -7.44951270   -4.30146031   -6.82002400
     atom   16 type  2   force =     7.45193758    4.30236989    6.81064090
     atom   17 type  2   force =     0.65150834    0.37557196   17.56637924
     atom   18 type  2   force =     0.00217175    0.00028019   10.44603720
     atom   19 type  2   force =     0.00048979    0.00030986   16.80980893
     atom   20 type  2   force =    -7.45279077    4.30017039    6.81146878
     atom   21 type  2   force =    -0.65130842    0.37492768   17.56641587
     atom   22 type  2   force =    -0.00228953   -8.60427099    6.81215756
     atom   23 type  2   force =    -0.00043008   -0.75162883   17.56693155
     The local contribution  to forces
     atom    1 type  1   force =     0.00056247    0.00030935   -0.00359827
     atom    2 type  1   force =     0.00085491    0.00080193    0.00328994
     atom    3 type  1   force =     0.00137905    0.00005039   -0.00327385
     atom    4 type  1   force =    -0.00187535   -0.00164546    0.00505063
     atom    5 type  1   force =    -0.00014956   -0.00179132   -0.00284998
     atom    6 type  1   force =    -0.00045309   -0.00151497    0.00560938
     atom    7 type  1   force =    -0.00139015   -0.00011992   -0.00292863
     atom    8 type  2   force =    -0.00005936   -0.74850743   17.27897940
     atom    9 type  2   force =     0.00077453   -8.48375579    6.70517939
     atom   10 type  2   force =    -0.64818678    0.37460217   17.27982404
     atom   11 type  2   force =    -7.34625681    4.24264334    6.70450117
     atom   12 type  2   force =     0.00020557    0.00003841   16.50594117
     atom   13 type  2   force =    -0.00079867    0.00007002   10.26866497
     atom   14 type  2   force =     0.64786654    0.37457115   17.27912766
     atom   15 type  2   force =     7.34680872    4.24212702    6.70669446
     atom   16 type  2   force =    -7.34923189   -4.24311154   -6.69724288
     atom   17 type  2   force =    -0.64942119   -0.37438297  -17.28692035
     atom   18 type  2   force =    -0.00215833   -0.00028287  -10.26136165
     atom   19 type  2   force =    -0.00048184   -0.00030976  -16.51358538
     atom   20 type  2   force =     7.35004799   -4.24089710   -6.69807810
     atom   21 type  2   force =     0.64922822   -0.37374914  -17.28695298
     atom   22 type  2   force =     0.00228170    8.48569325   -6.69874107
     atom   23 type  2   force =     0.00042238    0.74922770  -17.28746776
     The core correction contribution to forces
     atom    1 type  1   force =    -0.00000023    0.00000012    0.00000038
     atom    2 type  1   force =    -0.00000026    0.00000029    0.00000234
     atom    3 type  1   force =     0.00000014    0.00000024   -0.00000000
     atom    4 type  1   force =     0.00000002    0.00000060    0.00000092
     atom    5 type  1   force =     0.00000004    0.00000021   -0.00000052
     atom    6 type  1   force =     0.00000023    0.00000035    0.00000110
     atom    7 type  1   force =    -0.00000016    0.00000027   -0.00000031
     atom    8 type  2   force =    -0.00000086   -0.00001055   -0.00597229
     atom    9 type  2   force =     0.00000017    0.00263444   -0.00245980
     atom   10 type  2   force =    -0.00001180    0.00000820   -0.00597173
     atom   11 type  2   force =     0.00228324   -0.00131980   -0.00245995
     atom   12 type  2   force =    -0.00000038    0.00000240   -0.00626302
     atom   13 type  2   force =    -0.00000035    0.00000265   -0.00402116
     atom   14 type  2   force =     0.00001089    0.00000865   -0.00597237
     atom   15 type  2   force =    -0.00228179   -0.00131922   -0.00245980
     atom   16 type  2   force =     0.00228043    0.00131470    0.00246117
     atom   17 type  2   force =    -0.00001131   -0.00000408    0.00596734
     atom   18 type  2   force =    -0.00000026    0.00000269    0.00402078
     atom   19 type  2   force =    -0.00000050    0.00000250    0.00626070
     atom   20 type  2   force =    -0.00228162    0.00131618    0.00246047
     atom   21 type  2   force =     0.00001027   -0.00000456    0.00596721
     atom   22 type  2   force =     0.00000053   -0.00263401    0.00246088
     atom   23 type  2   force =    -0.00000086    0.00001494    0.00596685
     The Hubbard contrib.    to forces
     atom    1 type  1   force =     0.00000000    0.00000000    0.00000000
     atom    2 type  1   force =     0.00000000    0.00000000    0.00000000
     atom    3 type  1   force =     0.00000000    0.00000000    0.00000000
     atom    4 type  1   force =     0.00000000    0.00000000    0.00000000
     atom    5 type  1   force =     0.00000000    0.00000000    0.00000000
     atom    6 type  1   force =     0.00000000    0.00000000    0.00000000
     atom    7 type  1   force =     0.00000000    0.00000000    0.00000000
     atom    8 type  2   force =     0.00000000    0.00000000    0.00000000
     atom    9 type  2   force =     0.00000000    0.00000000    0.00000000
     atom   10 type  2   force =     0.00000000    0.00000000    0.00000000
     atom   11 type  2   force =     0.00000000    0.00000000    0.00000000
     atom   12 type  2   force =     0.00000000    0.00000000    0.00000000
     atom   13 type  2   force =     0.00000000    0.00000000    0.00000000
     atom   14 type  2   force =     0.00000000    0.00000000    0.00000000
     atom   15 type  2   force =     0.00000000    0.00000000    0.00000000
     atom   16 type  2   force =     0.00000000    0.00000000    0.00000000
     atom   17 type  2   force =     0.00000000    0.00000000    0.00000000
     atom   18 type  2   force =     0.00000000    0.00000000    0.00000000
     atom   19 type  2   force =     0.00000000    0.00000000    0.00000000
     atom   20 type  2   force =     0.00000000    0.00000000    0.00000000
     atom   21 type  2   force =     0.00000000    0.00000000    0.00000000
     atom   22 type  2   force =     0.00000000    0.00000000    0.00000000
     atom   23 type  2   force =     0.00000000    0.00000000    0.00000000
     The SCF correction term to forces
     atom    1 type  1   force =    -0.00000012   -0.00000085    0.00004961
     atom    2 type  1   force =     0.00000144    0.00000113   -0.00004563
     atom    3 type  1   force =    -0.00000212   -0.00000041    0.00005005
     atom    4 type  1   force =     0.00000026   -0.00000220   -0.00004572
     atom    5 type  1   force =     0.00000013    0.00000148    0.00005019
     atom    6 type  1   force =    -0.00000145    0.00000138   -0.00004570
     atom    7 type  1   force =     0.00000206   -0.00000027    0.00005016
     atom    8 type  2   force =    -0.00000065    0.00002451    0.00002366
     atom    9 type  2   force =    -0.00000087    0.00001531   -0.00004809
     atom   10 type  2   force =     0.00002007   -0.00001328    0.00002367
     atom   11 type  2   force =     0.00001287   -0.00000856   -0.00004823
     atom   12 type  2   force =     0.00000070    0.00000136    0.00000826
     atom   13 type  2   force =     0.00000066    0.00000068   -0.00003872
     atom   14 type  2   force =    -0.00002014   -0.00001253    0.00002378
     atom   15 type  2   force =    -0.00001298   -0.00000758   -0.00004801
     atom   16 type  2   force =     0.00001409    0.00000793   -0.00002611
     atom   17 type  2   force =     0.00002074    0.00001214    0.00004926
     atom   18 type  2   force =    -0.00000052   -0.00000008   -0.00003328
     atom   19 type  2   force =    -0.00000046   -0.00000047    0.00006211
     atom   20 type  2   force =    -0.00001387    0.00000854   -0.00002575
     atom   21 type  2   force =    -0.00002066    0.00001273    0.00004928
     atom   22 type  2   force =     0.00000068   -0.00001623   -0.00002623
     atom   23 type  2   force =     0.00000057   -0.00002444    0.00004979

     Total force =     0.001761     Total SCF correction =     0.000214
     SCF correction compared to forces is large: reduce conv_thr to get better values

     Computing stress (Cartesian axis) and pressure

     Non-local corr. energy    =      11.26047756 Ry

          total   stress  (Ry/bohr**3)                   (kbar)     P=       26.56
   0.00018450   0.00000000   0.00000000           27.14        0.00        0.00
   0.00000000   0.00018450  -0.00000000            0.00       27.14       -0.00
   0.00000000  -0.00000000   0.00017273            0.00       -0.00       25.41

     kinetic stress (kbar)  14182.72      0.00      0.00
                                0.00  14182.73     -0.00
                                0.00     -0.00  14189.56

     local   stress (kbar)  -7316.82      0.13      0.07
                                0.13  -7316.78      0.01
                                0.07      0.01   -144.48

     nonloc. stress (kbar)   -728.59      0.00      0.00
                                0.00   -728.59     -0.00
                                0.00     -0.00   -735.18

     hartree stress (kbar)  11742.99     -0.06     -0.03
                               -0.06  11742.99     -0.00
                               -0.03     -0.00   8500.01

     exc-cor stress (kbar)   6747.68     -0.00     -0.00
                               -0.00   6747.68     -0.00
                               -0.00     -0.00   6746.90

     corecor stress (kbar) -10976.91      0.00     -0.00
                                0.00 -10976.91      0.00
                               -0.00      0.00 -10976.83

     ewald   stress (kbar) -13705.56     -0.08     -0.04
                               -0.08 -13705.58     -0.01
                               -0.04     -0.01 -17637.11

     hubbard stress (kbar)      0.00      0.00      0.00
                                0.00      0.00      0.00
                                0.00      0.00      0.00

     DFT-D   stress (kbar)      0.00      0.00      0.00
                                0.00      0.00      0.00
                                0.00      0.00      0.00

     XDM     stress (kbar)      0.00      0.00      0.00
                                0.00      0.00      0.00
                                0.00      0.00      0.00

     dft-nl  stress (kbar)     81.62      0.00      0.00
                                0.00     81.62      0.00
                                0.00      0.00     82.53

     TS-vdW  stress (kbar)      0.00      0.00      0.00
                                0.00      0.00      0.00
                                0.00      0.00      0.00

     MDB     stress (kbar)      0.00      0.00      0.00
                                0.00      0.00      0.00
                                0.00      0.00      0.00

     3D-RISM stress (kbar)      0.00      0.00      0.00
                                0.00      0.00      0.00
                                0.00      0.00      0.00

     Energy error            =      3.4E-06 Ry
     Gradient error          =      5.7E-04 Ry/Bohr

     bfgs converged in   9 scf cycles and   8 bfgs steps
     (criteria: energy <  1.0E-04 Ry, force <  1.0E-03 Ry/Bohr)

     End of BFGS Geometry Optimization

     Final energy             =  -15291.9861707553 Ry

     File ./PbI2.bfgs deleted, as requested
Begin final coordinates

ATOMIC_POSITIONS (angstrom)
Pb            2.3557242710        4.0797677741        7.3775943134
Pb            0.0001006841        8.1598518492       14.7554443814
Pb            0.0000822846        8.1598421815        7.3775238989
Pb            7.0669715773        4.0796804771       14.7555954815
Pb            7.0669841284        4.0797558943        7.3775988708
Pb            4.7114134538        8.1597655659       14.7554301863
Pb            4.7113434394        8.1598226952        7.3775554181
I             2.3557108970        1.3651019280        5.4988996309
I             2.3557712173        1.3153969402       12.8843978103
I             0.0047142527        5.4371641178        5.4989409069
I            -0.0382878686        5.4620065967       12.8844134765
I             7.0669757282        1.3597747346        5.5038398034
I             7.0669734660        1.3597658734       12.8081392909
I             4.7066731075        5.4371408898        5.4989127806
I             4.7498380788        5.4620049121       12.8844461781
I            -0.0385458756        2.6974389894        1.8712059033
I             0.0046518332        2.7224222175        9.2561509106
I            -2.3556112138        6.7998480389        1.9472600975
I            -2.3555716894        6.7998548852        9.2513667407
I             4.7498251986        2.6976356098        1.8710925135
I             4.7067521881        2.7224677255        9.2561368400
I             2.3557920264        6.8445041594        1.8711159692
I             2.3557199164        6.7945445378        9.2561062565
End final coordinates

     Writing all to output data dir ./PbI2.save/

     General routines

     Parallel routines

     PAW routines

   This run was terminated on:   0:27:59  28Mar2024

   JOB DONE.