     Program PWSCF v.7.1 starts on 16Feb2024 at 17:52: 5

     Reading input from espresso.pwi
Warning: card &CELL ignored
Warning: card    CELL_DYNAMICS    = 'BFGS' ignored
Warning: card / ignored

     Current dimensions of program PWSCF are:
     Max number of different atomic species (ntypx) = 10
     Max number of k-points (npk) =  40000
     Max angular momentum in pseudopotentials (lmaxx) =  4
     file Pb.pbe-dn-kjpaw_psl.1.0.0.UPF: wavefunction(s)  6S 6P 5D renormalized
     file I.pbe-dn-kjpaw_psl.1.0.0.UPF: wavefunction(s)  5S 5P renormalized

     IMPORTANT: XC functional enforced from input :
     Exchange-correlation= BEEF-VDW
                           (   1   4  43  14   2   0   0)
     Any further DFT definition will be discarded
     Please, verify this is what you really want

     R & G space division:  proc/nbgrp/npool/nimage =     256
     wavefunctions fft division:  task group distribution
                                  #TG    x Z-proc =       8     32
     Subspace diagonalization in iterative solution of the eigenvalue problem:
     a serial algorithm will be used

     Using Pencil Decomposition

     bravais-lattice index     =            4
     lattice parameter (alat)  =      35.6120  a.u.
     unit-cell volume          =   45937.3577 (a.u.)^3
     number of atoms/cell      =          144
     number of atomic types    =            2
     number of electrons       =      2308.00
     number of Kohn-Sham states=         1385
     kinetic-energy cutoff     =      70.0000  Ry
     charge density cutoff     =     350.0000  Ry
     scf convergence threshold =      1.0E-07
     mixing beta               =       0.7000
     number of iterations used =            8  plain     mixing
     energy convergence thresh.=      1.0E-04
     force convergence thresh. =      1.0E-03
     Exchange-correlation= BEEF-VDW
                           (   1   4  43  14   2   0   0)
     nstep                     =           50

     celldm(1)=  35.612033  celldm(2)=   0.000000  celldm(3)=   1.174479
     celldm(4)=   0.000000  celldm(5)=   0.000000  celldm(6)=   0.000000

     crystal axes: (cart. coord. in units of alat)
               a(1) = (   1.000000   0.000000   0.000000 )
               a(2) = (  -0.500000   0.866025   0.000000 )
               a(3) = (   0.000000   0.000000   1.174479 )

     reciprocal axes: (cart. coord. in units 2 pi/alat)
               b(1) = (  1.000000  0.577350 -0.000000 )
               b(2) = (  0.000000  1.154701  0.000000 )
               b(3) = (  0.000000 -0.000000  0.851442 )

     PseudoPot. # 1 for Pb read from file:
     //group///packages/espresso/pseudo/psl_1.0.0/pslibrary.1.0.0/pbe/PSEUDOPOTENTIALS/Pb.pbe-dn-kjpaw_psl.1.0.0.UPF
     MD5 check sum: 39ab5b8a6bbd56b7735ad9f188aac93a
     Pseudo is Projector augmented-wave + core cor, Zval = 14.0
     Generated using 'atomic' code by A. Dal Corso  v.7.1
     Shape of augmentation charge: PSQ
     Using radial grid of 1281 points,  6 beta functions with:
                l(1) =   0
                l(2) =   0
                l(3) =   1
                l(4) =   1
                l(5) =   2
                l(6) =   2
     Q(r) pseudized with 0 coefficients

     PseudoPot. # 2 for I  read from file:
     //group///packages/espresso/pseudo/psl_1.0.0/pslibrary.1.0.0/pbe/PSEUDOPOTENTIALS/I.pbe-dn-kjpaw_psl.1.0.0.UPF
     MD5 check sum: bfa8781bc1224d19af3f3980e3fab11e
     Pseudo is Projector augmented-wave + core cor, Zval = 17.0
     Generated using 'atomic' code by A. Dal Corso  v.7.1
     Shape of augmentation charge: PSQ
     Using radial grid of 1247 points,  6 beta functions with:
                l(1) =   0
                l(2) =   0
                l(3) =   1
                l(4) =   1
                l(5) =   2
                l(6) =   2
     Q(r) pseudized with 0 coefficients

     atomic species   valence    mass     pseudopotential
        Pb            14.00   207.20000     Pb( 1.00)
        I             17.00   126.90447     I ( 1.00)

     No symmetry found

                                    s                        frac. trans.

      isym =  1     identity

 cryst.   s( 1) = (     1          0          0      )
                  (     0          1          0      )
                  (     0          0          1      )

 cart.    s( 1) = (  1.0000000  0.0000000  0.0000000 )
                  (  0.0000000  1.0000000  0.0000000 )
                  (  0.0000000  0.0000000  1.0000000 )

     point group C_1 (1)
     there are  1 classes
     the character table:

       E
A      1.00

     the symmetry operations in each class and the name of the first element:

     E        1
          identity

   Cartesian axes

     site n.     atom                  positions (alat units)
         1           Pb  tau(   1) = (   0.1250034   0.2164918   0.3914896  )
         2           Pb  tau(   2) = (   0.1250085   0.2164873   0.7829825  )
         3           Pb  tau(   3) = (   0.0000128   0.4329881   1.1744712  )
         4           Pb  tau(   4) = (   0.0000026   0.4329971   0.3914855  )
         5           Pb  tau(   5) = (   0.0000077   0.4329926   0.7829784  )
         6           Pb  tau(   6) = (  -0.1249881   0.6494934   1.1744671  )
         7           Pb  tau(   7) = (  -0.1249983   0.6495025   0.3914814  )
         8           Pb  tau(   8) = (  -0.1249932   0.6494980   0.7829742  )
         9           Pb  tau(   9) = (  -0.2499889   0.8659988   1.1744630  )
        10           Pb  tau(  10) = (  -0.2499991   0.8660078   0.3914773  )
        11           Pb  tau(  11) = (  -0.2499940   0.8660033   0.7829701  )
        12           Pb  tau(  12) = (   0.3750136   0.2164818   1.1744786  )
        13           Pb  tau(  13) = (   0.3750034   0.2164908   0.3914929  )
        14           Pb  tau(  14) = (   0.3750085   0.2164863   0.7829857  )
        15           Pb  tau(  15) = (   0.2500128   0.4329871   1.1744745  )
        16           Pb  tau(  16) = (   0.2500026   0.4329962   0.3914888  )
        17           Pb  tau(  17) = (   0.2500077   0.4329916   0.7829816  )
        18           Pb  tau(  18) = (   0.1250119   0.6494925   1.1744703  )
        19           Pb  tau(  19) = (   0.1250017   0.6495015   0.3914847  )
        20           Pb  tau(  20) = (   0.1250068   0.6494970   0.7829775  )
        21           Pb  tau(  21) = (   0.0000111   0.8659978   1.1744662  )
        22           Pb  tau(  22) = (   0.0000009   0.8660069   0.3914805  )
        23           Pb  tau(  23) = (   0.0000060   0.8660024   0.7829734  )
        24           Pb  tau(  24) = (   0.6250136   0.2164808   1.1744818  )
        25           Pb  tau(  25) = (   0.6250034   0.2164898   0.3914962  )
        26           Pb  tau(  26) = (   0.6250085   0.2164853   0.7829890  )
        27           Pb  tau(  27) = (   0.5000128   0.4329862   1.1744777  )
        28           Pb  tau(  28) = (   0.5000026   0.4329952   0.3914920  )
        29           Pb  tau(  29) = (   0.5000077   0.4329907   0.7829849  )
        30           Pb  tau(  30) = (   0.3750119   0.6494915   1.1744736  )
        31           Pb  tau(  31) = (   0.3750017   0.6495006   0.3914879  )
        32           Pb  tau(  32) = (   0.3750068   0.6494960   0.7829808  )
        33           Pb  tau(  33) = (   0.2500111   0.8659969   1.1744695  )
        34           Pb  tau(  34) = (   0.2500009   0.8660059   0.3914838  )
        35           Pb  tau(  35) = (   0.2500060   0.8660014   0.7829766  )
        36           Pb  tau(  36) = (   0.8750136   0.2164798   1.1744851  )
        37           Pb  tau(  37) = (   0.8750034   0.2164889   0.3914994  )
        38           Pb  tau(  38) = (   0.8750085   0.2164844   0.7829923  )
        39           Pb  tau(  39) = (   0.7500128   0.4329852   1.1744810  )
        40           Pb  tau(  40) = (   0.7500026   0.4329942   0.3914953  )
        41           Pb  tau(  41) = (   0.7500077   0.4329897   0.7829881  )
        42           Pb  tau(  42) = (   0.6250119   0.6494906   1.1744769  )
        43           Pb  tau(  43) = (   0.6250017   0.6494996   0.3914912  )
        44           Pb  tau(  44) = (   0.6250068   0.6494951   0.7829840  )
        45           Pb  tau(  45) = (   0.5000111   0.8659959   1.1744727  )
        46           Pb  tau(  46) = (   0.5000009   0.8660050   0.3914870  )
        47           Pb  tau(  47) = (   0.5000060   0.8660004   0.7829799  )
        48           I   tau(  48) = (   0.1250054   0.0721550   0.2909325  )
        49           I   tau(  49) = (   0.1250105   0.0721505   0.6824253  )
        50           I   tau(  50) = (   0.1250156   0.0721459   1.0739182  )
        51           I   tau(  51) = (   0.0000045   0.2886603   0.2909283  )
        52           I   tau(  52) = (   0.0000096   0.2886558   0.6824212  )
        53           I   tau(  53) = (   0.0000147   0.2886513   1.0739140  )
        54           I   tau(  54) = (  -0.1249963   0.5051657   0.2909242  )
        55           I   tau(  55) = (  -0.1249912   0.5051612   0.6824171  )
        56           I   tau(  56) = (  -0.1249861   0.5051566   1.0739099  )
        57           I   tau(  57) = (  -0.2499971   0.7216710   0.2909201  )
        58           I   tau(  58) = (  -0.2499920   0.7216665   0.6824129  )
        59           I   tau(  59) = (  -0.2499869   0.7216620   1.0739058  )
        60           I   tau(  60) = (   0.3750054   0.0721540   0.2909357  )
[...]
       130           I   tau( 130) = (   0.1250009   0.7938394   0.4920425  )
       131           I   tau( 131) = (   0.1250060   0.7938348   0.8835353  )
       132           I   tau( 132) = (   0.7499983   0.1443268   0.1005653  )
       133           I   tau( 133) = (   0.7500034   0.1443223   0.4920581  )
       134           I   tau( 134) = (   0.7500085   0.1443178   0.8835509  )
       135           I   tau( 135) = (   0.6249975   0.3608322   0.1005611  )
       136           I   tau( 136) = (   0.6250026   0.3608277   0.4920540  )
       137           I   tau( 137) = (   0.6250077   0.3608232   0.8835468  )
       138           I   tau( 138) = (   0.4999966   0.5773376   0.1005570  )
       139           I   tau( 139) = (   0.5000017   0.5773330   0.4920499  )
       140           I   tau( 140) = (   0.5000068   0.5773285   0.8835427  )
       141           I   tau( 141) = (   0.3749958   0.7938429   0.1005529  )
       142           I   tau( 142) = (   0.3750009   0.7938384   0.4920457  )
       143           I   tau( 143) = (   0.3750060   0.7938339   0.8835386  )
       144           I   tau( 144) = (   0.1250136   0.2164827   1.1744753  )

   Crystallographic axes

     site n.     atom                  positions (cryst. coord.)
         1           Pb  tau(   1) = (  0.2499950  0.2499832  0.3333306  )
         2           Pb  tau(   2) = (  0.2499975  0.2499780  0.6666639  )
         3           Pb  tau(   3) = (  0.2499986  0.4999716  0.9999938  )
         4           Pb  tau(   4) = (  0.2499936  0.4999820  0.3333271  )
         5           Pb  tau(   5) = (  0.2499961  0.4999768  0.6666604  )
         6           Pb  tau(   6) = (  0.2499972  0.7499704  0.9999902  )
[...]
     atom   44 type  1   force =     0.00000000    0.00000000    0.00000000
     atom   45 type  1   force =     0.00000000    0.00000000    0.00000000
     atom   46 type  1   force =     0.00000000    0.00000000    0.00000000
     atom   47 type  1   force =     0.00000000    0.00000000    0.00000000
     atom   48 type  2   force =     0.00000000    0.00000000    0.00000000
     atom   49 type  2   force =     0.00000000    0.00000000    0.00000000
     atom   50 type  2   force =     0.00000000    0.00000000    0.00000000
     atom   51 type  2   force =     0.00000000    0.00000000    0.00000000
     atom   52 type  2   force =     0.00000000    0.00000000    0.00000000
     atom   53 type  2   force =     0.00000000    0.00000000    0.00000000
     atom   54 type  2   force =     0.00000000    0.00000000    0.00000000
     atom   55 type  2   force =     0.00000000    0.00000000    0.00000000
     atom   56 type  2   force =     0.00000000    0.00000000    0.00000000
     atom   57 type  2   force =     0.00000000    0.00000000    0.00000000
     atom   58 type  2   force =     0.00000000    0.00000000    0.00000000
     atom   59 type  2   force =     0.00000000    0.00000000    0.00000000
     atom   60 type  2   force =     0.00000000    0.00000000    0.00000000
[...]
     atom  130 type  2   force =     0.00000000    0.00000000    0.00000000
     atom  131 type  2   force =     0.00000000    0.00000000    0.00000000
     atom  132 type  2   force =     0.00000000    0.00000000    0.00000000
     atom  133 type  2   force =     0.00000000    0.00000000    0.00000000
     atom  134 type  2   force =     0.00000000    0.00000000    0.00000000
     atom  135 type  2   force =     0.00000000    0.00000000    0.00000000
     atom  136 type  2   force =     0.00000000    0.00000000    0.00000000
     atom  137 type  2   force =     0.00000000    0.00000000    0.00000000
     atom  138 type  2   force =     0.00000000    0.00000000    0.00000000
     atom  139 type  2   force =     0.00000000    0.00000000    0.00000000
     atom  140 type  2   force =     0.00000000    0.00000000    0.00000000
     atom  141 type  2   force =     0.00000000    0.00000000    0.00000000
     atom  142 type  2   force =     0.00000000    0.00000000    0.00000000
     atom  143 type  2   force =     0.00000000    0.00000000    0.00000000
     atom  144 type  2   force =     0.00000000    0.00000000    0.00000000
     The SCF correction term to forces
     atom    1 type  1   force =    -0.00000108   -0.00000006    0.00000259
     atom    2 type  1   force =     0.00000098    0.00000009    0.00000845
     atom    3 type  1   force =     0.00000528   -0.00000656   -0.00000778
     atom    4 type  1   force =    -0.00000306    0.00000419    0.00000619
     atom    5 type  1   force =    -0.00000145    0.00000415    0.00000285
     atom    6 type  1   force =    -0.00000061   -0.00000043   -0.00000908
     atom    7 type  1   force =     0.00000030   -0.00000018    0.00001046
     atom    8 type  1   force =    -0.00000065   -0.00000005   -0.00000133
     atom    9 type  1   force =    -0.00000776    0.00000525   -0.00001420
     atom   10 type  1   force =     0.00000153   -0.00000534    0.00000733
     atom   11 type  1   force =     0.00000211   -0.00000355    0.00000386
     atom   12 type  1   force =    -0.00000897    0.00000525   -0.00001598
     atom   13 type  1   force =     0.00000578    0.00000094    0.00000781
     atom   14 type  1   force =     0.00000434    0.00000079    0.00000430
     atom   15 type  1   force =    -0.00000296   -0.00001001   -0.00001255
     atom   16 type  1   force =     0.00000294    0.00000492    0.00000660
     atom   17 type  1   force =     0.00000297    0.00000351    0.00000444
     atom   18 type  1   force =     0.00000079    0.00000004   -0.00000610
     atom   19 type  1   force =     0.00000036    0.00000325    0.00001183
     atom   20 type  1   force =     0.00000047    0.00000085   -0.00000144
     atom   21 type  1   force =     0.00000135   -0.00000058   -0.00000694
     atom   22 type  1   force =     0.00000344   -0.00000185    0.00001242
     atom   23 type  1   force =     0.00000077   -0.00000019   -0.00000150
     atom   24 type  1   force =     0.00000004    0.00000073   -0.00000909
     atom   25 type  1   force =     0.00000064   -0.00000031    0.00001068
     atom   26 type  1   force =    -0.00000064    0.00000072   -0.00000151
     atom   27 type  1   force =    -0.00000075    0.00000034   -0.00001297
     atom   28 type  1   force =     0.00000140    0.00000109    0.00001050
     atom   29 type  1   force =     0.00000146    0.00000111   -0.00000181
     atom   30 type  1   force =     0.00000062   -0.00000039   -0.00000907
     atom   31 type  1   force =    -0.00000023    0.00000053    0.00001012
     atom   32 type  1   force =     0.00000057   -0.00000073   -0.00000098
     atom   33 type  1   force =     0.00000066   -0.00000034   -0.00000527
     atom   34 type  1   force =    -0.00000199   -0.00000141    0.00001141
     atom   35 type  1   force =    -0.00000083   -0.00000077   -0.00000176
     atom   36 type  1   force =     0.00000873   -0.00000218   -0.00000631
     atom   37 type  1   force =    -0.00000540   -0.00000021    0.00000575
     atom   38 type  1   force =    -0.00000469   -0.00000045    0.00000233
     atom   39 type  1   force =    -0.00000128    0.00000060   -0.00001129
     atom   40 type  1   force =    -0.00000126    0.00000053    0.00001020
     atom   41 type  1   force =    -0.00000291    0.00000152   -0.00000284
     atom   42 type  1   force =    -0.00000081   -0.00000009   -0.00001203
     atom   43 type  1   force =    -0.00000044   -0.00000147    0.00001017
     atom   44 type  1   force =    -0.00000038   -0.00000268   -0.00000229
     atom   45 type  1   force =     0.00000529    0.00000851   -0.00000940
     atom   46 type  1   force =    -0.00000304   -0.00000468    0.00000572
     atom   47 type  1   force =    -0.00000204   -0.00000424    0.00000350
     atom   48 type  2   force =    -0.00000327   -0.00000128    0.00000062
     atom   49 type  2   force =     0.00000009   -0.00000471    0.00000462
     atom   50 type  2   force =    -0.00000036    0.00000923    0.00000156
     atom   51 type  2   force =    -0.00000141   -0.00000052   -0.00000060
     atom   52 type  2   force =    -0.00000378    0.00000226    0.00000391
     atom   53 type  2   force =     0.00000968   -0.00000553    0.00000243
     atom   54 type  2   force =     0.00000004    0.00000020    0.00000702
     atom   55 type  2   force =    -0.00000285    0.00000337    0.00000048
     atom   56 type  2   force =    -0.00000343    0.00000381   -0.00000436
     atom   57 type  2   force =    -0.00000022   -0.00000128    0.00000740
     atom   58 type  2   force =     0.00000111   -0.00000393    0.00000101
     atom   59 type  2   force =    -0.00000069   -0.00000277   -0.00000515
     atom   60 type  2   force =     0.00000306   -0.00000199    0.00000957
[...]
     atom  130 type  2   force =     0.00000056   -0.00000002    0.00000744
     atom  131 type  2   force =     0.00000022   -0.00000025   -0.00000455
     atom  132 type  2   force =    -0.00000225   -0.00000111   -0.00000830
     atom  133 type  2   force =    -0.00000420   -0.00000096    0.00000673
     atom  134 type  2   force =    -0.00000022    0.00000063   -0.00000184
     atom  135 type  2   force =    -0.00000011   -0.00000324   -0.00001050
     atom  136 type  2   force =     0.00000002    0.00000160    0.00000849
     atom  137 type  2   force =    -0.00000169    0.00000033   -0.00000121
     atom  138 type  2   force =    -0.00000353    0.00000210   -0.00001074
     atom  139 type  2   force =     0.00000122   -0.00000068    0.00000838
     atom  140 type  2   force =    -0.00000062   -0.00000044   -0.00000083
     atom  141 type  2   force =    -0.00000174   -0.00000220   -0.00000869
     atom  142 type  2   force =    -0.00000288   -0.00000344    0.00000661
     atom  143 type  2   force =     0.00000156   -0.00000096   -0.00000105
     atom  144 type  2   force =    -0.00000001    0.00000012   -0.00001423

     Total force =     0.004719     Total SCF correction =     0.000102

     Computing stress (Cartesian axis) and pressure

     Non-local corr. energy    =      69.33915594 Ry

          total   stress  (Ry/bohr**3)                   (kbar)     P=        4.26
   0.00002854  -0.00000000   0.00000000            4.20       -0.00        0.00
  -0.00000000   0.00002855   0.00000001           -0.00        4.20        0.00
   0.00000000   0.00000001   0.00002969            0.00        0.00        4.37

     kinetic stress (kbar)  14943.85     -0.00      0.00
                               -0.00  14943.86      0.01
                                0.00      0.01  14953.94

     local   stress (kbar)  -7399.26     -0.05      0.03
                               -0.05  -7398.98      0.08
                                0.03      0.08   1325.41

     nonloc. stress (kbar)   -999.52     -0.00      0.00
                               -0.00   -999.51      0.00
                                0.00      0.00  -1005.28

     hartree stress (kbar)  12027.08      0.02     -0.01
                                0.02  12026.97     -0.03
                               -0.01     -0.03   8088.37

     exc-cor stress (kbar)   6970.37      0.00      0.00
                                0.00   6970.37      0.00
                                0.00      0.00   6969.40

     corecor stress (kbar) -11344.52      0.00     -0.00
                                0.00 -11344.52     -0.00
                               -0.00     -0.00 -11344.45

     ewald   stress (kbar) -14277.50      0.04     -0.02
                                0.04 -14277.69     -0.06
                               -0.02     -0.06 -19067.97

     hubbard stress (kbar)      0.00      0.00      0.00
                                0.00      0.00      0.00
                                0.00      0.00      0.00

     DFT-D   stress (kbar)      0.00      0.00      0.00
                                0.00      0.00      0.00
                                0.00      0.00      0.00

     XDM     stress (kbar)      0.00      0.00      0.00
                                0.00      0.00      0.00
                                0.00      0.00      0.00

     dft-nl  stress (kbar)     83.70     -0.00     -0.00
                               -0.00     83.70     -0.00
                               -0.00     -0.00     84.95

     TS-vdW  stress (kbar)      0.00      0.00      0.00
                                0.00      0.00      0.00
                                0.00      0.00      0.00

     MDB     stress (kbar)      0.00      0.00      0.00
                                0.00      0.00      0.00
                                0.00      0.00      0.00

     3D-RISM stress (kbar)      0.00      0.00      0.00
                                0.00      0.00      0.00
                                0.00      0.00      0.00

     Energy error            =      7.1E-05 Ry
     Gradient error          =      9.3E-04 Ry/Bohr

     bfgs converged in  14 scf cycles and  13 bfgs steps
     (criteria: energy <  1.0E-04 Ry, force <  1.0E-03 Ry/Bohr)

     End of BFGS Geometry Optimization

     Final energy             =  -96801.0708196218 Ry

     File ./PbI2.bfgs deleted, as requested
Begin final coordinates

ATOMIC_POSITIONS (angstrom)
Pb            2.3557208072        4.0797022581        7.3685803128
Pb            2.3557951172        4.0796413274       14.7645363632
Pb            0.0305138975        8.1073058363       22.1330182140
Pb           -0.0002415633        8.1597306635        7.3732789064
Pb            0.0003548509        8.1599801026       14.7597387158
Pb           -2.3554954975       12.2398203315       22.1328553211
Pb           -2.3536655389       12.2409794514        7.3739214259
Pb           -2.3574068839       12.2387221785       14.7589875448
Pb           -4.7414799780       16.3722311481       22.1327514824
Pb           -4.7114017896       16.3197106934        7.3732353952
Pb           -4.7108099414       16.3199312557       14.7596994264
Pb            7.0066537367        4.0795485634       22.1331175264
Pb            7.0671254081        4.0800064968        7.3733850285
Pb            7.0671688460        4.0793450794       14.7598326302
Pb            4.6810531313        8.1073678740       22.1331313717
Pb            4.7116865332        8.1597310586        7.3733338995
Pb            4.7112353635        8.1599739553       14.7597606963
Pb            2.3557680516       12.2239715059       22.1481137258
Pb            2.3557194762       12.2427836025        7.3771864368
Pb            2.3557829883       12.2395814819       14.7592413019
Pb           -0.0135978337       16.3277948352       22.1481369787
Pb            0.0026095361       16.3185198533        7.3772190642
Pb           -0.0000517998       16.3199972757       14.7592842047
Pb           11.7783339554        4.0796440314       22.1330640406
Pb           11.7782708703        4.0774970230        7.3741343887
Pb           11.7783268191        4.0818449141       14.7591828811
Pb            9.4089695330        8.1518292756       22.1178059803
Pb            9.4224404856        8.1596537736        7.3738627087
Pb            9.4252141499        8.1611819601       14.7559184225
Pb            7.0670593642       12.2398131949       22.1329400622
Pb            7.0650893252       12.2409714933        7.3740175535
Pb            7.0689701942       12.2386979998       14.7590578362
Pb            4.7251595226       16.3278011259       22.1482002350
Pb            4.7088357343       16.3185076110        7.3772542437
Pb            4.7116126654       16.3199814090       14.7593298549
Pb           16.5500514803        4.0796516642       22.1329890310
Pb           16.4894075394        4.0799904039        7.3733888288
Pb           16.4894948922        4.0793424410       14.7598623315
Pb           14.1476839019        8.1518416968       22.1177879963
Pb           14.1340761733        8.1596486369        7.3738272518
Pb           14.1314340548        8.1611879012       14.7558970902
Pb           11.7783289794       12.2556528593       22.1177311771
Pb           11.7782405940       12.2400873836        7.3737507431
Pb           11.7783215683       12.2369123671       14.7558359972
Pb            9.4531068782       16.3721773878       22.1327178167
Pb            9.4228119394       16.3197011350        7.3732970478
Pb            9.4223790880       16.3199134881       14.7597598161
I             2.3556675996        1.3619772508        5.4892083179
I             2.3557299332        1.3605209033       12.8698571203
I             2.3557655034        1.0410145755       20.1045203952
I             0.0019795646        5.4386395556        5.4892615966
I             0.0008145737        5.4393374543       12.8699293981
I            -0.2749250485        5.5984060306       20.1050364042
I            -2.3543038002        9.5199551088        5.4937603144
I            -2.3536513969        9.5207331604       12.8685057344
I            -2.3732213299        9.5361753883       20.2531055179
I            -4.7104951422       13.6010321504        5.4937064280
I            -4.7094586698       13.6011239171       12.8684348529
I            -4.7057487490       13.5762201724       20.2530358592
I             7.0774621721        1.3537304181        5.5049077138
[...]
I             2.3557103753       14.9600359164        9.2675013680
I             2.3557390684       14.9599174753       16.6381945546
I            14.1108902660        2.7125434964        1.8797601591
I            14.1340428925        2.7218182264        9.2646875207
I            14.1344855172        2.7208556074       16.6393830000
I            11.7782935503        6.8013337412        1.8879154610
I            11.7782481140        6.8000523372        9.2634287219
I            11.7782947926        6.8001545966       16.6374520434
I             9.4239852814       10.8791521619        1.8878442662
I             9.4228002086       10.8798355770        9.2633220464
I             9.4229599221       10.8796999522       16.6373863117
I             7.0493053849       14.9434723742        1.8796524070
I             7.0688633656       14.9591056596        9.2645717226
I             7.0683300008       14.9598084518       16.6393205660
I             2.3558562416        4.0795010345       22.1327904296
End final coordinates

     Writing all to output data dir ./PbI2.save/

     General routines

     Parallel routines

     PAW routines

   This run was terminated on:   1:48: 5  18Feb2024

   JOB DONE.