     Program PWSCF v.7.1 starts on 27Apr2024 at  7:30:47

     Reading input from espresso.pwi
Warning: card &CELL ignored
Warning: card    CELL_DYNAMICS    = 'BFGS' ignored
Warning: card / ignored

     Current dimensions of program PWSCF are:
     Max number of different atomic species (ntypx) = 10
     Max number of k-points (npk) =  40000
     Max angular momentum in pseudopotentials (lmaxx) =  4
     file Pb.pbe-dn-kjpaw_psl.1.0.0.UPF: wavefunction(s)  6S 6P 5D renormalized
     file I.pbe-dn-kjpaw_psl.1.0.0.UPF: wavefunction(s)  5S 5P renormalized

     IMPORTANT: XC functional enforced from input :
     Exchange-correlation= BEEF-VDW
                           (   1   4  43  14   2   0   0)
     Any further DFT definition will be discarded
     Please, verify this is what you really want

     R & G space division:  proc/nbgrp/npool/nimage =     128
     Subspace diagonalization in iterative solution of the eigenvalue problem:
     a serial algorithm will be used

     Using Slab Decomposition

     bravais-lattice index     =            4
     lattice parameter (alat)  =      35.6120  a.u.
     unit-cell volume          =   45937.3577 (a.u.)^3
     number of atoms/cell      =          144
     number of atomic types    =            2
     number of electrons       =      2310.00
     number of Kohn-Sham states=         1386
     kinetic-energy cutoff     =      70.0000  Ry
     charge density cutoff     =     350.0000  Ry
     scf convergence threshold =      1.0E-07
     mixing beta               =       0.7000
     number of iterations used =            8  plain     mixing
     Exchange-correlation= BEEF-VDW
                           (   1   4  43  14   2   0   0)

     celldm(1)=  35.612033  celldm(2)=   0.000000  celldm(3)=   1.174479
     celldm(4)=   0.000000  celldm(5)=   0.000000  celldm(6)=   0.000000

     crystal axes: (cart. coord. in units of alat)
               a(1) = (   1.000000   0.000000   0.000000 )
               a(2) = (  -0.500000   0.866025   0.000000 )
               a(3) = (   0.000000   0.000000   1.174479 )

     reciprocal axes: (cart. coord. in units 2 pi/alat)
               b(1) = (  1.000000  0.577350 -0.000000 )
               b(2) = (  0.000000  1.154701  0.000000 )
               b(3) = (  0.000000 -0.000000  0.851442 )

     PseudoPot. # 1 for Pb read from file:
     //group///packages/espresso/pseudo/psl_1.0.0/pslibrary.1.0.0/pbe/PSEUDOPOTENTIALS/Pb.pbe-dn-kjpaw_psl.1.0.0.UPF
     MD5 check sum: 39ab5b8a6bbd56b7735ad9f188aac93a
     Pseudo is Projector augmented-wave + core cor, Zval = 14.0
     Generated using 'atomic' code by A. Dal Corso  v.7.1
     Shape of augmentation charge: PSQ
     Using radial grid of 1281 points,  6 beta functions with:
                l(1) =   0
                l(2) =   0
                l(3) =   1
                l(4) =   1
                l(5) =   2
                l(6) =   2
     Q(r) pseudized with 0 coefficients

     PseudoPot. # 2 for I  read from file:
     //group///packages/espresso/pseudo/psl_1.0.0/pslibrary.1.0.0/pbe/PSEUDOPOTENTIALS/I.pbe-dn-kjpaw_psl.1.0.0.UPF
     MD5 check sum: bfa8781bc1224d19af3f3980e3fab11e
     Pseudo is Projector augmented-wave + core cor, Zval = 17.0
     Generated using 'atomic' code by A. Dal Corso  v.7.1
     Shape of augmentation charge: PSQ
     Using radial grid of 1247 points,  6 beta functions with:
                l(1) =   0
                l(2) =   0
                l(3) =   1
                l(4) =   1
                l(5) =   2
                l(6) =   2
     Q(r) pseudized with 0 coefficients

     atomic species   valence    mass     pseudopotential
        Pb            14.00   207.20000     Pb( 1.00)
        I             17.00   126.90447     I ( 1.00)

     No symmetry found

                                    s                        frac. trans.

      isym =  1     identity

 cryst.   s( 1) = (     1          0          0      )
                  (     0          1          0      )
                  (     0          0          1      )

 cart.    s( 1) = (  1.0000000  0.0000000  0.0000000 )
                  (  0.0000000  1.0000000  0.0000000 )
                  (  0.0000000  0.0000000  1.0000000 )

     point group C_1 (1)
     there are  1 classes
     the character table:

       E
A      1.00

     the symmetry operations in each class and the name of the first element:

     E        1
          identity

   Cartesian axes

     site n.     atom                  positions (alat units)
         1           Pb  tau(   1) = (   0.1250034   0.2164918   0.3914896  )
         2           Pb  tau(   2) = (   0.1250085   0.2164873   0.7829825  )
         3           Pb  tau(   3) = (   0.0000128   0.4329881   1.1744712  )
         4           Pb  tau(   4) = (   0.0000026   0.4329971   0.3914855  )
         5           Pb  tau(   5) = (   0.0000077   0.4329926   0.7829784  )
         6           Pb  tau(   6) = (  -0.1249881   0.6494934   1.1744671  )
         7           Pb  tau(   7) = (  -0.1249983   0.6495025   0.3914814  )
         8           Pb  tau(   8) = (  -0.1249932   0.6494980   0.7829742  )
         9           Pb  tau(   9) = (  -0.2499889   0.8659988   1.1744630  )
        10           Pb  tau(  10) = (  -0.2499991   0.8660078   0.3914773  )
        11           Pb  tau(  11) = (  -0.2499940   0.8660033   0.7829701  )
        12           Pb  tau(  12) = (   0.3750136   0.2164818   1.1744786  )
        13           Pb  tau(  13) = (   0.3750034   0.2164908   0.3914929  )
        14           Pb  tau(  14) = (   0.3750085   0.2164863   0.7829857  )
        15           Pb  tau(  15) = (   0.2500128   0.4329871   1.1744745  )
        16           Pb  tau(  16) = (   0.2500026   0.4329962   0.3914888  )
        17           Pb  tau(  17) = (   0.2500077   0.4329916   0.7829816  )
        18           Pb  tau(  18) = (   0.1250119   0.6494925   1.1744703  )
        19           Pb  tau(  19) = (   0.1250017   0.6495015   0.3914847  )
        20           Pb  tau(  20) = (   0.1250068   0.6494970   0.7829775  )
        21           Pb  tau(  21) = (   0.0000111   0.8659978   1.1744662  )
        22           Pb  tau(  22) = (   0.0000009   0.8660069   0.3914805  )
        23           Pb  tau(  23) = (   0.0000060   0.8660024   0.7829734  )
        24           Pb  tau(  24) = (   0.6250136   0.2164808   1.1744818  )
        25           Pb  tau(  25) = (   0.6250034   0.2164898   0.3914962  )
        26           Pb  tau(  26) = (   0.6250085   0.2164853   0.7829890  )
        27           Pb  tau(  27) = (   0.5000128   0.4329862   1.1744777  )
        28           Pb  tau(  28) = (   0.5000026   0.4329952   0.3914920  )
        29           Pb  tau(  29) = (   0.5000077   0.4329907   0.7829849  )
        30           Pb  tau(  30) = (   0.3750119   0.6494915   1.1744736  )
        31           Pb  tau(  31) = (   0.3750017   0.6495006   0.3914879  )
        32           Pb  tau(  32) = (   0.3750068   0.6494960   0.7829808  )
        33           Pb  tau(  33) = (   0.2500111   0.8659969   1.1744695  )
        34           Pb  tau(  34) = (   0.2500009   0.8660059   0.3914838  )
        35           Pb  tau(  35) = (   0.2500060   0.8660014   0.7829766  )
        36           Pb  tau(  36) = (   0.8750136   0.2164798   1.1744851  )
        37           Pb  tau(  37) = (   0.8750034   0.2164889   0.3914994  )
        38           Pb  tau(  38) = (   0.8750085   0.2164844   0.7829923  )
        39           Pb  tau(  39) = (   0.7500128   0.4329852   1.1744810  )
        40           Pb  tau(  40) = (   0.7500026   0.4329942   0.3914953  )
        41           Pb  tau(  41) = (   0.7500077   0.4329897   0.7829881  )
        42           Pb  tau(  42) = (   0.6250119   0.6494906   1.1744769  )
        43           Pb  tau(  43) = (   0.6250017   0.6494996   0.3914912  )
        44           Pb  tau(  44) = (   0.6250068   0.6494951   0.7829840  )
        45           Pb  tau(  45) = (   0.5000111   0.8659959   1.1744727  )
        46           Pb  tau(  46) = (   0.5000009   0.8660050   0.3914870  )
        47           Pb  tau(  47) = (   0.5000060   0.8660004   0.7829799  )
        48           I   tau(  48) = (   0.1250054   0.0721550   0.2909325  )
        49           I   tau(  49) = (   0.1250105   0.0721505   0.6824253  )
        50           I   tau(  50) = (   0.1250156   0.0721459   1.0739182  )
        51           I   tau(  51) = (   0.0000045   0.2886603   0.2909283  )
        52           I   tau(  52) = (   0.0000096   0.2886558   0.6824212  )
        53           I   tau(  53) = (   0.0000147   0.2886513   1.0739140  )
        54           I   tau(  54) = (  -0.1249963   0.5051657   0.2909242  )
        55           I   tau(  55) = (  -0.1249912   0.5051612   0.6824171  )
        56           I   tau(  56) = (  -0.1249861   0.5051566   1.0739099  )
        57           I   tau(  57) = (  -0.2499971   0.7216710   0.2909201  )
        58           I   tau(  58) = (  -0.2499920   0.7216665   0.6824129  )
        59           I   tau(  59) = (  -0.2499869   0.7216620   1.0739058  )
        60           I   tau(  60) = (   0.3750054   0.0721540   0.2909357  )
[...]
       130           I   tau( 130) = (   0.1250009   0.7938394   0.4920425  )
       131           I   tau( 131) = (   0.1250060   0.7938348   0.8835353  )
       132           I   tau( 132) = (   0.7499983   0.1443268   0.1005653  )
       133           I   tau( 133) = (   0.7500034   0.1443223   0.4920581  )
       134           I   tau( 134) = (   0.7500085   0.1443178   0.8835509  )
       135           I   tau( 135) = (   0.6249975   0.3608322   0.1005611  )
       136           I   tau( 136) = (   0.6250026   0.3608277   0.4920540  )
       137           I   tau( 137) = (   0.6250077   0.3608232   0.8835468  )
       138           I   tau( 138) = (   0.4999966   0.5773376   0.1005570  )
       139           I   tau( 139) = (   0.5000017   0.5773330   0.4920499  )
       140           I   tau( 140) = (   0.5000068   0.5773285   0.8835427  )
       141           I   tau( 141) = (   0.3749958   0.7938429   0.1005529  )
       142           I   tau( 142) = (   0.3750009   0.7938384   0.4920457  )
       143           I   tau( 143) = (   0.3750060   0.7938339   0.8835386  )
       144           I   tau( 144) = (   0.1250136   0.2164827   1.1744753  )

   Crystallographic axes

     site n.     atom                  positions (cryst. coord.)
         1           Pb  tau(   1) = (  0.2499950  0.2499832  0.3333306  )
         2           Pb  tau(   2) = (  0.2499975  0.2499780  0.6666639  )
         3           Pb  tau(   3) = (  0.2499986  0.4999716  0.9999938  )
         4           Pb  tau(   4) = (  0.2499936  0.4999820  0.3333271  )
         5           Pb  tau(   5) = (  0.2499961  0.4999768  0.6666604  )
         6           Pb  tau(   6) = (  0.2499972  0.7499704  0.9999902  )
         7           Pb  tau(   7) = (  0.2499922  0.7499809  0.3333236  )
         8           Pb  tau(   8) = (  0.2499947  0.7499757  0.6666569  )
         9           Pb  tau(   9) = (  0.2499957  0.9999693  0.9999867  )
[...]
     atom   25 type  1   force =     0.00000000    0.00000000    0.00000000
     atom   26 type  1   force =     0.00000000    0.00000000    0.00000000
     atom   27 type  1   force =     0.00000000    0.00000000    0.00000000
     atom   28 type  1   force =     0.00000000    0.00000000    0.00000000
     atom   29 type  1   force =     0.00000000    0.00000000    0.00000000
     atom   30 type  1   force =     0.00000000    0.00000000    0.00000000
     atom   31 type  1   force =     0.00000000    0.00000000    0.00000000
     atom   32 type  1   force =     0.00000000    0.00000000    0.00000000
     atom   33 type  1   force =     0.00000000    0.00000000    0.00000000
     atom   34 type  1   force =     0.00000000    0.00000000    0.00000000
     atom   35 type  1   force =     0.00000000    0.00000000    0.00000000
     atom   36 type  1   force =     0.00000000    0.00000000    0.00000000
     atom   37 type  1   force =     0.00000000    0.00000000    0.00000000
     atom   38 type  1   force =     0.00000000    0.00000000    0.00000000
     atom   39 type  1   force =     0.00000000    0.00000000    0.00000000
     atom   40 type  1   force =     0.00000000    0.00000000    0.00000000
     atom   41 type  1   force =     0.00000000    0.00000000    0.00000000
     atom   42 type  1   force =     0.00000000    0.00000000    0.00000000
     atom   43 type  1   force =     0.00000000    0.00000000    0.00000000
     atom   44 type  1   force =     0.00000000    0.00000000    0.00000000
     atom   45 type  1   force =     0.00000000    0.00000000    0.00000000
     atom   46 type  1   force =     0.00000000    0.00000000    0.00000000
     atom   47 type  1   force =     0.00000000    0.00000000    0.00000000
     atom   48 type  2   force =     0.00000000    0.00000000    0.00000000
     atom   49 type  2   force =     0.00000000    0.00000000    0.00000000
     atom   50 type  2   force =     0.00000000    0.00000000    0.00000000
     atom   51 type  2   force =     0.00000000    0.00000000    0.00000000
     atom   52 type  2   force =     0.00000000    0.00000000    0.00000000
     atom   53 type  2   force =     0.00000000    0.00000000    0.00000000
     atom   54 type  2   force =     0.00000000    0.00000000    0.00000000
     atom   55 type  2   force =     0.00000000    0.00000000    0.00000000
     atom   56 type  2   force =     0.00000000    0.00000000    0.00000000
     atom   57 type  2   force =     0.00000000    0.00000000    0.00000000
     atom   58 type  2   force =     0.00000000    0.00000000    0.00000000
     atom   59 type  2   force =     0.00000000    0.00000000    0.00000000
     atom   60 type  2   force =     0.00000000    0.00000000    0.00000000
[...]
     atom  130 type  2   force =     0.00000000    0.00000000    0.00000000
     atom  131 type  2   force =     0.00000000    0.00000000    0.00000000
     atom  132 type  2   force =     0.00000000    0.00000000    0.00000000
     atom  133 type  2   force =     0.00000000    0.00000000    0.00000000
     atom  134 type  2   force =     0.00000000    0.00000000    0.00000000
     atom  135 type  2   force =     0.00000000    0.00000000    0.00000000
     atom  136 type  2   force =     0.00000000    0.00000000    0.00000000
     atom  137 type  2   force =     0.00000000    0.00000000    0.00000000
     atom  138 type  2   force =     0.00000000    0.00000000    0.00000000
     atom  139 type  2   force =     0.00000000    0.00000000    0.00000000
     atom  140 type  2   force =     0.00000000    0.00000000    0.00000000
     atom  141 type  2   force =     0.00000000    0.00000000    0.00000000
     atom  142 type  2   force =     0.00000000    0.00000000    0.00000000
     atom  143 type  2   force =     0.00000000    0.00000000    0.00000000
     atom  144 type  2   force =     0.00000000    0.00000000    0.00000000
     The SCF correction term to forces
     atom    1 type  1   force =    -0.00000011    0.00000048   -0.00002020
     atom    2 type  1   force =    -0.00000016    0.00000046    0.00001853
     atom    3 type  1   force =     0.00001537   -0.00002610    0.00000145
     atom    4 type  1   force =     0.00000160    0.00001502   -0.00001763
     atom    5 type  1   force =    -0.00001441    0.00000670    0.00001627
     atom    6 type  1   force =     0.00000050   -0.00000009    0.00000131
     atom    7 type  1   force =     0.00001251    0.00000664   -0.00002151
     atom    8 type  1   force =    -0.00001221   -0.00000760    0.00002007
     atom    9 type  1   force =    -0.00001496    0.00002650    0.00000145
     atom   10 type  1   force =     0.00001395   -0.00000602   -0.00001766
     atom   11 type  1   force =    -0.00000138   -0.00001580    0.00001642
     atom   12 type  1   force =    -0.00003021    0.00000016    0.00000146
     atom   13 type  1   force =     0.00001262   -0.00000844   -0.00001756
     atom   14 type  1   force =     0.00001335    0.00000962    0.00001617
     atom   15 type  1   force =    -0.00001530   -0.00002599    0.00000149
     atom   16 type  1   force =    -0.00000150    0.00001526   -0.00001755
     atom   17 type  1   force =     0.00001452    0.00000697    0.00001622
     atom   18 type  1   force =     0.00000017    0.00000468    0.00001308
     atom   19 type  1   force =     0.00000029    0.00002088   -0.00001872
     atom   20 type  1   force =     0.00000025    0.00000193    0.00001985
     atom   21 type  1   force =     0.00000456   -0.00000237    0.00001318
     atom   22 type  1   force =     0.00001875   -0.00001033   -0.00001882
     atom   23 type  1   force =     0.00000225   -0.00000098    0.00001975
     atom   24 type  1   force =     0.00000009   -0.00000030    0.00000146
     atom   25 type  1   force =     0.00000011   -0.00001393   -0.00002143
     atom   26 type  1   force =     0.00000015    0.00001457    0.00001971
     atom   27 type  1   force =     0.00000373    0.00000214   -0.00001056
     atom   28 type  1   force =     0.00000203    0.00000102   -0.00001965
     atom   29 type  1   force =     0.00001857    0.00001062    0.00001713
     atom   30 type  1   force =    -0.00000053   -0.00000000    0.00000134
     atom   31 type  1   force =    -0.00001250    0.00000683   -0.00002140
     atom   32 type  1   force =     0.00001219   -0.00000742    0.00001997
     atom   33 type  1   force =    -0.00000426   -0.00000240    0.00001320
     atom   34 type  1   force =    -0.00001835   -0.00001041   -0.00001882
     atom   35 type  1   force =    -0.00000185   -0.00000106    0.00001968
     atom   36 type  1   force =     0.00003017   -0.00000010    0.00000147
     atom   37 type  1   force =    -0.00001264   -0.00000872   -0.00001758
     atom   38 type  1   force =    -0.00001334    0.00000936    0.00001618
     atom   39 type  1   force =    -0.00000378    0.00000196   -0.00001057
     atom   40 type  1   force =    -0.00000215    0.00000076   -0.00001973
     atom   41 type  1   force =    -0.00001867    0.00001038    0.00001715
     atom   42 type  1   force =    -0.00000015   -0.00000475   -0.00001066
     atom   43 type  1   force =    -0.00000028   -0.00000293   -0.00001974
     atom   44 type  1   force =    -0.00000029   -0.00002193    0.00001735
     atom   45 type  1   force =     0.00001465    0.00002645    0.00000146
     atom   46 type  1   force =    -0.00001438   -0.00000611   -0.00001762
     atom   47 type  1   force =     0.00000099   -0.00001587    0.00001634
     atom   48 type  2   force =    -0.00000022    0.00000096   -0.00004178
     atom   49 type  2   force =    -0.00000033   -0.00001314    0.00000578
     atom   50 type  2   force =    -0.00000026    0.00003644    0.00003549
     atom   51 type  2   force =     0.00000027    0.00000005   -0.00004149
     atom   52 type  2   force =    -0.00001190    0.00000708    0.00000583
     atom   53 type  2   force =     0.00003122   -0.00001805    0.00003551
     atom   54 type  2   force =     0.00000603    0.00001208   -0.00002474
     atom   55 type  2   force =    -0.00002213    0.00000068    0.00002042
     atom   56 type  2   force =    -0.00000432   -0.00000362    0.00000132
     atom   57 type  2   force =     0.00001391   -0.00000153   -0.00002498
     atom   58 type  2   force =    -0.00001009   -0.00002037    0.00002037
     atom   59 type  2   force =    -0.00000499   -0.00000253    0.00000132
     atom   60 type  2   force =     0.00002056   -0.00001114   -0.00002108
[...]
     atom  130 type  2   force =     0.00000035    0.00000003   -0.00003846
     atom  131 type  2   force =     0.00000032   -0.00000013    0.00003118
     atom  132 type  2   force =     0.00000072   -0.00000564   -0.00000145
     atom  133 type  2   force =    -0.00001179   -0.00001825   -0.00002078
     atom  134 type  2   force =    -0.00000835    0.00001128    0.00002517
     atom  135 type  2   force =     0.00000001   -0.00000275   -0.00000831
     atom  136 type  2   force =    -0.00000010   -0.00000418    0.00000357
     atom  137 type  2   force =    -0.00000003    0.00002508    0.00000369
     atom  138 type  2   force =    -0.00000251    0.00000096   -0.00000849
     atom  139 type  2   force =    -0.00000379    0.00000140    0.00000359
     atom  140 type  2   force =     0.00002142   -0.00001291    0.00000383
     atom  141 type  2   force =    -0.00000502    0.00000346   -0.00000152
     atom  142 type  2   force =    -0.00002220   -0.00000095   -0.00002054
     atom  143 type  2   force =     0.00000508   -0.00001300    0.00002523
     atom  144 type  2   force =    -0.00000009    0.00000037   -0.00000055

     Total force =     0.003581     Total SCF correction =     0.000303

     Computing stress (Cartesian axis) and pressure

[...]

          total   stress  (Ry/bohr**3)                   (kbar)     P=        9.10
   0.00006085   0.00000000   0.00000000            8.95        0.00        0.00
   0.00000000   0.00006085   0.00000000            0.00        8.95        0.00
   0.00000000   0.00000000   0.00006391            0.00        0.00        9.40

     kinetic stress (kbar)  14946.84      0.00      0.00
                                0.00  14946.84      0.00
                                0.00      0.00  14955.80

     local   stress (kbar)  -7243.19      0.00      0.00
                                0.00  -7243.20      0.01
                                0.00      0.01   1029.10

     nonloc. stress (kbar)   -997.51      0.00      0.00
                                0.00   -997.51      0.00
                                0.00      0.00  -1003.53

     hartree stress (kbar)  11960.26     -0.00     -0.00
                               -0.00  11960.26     -0.00
                               -0.00     -0.00   8219.40

     exc-cor stress (kbar)   6969.02     -0.00     -0.00
                               -0.00   6969.02      0.00
                               -0.00      0.00   6968.23

     corecor stress (kbar) -11344.58      0.00     -0.00
                                0.00 -11344.58     -0.00
                               -0.00     -0.00 -11344.50

     ewald   stress (kbar) -14365.63     -0.00     -0.00
                               -0.00 -14365.63     -0.00
                               -0.00     -0.00 -18899.98

     hubbard stress (kbar)      0.00      0.00      0.00
                                0.00      0.00      0.00
                                0.00      0.00      0.00

     DFT-D   stress (kbar)      0.00      0.00      0.00
                                0.00      0.00      0.00
                                0.00      0.00      0.00

     XDM     stress (kbar)      0.00      0.00      0.00
                                0.00      0.00      0.00
                                0.00      0.00      0.00

     dft-nl  stress (kbar)     83.74      0.00      0.00
                                0.00     83.74      0.00
                                0.00      0.00     84.88

     TS-vdW  stress (kbar)      0.00      0.00      0.00
                                0.00      0.00      0.00
                                0.00      0.00      0.00

     MDB     stress (kbar)      0.00      0.00      0.00
                                0.00      0.00      0.00
                                0.00      0.00      0.00

     3D-RISM stress (kbar)      0.00      0.00      0.00
                                0.00      0.00      0.00
                                0.00      0.00      0.00

[...]

     Non-local corr. energy    =      69.32939546 Ry

 BEEFens 2000 ensemble energies
             -0.581985363072092E+02
             -0.585827269225610E+03
             -0.266526176060601E+03
              0.204600231744524E+03
             -0.447722492808140E+03
             -0.548228717956576E+03
              0.281340310083382E+03
              0.118873092996319E+01
              0.474318018406827E+03
             -0.299781830541156E+02
              0.242690567970052E+03
              0.248544862620976E+02
             -0.186027010092851E+02
             -0.150085803896914E+02
              0.302756964586628E+03
             -0.227818396190467E+03
             -0.447503984401063E+03
             -0.144357648301928E+03
              0.129468366958877E+03
             -0.271297213305934E+01
              0.659701510486087E+03
              0.550683594791311E+03
             -0.339200634540043E+03
              0.117264485984181E+03
             -0.706649105906833E+03
              0.580079921170841E+03
              0.198352019136057E+03
              0.523873618645385E+03
              0.353126877069479E+03
             -0.163965832040945E+03
              0.129197658691744E+03
             -0.231046383394234E+03
              0.963737036084365E+02
              0.351164264156272E+03
              0.377856420042176E+03
             -0.164140716934980E+03
              0.833743615907663E+03
             -0.335405706062747E+03
             -0.223475327791046E+03
              0.333441332893145E+03
              0.147018501012538E+03
              0.253312295971083E+03
             -0.489379703111398E+03
             -0.317555954426398E+02
              0.469540797908770E+03
              0.613623749270183E+03
             -0.622955264343455E+03
              0.400666579529823E+02
              0.216181508036025E+03
              0.139492159196242E+03
              0.243703844068252E+03
              0.535065317119340E+03
             -0.347430194988729E+03
             -0.337259536762129E+03
             -0.469809909316260E+03
             -0.682683294481435E+02
             -0.400778228850151E+03
              0.518250377754343E+02
             -0.578300543275732E+02
             -0.317941085023060E+03
[...]
              0.397005386876077E+03
              0.254288425510160E+03
              0.259385995430415E+03
             -0.479815265286413E+03
             -0.495521113122208E+03
             -0.111727759916650E+03
             -0.442919869793592E+03
              0.703285987551378E+03
              0.592438847657489E+03
              0.279357472611884E+03
              0.770217359271006E+03
             -0.384943253661307E+03
             -0.165807097097565E+03
             -0.238888479309898E+03
              0.666268828514015E+03

 BEEF-vdW xc energy contributions
            1 :    -6023.227040580437
            2 :     5519.620106532765
            3 :    -4660.499088257245
            4 :     3674.474769081469
            5 :    -2777.332018769869
            6 :     2102.304562493699
            7 :    -1677.949676481250
            8 :     1447.974124237078
            9 :    -1314.159416591024
           10 :     1183.570704503890
           11 :    -1003.846832410992
           12 :     774.6333062900194
           13 :    -533.3677631398486
           14 :     326.5252345718091
           15 :    -183.5299430976784
           16 :     105.4709542233268
           17 :    -70.07350124513414
           18 :     46.41025744219405
           19 :    -10.69237699502355
           20 :    -43.83754453126403
           21 :     106.6051504767138
           22 :    -158.3529193186359
           23 :     183.6521004868127
           24 :    -180.1586103822674
           25 :     159.6821199390115
           26 :    -141.2133373933975
           27 :     140.4865231375197
           28 :    -161.8998573635035
           29 :     196.7317946923331
           30 :    -228.1735586200857
           31 :    -518.0481425784301
           32 :    -372.7137800953869

     Writing all to output data dir ./PbI2.save/

     General routines

     Parallel routines

     PAW routines

   This run was terminated on:   7:47: 1  27Apr2024

   JOB DONE.