     Program PWSCF v.7.1 starts on 22Apr2024 at  7:39:59

     Reading input from espresso.pwi
Warning: card &CELL ignored
Warning: card    CELL_DYNAMICS    = 'BFGS' ignored
Warning: card / ignored

     Current dimensions of program PWSCF are:
     Max number of different atomic species (ntypx) = 10
     Max number of k-points (npk) =  40000
     Max angular momentum in pseudopotentials (lmaxx) =  4
     file Pb.pbe-dn-kjpaw_psl.1.0.0.UPF: wavefunction(s)  6S 6P 5D renormalized
     file I.pbe-dn-kjpaw_psl.1.0.0.UPF: wavefunction(s)  5S 5P renormalized

     IMPORTANT: XC functional enforced from input :
     Exchange-correlation= BEEF-VDW
                           (   1   4  43  14   2   0   0)
     Any further DFT definition will be discarded
     Please, verify this is what you really want

     R & G space division:  proc/nbgrp/npool/nimage =     128
     Subspace diagonalization in iterative solution of the eigenvalue problem:
     a serial algorithm will be used

     Using Slab Decomposition

     bravais-lattice index     =            4
     lattice parameter (alat)  =      35.6120  a.u.
     unit-cell volume          =   45937.3577 (a.u.)^3
     number of atoms/cell      =          144
     number of atomic types    =            2
     number of electrons       =      2310.00
     number of Kohn-Sham states=         1386
     kinetic-energy cutoff     =      70.0000  Ry
     charge density cutoff     =     350.0000  Ry
     scf convergence threshold =      1.0E-07
     mixing beta               =       0.7000
     number of iterations used =            8  plain     mixing
     energy convergence thresh.=      1.0E-04
     force convergence thresh. =      1.0E-03
     Exchange-correlation= BEEF-VDW
                           (   1   4  43  14   2   0   0)
     nstep                     =           50

     celldm(1)=  35.612033  celldm(2)=   0.000000  celldm(3)=   1.174479
     celldm(4)=   0.000000  celldm(5)=   0.000000  celldm(6)=   0.000000

     crystal axes: (cart. coord. in units of alat)
               a(1) = (   1.000000   0.000000   0.000000 )
               a(2) = (  -0.500000   0.866025   0.000000 )
               a(3) = (   0.000000   0.000000   1.174479 )

     reciprocal axes: (cart. coord. in units 2 pi/alat)
               b(1) = (  1.000000  0.577350 -0.000000 )
               b(2) = (  0.000000  1.154701  0.000000 )
               b(3) = (  0.000000 -0.000000  0.851442 )

     PseudoPot. # 1 for Pb read from file:
     //group///packages/espresso/pseudo/psl_1.0.0/pslibrary.1.0.0/pbe/PSEUDOPOTENTIALS/Pb.pbe-dn-kjpaw_psl.1.0.0.UPF
     MD5 check sum: 39ab5b8a6bbd56b7735ad9f188aac93a
     Pseudo is Projector augmented-wave + core cor, Zval = 14.0
     Generated using 'atomic' code by A. Dal Corso  v.7.1
     Shape of augmentation charge: PSQ
     Using radial grid of 1281 points,  6 beta functions with:
                l(1) =   0
                l(2) =   0
                l(3) =   1
                l(4) =   1
                l(5) =   2
                l(6) =   2
     Q(r) pseudized with 0 coefficients

     PseudoPot. # 2 for I  read from file:
     //group///packages/espresso/pseudo/psl_1.0.0/pslibrary.1.0.0/pbe/PSEUDOPOTENTIALS/I.pbe-dn-kjpaw_psl.1.0.0.UPF
     MD5 check sum: bfa8781bc1224d19af3f3980e3fab11e
     Pseudo is Projector augmented-wave + core cor, Zval = 17.0
     Generated using 'atomic' code by A. Dal Corso  v.7.1
     Shape of augmentation charge: PSQ
     Using radial grid of 1247 points,  6 beta functions with:
                l(1) =   0
                l(2) =   0
                l(3) =   1
                l(4) =   1
                l(5) =   2
                l(6) =   2
     Q(r) pseudized with 0 coefficients

     atomic species   valence    mass     pseudopotential
        Pb            14.00   207.20000     Pb( 1.00)
        I             17.00   126.90447     I ( 1.00)

     No symmetry found

                                    s                        frac. trans.

      isym =  1     identity

 cryst.   s( 1) = (     1          0          0      )
                  (     0          1          0      )
                  (     0          0          1      )

 cart.    s( 1) = (  1.0000000  0.0000000  0.0000000 )
                  (  0.0000000  1.0000000  0.0000000 )
                  (  0.0000000  0.0000000  1.0000000 )

     point group C_1 (1)
     there are  1 classes
     the character table:

       E
A      1.00

     the symmetry operations in each class and the name of the first element:

     E        1
          identity

   Cartesian axes

     site n.     atom                  positions (alat units)
         1           Pb  tau(   1) = (   0.1250034   0.2164918   0.3914896  )
         2           Pb  tau(   2) = (   0.1250085   0.2164873   0.7829825  )
         3           Pb  tau(   3) = (   0.0000128   0.4329881   1.1744712  )
         4           Pb  tau(   4) = (   0.0000026   0.4329971   0.3914855  )
         5           Pb  tau(   5) = (   0.0000077   0.4329926   0.7829784  )
         6           Pb  tau(   6) = (  -0.1249881   0.6494934   1.1744671  )
         7           Pb  tau(   7) = (  -0.1249983   0.6495025   0.3914814  )
         8           Pb  tau(   8) = (  -0.1249932   0.6494980   0.7829742  )
         9           Pb  tau(   9) = (  -0.2499889   0.8659988   1.1744630  )
        10           Pb  tau(  10) = (  -0.2499991   0.8660078   0.3914773  )
        11           Pb  tau(  11) = (  -0.2499940   0.8660033   0.7829701  )
        12           Pb  tau(  12) = (   0.3750136   0.2164818   1.1744786  )
        13           Pb  tau(  13) = (   0.3750034   0.2164908   0.3914929  )
        14           Pb  tau(  14) = (   0.3750085   0.2164863   0.7829857  )
        15           Pb  tau(  15) = (   0.2500128   0.4329871   1.1744745  )
        16           Pb  tau(  16) = (   0.2500026   0.4329962   0.3914888  )
        17           Pb  tau(  17) = (   0.2500077   0.4329916   0.7829816  )
        18           Pb  tau(  18) = (   0.1250119   0.6494925   1.1744703  )
        19           Pb  tau(  19) = (   0.1250017   0.6495015   0.3914847  )
        20           Pb  tau(  20) = (   0.1250068   0.6494970   0.7829775  )
        21           Pb  tau(  21) = (   0.0000111   0.8659978   1.1744662  )
        22           Pb  tau(  22) = (   0.0000009   0.8660069   0.3914805  )
        23           Pb  tau(  23) = (   0.0000060   0.8660024   0.7829734  )
        24           Pb  tau(  24) = (   0.6250136   0.2164808   1.1744818  )
        25           Pb  tau(  25) = (   0.6250034   0.2164898   0.3914962  )
        26           Pb  tau(  26) = (   0.6250085   0.2164853   0.7829890  )
        27           Pb  tau(  27) = (   0.5000128   0.4329862   1.1744777  )
        28           Pb  tau(  28) = (   0.5000026   0.4329952   0.3914920  )
        29           Pb  tau(  29) = (   0.5000077   0.4329907   0.7829849  )
        30           Pb  tau(  30) = (   0.3750119   0.6494915   1.1744736  )
        31           Pb  tau(  31) = (   0.3750017   0.6495006   0.3914879  )
        32           Pb  tau(  32) = (   0.3750068   0.6494960   0.7829808  )
        33           Pb  tau(  33) = (   0.2500111   0.8659969   1.1744695  )
        34           Pb  tau(  34) = (   0.2500009   0.8660059   0.3914838  )
        35           Pb  tau(  35) = (   0.2500060   0.8660014   0.7829766  )
        36           Pb  tau(  36) = (   0.8750136   0.2164798   1.1744851  )
        37           Pb  tau(  37) = (   0.8750034   0.2164889   0.3914994  )
        38           Pb  tau(  38) = (   0.8750085   0.2164844   0.7829923  )
        39           Pb  tau(  39) = (   0.7500128   0.4329852   1.1744810  )
        40           Pb  tau(  40) = (   0.7500026   0.4329942   0.3914953  )
        41           Pb  tau(  41) = (   0.7500077   0.4329897   0.7829881  )
        42           Pb  tau(  42) = (   0.6250119   0.6494906   1.1744769  )
        43           Pb  tau(  43) = (   0.6250017   0.6494996   0.3914912  )
        44           Pb  tau(  44) = (   0.6250068   0.6494951   0.7829840  )
        45           Pb  tau(  45) = (   0.5000111   0.8659959   1.1744727  )
        46           Pb  tau(  46) = (   0.5000009   0.8660050   0.3914870  )
        47           Pb  tau(  47) = (   0.5000060   0.8660004   0.7829799  )
        48           I   tau(  48) = (   0.1250054   0.0721550   0.2909325  )
        49           I   tau(  49) = (   0.1250105   0.0721505   0.6824253  )
        50           I   tau(  50) = (   0.1250156   0.0721459   1.0739182  )
        51           I   tau(  51) = (   0.0000045   0.2886603   0.2909283  )
        52           I   tau(  52) = (   0.0000096   0.2886558   0.6824212  )
        53           I   tau(  53) = (   0.0000147   0.2886513   1.0739140  )
        54           I   tau(  54) = (  -0.1249963   0.5051657   0.2909242  )
        55           I   tau(  55) = (  -0.1249912   0.5051612   0.6824171  )
        56           I   tau(  56) = (  -0.1249861   0.5051566   1.0739099  )
        57           I   tau(  57) = (  -0.2499971   0.7216710   0.2909201  )
        58           I   tau(  58) = (  -0.2499920   0.7216665   0.6824129  )
        59           I   tau(  59) = (  -0.2499869   0.7216620   1.0739058  )
        60           I   tau(  60) = (   0.3750054   0.0721540   0.2909357  )
[...]
       130           I   tau( 130) = (   0.1250009   0.7938394   0.4920425  )
       131           I   tau( 131) = (   0.1250060   0.7938348   0.8835353  )
       132           I   tau( 132) = (   0.7499983   0.1443268   0.1005653  )
       133           I   tau( 133) = (   0.7500034   0.1443223   0.4920581  )
       134           I   tau( 134) = (   0.7500085   0.1443178   0.8835509  )
       135           I   tau( 135) = (   0.6249975   0.3608322   0.1005611  )
       136           I   tau( 136) = (   0.6250026   0.3608277   0.4920540  )
       137           I   tau( 137) = (   0.6250077   0.3608232   0.8835468  )
       138           I   tau( 138) = (   0.4999966   0.5773376   0.1005570  )
       139           I   tau( 139) = (   0.5000017   0.5773330   0.4920499  )
       140           I   tau( 140) = (   0.5000068   0.5773285   0.8835427  )
       141           I   tau( 141) = (   0.3749958   0.7938429   0.1005529  )
       142           I   tau( 142) = (   0.3750009   0.7938384   0.4920457  )
       143           I   tau( 143) = (   0.3750060   0.7938339   0.8835386  )
       144           I   tau( 144) = (   0.1250136   0.2164827   1.1744753  )

   Crystallographic axes

     site n.     atom                  positions (cryst. coord.)
         1           Pb  tau(   1) = (  0.2499950  0.2499832  0.3333306  )
         2           Pb  tau(   2) = (  0.2499975  0.2499780  0.6666639  )
         3           Pb  tau(   3) = (  0.2499986  0.4999716  0.9999938  )
         4           Pb  tau(   4) = (  0.2499936  0.4999820  0.3333271  )
         5           Pb  tau(   5) = (  0.2499961  0.4999768  0.6666604  )
         6           Pb  tau(   6) = (  0.2499972  0.7499704  0.9999902  )
         7           Pb  tau(   7) = (  0.2499922  0.7499809  0.3333236  )
         8           Pb  tau(   8) = (  0.2499947  0.7499757  0.6666569  )
[...]
     atom   55 type  2   force =     0.00000000    0.00000000    0.00000000
     atom   56 type  2   force =     0.00000000    0.00000000    0.00000000
     atom   57 type  2   force =     0.00000000    0.00000000    0.00000000
     atom   58 type  2   force =     0.00000000    0.00000000    0.00000000
     atom   59 type  2   force =     0.00000000    0.00000000    0.00000000
     atom   60 type  2   force =     0.00000000    0.00000000    0.00000000
[...]
     atom  130 type  2   force =     0.00000000    0.00000000    0.00000000
     atom  131 type  2   force =     0.00000000    0.00000000    0.00000000
     atom  132 type  2   force =     0.00000000    0.00000000    0.00000000
     atom  133 type  2   force =     0.00000000    0.00000000    0.00000000
     atom  134 type  2   force =     0.00000000    0.00000000    0.00000000
     atom  135 type  2   force =     0.00000000    0.00000000    0.00000000
     atom  136 type  2   force =     0.00000000    0.00000000    0.00000000
     atom  137 type  2   force =     0.00000000    0.00000000    0.00000000
     atom  138 type  2   force =     0.00000000    0.00000000    0.00000000
     atom  139 type  2   force =     0.00000000    0.00000000    0.00000000
     atom  140 type  2   force =     0.00000000    0.00000000    0.00000000
     atom  141 type  2   force =     0.00000000    0.00000000    0.00000000
     atom  142 type  2   force =     0.00000000    0.00000000    0.00000000
     atom  143 type  2   force =     0.00000000    0.00000000    0.00000000
     atom  144 type  2   force =     0.00000000    0.00000000    0.00000000
     The SCF correction term to forces
     atom    1 type  1   force =    -0.00000002   -0.00000038   -0.00001872
     atom    2 type  1   force =    -0.00000027   -0.00000058    0.00002057
     atom    3 type  1   force =     0.00000961   -0.00001920   -0.00000095
     atom    4 type  1   force =    -0.00000039    0.00000267   -0.00000235
     atom    5 type  1   force =    -0.00000362    0.00000119    0.00000306
     atom    6 type  1   force =    -0.00000123   -0.00000040   -0.00000098
     atom    7 type  1   force =     0.00001038    0.00000621    0.00001159
     atom    8 type  1   force =    -0.00001221   -0.00000683   -0.00001076
     atom    9 type  1   force =    -0.00001143    0.00001816   -0.00000154
     atom   10 type  1   force =     0.00000222   -0.00000179   -0.00000217
     atom   11 type  1   force =    -0.00000079   -0.00000355    0.00000330
     atom   12 type  1   force =    -0.00002147    0.00000050   -0.00000125
     atom   13 type  1   force =     0.00000217   -0.00000112   -0.00000275
     atom   14 type  1   force =     0.00000261    0.00000175    0.00000310
     atom   15 type  1   force =    -0.00000998   -0.00001936   -0.00000089
     atom   16 type  1   force =     0.00000018    0.00000243   -0.00000269
     atom   17 type  1   force =     0.00000302    0.00000089    0.00000309
     atom   18 type  1   force =    -0.00000021   -0.00000604    0.00001907
     atom   19 type  1   force =    -0.00000020    0.00002018   -0.00000017
     atom   20 type  1   force =    -0.00000048   -0.00000760   -0.00001696
     atom   21 type  1   force =    -0.00000578    0.00000325    0.00001909
     atom   22 type  1   force =     0.00001719   -0.00001069   -0.00000037
     atom   23 type  1   force =    -0.00000710    0.00000358   -0.00001692
     atom   24 type  1   force =     0.00000010    0.00000122   -0.00000086
     atom   25 type  1   force =    -0.00000010   -0.00001187    0.00001055
     atom   26 type  1   force =    -0.00000008    0.00001388   -0.00000988
     atom   27 type  1   force =    -0.00000444   -0.00000292   -0.00002157
     atom   28 type  1   force =    -0.00000630   -0.00000359    0.00001563
     atom   29 type  1   force =     0.00001825    0.00001017    0.00000308
     atom   30 type  1   force =     0.00000132   -0.00000018   -0.00000076
     atom   31 type  1   force =    -0.00001044    0.00000608    0.00001090
     atom   32 type  1   force =     0.00001199   -0.00000662   -0.00001020
     atom   33 type  1   force =     0.00000562    0.00000349    0.00001915
     atom   34 type  1   force =    -0.00001751   -0.00001047   -0.00000073
     atom   35 type  1   force =     0.00000676    0.00000373   -0.00001630
     atom   36 type  1   force =     0.00002152    0.00000079   -0.00000130
     atom   37 type  1   force =    -0.00000199   -0.00000088   -0.00000298
     atom   38 type  1   force =    -0.00000225    0.00000223    0.00000366
     atom   39 type  1   force =     0.00000474   -0.00000285   -0.00002189
     atom   40 type  1   force =     0.00000649   -0.00000337    0.00001586
     atom   41 type  1   force =    -0.00001765    0.00001058    0.00000310
     atom   42 type  1   force =     0.00000022    0.00000575   -0.00002214
     atom   43 type  1   force =     0.00000032    0.00000737    0.00001607
     atom   44 type  1   force =     0.00000063   -0.00002039    0.00000313
     atom   45 type  1   force =     0.00001147    0.00001832   -0.00000158
     atom   46 type  1   force =    -0.00000173   -0.00000154   -0.00000278
     atom   47 type  1   force =     0.00000115   -0.00000304    0.00000373
     atom   48 type  2   force =    -0.00000025    0.00000471   -0.00000207
     atom   49 type  2   force =     0.00000051   -0.00001247    0.00001730
     atom   50 type  2   force =    -0.00000019    0.00000732    0.00001227
     atom   51 type  2   force =     0.00000434   -0.00000272   -0.00000183
     atom   52 type  2   force =    -0.00001023    0.00000629    0.00001700
     atom   53 type  2   force =     0.00000589   -0.00000406    0.00001157
     atom   54 type  2   force =     0.00001249    0.00000177    0.00001057
     atom   55 type  2   force =    -0.00001607    0.00000719    0.00000791
     atom   56 type  2   force =    -0.00000740   -0.00001370   -0.00001114
     atom   57 type  2   force =     0.00000781    0.00001001    0.00001045
     atom   58 type  2   force =    -0.00000170   -0.00001715    0.00000793
     atom   59 type  2   force =    -0.00001542    0.00000116   -0.00001135
     atom   60 type  2   force =     0.00000972   -0.00000592   -0.00000196
[...]
     atom  130 type  2   force =    -0.00000043   -0.00000032   -0.00001424
     atom  131 type  2   force =    -0.00000027    0.00000013   -0.00001239
     atom  132 type  2   force =     0.00000801   -0.00001013    0.00000601
     atom  133 type  2   force =    -0.00001362   -0.00000888   -0.00000127
     atom  134 type  2   force =     0.00000509    0.00001456   -0.00001030
     atom  135 type  2   force =     0.00000004   -0.00000671   -0.00000986
     atom  136 type  2   force =     0.00000018   -0.00000237    0.00001603
     atom  137 type  2   force =     0.00000042    0.00002524   -0.00001275
     atom  138 type  2   force =    -0.00000541    0.00000330   -0.00000979
     atom  139 type  2   force =    -0.00000212    0.00000151    0.00001598
     atom  140 type  2   force =     0.00002230   -0.00001219   -0.00001252
     atom  141 type  2   force =    -0.00000446    0.00001257    0.00000625
     atom  142 type  2   force =    -0.00001478   -0.00000781   -0.00000153
     atom  143 type  2   force =     0.00001550   -0.00000263   -0.00001045
     atom  144 type  2   force =    -0.00000028    0.00000001   -0.00000406

     Total force =     0.007718     Total SCF correction =     0.000205

     Computing stress (Cartesian axis) and pressure

[...]

          total   stress  (Ry/bohr**3)                   (kbar)     P=        9.13
   0.00006121   0.00000000  -0.00000000            9.00        0.00       -0.00
   0.00000000   0.00006121  -0.00000000            0.00        9.00       -0.00
  -0.00000000  -0.00000000   0.00006377           -0.00       -0.00        9.38

     kinetic stress (kbar)  14946.93      0.00     -0.00
                                0.00  14946.93      0.00
                               -0.00      0.00  14955.71

     local   stress (kbar)  -7232.82      0.00      0.01
                                0.00  -7232.83      0.02
                                0.01      0.02   1004.20

     nonloc. stress (kbar)   -997.47      0.00     -0.00
                                0.00   -997.47      0.00
                               -0.00      0.00  -1003.59

     hartree stress (kbar)  11955.71     -0.00     -0.00
                               -0.00  11955.72     -0.01
                               -0.00     -0.01   8230.52

     exc-cor stress (kbar)   6969.01      0.00     -0.00
                                0.00   6969.01     -0.00
                               -0.00     -0.00   6968.23

     corecor stress (kbar) -11344.58      0.00      0.00
                                0.00 -11344.58      0.00
                                0.00      0.00 -11344.50

     ewald   stress (kbar) -14371.52     -0.00     -0.00
                               -0.00 -14371.52     -0.01
                               -0.00     -0.01 -18886.06

     hubbard stress (kbar)      0.00      0.00      0.00
                                0.00      0.00      0.00
                                0.00      0.00      0.00

     DFT-D   stress (kbar)      0.00      0.00      0.00
                                0.00      0.00      0.00
                                0.00      0.00      0.00

     XDM     stress (kbar)      0.00      0.00      0.00
                                0.00      0.00      0.00
                                0.00      0.00      0.00

     dft-nl  stress (kbar)     83.74     -0.00      0.00
                               -0.00     83.74      0.00
                                0.00      0.00     84.88

     TS-vdW  stress (kbar)      0.00      0.00      0.00
                                0.00      0.00      0.00
                                0.00      0.00      0.00

     MDB     stress (kbar)      0.00      0.00      0.00
                                0.00      0.00      0.00
                                0.00      0.00      0.00

     3D-RISM stress (kbar)      0.00      0.00      0.00
                                0.00      0.00      0.00
                                0.00      0.00      0.00

     Energy error            =      2.2E-04 Ry
     Gradient error          =      1.4E-03 Ry/Bohr

     number of scf cycles    =  19
     number of bfgs steps    =  18

     energy             old  =  -96800.3456543484 Ry
     energy             new  =  -96800.3458728374 Ry

     CASE: energy            _new < energy            _old

     new trust radius        =       0.0141563846 bohr
     new conv_thr            =       0.0000000014 Ry

ATOMIC_POSITIONS (angstrom)
Pb            2.3557247241        4.0797685764        7.3306973319
Pb            2.3557434784        4.0797288907       14.8023762791
Pb            0.1358369676        7.9246786090       22.1330414842
Pb            0.0047330318        8.1562449491        7.3595969386
Pb            0.0009042946        8.1539967227       14.7734895593
Pb           -2.3553201741       12.2395941370       22.1329921725
Pb           -2.3472050314       12.2447420703        7.3623585825
Pb           -2.3638594766       12.2350878334       14.7706065588
Pb           -4.8466435947       16.5546534773       22.1329705210
Pb           -4.7119323380       16.3258302830        7.3595207844
Pb           -4.7158122959       16.3235189242       14.7734313764
Pb            6.7959075518        4.0795763909       22.1331144999
Pb            7.0615813078        4.0774872624        7.3595645355
Pb            7.0615682383        4.0819447348       14.7735164979
Pb            4.5757691260        7.9247053515       22.1330255001
Pb            4.7067264339        8.1562377638        7.3596271301
Pb            4.7106097373        8.1539903211       14.7735346131
Pb            2.3557776880       12.1867599257       22.1581191143
Pb            2.3557342946       12.2535594428        7.4097722207
Pb            2.3557386927       12.2346102332       14.7770066338
Pb           -0.0457877684       16.3463551789       22.1580971280
Pb            0.0119385778       16.3131634347        7.4097922066
Pb           -0.0044943906       16.3226413362       14.7770125129
Pb           11.7784080221        4.0796050867       22.1331702483
Pb           11.7782628670        4.0701423349        7.3624495117
Pb           11.7782848303        4.0893796233       14.7707105132
Pb            9.3767366967        8.1331711708       22.1079112790
Pb            9.4180256923        8.1571894892        7.3560595794
Pb            9.4344357971        8.1665852691       14.7233605689
Pb            7.0669137456       12.2396667597       22.1329728464
Pb            7.0586477930       12.2447419499        7.3623928593
Pb            7.0753496831       12.2350865193       14.7706450457
Pb            4.7573614112       16.3463625724       22.1581085803
Pb            4.6995761040       16.3131880439        7.4097297052
Pb            4.7159731629       16.3226422036       14.7770360098
Pb           16.7608444398        4.0795646324       22.1331039761
Pb           16.4949553477        4.0774925250        7.3595451717
Pb           16.4950064145        4.0819361126       14.7735054707
Pb           14.1799052491        8.1331749198       22.1078829955
Pb           14.1384850900        8.1571882079        7.3560365000
Pb           14.1221487376        8.1665830188       14.7233307202
Pb           11.7783219842       12.2928198460       22.1078193016
Pb           11.7782513990       12.2452427109        7.3559939818
Pb           11.7782897389       12.2260970424       14.7230413167
Pb            9.5582377986       16.5546764268       22.1329403883
Pb            9.4234000507       16.3258343281        7.3595307006
Pb            9.4273163623       16.3235090950       14.7734634912
I             2.3557253689        1.3584844703        5.4902888445
I             2.3557091554        1.3623745578       12.8753602934
I             2.3557909335        0.7629841689       19.8984258438
I            -0.0010699942        5.4404818758        5.4903122273
I             0.0023382110        5.4385425405       12.8753916093
I            -0.5164218221        5.7378284939       19.8985027058
I            -2.3507393957        9.5225938702        5.4902699545
I            -2.3445165154        9.5310448251       12.8544913732
I            -2.3665444810        9.5408579676       20.2775101855
I            -4.7064684719       13.6028313052        5.4902387303
I            -4.6959628507       13.6039422964       12.8543864725
I            -4.6980126871       13.5790642044       20.2774775590
I             7.1315499795        1.3224134634        5.5657199071
[...]
I             2.3557614855       14.9600079578        9.3350768395
I             2.3557113342       14.9600190236       16.6416359636
I            14.1098888461        2.7205241231        1.8555158093
I            14.1297521314        2.7348978988        9.2785352850
I            14.1339787160        2.7252746881       16.6427657625
I            11.7782893021        6.8039088126        1.8966407731
I            11.7782458284        6.8012506300        9.2500596205
I            11.7782838056        6.8113086937       16.6220060012
I             9.4261442144       10.8778386364        1.8965227261
I             9.4237822028       10.8793063704        9.2500229094
I             9.4325599797       10.8742129414       16.6219078117
I             7.0557147454       14.9382576002        1.8553888356
I             7.0780377972       14.9488698313        9.2785191090
I             7.0718165532       14.9573121459       16.6427409101
I             2.3558360368        4.0795129118       22.1330500867

     Writing config-only to output data dir ./PbI2.save/
     NEW-OLD atomic charge density approx. for the potential

     Check: negative core charge=   -0.000001

[...]

     Self-consistent Calculation

[...]

     Threshold (ethr) on eigenvalues was too large:
     Diagonalizing with lowered threshold

     Davidson diagonalization with overlap

[...]

     ethr =  3.38E-10,  avg # of iterations = 15.0

     Non-local corr. energy    =      69.32920017 Ry

     total energy              =  -96800.34597057 Ry
     estimated scf accuracy    <       0.00000402 Ry

     iteration #  7     ecut=    70.00 Ry     beta= 0.70
     Davidson diagonalization with overlap

     max_seconds     =  154800.00
     Calculation stopped in k-point loop, point #     1
     Calculation stopped in scf loop at iteration #     6

     Writing config to output data dir ./PbI2.save/
     Message from routine punch:
     wavefunctions written to file

     General routines

     Parallel routines

     PAW routines

   This run was terminated on:   2:46:15  24Apr2024

   JOB DONE.