     Program PWSCF v.7.1 starts on 19Feb2024 at 10:25:47

     Reading input from espresso.pwi
Warning: card &CELL ignored
Warning: card    CELL_DYNAMICS    = 'BFGS' ignored
Warning: card / ignored

     Current dimensions of program PWSCF are:
     Max number of different atomic species (ntypx) = 10
     Max number of k-points (npk) =  40000
     Max angular momentum in pseudopotentials (lmaxx) =  4
     file C.pbe-n-kjpaw_psl.1.0.0.UPF: wavefunction(s)  2S 2P renormalized

     IMPORTANT: XC functional enforced from input :
     Exchange-correlation= BEEF-VDW
                           (   1   4  43  14   2   0   0)
     Any further DFT definition will be discarded
     Please, verify this is what you really want

     Found identity + (  0.0000  0.0000  0.2500) symmetry
     This is a supercell, fractional translations are disabled

     R & G space division:  proc/nbgrp/npool/nimage =     256
     wavefunctions fft division:  task group distribution
                                  #TG    x Z-proc =       8     32
     Subspace diagonalization in iterative solution of the eigenvalue problem:
     a serial algorithm will be used

     Using Pencil Decomposition

     bravais-lattice index     =            1
     lattice parameter (alat)  =      27.0027  a.u.
     unit-cell volume          =   19688.9026 (a.u.)^3
     number of atoms/cell      =          512
     number of atomic types    =            1
     number of electrons       =      2048.00
     number of Kohn-Sham states=         1229
     kinetic-energy cutoff     =      70.0000  Ry
     charge density cutoff     =     350.0000  Ry
     scf convergence threshold =      1.0E-07
     mixing beta               =       0.7000
     number of iterations used =            8  plain     mixing
     Exchange-correlation= BEEF-VDW
                           (   1   4  43  14   2   0   0)

     celldm(1)=  27.002699  celldm(2)=   0.000000  celldm(3)=   0.000000
     celldm(4)=   0.000000  celldm(5)=   0.000000  celldm(6)=   0.000000

     crystal axes: (cart. coord. in units of alat)
               a(1) = (   1.000000   0.000000   0.000000 )
               a(2) = (   0.000000   1.000000   0.000000 )
               a(3) = (   0.000000   0.000000   1.000000 )

     reciprocal axes: (cart. coord. in units 2 pi/alat)
               b(1) = (  1.000000  0.000000  0.000000 )
               b(2) = (  0.000000  1.000000  0.000000 )
               b(3) = (  0.000000  0.000000  1.000000 )

     PseudoPot. # 1 for C  read from file:
     /trace/group/acmegroup/atimmins/packages/espresso/pseudo/psl_1.0.0/pslibrary.1.0.0/pbe/PSEUDOPOTENTIALS/C.pbe-n-kjpaw_psl.1.0.0.UPF
     MD5 check sum: 5459cf7f2c8c37df2f7cde8914797f4d
     Pseudo is Projector augmented-wave + core cor, Zval =  4.0
     Generated using 'atomic' code by A. Dal Corso  v.7.1
     Shape of augmentation charge: PSQ
     Using radial grid of 1073 points,  4 beta functions with:
                l(1) =   0
                l(2) =   0
                l(3) =   1
                l(4) =   1
     Q(r) pseudized with 0 coefficients

     atomic species   valence    mass     pseudopotential
        C              4.00    12.01100     C ( 1.00)

     24 Sym. Ops. (no inversion) found

                                    s                        frac. trans.

      isym =  1     identity

 cryst.   s( 1) = (     1          0          0      )
                  (     0          1          0      )
                  (     0          0          1      )

 cart.    s( 1) = (  1.0000000  0.0000000  0.0000000 )
                  (  0.0000000  1.0000000  0.0000000 )
                  (  0.0000000  0.0000000  1.0000000 )

      isym =  2     180 deg rotation - cart. axis [0,0,1]

[...]

 cryst.   s( 9) = (     0          1          0      )
                  (     0          0          1      )
                  (     1          0          0      )

 cart.    s( 9) = (  0.0000000  0.0000000  1.0000000 )
                  (  1.0000000  0.0000000  0.0000000 )
                  (  0.0000000  1.0000000  0.0000000 )

[...]

 cryst.   s(10) = (     0         -1          0      )
                  (     0          0         -1      )
                  (     1          0          0      )

 cart.    s(10) = (  0.0000000  0.0000000  1.0000000 )
                  ( -1.0000000  0.0000000  0.0000000 )
                  (  0.0000000 -1.0000000  0.0000000 )

[...]

      isym = 12     120 deg rotation - cart. axis [-1,-1,1]

[...]

      isym = 13     inv. 180 deg rotation - cart. axis [1,1,0]

[...]

      isym = 24     inv.  90 deg rotation - cart. axis [1,0,0]

 cryst.   s(24) = (    -1          0          0      )
                  (     0          0         -1      )
                  (     0          1          0      )

 cart.    s(24) = ( -1.0000000  0.0000000  0.0000000 )
                  (  0.0000000  0.0000000  1.0000000 )
                  (  0.0000000 -1.0000000  0.0000000 )

     point group T_d (-43m)
     there are  5 classes
     the character table:

       E     8C3   3C2   6S4   6s_d
A_1    1.00  1.00  1.00  1.00  1.00
A_2    1.00  1.00  1.00 -1.00 -1.00
E      2.00 -1.00  2.00  0.00  0.00
T_1    3.00  0.00 -1.00  1.00 -1.00
T_2    3.00  0.00 -1.00 -1.00  1.00

     the symmetry operations in each class and the name of the first element:

     E        1
          identity
     8C3      5    7    8    6   12    9   10   11
          120 deg rotation - cart. axis [-1,-1,-1]
     3C2      2    3    4
          180 deg rotation - cart. axis [0,0,1]
     6S4     15   16   20   19   23   24
          inv.  90 deg rotation - cart. axis [0,0,-1]
     6s_d    13   14   17   18   21   22
          inv. 180 deg rotation - cart. axis [1,1,0]

   Cartesian axes

     site n.     atom                  positions (alat units)
         1           C   tau(   1) = (   0.0625015   0.1874985   0.0625015  )
         2           C   tau(   2) = (   0.0625015   0.1874985   0.3125015  )
         3           C   tau(   3) = (   0.0625015   0.1874985   0.5625015  )
         4           C   tau(   4) = (   0.0625015   0.1874985   0.8125015  )
         5           C   tau(   5) = (   0.0625015   0.4374985   0.0625015  )
         6           C   tau(   6) = (   0.0625015   0.4374985   0.3125015  )
         7           C   tau(   7) = (   0.0625015   0.4374985   0.5625015  )
         8           C   tau(   8) = (   0.0625015   0.4374985   0.8125015  )
         9           C   tau(   9) = (   0.0625015   0.6874985   0.0625015  )
        10           C   tau(  10) = (   0.0625015   0.6874985   0.3125015  )
        11           C   tau(  11) = (   0.0625015   0.6874985   0.5625015  )
        12           C   tau(  12) = (   0.0625015   0.6874985   0.8125015  )
        13           C   tau(  13) = (   0.0625015   0.9374985   0.0625015  )
        14           C   tau(  14) = (   0.0625015   0.9374985   0.3125015  )
        15           C   tau(  15) = (   0.0625015   0.9374985   0.5625015  )
        16           C   tau(  16) = (   0.0625015   0.9374985   0.8125015  )
        17           C   tau(  17) = (   0.3125015   0.1874985   0.0625015  )
        18           C   tau(  18) = (   0.3125015   0.1874985   0.3125015  )
        19           C   tau(  19) = (   0.3125015   0.1874985   0.5625015  )
        20           C   tau(  20) = (   0.3125015   0.1874985   0.8125015  )
        21           C   tau(  21) = (   0.3125015   0.4374985   0.0625015  )
        22           C   tau(  22) = (   0.3125015   0.4374985   0.3125015  )
        23           C   tau(  23) = (   0.3125015   0.4374985   0.5625015  )
        24           C   tau(  24) = (   0.3125015   0.4374985   0.8125015  )
        25           C   tau(  25) = (   0.3125015   0.6874985   0.0625015  )
        26           C   tau(  26) = (   0.3125015   0.6874985   0.3125015  )
        27           C   tau(  27) = (   0.3125015   0.6874985   0.5625015  )
        28           C   tau(  28) = (   0.3125015   0.6874985   0.8125015  )
        29           C   tau(  29) = (   0.3125015   0.9374985   0.0625015  )
        30           C   tau(  30) = (   0.3125015   0.9374985   0.3125015  )
        31           C   tau(  31) = (   0.3125015   0.9374985   0.5625015  )
        32           C   tau(  32) = (   0.3125015   0.9374985   0.8125015  )
        33           C   tau(  33) = (   0.5625015   0.1874985   0.0625015  )
        34           C   tau(  34) = (   0.5625015   0.1874985   0.3125015  )
        35           C   tau(  35) = (   0.5625015   0.1874985   0.5625015  )
        36           C   tau(  36) = (   0.5625015   0.1874985   0.8125015  )
        37           C   tau(  37) = (   0.5625015   0.4374985   0.0625015  )
        38           C   tau(  38) = (   0.5625015   0.4374985   0.3125015  )
        39           C   tau(  39) = (   0.5625015   0.4374985   0.5625015  )
        40           C   tau(  40) = (   0.5625015   0.4374985   0.8125015  )
        41           C   tau(  41) = (   0.5625015   0.6874985   0.0625015  )
        42           C   tau(  42) = (   0.5625015   0.6874985   0.3125015  )
        43           C   tau(  43) = (   0.5625015   0.6874985   0.5625015  )
        44           C   tau(  44) = (   0.5625015   0.6874985   0.8125015  )
        45           C   tau(  45) = (   0.5625015   0.9374985   0.0625015  )
        46           C   tau(  46) = (   0.5625015   0.9374985   0.3125015  )
        47           C   tau(  47) = (   0.5625015   0.9374985   0.5625015  )
        48           C   tau(  48) = (   0.5625015   0.9374985   0.8125015  )
        49           C   tau(  49) = (   0.8125015   0.1874985   0.0625015  )
        50           C   tau(  50) = (   0.8125015   0.1874985   0.3125015  )
        51           C   tau(  51) = (   0.8125015   0.1874985   0.5625015  )
        52           C   tau(  52) = (   0.8125015   0.1874985   0.8125015  )
        53           C   tau(  53) = (   0.8125015   0.4374985   0.0625015  )
        54           C   tau(  54) = (   0.8125015   0.4374985   0.3125015  )
        55           C   tau(  55) = (   0.8125015   0.4374985   0.5625015  )
        56           C   tau(  56) = (   0.8125015   0.4374985   0.8125015  )
        57           C   tau(  57) = (   0.8125015   0.6874985   0.0625015  )
        58           C   tau(  58) = (   0.8125015   0.6874985   0.3125015  )
        59           C   tau(  59) = (   0.8125015   0.6874985   0.5625015  )
        60           C   tau(  60) = (   0.8125015   0.6874985   0.8125015  )
[...]
       498           C   tau( 498) = (   0.8750000   0.1250000   0.3750000  )
       499           C   tau( 499) = (   0.8750000   0.1250000   0.6250000  )
       500           C   tau( 500) = (   0.8750000   0.1250000   0.8750000  )
       501           C   tau( 501) = (   0.8750000   0.3750000   0.1250000  )
       502           C   tau( 502) = (   0.8750000   0.3750000   0.3750000  )
       503           C   tau( 503) = (   0.8750000   0.3750000   0.6250000  )
       504           C   tau( 504) = (   0.8750000   0.3750000   0.8750000  )
       505           C   tau( 505) = (   0.8750000   0.6250000   0.1250000  )
       506           C   tau( 506) = (   0.8750000   0.6250000   0.3750000  )
[...]
     atom   25 type  1   force =     0.00000000    0.00000000    0.00000000
     atom   26 type  1   force =     0.00000000    0.00000000    0.00000000
     atom   27 type  1   force =     0.00000000    0.00000000    0.00000000
     atom   28 type  1   force =     0.00000000    0.00000000    0.00000000
     atom   29 type  1   force =     0.00000000    0.00000000    0.00000000
     atom   30 type  1   force =     0.00000000    0.00000000    0.00000000
     atom   31 type  1   force =     0.00000000    0.00000000    0.00000000
     atom   32 type  1   force =     0.00000000    0.00000000    0.00000000
     atom   33 type  1   force =     0.00000000    0.00000000    0.00000000
     atom   34 type  1   force =     0.00000000    0.00000000    0.00000000
     atom   35 type  1   force =     0.00000000    0.00000000    0.00000000
     atom   36 type  1   force =     0.00000000    0.00000000    0.00000000
     atom   37 type  1   force =     0.00000000    0.00000000    0.00000000
     atom   38 type  1   force =     0.00000000    0.00000000    0.00000000
     atom   39 type  1   force =     0.00000000    0.00000000    0.00000000
     atom   40 type  1   force =     0.00000000    0.00000000    0.00000000
     atom   41 type  1   force =     0.00000000    0.00000000    0.00000000
     atom   42 type  1   force =     0.00000000    0.00000000    0.00000000
     atom   43 type  1   force =     0.00000000    0.00000000    0.00000000
     atom   44 type  1   force =     0.00000000    0.00000000    0.00000000
     atom   45 type  1   force =     0.00000000    0.00000000    0.00000000
     atom   46 type  1   force =     0.00000000    0.00000000    0.00000000
     atom   47 type  1   force =     0.00000000    0.00000000    0.00000000
     atom   48 type  1   force =     0.00000000    0.00000000    0.00000000
     atom   49 type  1   force =     0.00000000    0.00000000    0.00000000
     atom   50 type  1   force =     0.00000000    0.00000000    0.00000000
     atom   51 type  1   force =     0.00000000    0.00000000    0.00000000
     atom   52 type  1   force =     0.00000000    0.00000000    0.00000000
     atom   53 type  1   force =     0.00000000    0.00000000    0.00000000
     atom   54 type  1   force =     0.00000000    0.00000000    0.00000000
     atom   55 type  1   force =     0.00000000    0.00000000    0.00000000
     atom   56 type  1   force =     0.00000000    0.00000000    0.00000000
     atom   57 type  1   force =     0.00000000    0.00000000    0.00000000
     atom   58 type  1   force =     0.00000000    0.00000000    0.00000000
     atom   59 type  1   force =     0.00000000    0.00000000    0.00000000
     atom   60 type  1   force =     0.00000000    0.00000000    0.00000000
[...]
     atom  498 type  1   force =     0.00000000    0.00000000    0.00000000
     atom  499 type  1   force =     0.00000000    0.00000000    0.00000000
     atom  500 type  1   force =     0.00000000    0.00000000    0.00000000
     atom  501 type  1   force =     0.00000000    0.00000000    0.00000000
     atom  502 type  1   force =     0.00000000    0.00000000    0.00000000
     atom  503 type  1   force =     0.00000000    0.00000000    0.00000000
     atom  504 type  1   force =     0.00000000    0.00000000    0.00000000
     atom  505 type  1   force =     0.00000000    0.00000000    0.00000000
     atom  506 type  1   force =     0.00000000    0.00000000    0.00000000
     atom  507 type  1   force =     0.00000000    0.00000000    0.00000000
     atom  508 type  1   force =     0.00000000    0.00000000    0.00000000
     atom  509 type  1   force =     0.00000000    0.00000000    0.00000000
     atom  510 type  1   force =     0.00000000    0.00000000    0.00000000
     atom  511 type  1   force =     0.00000000    0.00000000    0.00000000
     atom  512 type  1   force =     0.00000000    0.00000000    0.00000000
     The SCF correction term to forces
     atom    1 type  1   force =    -0.00001045   -0.00001371   -0.00001045
     atom    2 type  1   force =     0.00000501    0.00001445   -0.00000469
     atom    3 type  1   force =     0.00002491    0.00002121    0.00001563
     atom    4 type  1   force =     0.00004353   -0.00000170    0.00000170
     atom    5 type  1   force =     0.00001518   -0.00000622    0.00001518
     atom    6 type  1   force =     0.00003154   -0.00000400    0.00000418
     atom    7 type  1   force =     0.00004213   -0.00000975    0.00000975
     atom    8 type  1   force =     0.00002491   -0.00001563   -0.00002121
     atom    9 type  1   force =     0.00002221    0.00003153    0.00002221
     atom   10 type  1   force =     0.00004192    0.00000850   -0.00000850
     atom   11 type  1   force =     0.00003154   -0.00000418    0.00000400
     atom   12 type  1   force =     0.00000501    0.00000469   -0.00001445
     atom   13 type  1   force =     0.00000908   -0.00000908    0.00000908
     atom   14 type  1   force =     0.00002221   -0.00002221   -0.00003153
     atom   15 type  1   force =     0.00001518   -0.00001518    0.00000622
     atom   16 type  1   force =    -0.00001045    0.00001045    0.00001371
     atom   17 type  1   force =    -0.00000469    0.00001445    0.00000501
     atom   18 type  1   force =     0.00002315    0.00006523    0.00002315
     atom   19 type  1   force =     0.00001736    0.00005884    0.00000875
     atom   20 type  1   force =    -0.00002628    0.00002895   -0.00002895
     atom   21 type  1   force =     0.00000418   -0.00000400    0.00003154
     atom   22 type  1   force =     0.00005291   -0.00000562    0.00005291
     atom   23 type  1   force =     0.00007286    0.00002140   -0.00002140
     atom   24 type  1   force =     0.00001736   -0.00000875   -0.00005884
     atom   25 type  1   force =    -0.00000850    0.00000850    0.00004192
     atom   26 type  1   force =     0.00001931   -0.00001931    0.00001931
     atom   27 type  1   force =     0.00005291   -0.00005291    0.00000562
     atom   28 type  1   force =     0.00002315   -0.00002315   -0.00006523
     atom   29 type  1   force =    -0.00003153   -0.00002221    0.00002221
     atom   30 type  1   force =    -0.00000850   -0.00004192   -0.00000850
     atom   31 type  1   force =     0.00000418   -0.00003154    0.00000400
     atom   32 type  1   force =    -0.00000469   -0.00000501   -0.00001445
     atom   33 type  1   force =     0.00001563    0.00002121    0.00002491
     atom   34 type  1   force =     0.00000875    0.00005884    0.00001736
     atom   35 type  1   force =     0.00000068    0.00008959    0.00000068
     atom   36 type  1   force =     0.00000113    0.00004227   -0.00004227
     atom   37 type  1   force =     0.00000975   -0.00000975    0.00004213
     atom   38 type  1   force =    -0.00002140    0.00002140    0.00007286
     atom   39 type  1   force =    -0.00001999    0.00001999   -0.00001999
     atom   40 type  1   force =     0.00000068   -0.00000068   -0.00008959
     atom   41 type  1   force =     0.00000400   -0.00000418    0.00003154
     atom   42 type  1   force =     0.00000562   -0.00005291    0.00005291
     atom   43 type  1   force =    -0.00002140   -0.00007286   -0.00002140
     atom   44 type  1   force =     0.00000875   -0.00001736   -0.00005884
     atom   45 type  1   force =     0.00000622   -0.00001518    0.00001518
     atom   46 type  1   force =     0.00000400   -0.00003154    0.00000418
     atom   47 type  1   force =     0.00000975   -0.00004213    0.00000975
     atom   48 type  1   force =     0.00001563   -0.00002491   -0.00002121
     atom   49 type  1   force =     0.00000170   -0.00000170    0.00004353
     atom   50 type  1   force =    -0.00002895    0.00002895   -0.00002628
     atom   51 type  1   force =    -0.00004227    0.00004227    0.00000113
     atom   52 type  1   force =    -0.00001755    0.00001755   -0.00001755
     atom   53 type  1   force =    -0.00002121   -0.00001563    0.00002491
     atom   54 type  1   force =    -0.00005884   -0.00000875    0.00001736
     atom   55 type  1   force =    -0.00008959   -0.00000068    0.00000068
     atom   56 type  1   force =    -0.00004227   -0.00000113   -0.00004227
     atom   57 type  1   force =    -0.00001445    0.00000469    0.00000501
     atom   58 type  1   force =    -0.00006523   -0.00002315    0.00002315
     atom   59 type  1   force =    -0.00005884   -0.00001736    0.00000875
     atom   60 type  1   force =    -0.00002895    0.00002628   -0.00002895
[...]
     atom  498 type  1   force =    -0.00003172    0.00003172   -0.00002916
     atom  499 type  1   force =    -0.00002252    0.00002252    0.00000602
     atom  500 type  1   force =     0.00000804   -0.00000804    0.00000804
     atom  501 type  1   force =    -0.00003172   -0.00002916    0.00003172
     atom  502 type  1   force =    -0.00005852   -0.00000763   -0.00000763
     atom  503 type  1   force =    -0.00006571    0.00000077   -0.00000077
     atom  504 type  1   force =    -0.00002252   -0.00000602   -0.00002252
     atom  505 type  1   force =    -0.00002252    0.00000602    0.00002252
     atom  506 type  1   force =    -0.00006571   -0.00000077    0.00000077
     atom  507 type  1   force =    -0.00005852    0.00000763    0.00000763
     atom  508 type  1   force =    -0.00003172    0.00002916   -0.00003172
     atom  509 type  1   force =     0.00000804    0.00000804   -0.00000804
     atom  510 type  1   force =    -0.00002252   -0.00002252   -0.00000602
     atom  511 type  1   force =    -0.00003172   -0.00003172    0.00002916
     atom  512 type  1   force =    -0.00001798   -0.00001798   -0.00001798

     Total force =     0.011767     Total SCF correction =     0.001134

     Computing stress (Cartesian axis) and pressure

[...]

          total   stress  (Ry/bohr**3)                   (kbar)     P=        0.02
   0.00000015   0.00000000   0.00000000            0.02        0.00        0.00
   0.00000000   0.00000015   0.00000000            0.00        0.02        0.00
   0.00000000   0.00000000   0.00000015            0.00        0.00        0.02

     kinetic stress (kbar)  18999.87      0.00      0.00
                                0.00  18999.87      0.00
                                0.00      0.00  18999.87

     local   stress (kbar)  -3484.16     -0.00     -0.00
                               -0.00  -3484.16     -0.00
                               -0.00     -0.00  -3484.16

     nonloc. stress (kbar)   4322.09      0.00      0.00
                                0.00   4322.09      0.00
                                0.00      0.00   4322.09

     hartree stress (kbar)   1267.23     -0.00      0.00
                               -0.00   1267.23      0.00
                                0.00      0.00   1267.23

     exc-cor stress (kbar)   -414.52      0.00      0.00
                                0.00   -414.52      0.00
                                0.00      0.00   -414.52

     corecor stress (kbar)  -4435.15     -0.00     -0.00
                               -0.00  -4435.15     -0.00
                               -0.00     -0.00  -4435.15

     ewald   stress (kbar) -16280.15      0.00      0.00
                                0.00 -16280.15      0.00
                                0.00      0.00 -16280.15

     hubbard stress (kbar)      0.00      0.00      0.00
                                0.00      0.00      0.00
                                0.00      0.00      0.00

     DFT-D   stress (kbar)      0.00      0.00      0.00
                                0.00      0.00      0.00
                                0.00      0.00      0.00

     XDM     stress (kbar)      0.00      0.00      0.00
                                0.00      0.00      0.00
                                0.00      0.00      0.00

     dft-nl  stress (kbar)     24.82     -0.00     -0.00
                               -0.00     24.82     -0.00
                               -0.00     -0.00     24.82

     TS-vdW  stress (kbar)      0.00      0.00      0.00
                                0.00      0.00      0.00
                                0.00      0.00      0.00

     MDB     stress (kbar)      0.00      0.00      0.00
                                0.00      0.00      0.00
                                0.00      0.00      0.00

     3D-RISM stress (kbar)      0.00      0.00      0.00
                                0.00      0.00      0.00
                                0.00      0.00      0.00

[...]

     Non-local corr. energy    =      17.50337323 Ry

 BEEFens 2000 ensemble energies
             -0.309821095383446E+02
             -0.215849104938964E+03
             -0.766242497145302E+02
              0.847386931121335E+02
             -0.142763527718232E+03
             -0.199715433182902E+03
              0.118222347471611E+03
             -0.244987985684006E+02
              0.164073752139700E+03
             -0.271556210811070E+01
              0.667114851517480E+02
              0.335587926125197E+01
              0.922441901718150E+01
             -0.194519804285798E+02
              0.111082847920308E+03
             -0.830586594768768E+02
             -0.190576852003535E+03
             -0.528328696046131E+02
              0.430594330062198E+02
              0.463566672273146E+01
              0.228064263764609E+03
              0.206826111091932E+03
             -0.101639153720016E+03
              0.570510176050504E+02
             -0.259120864296682E+03
              0.208688013169802E+03
              0.746872803705395E+02
              0.219699184522398E+03
              0.138602437709661E+03
             -0.865712108057894E+02
              0.540681017562878E+02
             -0.112461674680009E+03
              0.334468375974825E+01
              0.110556469906039E+03
              0.142648853741695E+03
             -0.351438699143108E+02
              0.307516455942789E+03
             -0.107672840139677E+03
             -0.778632767489684E+02
              0.119176668078790E+03
              0.410663120967838E+02
              0.100303740231014E+03
             -0.175238458525364E+03
             -0.720604728675721E+01
              0.185730885551571E+03
              0.226560168616867E+03
             -0.205333124313469E+03
              0.169943869416647E+02
              0.809411664319581E+02
              0.189132719201598E+02
              0.989882708586134E+02
              0.198623152379045E+03
             -0.133079478310874E+03
             -0.139994418308985E+03
             -0.177468899455525E+03
             -0.489043653075505E+02
             -0.148192926730345E+03
              0.791643282332757E+01
             -0.393870944211860E+02
             -0.134409944639435E+03
[...]
              0.174319045934032E+03
              0.713139762502254E+02
              0.121539104049076E+03
             -0.174024221532058E+03
             -0.135634843369965E+03
             -0.551843908377652E+02
             -0.149155347866881E+03
              0.268801818741140E+03
              0.230558020846104E+03
              0.100206049762210E+03
              0.271837811560836E+03
             -0.145823881193578E+03
             -0.701329355457015E+02
             -0.724051906388905E+02
              0.214488308198366E+03

 BEEF-vdW xc energy contributions
            1 :    -2096.409485546201
            2 :     1849.812371442686
            3 :    -1424.549078301933
            4 :     930.8539820080096
            5 :    -481.2922892905171
            6 :     153.5795790375491
            7 :     28.90477734781780
            8 :    -92.93402448029747
            9 :     92.58724235595128
           10 :    -80.39836050121721
           11 :     86.09649173197795
           12 :    -110.9601246631473
           13 :     137.1535223599344
           14 :    -144.3137922401211
           15 :     123.4632551556724
           16 :    -81.49117495933979
           17 :     35.60491844333637
           18 :    -2.643917821214472
           19 :    -9.853021498230191
           20 :     6.020346421044906
           21 :     2.882338759330651
           22 :    -6.294966479165396
           23 :    0.4502285315033987
           24 :     10.56598550727267
           25 :    -18.68823554383243
           26 :     17.67511397475573
           27 :    -7.070408034472166
           28 :    -7.879770550728608
           29 :     19.84698152890724
           30 :    -23.97087638740140
           31 :    -274.2490052283142
           32 :    -199.0192899817539

     Writing all to output data dir ./diamond.save/

     General routines

     Parallel routines

     PAW routines

   This run was terminated on:  10:39:14  19Feb2024

   JOB DONE.