     Program PWSCF v.7.1 starts on 18Feb2024 at 17:50:33

     Reading input from espresso.pwi
Warning: card &CELL ignored
Warning: card    CELL_DYNAMICS    = 'BFGS' ignored
Warning: card / ignored

     Current dimensions of program PWSCF are:
     Max number of different atomic species (ntypx) = 10
     Max number of k-points (npk) =  40000
     Max angular momentum in pseudopotentials (lmaxx) =  4
     file C.pbe-n-kjpaw_psl.1.0.0.UPF: wavefunction(s)  2S 2P renormalized

     IMPORTANT: XC functional enforced from input :
     Exchange-correlation= BEEF-VDW
                           (   1   4  43  14   2   0   0)
     Any further DFT definition will be discarded
     Please, verify this is what you really want

     Found identity + (  0.0000  0.0000  0.2500) symmetry
     This is a supercell, fractional translations are disabled

     R & G space division:  proc/nbgrp/npool/nimage =     256
     wavefunctions fft division:  task group distribution
                                  #TG    x Z-proc =       8     32
     Subspace diagonalization in iterative solution of the eigenvalue problem:
     a serial algorithm will be used

     Using Pencil Decomposition

     bravais-lattice index     =            1
     lattice parameter (alat)  =      27.0027  a.u.
     unit-cell volume          =   19688.9026 (a.u.)^3
     number of atoms/cell      =          512
     number of atomic types    =            1
     number of electrons       =      2048.00
     number of Kohn-Sham states=         1229
     kinetic-energy cutoff     =      70.0000  Ry
     charge density cutoff     =     350.0000  Ry
     scf convergence threshold =      1.0E-07
     mixing beta               =       0.7000
     number of iterations used =            8  plain     mixing
     energy convergence thresh.=      1.0E-04
     force convergence thresh. =      1.0E-03
     Exchange-correlation= BEEF-VDW
                           (   1   4  43  14   2   0   0)
     nstep                     =           50

     celldm(1)=  27.002699  celldm(2)=   0.000000  celldm(3)=   0.000000
     celldm(4)=   0.000000  celldm(5)=   0.000000  celldm(6)=   0.000000

     crystal axes: (cart. coord. in units of alat)
               a(1) = (   1.000000   0.000000   0.000000 )
               a(2) = (   0.000000   1.000000   0.000000 )
               a(3) = (   0.000000   0.000000   1.000000 )

     reciprocal axes: (cart. coord. in units 2 pi/alat)
               b(1) = (  1.000000  0.000000  0.000000 )
               b(2) = (  0.000000  1.000000  0.000000 )
               b(3) = (  0.000000  0.000000  1.000000 )

     PseudoPot. # 1 for C  read from file:
     /trace/group/acmegroup/atimmins/packages/espresso/pseudo/psl_1.0.0/pslibrary.1.0.0/pbe/PSEUDOPOTENTIALS/C.pbe-n-kjpaw_psl.1.0.0.UPF
     MD5 check sum: 5459cf7f2c8c37df2f7cde8914797f4d
     Pseudo is Projector augmented-wave + core cor, Zval =  4.0
     Generated using 'atomic' code by A. Dal Corso  v.7.1
     Shape of augmentation charge: PSQ
     Using radial grid of 1073 points,  4 beta functions with:
                l(1) =   0
                l(2) =   0
                l(3) =   1
                l(4) =   1
     Q(r) pseudized with 0 coefficients

     atomic species   valence    mass     pseudopotential
        C              4.00    12.01100     C ( 1.00)

     24 Sym. Ops. (no inversion) found

                                    s                        frac. trans.

      isym =  1     identity

 cryst.   s( 1) = (     1          0          0      )
                  (     0          1          0      )
                  (     0          0          1      )

 cart.    s( 1) = (  1.0000000  0.0000000  0.0000000 )
                  (  0.0000000  1.0000000  0.0000000 )
                  (  0.0000000  0.0000000  1.0000000 )

      isym =  2     180 deg rotation - cart. axis [0,0,1]

[...]

 cryst.   s( 9) = (     0          1          0      )
                  (     0          0          1      )
                  (     1          0          0      )

 cart.    s( 9) = (  0.0000000  0.0000000  1.0000000 )
                  (  1.0000000  0.0000000  0.0000000 )
                  (  0.0000000  1.0000000  0.0000000 )

[...]

 cryst.   s(10) = (     0         -1          0      )
                  (     0          0         -1      )
                  (     1          0          0      )

 cart.    s(10) = (  0.0000000  0.0000000  1.0000000 )
                  ( -1.0000000  0.0000000  0.0000000 )
                  (  0.0000000 -1.0000000  0.0000000 )

[...]

      isym = 12     120 deg rotation - cart. axis [-1,-1,1]

[...]

      isym = 13     inv. 180 deg rotation - cart. axis [1,1,0]

[...]

      isym = 24     inv.  90 deg rotation - cart. axis [1,0,0]

 cryst.   s(24) = (    -1          0          0      )
                  (     0          0         -1      )
                  (     0          1          0      )

 cart.    s(24) = ( -1.0000000  0.0000000  0.0000000 )
                  (  0.0000000  0.0000000  1.0000000 )
                  (  0.0000000 -1.0000000  0.0000000 )

     point group T_d (-43m)
     there are  5 classes
     the character table:

       E     8C3   3C2   6S4   6s_d
A_1    1.00  1.00  1.00  1.00  1.00
A_2    1.00  1.00  1.00 -1.00 -1.00
E      2.00 -1.00  2.00  0.00  0.00
T_1    3.00  0.00 -1.00  1.00 -1.00
T_2    3.00  0.00 -1.00 -1.00  1.00

     the symmetry operations in each class and the name of the first element:

     E        1
          identity
     8C3      5    7    8    6   12    9   10   11
          120 deg rotation - cart. axis [-1,-1,-1]
     3C2      2    3    4
          180 deg rotation - cart. axis [0,0,1]
     6S4     15   16   20   19   23   24
          inv.  90 deg rotation - cart. axis [0,0,-1]
     6s_d    13   14   17   18   21   22
          inv. 180 deg rotation - cart. axis [1,1,0]

   Cartesian axes

     site n.     atom                  positions (alat units)
         1           C   tau(   1) = (   0.0625015   0.1874985   0.0625015  )
         2           C   tau(   2) = (   0.0625015   0.1874985   0.3125015  )
         3           C   tau(   3) = (   0.0625015   0.1874985   0.5625015  )
         4           C   tau(   4) = (   0.0625015   0.1874985   0.8125015  )
         5           C   tau(   5) = (   0.0625015   0.4374985   0.0625015  )
         6           C   tau(   6) = (   0.0625015   0.4374985   0.3125015  )
         7           C   tau(   7) = (   0.0625015   0.4374985   0.5625015  )
         8           C   tau(   8) = (   0.0625015   0.4374985   0.8125015  )
         9           C   tau(   9) = (   0.0625015   0.6874985   0.0625015  )
        10           C   tau(  10) = (   0.0625015   0.6874985   0.3125015  )
        11           C   tau(  11) = (   0.0625015   0.6874985   0.5625015  )
        12           C   tau(  12) = (   0.0625015   0.6874985   0.8125015  )
        13           C   tau(  13) = (   0.0625015   0.9374985   0.0625015  )
        14           C   tau(  14) = (   0.0625015   0.9374985   0.3125015  )
        15           C   tau(  15) = (   0.0625015   0.9374985   0.5625015  )
        16           C   tau(  16) = (   0.0625015   0.9374985   0.8125015  )
        17           C   tau(  17) = (   0.3125015   0.1874985   0.0625015  )
        18           C   tau(  18) = (   0.3125015   0.1874985   0.3125015  )
        19           C   tau(  19) = (   0.3125015   0.1874985   0.5625015  )
        20           C   tau(  20) = (   0.3125015   0.1874985   0.8125015  )
        21           C   tau(  21) = (   0.3125015   0.4374985   0.0625015  )
        22           C   tau(  22) = (   0.3125015   0.4374985   0.3125015  )
        23           C   tau(  23) = (   0.3125015   0.4374985   0.5625015  )
        24           C   tau(  24) = (   0.3125015   0.4374985   0.8125015  )
        25           C   tau(  25) = (   0.3125015   0.6874985   0.0625015  )
        26           C   tau(  26) = (   0.3125015   0.6874985   0.3125015  )
        27           C   tau(  27) = (   0.3125015   0.6874985   0.5625015  )
        28           C   tau(  28) = (   0.3125015   0.6874985   0.8125015  )
        29           C   tau(  29) = (   0.3125015   0.9374985   0.0625015  )
        30           C   tau(  30) = (   0.3125015   0.9374985   0.3125015  )
        31           C   tau(  31) = (   0.3125015   0.9374985   0.5625015  )
        32           C   tau(  32) = (   0.3125015   0.9374985   0.8125015  )
        33           C   tau(  33) = (   0.5625015   0.1874985   0.0625015  )
        34           C   tau(  34) = (   0.5625015   0.1874985   0.3125015  )
        35           C   tau(  35) = (   0.5625015   0.1874985   0.5625015  )
        36           C   tau(  36) = (   0.5625015   0.1874985   0.8125015  )
        37           C   tau(  37) = (   0.5625015   0.4374985   0.0625015  )
        38           C   tau(  38) = (   0.5625015   0.4374985   0.3125015  )
        39           C   tau(  39) = (   0.5625015   0.4374985   0.5625015  )
        40           C   tau(  40) = (   0.5625015   0.4374985   0.8125015  )
        41           C   tau(  41) = (   0.5625015   0.6874985   0.0625015  )
        42           C   tau(  42) = (   0.5625015   0.6874985   0.3125015  )
        43           C   tau(  43) = (   0.5625015   0.6874985   0.5625015  )
        44           C   tau(  44) = (   0.5625015   0.6874985   0.8125015  )
        45           C   tau(  45) = (   0.5625015   0.9374985   0.0625015  )
        46           C   tau(  46) = (   0.5625015   0.9374985   0.3125015  )
        47           C   tau(  47) = (   0.5625015   0.9374985   0.5625015  )
        48           C   tau(  48) = (   0.5625015   0.9374985   0.8125015  )
        49           C   tau(  49) = (   0.8125015   0.1874985   0.0625015  )
        50           C   tau(  50) = (   0.8125015   0.1874985   0.3125015  )
        51           C   tau(  51) = (   0.8125015   0.1874985   0.5625015  )
        52           C   tau(  52) = (   0.8125015   0.1874985   0.8125015  )
        53           C   tau(  53) = (   0.8125015   0.4374985   0.0625015  )
        54           C   tau(  54) = (   0.8125015   0.4374985   0.3125015  )
        55           C   tau(  55) = (   0.8125015   0.4374985   0.5625015  )
        56           C   tau(  56) = (   0.8125015   0.4374985   0.8125015  )
        57           C   tau(  57) = (   0.8125015   0.6874985   0.0625015  )
        58           C   tau(  58) = (   0.8125015   0.6874985   0.3125015  )
        59           C   tau(  59) = (   0.8125015   0.6874985   0.5625015  )
        60           C   tau(  60) = (   0.8125015   0.6874985   0.8125015  )
[...]
       498           C   tau( 498) = (   0.8750000   0.1250000   0.3750000  )
       499           C   tau( 499) = (   0.8750000   0.1250000   0.6250000  )
       500           C   tau( 500) = (   0.8750000   0.1250000   0.8750000  )
       501           C   tau( 501) = (   0.8750000   0.3750000   0.1250000  )
       502           C   tau( 502) = (   0.8750000   0.3750000   0.3750000  )
       503           C   tau( 503) = (   0.8750000   0.3750000   0.6250000  )
       504           C   tau( 504) = (   0.8750000   0.3750000   0.8750000  )
[...]
     atom   44 type  1   force =     0.00000000    0.00000000    0.00000000
     atom   45 type  1   force =     0.00000000    0.00000000    0.00000000
     atom   46 type  1   force =     0.00000000    0.00000000    0.00000000
     atom   47 type  1   force =     0.00000000    0.00000000    0.00000000
     atom   48 type  1   force =     0.00000000    0.00000000    0.00000000
     atom   49 type  1   force =     0.00000000    0.00000000    0.00000000
     atom   50 type  1   force =     0.00000000    0.00000000    0.00000000
     atom   51 type  1   force =     0.00000000    0.00000000    0.00000000
     atom   52 type  1   force =     0.00000000    0.00000000    0.00000000
     atom   53 type  1   force =     0.00000000    0.00000000    0.00000000
     atom   54 type  1   force =     0.00000000    0.00000000    0.00000000
     atom   55 type  1   force =     0.00000000    0.00000000    0.00000000
     atom   56 type  1   force =     0.00000000    0.00000000    0.00000000
     atom   57 type  1   force =     0.00000000    0.00000000    0.00000000
     atom   58 type  1   force =     0.00000000    0.00000000    0.00000000
     atom   59 type  1   force =     0.00000000    0.00000000    0.00000000
     atom   60 type  1   force =     0.00000000    0.00000000    0.00000000
[...]
     atom  498 type  1   force =     0.00000000    0.00000000    0.00000000
     atom  499 type  1   force =     0.00000000    0.00000000    0.00000000
     atom  500 type  1   force =     0.00000000    0.00000000    0.00000000
     atom  501 type  1   force =     0.00000000    0.00000000    0.00000000
     atom  502 type  1   force =     0.00000000    0.00000000    0.00000000
     atom  503 type  1   force =     0.00000000    0.00000000    0.00000000
     atom  504 type  1   force =     0.00000000    0.00000000    0.00000000
     atom  505 type  1   force =     0.00000000    0.00000000    0.00000000
     atom  506 type  1   force =     0.00000000    0.00000000    0.00000000
     atom  507 type  1   force =     0.00000000    0.00000000    0.00000000
     atom  508 type  1   force =     0.00000000    0.00000000    0.00000000
     atom  509 type  1   force =     0.00000000    0.00000000    0.00000000
     atom  510 type  1   force =     0.00000000    0.00000000    0.00000000
     atom  511 type  1   force =     0.00000000    0.00000000    0.00000000
     atom  512 type  1   force =     0.00000000    0.00000000    0.00000000
     The SCF correction term to forces
     atom    1 type  1   force =     0.00000472    0.00000467    0.00000472
     atom    2 type  1   force =    -0.00000114   -0.00000342    0.00000081
     atom    3 type  1   force =    -0.00000667   -0.00000476   -0.00000495
     atom    4 type  1   force =    -0.00001624    0.00000148   -0.00000148
     atom    5 type  1   force =    -0.00000482    0.00000066   -0.00000482
     atom    6 type  1   force =    -0.00000901    0.00000207   -0.00000009
     atom    7 type  1   force =    -0.00001236    0.00000451   -0.00000451
     atom    8 type  1   force =    -0.00000667    0.00000495    0.00000476
     atom    9 type  1   force =    -0.00000755   -0.00001070   -0.00000755
     atom   10 type  1   force =    -0.00001386   -0.00000372    0.00000372
     atom   11 type  1   force =    -0.00000901    0.00000009   -0.00000207
     atom   12 type  1   force =    -0.00000114   -0.00000081    0.00000342
     atom   13 type  1   force =    -0.00000397    0.00000397   -0.00000397
     atom   14 type  1   force =    -0.00000755    0.00000755    0.00001070
     atom   15 type  1   force =    -0.00000482    0.00000482   -0.00000066
     atom   16 type  1   force =     0.00000472   -0.00000472   -0.00000467
     atom   17 type  1   force =     0.00000081   -0.00000342   -0.00000114
     atom   18 type  1   force =    -0.00000638   -0.00002004   -0.00000638
     atom   19 type  1   force =    -0.00000356   -0.00001452   -0.00000395
     atom   20 type  1   force =     0.00001121   -0.00000764    0.00000764
     atom   21 type  1   force =    -0.00000009    0.00000207   -0.00000901
     atom   22 type  1   force =    -0.00001397    0.00000542   -0.00001397
     atom   23 type  1   force =    -0.00002037   -0.00000635    0.00000635
     atom   24 type  1   force =    -0.00000356    0.00000395    0.00001452
     atom   25 type  1   force =     0.00000372   -0.00000372   -0.00001386
     atom   26 type  1   force =    -0.00000277    0.00000277   -0.00000277
     atom   27 type  1   force =    -0.00001397    0.00001397   -0.00000542
     atom   28 type  1   force =    -0.00000638    0.00000638    0.00002004
     atom   29 type  1   force =     0.00001070    0.00000755   -0.00000755
     atom   30 type  1   force =     0.00000372    0.00001386    0.00000372
     atom   31 type  1   force =    -0.00000009    0.00000901   -0.00000207
     atom   32 type  1   force =     0.00000081    0.00000114    0.00000342
     atom   33 type  1   force =    -0.00000495   -0.00000476   -0.00000667
     atom   34 type  1   force =    -0.00000395   -0.00001452   -0.00000356
     atom   35 type  1   force =    -0.00000197   -0.00002505   -0.00000197
     atom   36 type  1   force =    -0.00000204   -0.00001142    0.00001142
     atom   37 type  1   force =    -0.00000451    0.00000451   -0.00001236
     atom   38 type  1   force =     0.00000635   -0.00000635   -0.00002037
     atom   39 type  1   force =     0.00000416   -0.00000416    0.00000416
     atom   40 type  1   force =    -0.00000197    0.00000197    0.00002505
     atom   41 type  1   force =    -0.00000207    0.00000009   -0.00000901
     atom   42 type  1   force =    -0.00000542    0.00001397   -0.00001397
     atom   43 type  1   force =     0.00000635    0.00002037    0.00000635
     atom   44 type  1   force =    -0.00000395    0.00000356    0.00001452
     atom   45 type  1   force =    -0.00000066    0.00000482   -0.00000482
     atom   46 type  1   force =    -0.00000207    0.00000901   -0.00000009
     atom   47 type  1   force =    -0.00000451    0.00001236   -0.00000451
     atom   48 type  1   force =    -0.00000495    0.00000667    0.00000476
     atom   49 type  1   force =    -0.00000148    0.00000148   -0.00001624
     atom   50 type  1   force =     0.00000764   -0.00000764    0.00001121
     atom   51 type  1   force =     0.00001142   -0.00001142   -0.00000204
     atom   52 type  1   force =     0.00000552   -0.00000552    0.00000552
     atom   53 type  1   force =     0.00000476    0.00000495   -0.00000667
     atom   54 type  1   force =     0.00001452    0.00000395   -0.00000356
     atom   55 type  1   force =     0.00002505    0.00000197   -0.00000197
     atom   56 type  1   force =     0.00001142    0.00000204    0.00001142
     atom   57 type  1   force =     0.00000342   -0.00000081   -0.00000114
     atom   58 type  1   force =     0.00002004    0.00000638   -0.00000638
     atom   59 type  1   force =     0.00001452    0.00000356   -0.00000395
     atom   60 type  1   force =     0.00000764   -0.00001121    0.00000764
[...]
     atom  498 type  1   force =     0.00000920   -0.00000920    0.00001008
     atom  499 type  1   force =     0.00000637   -0.00000637   -0.00000146
     atom  500 type  1   force =    -0.00000365    0.00000365   -0.00000365
     atom  501 type  1   force =     0.00000920    0.00001008   -0.00000920
     atom  502 type  1   force =     0.00001579    0.00000436    0.00000436
     atom  503 type  1   force =     0.00001922    0.00000119   -0.00000119
     atom  504 type  1   force =     0.00000637    0.00000146    0.00000637
     atom  505 type  1   force =     0.00000637   -0.00000146   -0.00000637
     atom  506 type  1   force =     0.00001922   -0.00000119    0.00000119
     atom  507 type  1   force =     0.00001579   -0.00000436   -0.00000436
     atom  508 type  1   force =     0.00000920   -0.00001008    0.00000920
     atom  509 type  1   force =    -0.00000365   -0.00000365    0.00000365
     atom  510 type  1   force =     0.00000637    0.00000637    0.00000146
     atom  511 type  1   force =     0.00000920    0.00000920   -0.00001008
     atom  512 type  1   force =     0.00000623    0.00000623    0.00000623

     Total force =     0.011771     Total SCF correction =     0.000326

     Computing stress (Cartesian axis) and pressure

     Non-local corr. energy    =      17.50337268 Ry

          total   stress  (Ry/bohr**3)                   (kbar)     P=        0.02
   0.00000015   0.00000000   0.00000000            0.02        0.00        0.00
   0.00000000   0.00000015   0.00000000            0.00        0.02        0.00
   0.00000000   0.00000000   0.00000015            0.00        0.00        0.02

     kinetic stress (kbar)  18999.87      0.00      0.00
                                0.00  18999.87      0.00
                                0.00      0.00  18999.87

     local   stress (kbar)  -3484.16     -0.00     -0.00
                               -0.00  -3484.16     -0.00
                               -0.00     -0.00  -3484.16

     nonloc. stress (kbar)   4322.10      0.00      0.00
                                0.00   4322.10      0.00
                                0.00      0.00   4322.10

     hartree stress (kbar)   1267.23     -0.00     -0.00
                               -0.00   1267.23      0.00
                               -0.00      0.00   1267.23

     exc-cor stress (kbar)   -414.52      0.00      0.00
                                0.00   -414.52      0.00
                                0.00      0.00   -414.52

     corecor stress (kbar)  -4435.15     -0.00     -0.00
                               -0.00  -4435.15     -0.00
                               -0.00     -0.00  -4435.15

     ewald   stress (kbar) -16280.15      0.00      0.00
                                0.00 -16280.15      0.00
                                0.00      0.00 -16280.15

     hubbard stress (kbar)      0.00      0.00      0.00
                                0.00      0.00      0.00
                                0.00      0.00      0.00

     DFT-D   stress (kbar)      0.00      0.00      0.00
                                0.00      0.00      0.00
                                0.00      0.00      0.00

     XDM     stress (kbar)      0.00      0.00      0.00
                                0.00      0.00      0.00
                                0.00      0.00      0.00

     dft-nl  stress (kbar)     24.82     -0.00     -0.00
                               -0.00     24.82     -0.00
                               -0.00     -0.00     24.82

     TS-vdW  stress (kbar)      0.00      0.00      0.00
                                0.00      0.00      0.00
                                0.00      0.00      0.00

     MDB     stress (kbar)      0.00      0.00      0.00
                                0.00      0.00      0.00
                                0.00      0.00      0.00

     3D-RISM stress (kbar)      0.00      0.00      0.00
                                0.00      0.00      0.00
                                0.00      0.00      0.00

     BFGS Geometry Optimization
     Energy error            =      0.0E+00 Ry
     Gradient error          =      6.1E-04 Ry/Bohr

     bfgs converged in   1 scf cycles and   0 bfgs steps
     (criteria: energy <  1.0E-04 Ry, force <  1.0E-03 Ry/Bohr)

     End of BFGS Geometry Optimization

     Final energy             =   -9724.2994640602 Ry
Begin final coordinates

ATOMIC_POSITIONS (angstrom)
C             0.8930972856        2.6792058914        0.8930972856
C             0.8930972856        2.6792058914        4.4654004618
C             0.8930972856        2.6792058914        8.0377036379
C             0.8930972856        2.6792058914       11.6100068141
C             0.8930972856        6.2515090676        0.8930972856
C             0.8930972856        6.2515090676        4.4654004618
C             0.8930972856        6.2515090676        8.0377036379
C             0.8930972856        6.2515090676       11.6100068141
C             0.8930972856        9.8238122437        0.8930972856
C             0.8930972856        9.8238122437        4.4654004618
C             0.8930972856        9.8238122437        8.0377036379
C             0.8930972856        9.8238122437       11.6100068141
C             0.8930972856       13.3961154199        0.8930972856
C             0.8930972856       13.3961154199        4.4654004618
C             0.8930972856       13.3961154199        8.0377036379
C             0.8930972856       13.3961154199       11.6100068141
C             4.4654004618        2.6792058914        0.8930972856
C             4.4654004618        2.6792058914        4.4654004618
C             4.4654004618        2.6792058914        8.0377036379
C             4.4654004618        2.6792058914       11.6100068141
C             4.4654004618        6.2515090676        0.8930972856
C             4.4654004618        6.2515090676        4.4654004618
C             4.4654004618        6.2515090676        8.0377036379
C             4.4654004618        6.2515090676       11.6100068141
C             4.4654004618        9.8238122437        0.8930972856
C             4.4654004618        9.8238122437        4.4654004618
C             4.4654004618        9.8238122437        8.0377036379
C             4.4654004618        9.8238122437       11.6100068141
C             4.4654004618       13.3961154199        0.8930972856
C             4.4654004618       13.3961154199        4.4654004618
C             4.4654004618       13.3961154199        8.0377036379
C             4.4654004618       13.3961154199       11.6100068141
C             8.0377036379        2.6792058914        0.8930972856
C             8.0377036379        2.6792058914        4.4654004618
C             8.0377036379        2.6792058914        8.0377036379
C             8.0377036379        2.6792058914       11.6100068141
C             8.0377036379        6.2515090676        0.8930972856
C             8.0377036379        6.2515090676        4.4654004618
C             8.0377036379        6.2515090676        8.0377036379
C             8.0377036379        6.2515090676       11.6100068141
C             8.0377036379        9.8238122437        0.8930972856
C             8.0377036379        9.8238122437        4.4654004618
C             8.0377036379        9.8238122437        8.0377036379
C             8.0377036379        9.8238122437       11.6100068141
C             8.0377036379       13.3961154199        0.8930972856
C             8.0377036379       13.3961154199        4.4654004618
C             8.0377036379       13.3961154199        8.0377036379
C             8.0377036379       13.3961154199       11.6100068141
C            11.6100068141        2.6792058914        0.8930972856
C            11.6100068141        2.6792058914        4.4654004618
C            11.6100068141        2.6792058914        8.0377036379
C            11.6100068141        2.6792058914       11.6100068141
C            11.6100068141        6.2515090676        0.8930972856
C            11.6100068141        6.2515090676        4.4654004618
C            11.6100068141        6.2515090676        8.0377036379
C            11.6100068141        6.2515090676       11.6100068141
C            11.6100068141        9.8238122437        0.8930972856
C            11.6100068141        9.8238122437        4.4654004618
C            11.6100068141        9.8238122437        8.0377036379
C            11.6100068141        9.8238122437       11.6100068141
[...]
C            12.5030611170        1.7861515885        5.3584547647
C            12.5030611170        1.7861515885        8.9307579408
C            12.5030611170        1.7861515885       12.5030611170
C            12.5030611170        5.3584547647        1.7861515885
C            12.5030611170        5.3584547647        5.3584547647
C            12.5030611170        5.3584547647        8.9307579408
C            12.5030611170        5.3584547647       12.5030611170
C            12.5030611170        8.9307579408        1.7861515885
C            12.5030611170        8.9307579408        5.3584547647
C            12.5030611170        8.9307579408        8.9307579408
C            12.5030611170        8.9307579408       12.5030611170
C            12.5030611170       12.5030611170        1.7861515885
C            12.5030611170       12.5030611170        5.3584547647
C            12.5030611170       12.5030611170        8.9307579408
C            12.5030611170       12.5030611170       12.5030611170
End final coordinates

     Writing all to output data dir ./diamond.save/

     General routines

     Parallel routines

     PAW routines

   This run was terminated on:  18:19:52  18Feb2024

   JOB DONE.