     Program PWSCF v.7.1 starts on 28Mar2024 at  6:21: 1

     Reading input from espresso.pwi
Warning: card &CELL ignored
Warning: card    CELL_DYNAMICS    = 'BFGS' ignored
Warning: card / ignored

     Current dimensions of program PWSCF are:
     Max number of different atomic species (ntypx) = 10
     Max number of k-points (npk) =  40000
     Max angular momentum in pseudopotentials (lmaxx) =  4
     file Ga.pbe-dn-kjpaw_psl.1.0.0.UPF: wavefunction(s)  4S renormalized
     file N.pbe-n-kjpaw_psl.1.0.0.UPF: wavefunction(s)  2S renormalized

     IMPORTANT: XC functional enforced from input :
     Exchange-correlation= BEEF-VDW
                           (   1   4  43  14   2   0   0)
     Any further DFT definition will be discarded
     Please, verify this is what you really want

     R & G space division:  proc/nbgrp/npool/nimage =      27
     Subspace diagonalization in iterative solution of the eigenvalue problem:
     a serial algorithm will be used

     Using Slab Decomposition

     bravais-lattice index     =            4
     lattice parameter (alat)  =      12.2626  a.u.
     unit-cell volume          =    2602.7676 (a.u.)^3
     number of atoms/cell      =           32
     number of atomic types    =            2
     number of electrons       =       279.00
     number of Kohn-Sham states=          168
     kinetic-energy cutoff     =      70.0000  Ry
     charge density cutoff     =     350.0000  Ry
     scf convergence threshold =      1.0E-07
     mixing beta               =       0.7000
     number of iterations used =            8  plain     mixing
     Exchange-correlation= BEEF-VDW
                           (   1   4  43  14   2   0   0)

     celldm(1)=  12.262616  celldm(2)=   0.000000  celldm(3)=   1.629879
     celldm(4)=   0.000000  celldm(5)=   0.000000  celldm(6)=   0.000000

     crystal axes: (cart. coord. in units of alat)
               a(1) = (   1.000000   0.000000   0.000000 )
               a(2) = (  -0.500000   0.866025   0.000000 )
               a(3) = (   0.000000   0.000000   1.629879 )

     reciprocal axes: (cart. coord. in units 2 pi/alat)
               b(1) = (  1.000000  0.577350 -0.000000 )
               b(2) = (  0.000000  1.154701  0.000000 )
               b(3) = (  0.000000 -0.000000  0.613542 )

     PseudoPot. # 1 for Ga read from file:
     /trace/group/acmegroup/atimmins/packages/espresso/pseudo/psl_1.0.0/pslibrary.1.0.0/pbe/PSEUDOPOTENTIALS/Ga.pbe-dn-kjpaw_psl.1.0.0.UPF
     MD5 check sum: cd2a01e492f15b435d17032472d8505c
     Pseudo is Projector augmented-wave + core cor, Zval = 13.0
     Generated using 'atomic' code by A. Dal Corso  v.7.1
     Shape of augmentation charge: PSQ
     Using radial grid of 1205 points,  6 beta functions with:
                l(1) =   0
                l(2) =   0
                l(3) =   1
                l(4) =   1
                l(5) =   2
                l(6) =   2
     Q(r) pseudized with 0 coefficients

     PseudoPot. # 2 for N  read from file:
     /trace/group/acmegroup/atimmins/packages/espresso/pseudo/psl_1.0.0/pslibrary.1.0.0/pbe/PSEUDOPOTENTIALS/N.pbe-n-kjpaw_psl.1.0.0.UPF
     MD5 check sum: f77f775694dac7e2c3fe1c82443d1a16
     Pseudo is Projector augmented-wave + core cor, Zval =  5.0
     Generated using 'atomic' code by A. Dal Corso  v.7.1
     Shape of augmentation charge: PSQ
     Using radial grid of 1085 points,  4 beta functions with:
                l(1) =   0
                l(2) =   0
                l(3) =   1
                l(4) =   1
     Q(r) pseudized with 0 coefficients

     atomic species   valence    mass     pseudopotential
        Ga            13.00    69.72300     Ga( 1.00)
        N              5.00    14.00700     N ( 1.00)

      6 Sym. Ops. (no inversion) found ( 4 have fractional translation)

                                    s                        frac. trans.

      isym =  1     identity

 cryst.   s( 1) = (     1          0          0      )
                  (     0          1          0      )
                  (     0          0          1      )

 cart.    s( 1) = (  1.0000000  0.0000000  0.0000000 )
                  (  0.0000000  1.0000000  0.0000000 )
                  (  0.0000000  0.0000000  1.0000000 )

      isym =  2     120 deg rotation - cryst. axis [0,0,1]

 cryst.   s( 2) = (     0          1          0      )    f =(  0.4999999 )
                  (    -1         -1          0      )       (  0.0000004 )
                  (     0          0          1      )       (  0.0000000 )

 cart.    s( 2) = ( -0.5000000 -0.8660254  0.0000000 )    f =(  0.4999998 )
                  (  0.8660254 -0.5000000  0.0000000 )       (  0.0000003 )
                  (  0.0000000  0.0000000  1.0000000 )       (  0.0000000 )

      isym =  3     120 deg rotation - cryst. axis [0,0,-1]

[...]

      isym =  4     inv. 180 deg rotation - cart. axis [1,0,0]

[...]

      isym =  5     inv. 180 deg rotation - cryst. axis [0,1,0]

 cryst.   s( 5) = (     1          1          0      )
                  (     0         -1          0      )
                  (     0          0          1      )

 cart.    s( 5) = (  0.5000000  0.8660254  0.0000000 )
                  (  0.8660254 -0.5000000  0.0000000 )
                  (  0.0000000  0.0000000  1.0000000 )

      isym =  6     inv. 180 deg rotation - cryst. axis [1,1,0]

 cryst.   s( 6) = (     0         -1          0      )    f =(  0.4999999 )
                  (    -1          0          0      )       (  0.4999999 )
                  (     0          0          1      )       (  0.0000000 )

 cart.    s( 6) = (  0.5000000 -0.8660254  0.0000000 )    f =(  0.2500000 )
                  ( -0.8660254 -0.5000000  0.0000000 )       (  0.4330127 )
                  (  0.0000000  0.0000000  1.0000000 )       (  0.0000000 )

     point group C_3v (3m)
     there are  3 classes
     the character table:

       E     2C3   3s_v
A_1    1.00  1.00  1.00
A_2    1.00  1.00 -1.00
E      2.00 -1.00  0.00

     the symmetry operations in each class and the name of the first element:

     E        1
          identity
     2C3      2    3
          120 deg rotation - cryst. axis [0,0,1]
     3s_v     4    5    6
          inv. 180 deg rotation - cart. axis [1,0,0]

   Cartesian axes

     site n.     atom                  positions (alat units)
         1           Ga  tau(   1) = (   0.2500002   0.1443375   1.2217266  )
         2           Ga  tau(   2) = (   0.0000002   0.5773502   0.4067871  )
         3           Ga  tau(   3) = (   0.0000002   0.5773502   1.2217266  )
         4           Ga  tau(   4) = (   0.7500002   0.1443375   0.4067871  )
         5           Ga  tau(   5) = (   0.7500002   0.1443375   1.2217266  )
         6           Ga  tau(   6) = (   0.5000002   0.5773502   0.4067871  )
         7           Ga  tau(   7) = (   0.5000002   0.5773502   1.2217266  )
         8           Ga  tau(   8) = (  -0.0000003   0.2886754   0.8142568  )
         9           Ga  tau(   9) = (  -0.0000003   0.2886754   1.6291964  )
        10           Ga  tau(  10) = (  -0.2500003   0.7216881   0.8142568  )
        11           Ga  tau(  11) = (  -0.2500003   0.7216881   1.6291964  )
        12           Ga  tau(  12) = (   0.4999997   0.2886754   0.8142568  )
        13           Ga  tau(  13) = (   0.4999997   0.2886754   1.6291964  )
        14           Ga  tau(  14) = (   0.2499997   0.7216881   0.8142568  )
        15           Ga  tau(  15) = (   0.2499997   0.7216881   1.6291964  )
        16           N   tau(  16) = (   0.2500002   0.1443375   0.7137548  )
        17           N   tau(  17) = (   0.2500002   0.1443375   1.5286943  )
        18           N   tau(  18) = (   0.0000002   0.5773502   0.7137548  )
        19           N   tau(  19) = (   0.0000002   0.5773502   1.5286943  )
        20           N   tau(  20) = (   0.7500002   0.1443375   0.7137548  )
        21           N   tau(  21) = (   0.7500002   0.1443375   1.5286943  )
        22           N   tau(  22) = (   0.5000002   0.5773502   0.7137548  )
        23           N   tau(  23) = (   0.5000002   0.5773502   1.5286943  )
        24           N   tau(  24) = (  -0.0000003   0.2886754   0.3062850  )
        25           N   tau(  25) = (  -0.0000003   0.2886754   1.1212245  )
        26           N   tau(  26) = (  -0.2500003   0.7216881   0.3062850  )
        27           N   tau(  27) = (  -0.2500003   0.7216881   1.1212245  )
        28           N   tau(  28) = (   0.4999997   0.2886754   0.3062850  )
        29           N   tau(  29) = (   0.4999997   0.2886754   1.1212245  )
        30           N   tau(  30) = (   0.2499997   0.7216881   0.3062850  )
        31           N   tau(  31) = (   0.2499997   0.7216881   1.1212245  )
        32           N   tau(  32) = (   0.2500002   0.1443375   0.4067871  )

   Crystallographic axes

     site n.     atom                  positions (cryst. coord.)
         1           Ga  tau(   1) = (  0.3333335  0.1666666  0.7495811  )
         2           Ga  tau(   2) = (  0.3333335  0.6666666  0.2495811  )
         3           Ga  tau(   3) = (  0.3333335  0.6666666  0.7495811  )
         4           Ga  tau(   4) = (  0.8333335  0.1666666  0.2495811  )
         5           Ga  tau(   5) = (  0.8333335  0.1666666  0.7495811  )
         6           Ga  tau(   6) = (  0.8333335  0.6666666  0.2495811  )
         7           Ga  tau(   7) = (  0.8333335  0.6666666  0.7495811  )
         8           Ga  tau(   8) = (  0.1666665  0.3333336  0.4995811  )
         9           Ga  tau(   9) = (  0.1666665  0.3333336  0.9995811  )
        10           Ga  tau(  10) = (  0.1666665  0.8333336  0.4995811  )
        11           Ga  tau(  11) = (  0.1666665  0.8333336  0.9995811  )
        12           Ga  tau(  12) = (  0.6666665  0.3333336  0.4995811  )
        13           Ga  tau(  13) = (  0.6666665  0.3333336  0.9995811  )
        14           Ga  tau(  14) = (  0.6666665  0.8333336  0.4995811  )
        15           Ga  tau(  15) = (  0.6666665  0.8333336  0.9995811  )
        16           N   tau(  16) = (  0.3333335  0.1666666  0.4379189  )
        17           N   tau(  17) = (  0.3333335  0.1666666  0.9379189  )
        18           N   tau(  18) = (  0.3333335  0.6666666  0.4379189  )
        19           N   tau(  19) = (  0.3333335  0.6666666  0.9379189  )
        20           N   tau(  20) = (  0.8333335  0.1666666  0.4379189  )
        21           N   tau(  21) = (  0.8333335  0.1666666  0.9379189  )
        22           N   tau(  22) = (  0.8333335  0.6666666  0.4379189  )
        23           N   tau(  23) = (  0.8333335  0.6666666  0.9379189  )
        24           N   tau(  24) = (  0.1666665  0.3333336  0.1879189  )
        25           N   tau(  25) = (  0.1666665  0.3333336  0.6879189  )
        26           N   tau(  26) = (  0.1666665  0.8333336  0.1879189  )
        27           N   tau(  27) = (  0.1666665  0.8333336  0.6879189  )
        28           N   tau(  28) = (  0.6666665  0.3333336  0.1879189  )
        29           N   tau(  29) = (  0.6666665  0.3333336  0.6879189  )
        30           N   tau(  30) = (  0.6666665  0.8333336  0.1879189  )
[...]
     atom    3 type  1   force =     0.56851223    0.32852954    0.00267679
     atom    4 type  1   force =    -0.00010319    0.43169611   -0.72031521
     atom    5 type  1   force =    -0.00007157   -0.65630814    0.00267706
     atom    6 type  1   force =     0.37356760   -0.21544099   -0.72031524
     atom    7 type  1   force =    -0.56866665    0.32852905    0.00267680
     atom    8 type  1   force =    -5.90643467    3.41019938    4.35472523
     atom    9 type  1   force =    -1.79630721    1.03722998   -4.95196689
     atom   10 type  1   force =     0.00108633   -6.82197499    4.35473976
     atom   11 type  1   force =     0.00108820   -2.07595816   -4.95198257
     atom   12 type  1   force =     5.90865089    3.41024785    4.35474344
     atom   13 type  1   force =     1.79850179    1.03723327   -4.95198503
     atom   14 type  1   force =     0.00110299   -0.00049881    3.28186518
     atom   15 type  1   force =     0.00109873   -0.00049670   -3.29781977
     atom   16 type  2   force =    -0.00000737    0.00002274   -0.74851917
     atom   17 type  2   force =    -0.00001011    0.00002223   -1.67563956
     atom   18 type  2   force =    -0.83518257   -0.48216378    1.91435476
     atom   19 type  2   force =     0.31493520    0.18185762   -0.99688951
     atom   20 type  2   force =    -0.00000995    0.96439392    1.91435259
     atom   21 type  2   force =    -0.00000966   -0.36364611   -0.99688891
     atom   22 type  2   force =     0.83516328   -0.48216222    1.91435687
     atom   23 type  2   force =    -0.31495506    0.18185676   -0.99689011
     atom   24 type  2   force =    -4.12791117    2.38326117   -1.55171658
     atom   25 type  2   force =    -0.65035402    0.37549305    0.60767157
     atom   26 type  2   force =     0.00006695   -4.76667288   -1.55173002
     atom   27 type  2   force =     0.00008728   -0.75110322    0.60768009
     atom   28 type  2   force =     4.12811257    2.38329030   -1.55173706
     atom   29 type  2   force =     0.65052866    0.37549279    0.60768122
     atom   30 type  2   force =     0.00009005   -0.00003878   -0.36026923
     atom   31 type  2   force =     0.00008695   -0.00003873    0.52436659
     atom   32 type  2   force =    -0.00000805    0.00004504    5.14076971
     The core correction contribution to forces
     atom    1 type  1   force =    -0.00000627    0.00001825    0.00162795
     atom    2 type  1   force =    -0.00106924   -0.00060461   -0.00277579
     atom    3 type  1   force =     0.00088337    0.00053235    0.00219019
     atom    4 type  1   force =    -0.00000862    0.00124963   -0.00277578
     atom    5 type  1   force =    -0.00000586   -0.00100928    0.00219017
     atom    6 type  1   force =     0.00105987   -0.00059461   -0.00277583
     atom    7 type  1   force =    -0.00089590    0.00053234    0.00219019
     atom    8 type  1   force =    -0.00604546    0.00349822    0.00443167
     atom    9 type  1   force =     0.00011652   -0.00005786    0.00110072
     atom   10 type  1   force =     0.00008135   -0.00711221    0.00443175
     atom   11 type  1   force =     0.00008023    0.00000501    0.00110071
     atom   12 type  1   force =     0.00620609    0.00350065    0.00443189
     atom   13 type  1   force =     0.00004469   -0.00005790    0.00110070
     atom   14 type  1   force =     0.00008040   -0.00003676    0.00259195
     atom   15 type  1   force =     0.00008060   -0.00003670   -0.00102888
     atom   16 type  2   force =     0.00000021   -0.00000031    0.01757681
     atom   17 type  2   force =     0.00000025   -0.00000033    0.00031765
     atom   18 type  2   force =     0.00184982    0.00106750   -0.00226947
     atom   19 type  2   force =    -0.00055182   -0.00031908    0.00104406
     atom   20 type  2   force =     0.00000021   -0.00213602   -0.00226945
     atom   21 type  2   force =     0.00000024    0.00063714    0.00104406
     atom   22 type  2   force =    -0.00184937    0.00106758   -0.00226946
     atom   23 type  2   force =     0.00055232   -0.00031909    0.00104405
     atom   24 type  2   force =     0.00370792   -0.00214081    0.00170692
     atom   25 type  2   force =    -0.00009641    0.00005562    0.00190684
     atom   26 type  2   force =    -0.00000261    0.00428488    0.00170636
     atom   27 type  2   force =    -0.00000244   -0.00010725    0.00190696
     atom   28 type  2   force =    -0.00371212   -0.00214020    0.00170633
     atom   29 type  2   force =     0.00009161    0.00005568    0.00190696
     atom   30 type  2   force =    -0.00000236    0.00000132   -0.00122491
     atom   31 type  2   force =    -0.00000235    0.00000131    0.00072028
     atom   32 type  2   force =     0.00000005   -0.00000006   -0.02919257
     The Hubbard contrib.    to forces
     atom    1 type  1   force =     0.00000000    0.00000000    0.00000000
     atom    2 type  1   force =     0.00000000    0.00000000    0.00000000
     atom    3 type  1   force =     0.00000000    0.00000000    0.00000000
     atom    4 type  1   force =     0.00000000    0.00000000    0.00000000
     atom    5 type  1   force =     0.00000000    0.00000000    0.00000000
     atom    6 type  1   force =     0.00000000    0.00000000    0.00000000
     atom    7 type  1   force =     0.00000000    0.00000000    0.00000000
     atom    8 type  1   force =     0.00000000    0.00000000    0.00000000
     atom    9 type  1   force =     0.00000000    0.00000000    0.00000000
     atom   10 type  1   force =     0.00000000    0.00000000    0.00000000
     atom   11 type  1   force =     0.00000000    0.00000000    0.00000000
     atom   12 type  1   force =     0.00000000    0.00000000    0.00000000
     atom   13 type  1   force =     0.00000000    0.00000000    0.00000000
     atom   14 type  1   force =     0.00000000    0.00000000    0.00000000
     atom   15 type  1   force =     0.00000000    0.00000000    0.00000000
     atom   16 type  2   force =     0.00000000    0.00000000    0.00000000
     atom   17 type  2   force =     0.00000000    0.00000000    0.00000000
     atom   18 type  2   force =     0.00000000    0.00000000    0.00000000
     atom   19 type  2   force =     0.00000000    0.00000000    0.00000000
     atom   20 type  2   force =     0.00000000    0.00000000    0.00000000
     atom   21 type  2   force =     0.00000000    0.00000000    0.00000000
     atom   22 type  2   force =     0.00000000    0.00000000    0.00000000
     atom   23 type  2   force =     0.00000000    0.00000000    0.00000000
     atom   24 type  2   force =     0.00000000    0.00000000    0.00000000
     atom   25 type  2   force =     0.00000000    0.00000000    0.00000000
     atom   26 type  2   force =     0.00000000    0.00000000    0.00000000
     atom   27 type  2   force =     0.00000000    0.00000000    0.00000000
     atom   28 type  2   force =     0.00000000    0.00000000    0.00000000
     atom   29 type  2   force =     0.00000000    0.00000000    0.00000000
     atom   30 type  2   force =     0.00000000    0.00000000    0.00000000
     atom   31 type  2   force =     0.00000000    0.00000000    0.00000000
     atom   32 type  2   force =     0.00000000    0.00000000    0.00000000
     The SCF correction term to forces
     atom    1 type  1   force =     0.00000000   -0.00000000   -0.00001535
     atom    2 type  1   force =    -0.00000897   -0.00000518    0.00002312
     atom    3 type  1   force =    -0.00003022   -0.00001745   -0.00004838
     atom    4 type  1   force =     0.00000000    0.00001036    0.00002312
     atom    5 type  1   force =    -0.00000000    0.00003490   -0.00004838
     atom    6 type  1   force =     0.00000897   -0.00000518    0.00002312
     atom    7 type  1   force =     0.00003022   -0.00001745   -0.00004838
     atom    8 type  1   force =    -0.00001269    0.00000733   -0.00000883
     atom    9 type  1   force =     0.00001035   -0.00000598    0.00003169
     atom   10 type  1   force =    -0.00000000   -0.00001465   -0.00000884
     atom   11 type  1   force =     0.00000000    0.00001195    0.00003169
     atom   12 type  1   force =     0.00001269    0.00000733   -0.00000884
     atom   13 type  1   force =    -0.00001035   -0.00000598    0.00003169
     atom   14 type  1   force =    -0.00000000    0.00000000    0.00000351
     atom   15 type  1   force =     0.00000000   -0.00000000    0.00003342
     atom   16 type  2   force =    -0.00000000    0.00000000   -0.00001164
     atom   17 type  2   force =    -0.00000000    0.00000000    0.00000453
     atom   18 type  2   force =    -0.00000890   -0.00000514   -0.00000523
     atom   19 type  2   force =    -0.00000746   -0.00000431    0.00000270
     atom   20 type  2   force =     0.00000000    0.00001028   -0.00000523
     atom   21 type  2   force =     0.00000000    0.00000862    0.00000270
     atom   22 type  2   force =     0.00000890   -0.00000514   -0.00000523
     atom   23 type  2   force =     0.00000746   -0.00000431    0.00000270
     atom   24 type  2   force =    -0.00000145    0.00000084    0.00001266
     atom   25 type  2   force =    -0.00000928    0.00000536   -0.00001014
     atom   26 type  2   force =     0.00000000   -0.00000168    0.00001266
     atom   27 type  2   force =     0.00000000   -0.00001072   -0.00001014
     atom   28 type  2   force =     0.00000146    0.00000084    0.00001266
     atom   29 type  2   force =     0.00000928    0.00000536   -0.00001014
     atom   30 type  2   force =     0.00000000   -0.00000000    0.00001383
     atom   31 type  2   force =    -0.00000000    0.00000000   -0.00001195
     atom   32 type  2   force =    -0.00000000    0.00000000    0.00000513

     Total force =     0.001935     Total SCF correction =     0.000143

     Computing stress (Cartesian axis) and pressure

[...]

          total   stress  (Ry/bohr**3)                   (kbar)     P=      -57.66
  -0.00033579   0.00000000   0.00000000          -49.40        0.00        0.00
   0.00000000  -0.00033579   0.00000000            0.00      -49.40        0.00
   0.00000000   0.00000000  -0.00050428            0.00        0.00      -74.18

     kinetic stress (kbar)  18054.88     -0.00      0.00
                                0.00  18054.88      0.00
                                0.00      0.00  17976.42

     local   stress (kbar)   4804.19     -0.07     -0.00
                               -0.07   4804.10      0.00
                               -0.00      0.00    699.12

     nonloc. stress (kbar)    206.31      0.00      0.00
                                0.00    206.31     -0.00
                                0.00     -0.00    171.91

     hartree stress (kbar)  18636.68     -0.00      0.00
                               -0.00  18636.68     -0.00
                                0.00     -0.00  20113.70

     exc-cor stress (kbar)   4787.35      0.00     -0.00
                                0.00   4787.35      0.00
                               -0.00      0.00   4801.76

     corecor stress (kbar) -13306.43     -0.00     -0.00
                               -0.00 -13306.43     -0.00
                               -0.00     -0.00 -13307.79

     ewald   stress (kbar) -33387.24      0.09      0.00
                                0.09 -33387.12     -0.00
                                0.00     -0.00 -30680.22

     hubbard stress (kbar)      0.00      0.00      0.00
                                0.00      0.00      0.00
                                0.00      0.00      0.00

     DFT-D   stress (kbar)      0.00      0.00      0.00
                                0.00      0.00      0.00
                                0.00      0.00      0.00

     XDM     stress (kbar)      0.00      0.00      0.00
                                0.00      0.00      0.00
                                0.00      0.00      0.00

     dft-nl  stress (kbar)    154.86     -0.00      0.00
                               -0.00    154.86     -0.00
                                0.00     -0.00    150.93

     TS-vdW  stress (kbar)      0.00      0.00      0.00
                                0.00      0.00      0.00
                                0.00      0.00      0.00

     MDB     stress (kbar)      0.00      0.00      0.00
                                0.00      0.00      0.00
                                0.00      0.00      0.00

     3D-RISM stress (kbar)      0.00      0.00      0.00
                                0.00      0.00      0.00
                                0.00      0.00      0.00

[...]

     Non-local corr. energy    =       8.31179413 Ry

 BEEFens 2000 ensemble energies
             -0.676101981703610E+01
             -0.604745803096678E+02
             -0.259686179142987E+02
              0.213305637050052E+02
             -0.434056221232742E+02
             -0.559262304330520E+02
              0.288518066001327E+02
             -0.315489586918540E+01
              0.478425264512198E+02
             -0.205644886334076E+01
              0.234583522058060E+02
              0.930373142695899E+00
              0.102780290858439E+01
             -0.214506185191010E+01
              0.313395929515809E+02
             -0.228660600709290E+02
             -0.471662144677618E+02
             -0.154191171861318E+02
              0.114540447496413E+02
             -0.101048403776144E+01
              0.686336312798242E+02
              0.584745538849136E+02
             -0.333304730916438E+02
              0.121932511011344E+02
             -0.733543290779775E+02
              0.588082083279716E+02
              0.192541212449186E+02
              0.572922721839713E+02
              0.375762792720391E+02
             -0.183894801046908E+02
              0.138877711178892E+02
             -0.271105765629487E+02
              0.743775749170935E+01
              0.366764058462143E+02
              0.390552487173156E+02
             -0.140201020001219E+02
              0.865826996492113E+02
             -0.328168336373772E+02
             -0.236363233207857E+02
              0.346955606847833E+02
              0.154349082468157E+02
              0.260334415743312E+02
             -0.495125462782247E+02
             -0.137874828233009E+01
              0.486916171618053E+02
              0.631884192516770E+02
             -0.627919005499091E+02
              0.447347103839786E+01
              0.236888756534488E+02
              0.113987400908794E+02
              0.263415581674620E+02
              0.556661899277163E+02
             -0.336967402625604E+02
             -0.369176304801159E+02
             -0.479720829908550E+02
             -0.752140204347108E+01
             -0.437254985203234E+02
              0.422332799688212E+01
             -0.817562754435409E+01
             -0.341446136993329E+02
[...]
              0.426933197484381E+02
              0.234399331399804E+02
              0.299188022868008E+02
             -0.482632593453387E+02
             -0.460258571207393E+02
             -0.117625837719806E+02
             -0.452208291964231E+02
              0.725635340535758E+02
              0.622012897465259E+02
              0.297069099607445E+02
              0.803529015292135E+02
             -0.418680249262704E+02
             -0.171052793730654E+02
             -0.236630647121396E+02
              0.664339975627474E+02

 BEEF-vdW xc energy contributions
            1 :    -609.0961281469206
            2 :     548.0785926464393
            3 :    -445.9946102846661
            4 :     332.9068910411071
            5 :    -235.1288301021214
            6 :     165.1914026842329
            7 :    -120.5593620908186
            8 :     90.30740415173034
            9 :    -64.36711486798913
           10 :     39.32439165639948
           11 :    -18.03472433017475
           12 :     4.856693715755114
           13 :   -0.8753114256664958
           14 :     2.631173039430905
           15 :    -4.693349737511426
           16 :     3.509283050745580
           17 :    0.6088667825504217
           18 :    -4.647412925387925
           19 :     5.909235712950931
           20 :    -4.321406226720001
           21 :     2.317939145998594
           22 :    -2.664798030765837
           23 :     6.168382368682842
           24 :    -11.10698523267206
           25 :     14.69244504024880
           26 :    -15.24105534790192
           27 :     13.29361038391448
           28 :    -10.91047820116546
           29 :     9.874306463641233
           30 :    -10.32545036776742
           31 :    -52.56880248979610
           32 :    -35.95261453169383

     Writing all to output data dir ./GaN.save/

     General routines

     Parallel routines

     PAW routines

   This run was terminated on:   6:21:45  28Mar2024

   JOB DONE.