     Program PWSCF v.7.2 starts on 19Feb2024 at 16:22:28

     Reading input from espresso.pwi
Warning: card &CELL ignored
Warning: card    CELL_DYNAMICS    = 'BFGS' ignored
Warning: card / ignored

     Current dimensions of program PWSCF are:
     Max number of different atomic species (ntypx) = 10
     Max number of k-points (npk) =  40000
     Max angular momentum in pseudopotentials (lmaxx) =  4
     file C.pbe-n-kjpaw_psl.1.0.0.UPF: wavefunction(s)  2S 2P renormalized

     IMPORTANT: XC functional enforced from input :
     Exchange-correlation= BEEF-VDW
                           (   1   4  43  14   2   0   0)
     Any further DFT definition will be discarded
     Please, verify this is what you really want

     K-points division:     npool     =       4
     R & G space division:  proc/nbgrp/npool/nimage =      32
     Subspace diagonalization in iterative solution of the eigenvalue problem:
     a serial algorithm will be used

     Using Slab Decomposition

     bravais-lattice index     =            1
     lattice parameter (alat)  =      13.5013  a.u.
     unit-cell volume          =    2461.1121 (a.u.)^3
     number of atoms/cell      =           63
     number of atomic types    =            1
     number of electrons       =       252.00
     number of Kohn-Sham states=          151
     kinetic-energy cutoff     =      70.0000  Ry
     charge density cutoff     =     350.0000  Ry
     scf convergence threshold =      1.0E-07
     mixing beta               =       0.7000
     number of iterations used =            8  plain     mixing
     Exchange-correlation= BEEF-VDW
                           (   1   4  43  14   2   0   0)

     celldm(1)=  13.501348  celldm(2)=   0.000000  celldm(3)=   0.000000
     celldm(4)=   0.000000  celldm(5)=   0.000000  celldm(6)=   0.000000

     crystal axes: (cart. coord. in units of alat)
               a(1) = (   1.000000   0.000000   0.000000 )
               a(2) = (   0.000000   1.000000   0.000000 )
               a(3) = (   0.000000   0.000000   1.000000 )

     reciprocal axes: (cart. coord. in units 2 pi/alat)
               b(1) = (  1.000000  0.000000  0.000000 )
               b(2) = (  0.000000  1.000000  0.000000 )
               b(3) = (  0.000000  0.000000  1.000000 )

     PseudoPot. # 1 for C  read from file:
     /trace/group/acmegroup/atimmins/packages/espresso/pseudo/psl_1.0.0/pslibrary.1.0.0/pbe/PSEUDOPOTENTIALS/C.pbe-n-kjpaw_psl.1.0.0.UPF
     MD5 check sum: 5459cf7f2c8c37df2f7cde8914797f4d
     Pseudo is Projector augmented-wave + core cor, Zval =  4.0
     Generated using 'atomic' code by A. Dal Corso  v.7.1
     Shape of augmentation charge: PSQ
     Using radial grid of 1073 points,  4 beta functions with:
                l(1) =   0
                l(2) =   0
                l(3) =   1
                l(4) =   1
     Q(r) pseudized with 0 coefficients

     atomic species   valence    mass     pseudopotential
        C              4.00    12.01100     C ( 1.00)

      6 Sym. Ops. (no inversion) found ( 4 have fractional translation)

                                    s                        frac. trans.

      isym =  1     identity

 cryst.   s( 1) = (     1          0          0      )
                  (     0          1          0      )
                  (     0          0          1      )

 cart.    s( 1) = (  1.0000000  0.0000000  0.0000000 )
                  (  0.0000000  1.0000000  0.0000000 )
                  (  0.0000000  0.0000000  1.0000000 )

      isym =  2     120 deg rotation - cart. axis [1,-1,1]

 cryst.   s( 2) = (     0          0          1      )    f =( -0.5000000 )
                  (    -1          0          0      )       ( -0.5000000 )
                  (     0         -1          0      )       (  0.0000000 )

 cart.    s( 2) = (  0.0000000 -1.0000000  0.0000000 )    f =( -0.5000000 )
                  (  0.0000000  0.0000000 -1.0000000 )       ( -0.5000000 )
                  (  1.0000000  0.0000000  0.0000000 )       (  0.0000000 )

      isym =  3     120 deg rotation - cart. axis [-1,1,-1]

[...]

      isym =  4     inv. 180 deg rotation - cart. axis [1,1,0]

[...]

 cryst.   s( 5) = (     0          0          1      )
                  (     0          1          0      )
                  (     1          0          0      )

 cart.    s( 5) = (  0.0000000  0.0000000  1.0000000 )
                  (  0.0000000  1.0000000  0.0000000 )
                  (  1.0000000  0.0000000  0.0000000 )

      isym =  6     inv. 180 deg rotation - cart. axis [0,1,1]

 cryst.   s( 6) = (     1          0          0      )    f =(  0.0000000 )
                  (     0          0         -1      )       ( -0.5000000 )
                  (     0         -1          0      )       ( -0.5000000 )

 cart.    s( 6) = (  1.0000000  0.0000000  0.0000000 )    f =(  0.0000000 )
                  (  0.0000000  0.0000000 -1.0000000 )       ( -0.5000000 )
                  (  0.0000000 -1.0000000  0.0000000 )       ( -0.5000000 )

     point group C_3v (3m)
     there are  3 classes
     the character table:

       E     2C3   3s_v
A_1    1.00  1.00  1.00
A_2    1.00  1.00 -1.00
E      2.00 -1.00  0.00

     the symmetry operations in each class and the name of the first element:

     E        1
          identity
     2C3      2    3
          120 deg rotation - cart. axis [1,-1,1]
     3s_v     4    5    6
          inv. 180 deg rotation - cart. axis [1,1,0]

   Cartesian axes

     site n.     atom                  positions (alat units)
         1           C   tau(   1) = (   0.1250031   0.3749969   0.6250031  )
         2           C   tau(   2) = (   0.1250031   0.8749969   0.1250031  )
         3           C   tau(   3) = (   0.1250031   0.8749969   0.6250031  )
         4           C   tau(   4) = (   0.6250031   0.3749969   0.1250031  )
         5           C   tau(   5) = (   0.6250031   0.3749969   0.6250031  )
         6           C   tau(   6) = (   0.6250031   0.8749969   0.1250031  )
         7           C   tau(   7) = (   0.6250031   0.8749969   0.6250031  )
         8           C   tau(   8) = (   0.0000000   0.0000000   0.2500000  )
         9           C   tau(   9) = (   0.0000000   0.0000000   0.7500000  )
        10           C   tau(  10) = (   0.0000000   0.5000000   0.2500000  )
        11           C   tau(  11) = (   0.0000000   0.5000000   0.7500000  )
        12           C   tau(  12) = (   0.5000000   0.0000000   0.2500000  )
        13           C   tau(  13) = (   0.5000000   0.0000000   0.7500000  )
        14           C   tau(  14) = (   0.5000000   0.5000000   0.2500000  )
        15           C   tau(  15) = (   0.5000000   0.5000000   0.7500000  )
        16           C   tau(  16) = (   0.1250031   0.1250031   0.3749969  )
        17           C   tau(  17) = (   0.1250031   0.1250031   0.8749969  )
        18           C   tau(  18) = (   0.1250031   0.6250031   0.3749969  )
        19           C   tau(  19) = (   0.1250031   0.6250031   0.8749969  )
        20           C   tau(  20) = (   0.6250031   0.1250031   0.3749969  )
        21           C   tau(  21) = (   0.6250031   0.1250031   0.8749969  )
        22           C   tau(  22) = (   0.6250031   0.6250031   0.3749969  )
        23           C   tau(  23) = (   0.6250031   0.6250031   0.8749969  )
        24           C   tau(  24) = (   0.0000000   0.2500000   0.0000000  )
        25           C   tau(  25) = (   0.0000000   0.2500000   0.5000000  )
        26           C   tau(  26) = (   0.0000000   0.7500000   0.0000000  )
        27           C   tau(  27) = (   0.0000000   0.7500000   0.5000000  )
        28           C   tau(  28) = (   0.5000000   0.2500000   0.0000000  )
        29           C   tau(  29) = (   0.5000000   0.2500000   0.5000000  )
        30           C   tau(  30) = (   0.5000000   0.7500000   0.0000000  )
        31           C   tau(  31) = (   0.5000000   0.7500000   0.5000000  )
        32           C   tau(  32) = (   0.3749969   0.3749969   0.3749969  )
        33           C   tau(  33) = (   0.3749969   0.3749969   0.8749969  )
        34           C   tau(  34) = (   0.3749969   0.8749969   0.3749969  )
        35           C   tau(  35) = (   0.3749969   0.8749969   0.8749969  )
        36           C   tau(  36) = (   0.8749969   0.3749969   0.3749969  )
        37           C   tau(  37) = (   0.8749969   0.3749969   0.8749969  )
        38           C   tau(  38) = (   0.8749969   0.8749969   0.3749969  )
        39           C   tau(  39) = (   0.8749969   0.8749969   0.8749969  )
        40           C   tau(  40) = (   0.2500000   0.0000000   0.0000000  )
        41           C   tau(  41) = (   0.2500000   0.0000000   0.5000000  )
        42           C   tau(  42) = (   0.2500000   0.5000000   0.0000000  )
        43           C   tau(  43) = (   0.2500000   0.5000000   0.5000000  )
        44           C   tau(  44) = (   0.7500000   0.0000000   0.0000000  )
        45           C   tau(  45) = (   0.7500000   0.0000000   0.5000000  )
        46           C   tau(  46) = (   0.7500000   0.5000000   0.0000000  )
        47           C   tau(  47) = (   0.7500000   0.5000000   0.5000000  )
        48           C   tau(  48) = (   0.3749969   0.1250031   0.1250031  )
        49           C   tau(  49) = (   0.3749969   0.1250031   0.6250031  )
        50           C   tau(  50) = (   0.3749969   0.6250031   0.1250031  )
        51           C   tau(  51) = (   0.3749969   0.6250031   0.6250031  )
        52           C   tau(  52) = (   0.8749969   0.1250031   0.1250031  )
        53           C   tau(  53) = (   0.8749969   0.1250031   0.6250031  )
        54           C   tau(  54) = (   0.8749969   0.6250031   0.1250031  )
        55           C   tau(  55) = (   0.8749969   0.6250031   0.6250031  )
        56           C   tau(  56) = (   0.2500000   0.2500000   0.2500000  )
        57           C   tau(  57) = (   0.2500000   0.2500000   0.7500000  )
        58           C   tau(  58) = (   0.2500000   0.7500000   0.2500000  )
        59           C   tau(  59) = (   0.2500000   0.7500000   0.7500000  )
        60           C   tau(  60) = (   0.7500000   0.2500000   0.2500000  )
        61           C   tau(  61) = (   0.7500000   0.2500000   0.7500000  )
        62           C   tau(  62) = (   0.7500000   0.7500000   0.2500000  )
        63           C   tau(  63) = (   0.7500000   0.7500000   0.7500000  )

   Crystallographic axes

     site n.     atom                  positions (cryst. coord.)
         1           C   tau(   1) = (  0.1250031  0.3749969  0.6250031  )
         2           C   tau(   2) = (  0.1250031  0.8749969  0.1250031  )
         3           C   tau(   3) = (  0.1250031  0.8749969  0.6250031  )
         4           C   tau(   4) = (  0.6250031  0.3749969  0.1250031  )
         5           C   tau(   5) = (  0.6250031  0.3749969  0.6250031  )
         6           C   tau(   6) = (  0.6250031  0.8749969  0.1250031  )
         7           C   tau(   7) = (  0.6250031  0.8749969  0.6250031  )
         8           C   tau(   8) = (  0.0000000  0.0000000  0.2500000  )
[...]
     atom    2 type  1   force =     0.00000000    0.00000000    0.00000000
     atom    3 type  1   force =     0.00000000    0.00000000    0.00000000
     atom    4 type  1   force =     0.00000000    0.00000000    0.00000000
     atom    5 type  1   force =     0.00000000    0.00000000    0.00000000
     atom    6 type  1   force =     0.00000000    0.00000000    0.00000000
     atom    7 type  1   force =     0.00000000    0.00000000    0.00000000
     atom    8 type  1   force =     0.00000000    0.00000000    0.00000000
     atom    9 type  1   force =     0.00000000    0.00000000    0.00000000
     atom   10 type  1   force =     0.00000000    0.00000000    0.00000000
     atom   11 type  1   force =     0.00000000    0.00000000    0.00000000
     atom   12 type  1   force =     0.00000000    0.00000000    0.00000000
     atom   13 type  1   force =     0.00000000    0.00000000    0.00000000
     atom   14 type  1   force =     0.00000000    0.00000000    0.00000000
     atom   15 type  1   force =     0.00000000    0.00000000    0.00000000
     atom   16 type  1   force =     0.00000000    0.00000000    0.00000000
     atom   17 type  1   force =     0.00000000    0.00000000    0.00000000
     atom   18 type  1   force =     0.00000000    0.00000000    0.00000000
     atom   19 type  1   force =     0.00000000    0.00000000    0.00000000
     atom   20 type  1   force =     0.00000000    0.00000000    0.00000000
     atom   21 type  1   force =     0.00000000    0.00000000    0.00000000
     atom   22 type  1   force =     0.00000000    0.00000000    0.00000000
     atom   23 type  1   force =     0.00000000    0.00000000    0.00000000
     atom   24 type  1   force =     0.00000000    0.00000000    0.00000000
     atom   25 type  1   force =     0.00000000    0.00000000    0.00000000
     atom   26 type  1   force =     0.00000000    0.00000000    0.00000000
     atom   27 type  1   force =     0.00000000    0.00000000    0.00000000
     atom   28 type  1   force =     0.00000000    0.00000000    0.00000000
     atom   29 type  1   force =     0.00000000    0.00000000    0.00000000
     atom   30 type  1   force =     0.00000000    0.00000000    0.00000000
     atom   31 type  1   force =     0.00000000    0.00000000    0.00000000
     atom   32 type  1   force =     0.00000000    0.00000000    0.00000000
     atom   33 type  1   force =     0.00000000    0.00000000    0.00000000
     atom   34 type  1   force =     0.00000000    0.00000000    0.00000000
     atom   35 type  1   force =     0.00000000    0.00000000    0.00000000
     atom   36 type  1   force =     0.00000000    0.00000000    0.00000000
     atom   37 type  1   force =     0.00000000    0.00000000    0.00000000
     atom   38 type  1   force =     0.00000000    0.00000000    0.00000000
     atom   39 type  1   force =     0.00000000    0.00000000    0.00000000
     atom   40 type  1   force =     0.00000000    0.00000000    0.00000000
     atom   41 type  1   force =     0.00000000    0.00000000    0.00000000
     atom   42 type  1   force =     0.00000000    0.00000000    0.00000000
     atom   43 type  1   force =     0.00000000    0.00000000    0.00000000
     atom   44 type  1   force =     0.00000000    0.00000000    0.00000000
     atom   45 type  1   force =     0.00000000    0.00000000    0.00000000
     atom   46 type  1   force =     0.00000000    0.00000000    0.00000000
     atom   47 type  1   force =     0.00000000    0.00000000    0.00000000
     atom   48 type  1   force =     0.00000000    0.00000000    0.00000000
     atom   49 type  1   force =     0.00000000    0.00000000    0.00000000
     atom   50 type  1   force =     0.00000000    0.00000000    0.00000000
     atom   51 type  1   force =     0.00000000    0.00000000    0.00000000
     atom   52 type  1   force =     0.00000000    0.00000000    0.00000000
     atom   53 type  1   force =     0.00000000    0.00000000    0.00000000
     atom   54 type  1   force =     0.00000000    0.00000000    0.00000000
     atom   55 type  1   force =     0.00000000    0.00000000    0.00000000
     atom   56 type  1   force =     0.00000000    0.00000000    0.00000000
     atom   57 type  1   force =     0.00000000    0.00000000    0.00000000
     atom   58 type  1   force =     0.00000000    0.00000000    0.00000000
     atom   59 type  1   force =     0.00000000    0.00000000    0.00000000
     atom   60 type  1   force =     0.00000000    0.00000000    0.00000000
     atom   61 type  1   force =     0.00000000    0.00000000    0.00000000
     atom   62 type  1   force =     0.00000000    0.00000000    0.00000000
     atom   63 type  1   force =     0.00000000    0.00000000    0.00000000
     The SCF correction term to forces
     atom    1 type  1   force =    -0.00005756    0.00005756    0.00005958
     atom    2 type  1   force =    -0.00005756   -0.00005958   -0.00005756
     atom    3 type  1   force =    -0.00006689   -0.00005967    0.00005967
     atom    4 type  1   force =     0.00005958    0.00005756   -0.00005756
     atom    5 type  1   force =     0.00005967    0.00006689    0.00005967
     atom    6 type  1   force =     0.00005967   -0.00005967   -0.00006689
     atom    7 type  1   force =     0.00006427   -0.00006427    0.00006427
     atom    8 type  1   force =    -0.00006562   -0.00006780   -0.00002528
     atom    9 type  1   force =    -0.00006507   -0.00006224    0.00002503
     atom   10 type  1   force =    -0.00006053    0.00006053   -0.00001661
     atom   11 type  1   force =    -0.00006340    0.00006340    0.00001871
     atom   12 type  1   force =     0.00006848   -0.00006848   -0.00001629
     atom   13 type  1   force =     0.00006964   -0.00006964    0.00001665
     atom   14 type  1   force =     0.00006780    0.00006562   -0.00002528
     atom   15 type  1   force =     0.00006224    0.00006507    0.00002503
     atom   16 type  1   force =    -0.00008974   -0.00005671    0.00005671
     atom   17 type  1   force =    -0.00007006   -0.00002565   -0.00002876
     atom   18 type  1   force =    -0.00007006    0.00002876    0.00002565
     atom   19 type  1   force =    -0.00005239    0.00002589   -0.00002589
     atom   20 type  1   force =     0.00005834   -0.00002910    0.00002910
     atom   21 type  1   force =     0.00006425   -0.00003419   -0.00002745
     atom   22 type  1   force =     0.00006425    0.00002745    0.00003419
     atom   23 type  1   force =     0.00005673    0.00003545   -0.00003545
     atom   24 type  1   force =    -0.00006053    0.00001661   -0.00006053
     atom   25 type  1   force =    -0.00006562    0.00002528    0.00006780
     atom   26 type  1   force =    -0.00006340   -0.00001871   -0.00006340
     atom   27 type  1   force =    -0.00006507   -0.00002503    0.00006224
     atom   28 type  1   force =     0.00006780    0.00002528   -0.00006562
     atom   29 type  1   force =     0.00006848    0.00001629    0.00006848
     atom   30 type  1   force =     0.00006224   -0.00002503   -0.00006507
     atom   31 type  1   force =     0.00006964   -0.00001665    0.00006964
     atom   32 type  1   force =     0.00005671    0.00008974    0.00005671
     atom   33 type  1   force =     0.00002565    0.00007006   -0.00002876
     atom   34 type  1   force =     0.00002910   -0.00005834    0.00002910
     atom   35 type  1   force =     0.00003419   -0.00006425   -0.00002745
     atom   36 type  1   force =    -0.00002876    0.00007006    0.00002565
     atom   37 type  1   force =    -0.00002589    0.00005239   -0.00002589
     atom   38 type  1   force =    -0.00002745   -0.00006425    0.00003419
     atom   39 type  1   force =    -0.00003545   -0.00005673   -0.00003545
     atom   40 type  1   force =    -0.00002528   -0.00006780   -0.00006562
     atom   41 type  1   force =    -0.00001629   -0.00006848    0.00006848
     atom   42 type  1   force =    -0.00001661    0.00006053   -0.00006053
     atom   43 type  1   force =    -0.00002528    0.00006562    0.00006780
     atom   44 type  1   force =     0.00002503   -0.00006224   -0.00006507
     atom   45 type  1   force =     0.00001665   -0.00006964    0.00006964
     atom   46 type  1   force =     0.00001871    0.00006340   -0.00006340
     atom   47 type  1   force =     0.00002503    0.00006507    0.00006224
     atom   48 type  1   force =     0.00005671   -0.00005671   -0.00008974
     atom   49 type  1   force =     0.00002910   -0.00002910    0.00005834
     atom   50 type  1   force =     0.00002565    0.00002876   -0.00007006
     atom   51 type  1   force =     0.00003419    0.00002745    0.00006425
     atom   52 type  1   force =    -0.00002876   -0.00002565   -0.00007006
     atom   53 type  1   force =    -0.00002745   -0.00003419    0.00006425
     atom   54 type  1   force =    -0.00002589    0.00002589   -0.00005239
     atom   55 type  1   force =    -0.00003545    0.00003545    0.00005673
     atom   56 type  1   force =    -0.00000245    0.00000245   -0.00000245
     atom   57 type  1   force =    -0.00002328    0.00002328    0.00002013
     atom   58 type  1   force =    -0.00002328   -0.00002013   -0.00002328
     atom   59 type  1   force =    -0.00001984   -0.00002415    0.00002415
     atom   60 type  1   force =     0.00002013    0.00002328   -0.00002328
     atom   61 type  1   force =     0.00002415    0.00001984    0.00002415
     atom   62 type  1   force =     0.00002415   -0.00002415   -0.00001984
     atom   63 type  1   force =     0.00001673   -0.00001673    0.00001673

     Total force =     0.002427     Total SCF correction =     0.000683
     SCF correction compared to forces is large: reduce conv_thr to get better values

     Computing stress (Cartesian axis) and pressure

[...]

          total   stress  (Ry/bohr**3)                   (kbar)     P=        6.20
   0.00004213   0.00000010  -0.00000010            6.20        0.01       -0.01
   0.00000010   0.00004213   0.00000010            0.01        6.20        0.01
  -0.00000010   0.00000010   0.00004213           -0.01        0.01        6.20

     kinetic stress (kbar)  18661.22      0.04     -0.04
                                0.04  18661.22      0.04
                               -0.04      0.04  18661.22

     local   stress (kbar)  -3795.67      0.42     -0.42
                                0.42  -3795.67      0.42
                               -0.42      0.42  -3795.67

     nonloc. stress (kbar)   4280.59     -0.00      0.00
                               -0.00   4280.59     -0.00
                                0.00     -0.00   4280.59

     hartree stress (kbar)   1380.91     -0.13      0.13
                               -0.13   1380.91     -0.13
                                0.13     -0.13   1380.91

     exc-cor stress (kbar)   -400.33      0.00     -0.00
                                0.00   -400.33      0.00
                               -0.00      0.00   -400.33

     corecor stress (kbar)  -4365.09     -0.00      0.00
                               -0.00  -4365.09     -0.00
                                0.00     -0.00  -4365.09

     ewald   stress (kbar) -15780.17     -0.31      0.31
                               -0.31 -15780.17     -0.31
                                0.31     -0.31 -15780.17

     hubbard stress (kbar)      0.00      0.00      0.00
                                0.00      0.00      0.00
                                0.00      0.00      0.00

     DFT-D   stress (kbar)      0.00      0.00      0.00
                                0.00      0.00      0.00
                                0.00      0.00      0.00

     XDM     stress (kbar)      0.00      0.00      0.00
                                0.00      0.00      0.00
                                0.00      0.00      0.00

     dft-nl  stress (kbar)     24.74      0.00     -0.00
                                0.00     24.74      0.00
                               -0.00      0.00     24.74

     TS-vdW  stress (kbar)      0.00      0.00      0.00
                                0.00      0.00      0.00
                                0.00      0.00      0.00

     MDB     stress (kbar)      0.00      0.00      0.00
                                0.00      0.00      0.00
                                0.00      0.00      0.00

     3D-RISM stress (kbar)      0.00      0.00      0.00
                                0.00      0.00      0.00
                                0.00      0.00      0.00

[...]

     Non-local corr. energy    =       2.16608072 Ry

 BEEFens 2000 ensemble energies
             -0.223759797033758E+02
             -0.149941069669241E+01
             -0.504029338097336E+01
              0.154050270213488E+02
             -0.677203737033184E+01
             -0.575524319485552E+01
             -0.155835625507657E+02
             -0.335444733298505E+02
             -0.124420398098395E+02
             -0.129900114098041E+02
             -0.133986051390405E+02
              0.188394796497406E+01
              0.195343902475543E+01
             -0.169896152814069E+01
              0.147638550764589E+01
              0.165184131312058E+02
             -0.664604406574325E+01
             -0.429513425365759E+01
              0.847098662549200E+01
             -0.382160384920878E+02
              0.200024778480080E+02
             -0.695619111302338E+01
             -0.205150554789721E+01
             -0.270981901851788E+01
              0.112917656321656E-01
             -0.202515220137330E+01
              0.300201137854346E+02
             -0.812632450590324E+01
             -0.310857042649673E+01
             -0.200574418801688E+02
              0.242770321836671E+02
             -0.221376714366150E+01
             -0.145587942835534E+02
              0.694602963591166E+01
             -0.808415582622686E+00
              0.998288535987700E+01
              0.823225526456199E+00
              0.260524504943476E-01
              0.128343216671303E+02
             -0.347804099289573E+02
              0.184613205438102E+02
              0.447117074160920E+01
             -0.360145549673098E+01
             -0.112366370778833E+02
              0.401826511224722E+01
             -0.586345086496132E+01
              0.174725479010871E+02
              0.121198889833082E+02
             -0.668317324900949E+01
             -0.115232719619643E+02
             -0.111810609411864E+02
             -0.124200289190569E+02
              0.664565938989007E+01
             -0.184775866802648E+02
              0.539835293036890E+01
              0.212961388696406E+02
              0.260985022529017E+02
              0.105593171734191E+02
              0.552124811201355E+01
              0.109280383492158E+02
[...]
             -0.261879964201669E+02
              0.762996293946912E+00
              0.339321680863456E+00
             -0.391694715381655E+01
              0.171283212699453E+01
             -0.224635486513419E+02
             -0.375016111075814E+01
              0.399585431012802E+01
              0.430441857631571E+01
              0.175577808903080E+02
             -0.152295991643250E+02
              0.182917097428164E+02
             -0.136010988116868E+02
              0.911609785988749E+01
              0.150730231081679E+02

 BEEF-vdW xc energy contributions
            1 :    -257.5274044946541
            2 :     227.1040210673568
            3 :    -174.6630628461529
            4 :     113.8378712738121
            5 :    -58.53482590209603
            6 :     18.33091861857378
            7 :     3.928789244102404
            8 :    -11.59744024175575
            9 :     11.38453818965047
           10 :    -9.781156465178015
           11 :     10.43772833700797
           12 :    -13.48252167613225
           13 :     16.69285362133763
           14 :    -17.55335595582960
           15 :     14.97042506197926
           16 :    -9.811984340547497
           17 :     4.207861260161792
           18 :   -0.2242054321656042
           19 :    -1.233922503922827
           20 :    0.7024898693014734
           21 :    0.4151081310191103
           22 :   -0.8182632457766772
           23 :    5.6459280083458907E-002
           24 :     1.349192198713638
           25 :    -2.391208211326330
           26 :     2.293025005784273
           27 :   -0.9941846485882024
           28 :   -0.8630182113203091
           29 :     2.378303883335207
           30 :    -2.948150313608949
           31 :    -33.71585413856303
           32 :    -24.43759775275214

     Writing all to output data dir ./diamond.save/

     General routines

     Parallel routines

     PAW routines

   This run was terminated on:  16:22:42  19Feb2024

   JOB DONE.