     Program PWSCF v.7.2 starts on 19Feb2024 at 10:45:52

     Reading input from espresso.pwi
Warning: card &CELL ignored
Warning: card    CELL_DYNAMICS    = 'BFGS' ignored
Warning: card / ignored

     Current dimensions of program PWSCF are:
     Max number of different atomic species (ntypx) = 10
     Max number of k-points (npk) =  40000
     Max angular momentum in pseudopotentials (lmaxx) =  4
     file C.pbe-n-kjpaw_psl.1.0.0.UPF: wavefunction(s)  2S 2P renormalized

     IMPORTANT: XC functional enforced from input :
     Exchange-correlation= BEEF-VDW
                           (   1   4  43  14   2   0   0)
     Any further DFT definition will be discarded
     Please, verify this is what you really want

     K-points division:     npool     =       4
     R & G space division:  proc/nbgrp/npool/nimage =      32
     Subspace diagonalization in iterative solution of the eigenvalue problem:
     a serial algorithm will be used

     Using Slab Decomposition

     bravais-lattice index     =            1
     lattice parameter (alat)  =      13.5013  a.u.
     unit-cell volume          =    2461.1121 (a.u.)^3
     number of atoms/cell      =           63
     number of atomic types    =            1
     number of electrons       =       252.00
     number of Kohn-Sham states=          151
     kinetic-energy cutoff     =      70.0000  Ry
     charge density cutoff     =     350.0000  Ry
     scf convergence threshold =      1.0E-07
     mixing beta               =       0.7000
     number of iterations used =            8  plain     mixing
     energy convergence thresh.=      1.0E-04
     force convergence thresh. =      1.0E-03
     Exchange-correlation= BEEF-VDW
                           (   1   4  43  14   2   0   0)
     nstep                     =           50

     celldm(1)=  13.501348  celldm(2)=   0.000000  celldm(3)=   0.000000
     celldm(4)=   0.000000  celldm(5)=   0.000000  celldm(6)=   0.000000

     crystal axes: (cart. coord. in units of alat)
               a(1) = (   1.000000   0.000000   0.000000 )
               a(2) = (   0.000000   1.000000   0.000000 )
               a(3) = (   0.000000   0.000000   1.000000 )

     reciprocal axes: (cart. coord. in units 2 pi/alat)
               b(1) = (  1.000000  0.000000  0.000000 )
               b(2) = (  0.000000  1.000000  0.000000 )
               b(3) = (  0.000000  0.000000  1.000000 )

     PseudoPot. # 1 for C  read from file:
     /trace/group/acmegroup/atimmins/packages/espresso/pseudo/psl_1.0.0/pslibrary.1.0.0/pbe/PSEUDOPOTENTIALS/C.pbe-n-kjpaw_psl.1.0.0.UPF
     MD5 check sum: 5459cf7f2c8c37df2f7cde8914797f4d
     Pseudo is Projector augmented-wave + core cor, Zval =  4.0
     Generated using 'atomic' code by A. Dal Corso  v.7.1
     Shape of augmentation charge: PSQ
     Using radial grid of 1073 points,  4 beta functions with:
                l(1) =   0
                l(2) =   0
                l(3) =   1
                l(4) =   1
     Q(r) pseudized with 0 coefficients

     atomic species   valence    mass     pseudopotential
        C              4.00    12.01100     C ( 1.00)

      6 Sym. Ops. (no inversion) found ( 4 have fractional translation)

                                    s                        frac. trans.

      isym =  1     identity

 cryst.   s( 1) = (     1          0          0      )
                  (     0          1          0      )
                  (     0          0          1      )

 cart.    s( 1) = (  1.0000000  0.0000000  0.0000000 )
                  (  0.0000000  1.0000000  0.0000000 )
                  (  0.0000000  0.0000000  1.0000000 )

      isym =  2     120 deg rotation - cart. axis [1,-1,1]

 cryst.   s( 2) = (     0          0          1      )    f =( -0.5000000 )
                  (    -1          0          0      )       ( -0.5000000 )
                  (     0         -1          0      )       (  0.0000000 )

 cart.    s( 2) = (  0.0000000 -1.0000000  0.0000000 )    f =( -0.5000000 )
                  (  0.0000000  0.0000000 -1.0000000 )       ( -0.5000000 )
                  (  1.0000000  0.0000000  0.0000000 )       (  0.0000000 )

      isym =  3     120 deg rotation - cart. axis [-1,1,-1]

[...]

      isym =  4     inv. 180 deg rotation - cart. axis [1,1,0]

[...]

 cryst.   s( 5) = (     0          0          1      )
                  (     0          1          0      )
                  (     1          0          0      )

 cart.    s( 5) = (  0.0000000  0.0000000  1.0000000 )
                  (  0.0000000  1.0000000  0.0000000 )
                  (  1.0000000  0.0000000  0.0000000 )

      isym =  6     inv. 180 deg rotation - cart. axis [0,1,1]

 cryst.   s( 6) = (     1          0          0      )    f =(  0.0000000 )
                  (     0          0         -1      )       ( -0.5000000 )
                  (     0         -1          0      )       ( -0.5000000 )

 cart.    s( 6) = (  1.0000000  0.0000000  0.0000000 )    f =(  0.0000000 )
                  (  0.0000000  0.0000000 -1.0000000 )       ( -0.5000000 )
                  (  0.0000000 -1.0000000  0.0000000 )       ( -0.5000000 )

     point group C_3v (3m)
     there are  3 classes
     the character table:

       E     2C3   3s_v
A_1    1.00  1.00  1.00
A_2    1.00  1.00 -1.00
E      2.00 -1.00  0.00

     the symmetry operations in each class and the name of the first element:

     E        1
          identity
     2C3      2    3
          120 deg rotation - cart. axis [1,-1,1]
     3s_v     4    5    6
          inv. 180 deg rotation - cart. axis [1,1,0]

   Cartesian axes

     site n.     atom                  positions (alat units)
         1           C   tau(   1) = (   0.1250031   0.3749969   0.6250031  )
         2           C   tau(   2) = (   0.1250031   0.8749969   0.1250031  )
         3           C   tau(   3) = (   0.1250031   0.8749969   0.6250031  )
         4           C   tau(   4) = (   0.6250031   0.3749969   0.1250031  )
         5           C   tau(   5) = (   0.6250031   0.3749969   0.6250031  )
         6           C   tau(   6) = (   0.6250031   0.8749969   0.1250031  )
         7           C   tau(   7) = (   0.6250031   0.8749969   0.6250031  )
         8           C   tau(   8) = (   0.0000000   0.0000000   0.2500000  )
         9           C   tau(   9) = (   0.0000000   0.0000000   0.7500000  )
        10           C   tau(  10) = (   0.0000000   0.5000000   0.2500000  )
        11           C   tau(  11) = (   0.0000000   0.5000000   0.7500000  )
        12           C   tau(  12) = (   0.5000000   0.0000000   0.2500000  )
        13           C   tau(  13) = (   0.5000000   0.0000000   0.7500000  )
        14           C   tau(  14) = (   0.5000000   0.5000000   0.2500000  )
        15           C   tau(  15) = (   0.5000000   0.5000000   0.7500000  )
        16           C   tau(  16) = (   0.1250031   0.1250031   0.3749969  )
        17           C   tau(  17) = (   0.1250031   0.1250031   0.8749969  )
        18           C   tau(  18) = (   0.1250031   0.6250031   0.3749969  )
        19           C   tau(  19) = (   0.1250031   0.6250031   0.8749969  )
        20           C   tau(  20) = (   0.6250031   0.1250031   0.3749969  )
        21           C   tau(  21) = (   0.6250031   0.1250031   0.8749969  )
        22           C   tau(  22) = (   0.6250031   0.6250031   0.3749969  )
        23           C   tau(  23) = (   0.6250031   0.6250031   0.8749969  )
        24           C   tau(  24) = (   0.0000000   0.2500000   0.0000000  )
        25           C   tau(  25) = (   0.0000000   0.2500000   0.5000000  )
        26           C   tau(  26) = (   0.0000000   0.7500000   0.0000000  )
        27           C   tau(  27) = (   0.0000000   0.7500000   0.5000000  )
        28           C   tau(  28) = (   0.5000000   0.2500000   0.0000000  )
        29           C   tau(  29) = (   0.5000000   0.2500000   0.5000000  )
        30           C   tau(  30) = (   0.5000000   0.7500000   0.0000000  )
        31           C   tau(  31) = (   0.5000000   0.7500000   0.5000000  )
        32           C   tau(  32) = (   0.3749969   0.3749969   0.3749969  )
        33           C   tau(  33) = (   0.3749969   0.3749969   0.8749969  )
        34           C   tau(  34) = (   0.3749969   0.8749969   0.3749969  )
        35           C   tau(  35) = (   0.3749969   0.8749969   0.8749969  )
        36           C   tau(  36) = (   0.8749969   0.3749969   0.3749969  )
        37           C   tau(  37) = (   0.8749969   0.3749969   0.8749969  )
        38           C   tau(  38) = (   0.8749969   0.8749969   0.3749969  )
        39           C   tau(  39) = (   0.8749969   0.8749969   0.8749969  )
        40           C   tau(  40) = (   0.2500000   0.0000000   0.0000000  )
        41           C   tau(  41) = (   0.2500000   0.0000000   0.5000000  )
        42           C   tau(  42) = (   0.2500000   0.5000000   0.0000000  )
        43           C   tau(  43) = (   0.2500000   0.5000000   0.5000000  )
        44           C   tau(  44) = (   0.7500000   0.0000000   0.0000000  )
        45           C   tau(  45) = (   0.7500000   0.0000000   0.5000000  )
        46           C   tau(  46) = (   0.7500000   0.5000000   0.0000000  )
        47           C   tau(  47) = (   0.7500000   0.5000000   0.5000000  )
        48           C   tau(  48) = (   0.3749969   0.1250031   0.1250031  )
        49           C   tau(  49) = (   0.3749969   0.1250031   0.6250031  )
        50           C   tau(  50) = (   0.3749969   0.6250031   0.1250031  )
        51           C   tau(  51) = (   0.3749969   0.6250031   0.6250031  )
        52           C   tau(  52) = (   0.8749969   0.1250031   0.1250031  )
        53           C   tau(  53) = (   0.8749969   0.1250031   0.6250031  )
        54           C   tau(  54) = (   0.8749969   0.6250031   0.1250031  )
        55           C   tau(  55) = (   0.8749969   0.6250031   0.6250031  )
        56           C   tau(  56) = (   0.2500000   0.2500000   0.2500000  )
        57           C   tau(  57) = (   0.2500000   0.2500000   0.7500000  )
        58           C   tau(  58) = (   0.2500000   0.7500000   0.2500000  )
        59           C   tau(  59) = (   0.2500000   0.7500000   0.7500000  )
        60           C   tau(  60) = (   0.7500000   0.2500000   0.2500000  )
        61           C   tau(  61) = (   0.7500000   0.2500000   0.7500000  )
        62           C   tau(  62) = (   0.7500000   0.7500000   0.2500000  )
        63           C   tau(  63) = (   0.7500000   0.7500000   0.7500000  )

   Crystallographic axes

     site n.     atom                  positions (cryst. coord.)
         1           C   tau(   1) = (  0.1250031  0.3749969  0.6250031  )
         2           C   tau(   2) = (  0.1250031  0.8749969  0.1250031  )
         3           C   tau(   3) = (  0.1250031  0.8749969  0.6250031  )
         4           C   tau(   4) = (  0.6250031  0.3749969  0.1250031  )
         5           C   tau(   5) = (  0.6250031  0.3749969  0.6250031  )
         6           C   tau(   6) = (  0.6250031  0.8749969  0.1250031  )
[...]
     atom    9 type  1   force =     0.00000000    0.00000000    0.00000000
     atom   10 type  1   force =     0.00000000    0.00000000    0.00000000
     atom   11 type  1   force =     0.00000000    0.00000000    0.00000000
     atom   12 type  1   force =     0.00000000    0.00000000    0.00000000
     atom   13 type  1   force =     0.00000000    0.00000000    0.00000000
     atom   14 type  1   force =     0.00000000    0.00000000    0.00000000
     atom   15 type  1   force =     0.00000000    0.00000000    0.00000000
     atom   16 type  1   force =     0.00000000    0.00000000    0.00000000
     atom   17 type  1   force =     0.00000000    0.00000000    0.00000000
     atom   18 type  1   force =     0.00000000    0.00000000    0.00000000
     atom   19 type  1   force =     0.00000000    0.00000000    0.00000000
     atom   20 type  1   force =     0.00000000    0.00000000    0.00000000
     atom   21 type  1   force =     0.00000000    0.00000000    0.00000000
     atom   22 type  1   force =     0.00000000    0.00000000    0.00000000
     atom   23 type  1   force =     0.00000000    0.00000000    0.00000000
     atom   24 type  1   force =     0.00000000    0.00000000    0.00000000
     atom   25 type  1   force =     0.00000000    0.00000000    0.00000000
     atom   26 type  1   force =     0.00000000    0.00000000    0.00000000
     atom   27 type  1   force =     0.00000000    0.00000000    0.00000000
     atom   28 type  1   force =     0.00000000    0.00000000    0.00000000
     atom   29 type  1   force =     0.00000000    0.00000000    0.00000000
     atom   30 type  1   force =     0.00000000    0.00000000    0.00000000
     atom   31 type  1   force =     0.00000000    0.00000000    0.00000000
     atom   32 type  1   force =     0.00000000    0.00000000    0.00000000
     atom   33 type  1   force =     0.00000000    0.00000000    0.00000000
     atom   34 type  1   force =     0.00000000    0.00000000    0.00000000
     atom   35 type  1   force =     0.00000000    0.00000000    0.00000000
     atom   36 type  1   force =     0.00000000    0.00000000    0.00000000
     atom   37 type  1   force =     0.00000000    0.00000000    0.00000000
     atom   38 type  1   force =     0.00000000    0.00000000    0.00000000
     atom   39 type  1   force =     0.00000000    0.00000000    0.00000000
     atom   40 type  1   force =     0.00000000    0.00000000    0.00000000
     atom   41 type  1   force =     0.00000000    0.00000000    0.00000000
     atom   42 type  1   force =     0.00000000    0.00000000    0.00000000
     atom   43 type  1   force =     0.00000000    0.00000000    0.00000000
     atom   44 type  1   force =     0.00000000    0.00000000    0.00000000
     atom   45 type  1   force =     0.00000000    0.00000000    0.00000000
     atom   46 type  1   force =     0.00000000    0.00000000    0.00000000
     atom   47 type  1   force =     0.00000000    0.00000000    0.00000000
     atom   48 type  1   force =     0.00000000    0.00000000    0.00000000
     atom   49 type  1   force =     0.00000000    0.00000000    0.00000000
     atom   50 type  1   force =     0.00000000    0.00000000    0.00000000
     atom   51 type  1   force =     0.00000000    0.00000000    0.00000000
     atom   52 type  1   force =     0.00000000    0.00000000    0.00000000
     atom   53 type  1   force =     0.00000000    0.00000000    0.00000000
     atom   54 type  1   force =     0.00000000    0.00000000    0.00000000
     atom   55 type  1   force =     0.00000000    0.00000000    0.00000000
     atom   56 type  1   force =     0.00000000    0.00000000    0.00000000
     atom   57 type  1   force =     0.00000000    0.00000000    0.00000000
     atom   58 type  1   force =     0.00000000    0.00000000    0.00000000
     atom   59 type  1   force =     0.00000000    0.00000000    0.00000000
     atom   60 type  1   force =     0.00000000    0.00000000    0.00000000
     atom   61 type  1   force =     0.00000000    0.00000000    0.00000000
     atom   62 type  1   force =     0.00000000    0.00000000    0.00000000
     atom   63 type  1   force =     0.00000000    0.00000000    0.00000000
     The SCF correction term to forces
     atom    1 type  1   force =     0.00001410   -0.00001410   -0.00001032
     atom    2 type  1   force =     0.00001410    0.00001032    0.00001410
     atom    3 type  1   force =     0.00001962    0.00001506   -0.00001506
     atom    4 type  1   force =    -0.00001032   -0.00001410    0.00001410
     atom    5 type  1   force =    -0.00001506   -0.00001962   -0.00001506
     atom    6 type  1   force =    -0.00001506    0.00001506    0.00001962
     atom    7 type  1   force =    -0.00002033    0.00002033   -0.00002033
     atom    8 type  1   force =     0.00000934    0.00001460    0.00000495
     atom    9 type  1   force =     0.00002111    0.00002158   -0.00000483
     atom   10 type  1   force =     0.00001456   -0.00001456    0.00000136
     atom   11 type  1   force =     0.00002139   -0.00002139   -0.00000232
     atom   12 type  1   force =    -0.00000982    0.00000982    0.00000371
     atom   13 type  1   force =    -0.00002276    0.00002276   -0.00000238
     atom   14 type  1   force =    -0.00001460   -0.00000934    0.00000495
     atom   15 type  1   force =    -0.00002158   -0.00002111   -0.00000483
     atom   16 type  1   force =     0.00000658    0.00000576   -0.00000576
     atom   17 type  1   force =     0.00001496    0.00001092    0.00000739
     atom   18 type  1   force =     0.00001496   -0.00000739   -0.00001092
     atom   19 type  1   force =     0.00002045   -0.00001224    0.00001224
     atom   20 type  1   force =    -0.00000606    0.00000684   -0.00000684
     atom   21 type  1   force =    -0.00001738    0.00001213    0.00000765
     atom   22 type  1   force =    -0.00001738   -0.00000765   -0.00001213
     atom   23 type  1   force =    -0.00001988   -0.00001316    0.00001316
     atom   24 type  1   force =     0.00001456   -0.00000136    0.00001456
     atom   25 type  1   force =     0.00000934   -0.00000495   -0.00001460
     atom   26 type  1   force =     0.00002139    0.00000232    0.00002139
     atom   27 type  1   force =     0.00002111    0.00000483   -0.00002158
     atom   28 type  1   force =    -0.00001460   -0.00000495    0.00000934
     atom   29 type  1   force =    -0.00000982   -0.00000371   -0.00000982
     atom   30 type  1   force =    -0.00002158    0.00000483    0.00002111
     atom   31 type  1   force =    -0.00002276    0.00000238   -0.00002276
     atom   32 type  1   force =    -0.00000576   -0.00000658   -0.00000576
     atom   33 type  1   force =    -0.00001092   -0.00001496    0.00000739
     atom   34 type  1   force =    -0.00000684    0.00000606   -0.00000684
     atom   35 type  1   force =    -0.00001213    0.00001738    0.00000765
     atom   36 type  1   force =     0.00000739   -0.00001496   -0.00001092
     atom   37 type  1   force =     0.00001224   -0.00002045    0.00001224
     atom   38 type  1   force =     0.00000765    0.00001738   -0.00001213
     atom   39 type  1   force =     0.00001316    0.00001988    0.00001316
     atom   40 type  1   force =     0.00000495    0.00001460    0.00000934
     atom   41 type  1   force =     0.00000371    0.00000982   -0.00000982
     atom   42 type  1   force =     0.00000136   -0.00001456    0.00001456
     atom   43 type  1   force =     0.00000495   -0.00000934   -0.00001460
     atom   44 type  1   force =    -0.00000483    0.00002158    0.00002111
     atom   45 type  1   force =    -0.00000238    0.00002276   -0.00002276
     atom   46 type  1   force =    -0.00000232   -0.00002139    0.00002139
     atom   47 type  1   force =    -0.00000483   -0.00002111   -0.00002158
     atom   48 type  1   force =    -0.00000576    0.00000576    0.00000658
     atom   49 type  1   force =    -0.00000684    0.00000684   -0.00000606
     atom   50 type  1   force =    -0.00001092   -0.00000739    0.00001496
     atom   51 type  1   force =    -0.00001213   -0.00000765   -0.00001738
     atom   52 type  1   force =     0.00000739    0.00001092    0.00001496
     atom   53 type  1   force =     0.00000765    0.00001213   -0.00001738
     atom   54 type  1   force =     0.00001224   -0.00001224    0.00002045
     atom   55 type  1   force =     0.00001316   -0.00001316   -0.00001988
     atom   56 type  1   force =    -0.00000026    0.00000026   -0.00000026
     atom   57 type  1   force =     0.00000536   -0.00000536    0.00000004
     atom   58 type  1   force =     0.00000536   -0.00000004    0.00000536
     atom   59 type  1   force =     0.00000548    0.00000531   -0.00000531
     atom   60 type  1   force =     0.00000004   -0.00000536    0.00000536
     atom   61 type  1   force =    -0.00000531   -0.00000548   -0.00000531
     atom   62 type  1   force =    -0.00000531    0.00000531    0.00000548
     atom   63 type  1   force =    -0.00000396    0.00000396   -0.00000396

     Total force =     0.002430     Total SCF correction =     0.000178

     Computing stress (Cartesian axis) and pressure

     Non-local corr. energy    =       2.16608038 Ry

          total   stress  (Ry/bohr**3)                   (kbar)     P=        6.20
   0.00004213   0.00000012  -0.00000012            6.20        0.02       -0.02
   0.00000012   0.00004213   0.00000012            0.02        6.20        0.02
  -0.00000012   0.00000012   0.00004213           -0.02        0.02        6.20

     kinetic stress (kbar)  18661.22      0.05     -0.05
                                0.05  18661.22      0.05
                               -0.05      0.05  18661.22

     local   stress (kbar)  -3795.68      0.41     -0.41
                                0.41  -3795.68      0.41
                               -0.41      0.41  -3795.68

     nonloc. stress (kbar)   4280.59     -0.00      0.00
                               -0.00   4280.59     -0.00
                                0.00     -0.00   4280.59

     hartree stress (kbar)   1380.91     -0.13      0.13
                               -0.13   1380.91     -0.13
                                0.13     -0.13   1380.91

     exc-cor stress (kbar)   -400.33      0.00     -0.00
                                0.00   -400.33      0.00
                               -0.00      0.00   -400.33

     corecor stress (kbar)  -4365.09     -0.00      0.00
                               -0.00  -4365.09     -0.00
                                0.00     -0.00  -4365.09

     ewald   stress (kbar) -15780.17     -0.31      0.31
                               -0.31 -15780.17     -0.31
                                0.31     -0.31 -15780.17

     hubbard stress (kbar)      0.00      0.00      0.00
                                0.00      0.00      0.00
                                0.00      0.00      0.00

     DFT-D   stress (kbar)      0.00      0.00      0.00
                                0.00      0.00      0.00
                                0.00      0.00      0.00

     XDM     stress (kbar)      0.00      0.00      0.00
                                0.00      0.00      0.00
                                0.00      0.00      0.00

     dft-nl  stress (kbar)     24.74      0.00     -0.00
                                0.00     24.74      0.00
                               -0.00      0.00     24.74

     TS-vdW  stress (kbar)      0.00      0.00      0.00
                                0.00      0.00      0.00
                                0.00      0.00      0.00

     MDB     stress (kbar)      0.00      0.00      0.00
                                0.00      0.00      0.00
                                0.00      0.00      0.00

     3D-RISM stress (kbar)      0.00      0.00      0.00
                                0.00      0.00      0.00
                                0.00      0.00      0.00

     BFGS Geometry Optimization
     Energy error            =      0.0E+00 Ry
     Gradient error          =      3.9E-04 Ry/Bohr

     bfgs converged in   1 scf cycles and   0 bfgs steps
     (criteria: energy <  1.0E-04 Ry, force <  1.0E-03 Ry/Bohr)

     End of BFGS Geometry Optimization

     Final energy             =   -1196.0597069419 Ry
Begin final coordinates

ATOMIC_POSITIONS (angstrom)
C             0.8931071256        2.6791956928        4.4654182837
C             0.8931071256        6.2514901723        0.8931071256
C             0.8930603527        6.2515057699        4.4654026861
C             4.4654182837        2.6791956928        0.8931071256
C             4.4654026861        2.6792424657        4.4654026861
C             4.4654026861        6.2515057699        0.8930603527
C             4.4653890933        6.2515193627        4.4653890933
C             0.0044356521        0.0042138439        1.7817662788
C            -0.0033810016       -0.0064395321        5.3521318424
C            -0.0694371671        3.6417399859        1.8557886933
C             0.0044823318        3.5678204870        5.3626802910
C             3.5786927589       -0.0063899401        1.7893734289
C             3.5709266834        0.0013761354        5.3597487959
C             3.5680889749        3.5678671667        1.7817662788
C             3.5787423509        3.5756838204        5.3521318424
C             0.8958229917        0.9055448527        2.6667579657
C             0.8902468201        0.9055800724        6.2640926456
C             0.8902468201        4.4528158104        2.6667227460
C             0.8961615140        4.4529266466        6.2639818094
C             4.4684243934        0.8952222547        2.6770805637
C             4.4623764102        0.8951832198        6.2535130225
C             4.4623764102        4.4633954335        2.6771195986
C             4.4684911195        4.4633330329        6.2535754231
C            -0.0694371671        1.7165141251       -0.0694371671
C             0.0044356521        1.7905365396        3.5680889749
C             0.0044823318        5.3542281650        0.0044823318
C            -0.0033810016        5.3647766136        3.5787423509
C             3.5680889749        1.7905365396        0.0044356521
C             3.5786927589        1.7829293895        3.5786927589
C             3.5787423509        5.3647766136       -0.0033810016
C             3.5709266834        5.3571596601        3.5709266834
C             2.6667579657        2.6764798267        2.6667579657
C             2.6667227460        2.6820559983        6.2640926456
C             2.6770805637        6.2484840626        2.6770805637
C             2.6771195986        6.2545320458        6.2535130225
C             6.2640926456        2.6820559983        2.6667227460
C             6.2639818094        2.6761413044        6.2639818094
C             6.2535130225        6.2545320458        2.6771195986
C             6.2535754231        6.2484173365        6.2535754231
C             1.7817662788        0.0042138439        0.0044356521
C             1.7893734289       -0.0063899401        3.5786927589
C             1.8557886933        3.6417399859       -0.0694371671
C             1.7817662788        3.5678671667        3.5680889749
C             5.3521318424       -0.0064395321       -0.0033810016
C             5.3597487959        0.0013761354        3.5709266834
C             5.3626802910        3.5678204870        0.0044823318
C             5.3521318424        3.5756838204        3.5787423509
C             2.6667579657        0.9055448527        0.8958229917
C             2.6770805637        0.8952222547        4.4684243934
C             2.6667227460        4.4528158104        0.8902468201
C             2.6771195986        4.4633954335        4.4623764102
C             6.2640926456        0.9055800724        0.8902468201
C             6.2535130225        0.8951832198        4.4623764102
C             6.2639818094        4.4529266466        0.8961615140
C             6.2535754231        4.4633330329        4.4684911195
C             1.8554533254        1.7168494930        1.8554533254
C             1.7815897179        1.7907131005        5.3628201651
C             1.7815897179        5.3540882909        1.7815897179
C             1.7895594899        5.3650001461        5.3519083099
C             5.3628201651        1.7907131005        1.7815897179
C             5.3519083099        1.7827433285        5.3519083099
C             5.3519083099        5.3650001461        1.7895594899
C             5.3598211512        5.3570873048        5.3598211512
End final coordinates

     Writing all to output data dir ./diamond.save/

     General routines

     Parallel routines

     PAW routines

   This run was terminated on:  10:46:10  19Feb2024

   JOB DONE.