     Program PWSCF v.7.1 starts on 15Feb2024 at 13:25:50

     Reading input from espresso.pwi
Warning: card &CELL ignored
Warning: card    CELL_DYNAMICS    = 'BFGS' ignored
Warning: card / ignored

     Current dimensions of program PWSCF are:
     Max number of different atomic species (ntypx) = 10
     Max number of k-points (npk) =  40000
     Max angular momentum in pseudopotentials (lmaxx) =  4
     file Pb.pbe-dn-kjpaw_psl.1.0.0.UPF: wavefunction(s)  6S 6P 5D renormalized
     file I.pbe-dn-kjpaw_psl.1.0.0.UPF: wavefunction(s)  5S 5P renormalized

     IMPORTANT: XC functional enforced from input :
     Exchange-correlation= BEEF-VDW
                           (   1   4  43  14   2   0   0)
     Any further DFT definition will be discarded
     Please, verify this is what you really want

     R & G space division:  proc/nbgrp/npool/nimage =     128
     Subspace diagonalization in iterative solution of the eigenvalue problem:
     a serial algorithm will be used

     Using Slab Decomposition

     bravais-lattice index     =            4
     lattice parameter (alat)  =      35.6073  a.u.
     unit-cell volume          =   30614.2220 (a.u.)^3
     number of atoms/cell      =           96
     number of atomic types    =            2
     number of electrons       =      1538.00
     number of Kohn-Sham states=          923
     kinetic-energy cutoff     =      70.0000  Ry
     charge density cutoff     =     350.0000  Ry
     scf convergence threshold =      1.0E-07
     mixing beta               =       0.7000
     number of iterations used =            8  plain     mixing
     energy convergence thresh.=      1.0E-04
     force convergence thresh. =      1.0E-03
     Exchange-correlation= BEEF-VDW
                           (   1   4  43  14   2   0   0)
     nstep                     =           50

     celldm(1)=  35.607290  celldm(2)=   0.000000  celldm(3)=   0.783025
     celldm(4)=   0.000000  celldm(5)=   0.000000  celldm(6)=   0.000000

     crystal axes: (cart. coord. in units of alat)
               a(1) = (   1.000000   0.000000   0.000000 )
               a(2) = (  -0.500000   0.866025   0.000000 )
               a(3) = (   0.000000   0.000000   0.783025 )

     reciprocal axes: (cart. coord. in units 2 pi/alat)
               b(1) = (  1.000000  0.577350 -0.000000 )
               b(2) = (  0.000000  1.154701  0.000000 )
               b(3) = (  0.000000 -0.000000  1.277098 )

     PseudoPot. # 1 for Pb read from file:
     //group///packages/espresso/pseudo/psl_1.0.0/pslibrary.1.0.0/pbe/PSEUDOPOTENTIALS/Pb.pbe-dn-kjpaw_psl.1.0.0.UPF
     MD5 check sum: 39ab5b8a6bbd56b7735ad9f188aac93a
     Pseudo is Projector augmented-wave + core cor, Zval = 14.0
     Generated using 'atomic' code by A. Dal Corso  v.7.1
     Shape of augmentation charge: PSQ
     Using radial grid of 1281 points,  6 beta functions with:
                l(1) =   0
                l(2) =   0
                l(3) =   1
                l(4) =   1
                l(5) =   2
                l(6) =   2
     Q(r) pseudized with 0 coefficients

     PseudoPot. # 2 for I  read from file:
     //group///packages/espresso/pseudo/psl_1.0.0/pslibrary.1.0.0/pbe/PSEUDOPOTENTIALS/I.pbe-dn-kjpaw_psl.1.0.0.UPF
     MD5 check sum: bfa8781bc1224d19af3f3980e3fab11e
     Pseudo is Projector augmented-wave + core cor, Zval = 17.0
     Generated using 'atomic' code by A. Dal Corso  v.7.1
     Shape of augmentation charge: PSQ
     Using radial grid of 1247 points,  6 beta functions with:
                l(1) =   0
                l(2) =   0
                l(3) =   1
                l(4) =   1
                l(5) =   2
                l(6) =   2
     Q(r) pseudized with 0 coefficients

     atomic species   valence    mass     pseudopotential
        Pb            14.00   207.20000     Pb( 1.00)
        I             17.00   126.90447     I ( 1.00)

     No symmetry found

                                    s                        frac. trans.

      isym =  1     identity

 cryst.   s( 1) = (     1          0          0      )
                  (     0          1          0      )
                  (     0          0          1      )

 cart.    s( 1) = (  1.0000000  0.0000000  0.0000000 )
                  (  0.0000000  1.0000000  0.0000000 )
                  (  0.0000000  0.0000000  1.0000000 )

     point group C_1 (1)
     there are  1 classes
     the character table:

       E
A      1.00

     the symmetry operations in each class and the name of the first element:

     E        1
          identity

   Cartesian axes

     site n.     atom                  positions (alat units)
         1           Pb  tau(   1) = (   0.1250034   0.2164916   0.3915076  )
         2           Pb  tau(   2) = (   0.0000077   0.4329922   0.7830161  )
         3           Pb  tau(   3) = (   0.0000025   0.4329968   0.3915034  )
         4           Pb  tau(   4) = (  -0.1249932   0.6494975   0.7830119  )
         5           Pb  tau(   5) = (  -0.1249984   0.6495021   0.3914992  )
         6           Pb  tau(   6) = (  -0.2499941   0.8660028   0.7830077  )
         7           Pb  tau(   7) = (  -0.2499993   0.8660074   0.3914950  )
         8           Pb  tau(   8) = (   0.3750086   0.2164859   0.7830237  )
         9           Pb  tau(   9) = (   0.3750034   0.2164905   0.3915110  )
        10           Pb  tau(  10) = (   0.2500077   0.4329912   0.7830194  )
        11           Pb  tau(  11) = (   0.2500025   0.4329958   0.3915068  )
        12           Pb  tau(  12) = (   0.1250068   0.6494965   0.7830152  )
        13           Pb  tau(  13) = (   0.1250016   0.6495011   0.3915026  )
        14           Pb  tau(  14) = (   0.0000059   0.8660017   0.7830110  )
        15           Pb  tau(  15) = (   0.0000007   0.8660063   0.3914983  )
        16           Pb  tau(  16) = (   0.6250086   0.2164849   0.7830270  )
        17           Pb  tau(  17) = (   0.6250034   0.2164895   0.3915143  )
        18           Pb  tau(  18) = (   0.5000077   0.4329901   0.7830228  )
        19           Pb  tau(  19) = (   0.5000025   0.4329947   0.3915101  )
        20           Pb  tau(  20) = (   0.3750068   0.6494954   0.7830186  )
        21           Pb  tau(  21) = (   0.3750016   0.6495000   0.3915059  )
        22           Pb  tau(  22) = (   0.2500059   0.8660007   0.7830144  )
        23           Pb  tau(  23) = (   0.2500007   0.8660053   0.3915017  )
        24           Pb  tau(  24) = (   0.8750086   0.2164838   0.7830303  )
        25           Pb  tau(  25) = (   0.8750034   0.2164884   0.3915177  )
        26           Pb  tau(  26) = (   0.7500077   0.4329891   0.7830261  )
        27           Pb  tau(  27) = (   0.7500025   0.4329937   0.3915135  )
        28           Pb  tau(  28) = (   0.6250068   0.6494944   0.7830219  )
        29           Pb  tau(  29) = (   0.6250016   0.6494990   0.3915092  )
        30           Pb  tau(  30) = (   0.5000059   0.8659996   0.7830177  )
        31           Pb  tau(  31) = (   0.5000007   0.8660042   0.3915050  )
        32           I   tau(  32) = (   0.1250056   0.0721546   0.2909163  )
        33           I   tau(  33) = (   0.1250108   0.0721500   0.6824290  )
        34           I   tau(  34) = (   0.0000047   0.2886599   0.2909121  )
        35           I   tau(  35) = (   0.0000099   0.2886553   0.6824248  )
        36           I   tau(  36) = (  -0.1249962   0.5051652   0.2909079  )
        37           I   tau(  37) = (  -0.1249910   0.5051606   0.6824206  )
        38           I   tau(  38) = (  -0.2499972   0.7216704   0.2909037  )
        39           I   tau(  39) = (  -0.2499919   0.7216658   0.6824164  )
        40           I   tau(  40) = (   0.3750056   0.0721536   0.2909197  )
        41           I   tau(  41) = (   0.3750108   0.0721490   0.6824324  )
        42           I   tau(  42) = (   0.2500047   0.2886589   0.2909155  )
        43           I   tau(  43) = (   0.2500099   0.2886543   0.6824282  )
        44           I   tau(  44) = (   0.1250038   0.5051641   0.2909113  )
        45           I   tau(  45) = (   0.1250090   0.5051595   0.6824240  )
        46           I   tau(  46) = (   0.0000028   0.7216694   0.2909071  )
        47           I   tau(  47) = (   0.0000081   0.7216648   0.6824197  )
        48           I   tau(  48) = (   0.6250056   0.0721525   0.2909230  )
        49           I   tau(  49) = (   0.6250108   0.0721479   0.6824357  )
        50           I   tau(  50) = (   0.5000047   0.2886578   0.2909188  )
        51           I   tau(  51) = (   0.5000099   0.2886532   0.6824315  )
        52           I   tau(  52) = (   0.3750038   0.5051631   0.2909146  )
        53           I   tau(  53) = (   0.3750090   0.5051585   0.6824273  )
        54           I   tau(  54) = (   0.2500028   0.7216683   0.2909104  )
        55           I   tau(  55) = (   0.2500081   0.7216637   0.6824231  )
        56           I   tau(  56) = (   0.8750056   0.0721515   0.2909264  )
        57           I   tau(  57) = (   0.8750108   0.0721469   0.6824391  )
        58           I   tau(  58) = (   0.7500047   0.2886567   0.2909222  )
        59           I   tau(  59) = (   0.7500099   0.2886521   0.6824348  )
        60           I   tau(  60) = (   0.6250038   0.5051620   0.2909180  )
[...]
        82           I   tau(  82) = (   0.3749973   0.3608329   0.1005958  )
        83           I   tau(  83) = (   0.3750025   0.3608283   0.4921084  )
        84           I   tau(  84) = (   0.2499964   0.5773382   0.1005915  )
        85           I   tau(  85) = (   0.2500016   0.5773336   0.4921042  )
        86           I   tau(  86) = (   0.1249955   0.7938434   0.1005873  )
        87           I   tau(  87) = (   0.1250007   0.7938388   0.4921000  )
        88           I   tau(  88) = (   0.7499982   0.1443266   0.1006033  )
        89           I   tau(  89) = (   0.7500034   0.1443220   0.4921160  )
        90           I   tau(  90) = (   0.6249973   0.3608319   0.1005991  )
        91           I   tau(  91) = (   0.6250025   0.3608273   0.4921118  )
        92           I   tau(  92) = (   0.4999964   0.5773371   0.1005949  )
        93           I   tau(  93) = (   0.5000016   0.5773325   0.4921076  )
        94           I   tau(  94) = (   0.3749955   0.7938424   0.1005907  )
        95           I   tau(  95) = (   0.3750007   0.7938378   0.4921034  )
        96           I   tau(  96) = (   0.1250086   0.2164870   0.7830203  )

   Crystallographic axes

     site n.     atom                  positions (cryst. coord.)
         1           Pb  tau(   1) = (  0.2499949  0.2499829  0.4999935  )
         2           Pb  tau(   2) = (  0.2499959  0.4999764  0.9999882  )
         3           Pb  tau(   3) = (  0.2499933  0.4999817  0.4999882  )
         4           Pb  tau(   4) = (  0.2499944  0.7499751  0.9999828  )
         5           Pb  tau(   5) = (  0.2499918  0.7499804  0.4999828  )
         6           Pb  tau(   6) = (  0.2499928  0.9999739  0.9999774  )
         7           Pb  tau(   7) = (  0.2499903  0.9999792  0.4999774  )
         8           Pb  tau(   8) = (  0.4999968  0.2499764  0.9999978  )
[...]
     atom   44 type  2   force =     0.00000000    0.00000000    0.00000000
     atom   45 type  2   force =     0.00000000    0.00000000    0.00000000
     atom   46 type  2   force =     0.00000000    0.00000000    0.00000000
     atom   47 type  2   force =     0.00000000    0.00000000    0.00000000
     atom   48 type  2   force =     0.00000000    0.00000000    0.00000000
     atom   49 type  2   force =     0.00000000    0.00000000    0.00000000
     atom   50 type  2   force =     0.00000000    0.00000000    0.00000000
     atom   51 type  2   force =     0.00000000    0.00000000    0.00000000
     atom   52 type  2   force =     0.00000000    0.00000000    0.00000000
     atom   53 type  2   force =     0.00000000    0.00000000    0.00000000
     atom   54 type  2   force =     0.00000000    0.00000000    0.00000000
     atom   55 type  2   force =     0.00000000    0.00000000    0.00000000
     atom   56 type  2   force =     0.00000000    0.00000000    0.00000000
     atom   57 type  2   force =     0.00000000    0.00000000    0.00000000
     atom   58 type  2   force =     0.00000000    0.00000000    0.00000000
     atom   59 type  2   force =     0.00000000    0.00000000    0.00000000
     atom   60 type  2   force =     0.00000000    0.00000000    0.00000000
[...]
     atom   82 type  2   force =     0.00000000    0.00000000    0.00000000
     atom   83 type  2   force =     0.00000000    0.00000000    0.00000000
     atom   84 type  2   force =     0.00000000    0.00000000    0.00000000
     atom   85 type  2   force =     0.00000000    0.00000000    0.00000000
     atom   86 type  2   force =     0.00000000    0.00000000    0.00000000
     atom   87 type  2   force =     0.00000000    0.00000000    0.00000000
     atom   88 type  2   force =     0.00000000    0.00000000    0.00000000
     atom   89 type  2   force =     0.00000000    0.00000000    0.00000000
     atom   90 type  2   force =     0.00000000    0.00000000    0.00000000
     atom   91 type  2   force =     0.00000000    0.00000000    0.00000000
     atom   92 type  2   force =     0.00000000    0.00000000    0.00000000
     atom   93 type  2   force =     0.00000000    0.00000000    0.00000000
     atom   94 type  2   force =     0.00000000    0.00000000    0.00000000
     atom   95 type  2   force =     0.00000000    0.00000000    0.00000000
     atom   96 type  2   force =     0.00000000    0.00000000    0.00000000
     The SCF correction term to forces
     atom    1 type  1   force =    -0.00000019    0.00000526    0.00000447
     atom    2 type  1   force =     0.00000956   -0.00001246   -0.00000114
     atom    3 type  1   force =     0.00000371   -0.00000641    0.00000264
     atom    4 type  1   force =     0.00000245   -0.00000394   -0.00000288
     atom    5 type  1   force =     0.00000208   -0.00000311    0.00000286
     atom    6 type  1   force =    -0.00000331    0.00000798   -0.00000602
     atom    7 type  1   force =    -0.00000145    0.00000673    0.00000431
     atom    8 type  1   force =    -0.00000928    0.00000273   -0.00000356
     atom    9 type  1   force =    -0.00000741    0.00000151    0.00000347
     atom   10 type  1   force =    -0.00001296   -0.00001081    0.00000184
     atom   11 type  1   force =    -0.00000721   -0.00000787    0.00000142
     atom   12 type  1   force =    -0.00000294   -0.00001155   -0.00001340
     atom   13 type  1   force =    -0.00000291   -0.00001178    0.00001006
     atom   14 type  1   force =    -0.00000504    0.00000227   -0.00001553
     atom   15 type  1   force =    -0.00000765    0.00000383    0.00001111
     atom   16 type  1   force =     0.00000022    0.00000217   -0.00000435
     atom   17 type  1   force =     0.00000021    0.00000177    0.00000369
     atom   18 type  1   force =    -0.00000504   -0.00000533    0.00000871
     atom   19 type  1   force =    -0.00000687   -0.00000672   -0.00000425
     atom   20 type  1   force =    -0.00000248   -0.00000367   -0.00000277
     atom   21 type  1   force =    -0.00000204   -0.00000287    0.00000278
     atom   22 type  1   force =     0.00000189    0.00000387   -0.00001629
     atom   23 type  1   force =     0.00000449    0.00000537    0.00001225
     atom   24 type  1   force =     0.00000962    0.00000966   -0.00000970
     atom   25 type  1   force =     0.00000744    0.00000574    0.00000593
     atom   26 type  1   force =     0.00000858   -0.00000409    0.00000781
     atom   27 type  1   force =     0.00001037   -0.00000536   -0.00000304
     atom   28 type  1   force =     0.00000288    0.00000299    0.00000820
     atom   29 type  1   force =     0.00000294    0.00000598   -0.00000354
     atom   30 type  1   force =     0.00000634    0.00000685   -0.00000915
     atom   31 type  1   force =     0.00000462    0.00000838    0.00000560
     atom   32 type  2   force =     0.00000318    0.00000945    0.00000836
     atom   33 type  2   force =     0.00000105    0.00001636    0.00000067
     atom   34 type  2   force =     0.00000711    0.00000630    0.00000518
     atom   35 type  2   force =     0.00000932    0.00000235    0.00000388
     atom   36 type  2   force =     0.00000327   -0.00000714   -0.00000044
     atom   37 type  2   force =     0.00001419   -0.00000596    0.00000141
     atom   38 type  2   force =    -0.00000042   -0.00000077    0.00000030
     atom   39 type  2   force =     0.00000725    0.00000717   -0.00000005
     atom   40 type  2   force =    -0.00000700    0.00000579    0.00000824
     atom   41 type  2   force =    -0.00000389    0.00000353   -0.00000707
     atom   42 type  2   force =    -0.00000800    0.00000199    0.00000296
     atom   43 type  2   force =    -0.00001352   -0.00000108    0.00000539
     atom   44 type  2   force =    -0.00000279   -0.00001525    0.00000207
     atom   45 type  2   force =    -0.00000448   -0.00001210   -0.00000170
     atom   46 type  2   force =    -0.00000697   -0.00000772    0.00000718
     atom   47 type  2   force =     0.00000196   -0.00000216   -0.00000838
     atom   48 type  2   force =    -0.00000220    0.00000900    0.00000835
     atom   49 type  2   force =    -0.00000126   -0.00000092   -0.00000940
     atom   50 type  2   force =    -0.00000415    0.00000308    0.00000026
     atom   51 type  2   force =    -0.00000514   -0.00000794    0.00000091
     atom   52 type  2   force =    -0.00000317   -0.00000896   -0.00000166
     atom   53 type  2   force =    -0.00001284   -0.00000508    0.00000171
     atom   54 type  2   force =     0.00000216   -0.00000743    0.00000703
     atom   55 type  2   force =    -0.00000657   -0.00000092   -0.00000909
     atom   56 type  2   force =     0.00000552    0.00000822    0.00001141
     atom   57 type  2   force =     0.00000410    0.00000883   -0.00000998
     atom   58 type  2   force =     0.00000494    0.00000640    0.00000153
     atom   59 type  2   force =     0.00000976   -0.00000527   -0.00000012
     atom   60 type  2   force =     0.00000297   -0.00000318   -0.00000849
[...]
     atom   82 type  2   force =    -0.00000970   -0.00000221    0.00000135
     atom   83 type  2   force =    -0.00001000   -0.00000609   -0.00000297
     atom   84 type  2   force =    -0.00000280   -0.00001763   -0.00000510
     atom   85 type  2   force =    -0.00000868   -0.00000583    0.00000453
     atom   86 type  2   force =    -0.00000310   -0.00000262   -0.00000885
     atom   87 type  2   force =    -0.00000271   -0.00000081    0.00001334
     atom   88 type  2   force =     0.00000208    0.00001291   -0.00000675
     atom   89 type  2   force =     0.00000370    0.00000181    0.00000623
     atom   90 type  2   force =     0.00000163    0.00000305    0.00000318
     atom   91 type  2   force =     0.00000257   -0.00000834   -0.00000213
     atom   92 type  2   force =     0.00000295   -0.00000599    0.00000430
     atom   93 type  2   force =    -0.00000535    0.00000021   -0.00000212
     atom   94 type  2   force =     0.00000668   -0.00000202   -0.00000576
     atom   95 type  2   force =    -0.00000180    0.00000587    0.00000613
     atom   96 type  2   force =    -0.00000083    0.00001701   -0.00000952

     Total force =     0.003258     Total SCF correction =     0.000112

     Computing stress (Cartesian axis) and pressure

     Non-local corr. energy    =      46.32853931 Ry

          total   stress  (Ry/bohr**3)                   (kbar)     P=       -2.08
  -0.00001421   0.00000001  -0.00000001           -2.09        0.00       -0.00
   0.00000001  -0.00001419   0.00000001            0.00       -2.09        0.00
  -0.00000001   0.00000001  -0.00001392           -0.00        0.00       -2.05

     kinetic stress (kbar)  14922.06      0.01     -0.01
                                0.01  14922.07      0.00
                               -0.01      0.00  14932.07

     local   stress (kbar)  -7494.64      0.10     -0.10
                                0.10  -7494.48      0.08
                               -0.10      0.08   1465.90

     nonloc. stress (kbar)   -967.56      0.00     -0.01
                                0.00   -967.56      0.00
                               -0.01      0.00   -973.89

     hartree stress (kbar)  12088.73     -0.04      0.04
                               -0.04  12088.68     -0.03
                                0.04     -0.03   8046.20

     exc-cor stress (kbar)   6986.84     -0.00     -0.00
                               -0.00   6986.84      0.00
                               -0.00      0.00   6985.80

     corecor stress (kbar) -11365.63     -0.00      0.00
                               -0.00 -11365.63     -0.00
                                0.00     -0.00 -11365.60

     ewald   stress (kbar) -14255.78     -0.07      0.07
                               -0.07 -14255.88     -0.06
                                0.07     -0.06 -19177.71

     hubbard stress (kbar)      0.00      0.00      0.00
                                0.00      0.00      0.00
                                0.00      0.00      0.00

     DFT-D   stress (kbar)      0.00      0.00      0.00
                                0.00      0.00      0.00
                                0.00      0.00      0.00

     XDM     stress (kbar)      0.00      0.00      0.00
                                0.00      0.00      0.00
                                0.00      0.00      0.00

     dft-nl  stress (kbar)     83.89      0.00      0.00
                                0.00     83.89      0.00
                                0.00      0.00     85.19

     TS-vdW  stress (kbar)      0.00      0.00      0.00
                                0.00      0.00      0.00
                                0.00      0.00      0.00

     MDB     stress (kbar)      0.00      0.00      0.00
                                0.00      0.00      0.00
                                0.00      0.00      0.00

     3D-RISM stress (kbar)      0.00      0.00      0.00
                                0.00      0.00      0.00
                                0.00      0.00      0.00

     Energy error            =      3.0E-05 Ry
     Gradient error          =      5.2E-04 Ry/Bohr

     bfgs converged in  11 scf cycles and  10 bfgs steps
     (criteria: energy <  1.0E-04 Ry, force <  1.0E-03 Ry/Bohr)

     End of BFGS Geometry Optimization

     Final energy             =  -64423.5352998826 Ry

     File ./PbI2.bfgs deleted, as requested
Begin final coordinates

ATOMIC_POSITIONS (angstrom)
Pb            2.3553773599        4.0792517729        7.3770128649
Pb           -0.0277633954        8.2071203714       14.7541682475
Pb            0.0006339583        8.1577396345        7.3769025144
Pb           -2.3552016776       12.2381827160       14.7539983625
Pb           -2.3552550999       12.2382199093        7.3768296293
Pb           -4.6827112431       16.2693756992       14.7539260694
Pb           -4.7111659704       16.3187683726        7.3768637419
Pb            7.1219323408        4.0792258169       14.7542038199
Pb            7.0649106731        4.0792300771        7.3771167389
Pb            4.7386326831        8.2070080622       14.7541737444
Pb            4.7101306257        8.1577477323        7.3770042261
Pb            2.3554413672       12.2485381036       14.7383143907
Pb            2.3553733831       12.2387294008        7.3755848891
Pb            0.0090868645       16.3125365858       14.7383436984
Pb            0.0005216306       16.3175117984        7.3756331944
Pb           11.7767471912        4.0791376807       14.7543246555
Pb           11.7766971478        4.0791830902        7.3771762549
Pb            9.4303533325        8.1638523267       14.7699941785
Pb            9.4217798234        8.1589432989        7.3783975781
Pb            7.0660320046       12.2381708241       14.7541626043
Pb            7.0659889605       12.2382044748        7.3769846013
Pb            4.7017783791       16.3125066583       14.7384170218
Pb            4.7102518728       16.3175079436        7.3756799684
Pb           16.4314985457        4.0790743214       14.7544001048
Pb           16.4884505128        4.0791928770        7.3771285352
Pb           14.1230746014        8.1638248130       14.7699671135
Pb           14.1315510532        8.1589364377        7.3783538189
Pb           11.7766698447       12.2277929491       14.7698922153
Pb           11.7766442065       12.2376874997        7.3782844072
Pb            9.3934973470       16.2694316539       14.7541370927
Pb            9.4218635727       16.3187346782        7.3769736142
I             2.3553139710        1.3570840744        5.4951363817
I             2.3553525570        1.3347006759       12.8128926868
I            -0.0021542558        5.4403210985        5.4951708310
I            -0.0209807818        5.4512231141       12.8130974265
I            -2.3579644667        9.5165779570        5.4934913642
I            -2.3428998630        9.5157529676       12.8672333081
I            -4.7136743502       13.5968189898        5.4934504147
I            -4.7067963052       13.6101658186       12.8671986586
I             7.0595803048        1.3633364592        5.4734705825
I             7.0646500072        1.3604183885       12.8782220639
I             4.7128883099        5.4403604518        5.4951983295
I             4.7322661927        5.4515301751       12.8129060654
I             2.3553861342        9.5111347555        5.4734129711
I             2.3554033198        9.5169070795       12.8781639056
I             0.0006399984       13.5984874583        5.4902384794
I             0.0007591031       13.5985251196       12.8733865487
I            11.7766925574        1.3589438208        5.4904282764
I            11.7767010659        1.3588106522       12.8735866771
I             9.4210051393        5.4423767990        5.4937032272
I             9.4128234352        5.4297191643       12.8674460508
I             7.0686967555        9.5166018313        5.4935869766
I             7.0537071490        9.5157835563       12.8673384665
I             4.7101356732       13.5984878989        5.4903187045
I             4.7100482936       13.5985201893       12.8734704898
I            16.4937291119        1.3633115745        5.4735498349
I            16.4887059911        1.3604009774       12.8783312474
I            14.1323642821        5.4423537337        5.4937055469
I            14.1405919745        5.4297091569       12.8674467182
I            11.7766524814        9.5185383289        5.4948996466
[...]
I             7.0645908378        6.7981038335        1.8759424922
I             7.0595391279        6.7952220921        9.2806032785
I             4.7144486094       10.8663616440        1.8867697553
I             4.7076039189       10.8797905062        9.2603991397
I             2.3553781261       14.9579216646        1.8835966158
I             2.3553431145       14.9579543097        9.2590652529
I            14.1406162524        2.7286503062        1.8869116448
I            14.1323805972        2.7160475860        9.2605426476
I            11.7767126609        6.7996935982        1.8807106698
I            11.7766724229        6.7996044734        9.2637567244
I             9.4220320367       10.8780610666        1.8806112824
I             9.4219006984       10.8781384354        9.2636461523
I             7.0783572993       14.9606993811        1.8867781191
I             7.0633380723       14.9599500894        9.2604079573
I             2.3553735224        4.0793110133       14.7542766352
End final coordinates

     Writing all to output data dir ./PbI2.save/

     General routines

     Parallel routines

     PAW routines

   This run was terminated on:  21:56:17  15Feb2024

   JOB DONE.