     Program PWSCF v.7.1 starts on 18Feb2024 at 11:57:15

     Reading input from espresso.pwi
Warning: card &CELL ignored
Warning: card    CELL_DYNAMICS    = 'BFGS' ignored
Warning: card / ignored

     Current dimensions of program PWSCF are:
     Max number of different atomic species (ntypx) = 10
     Max number of k-points (npk) =  40000
     Max angular momentum in pseudopotentials (lmaxx) =  4
     file Pb.pbe-dn-kjpaw_psl.1.0.0.UPF: wavefunction(s)  6S 6P 5D renormalized
     file I.pbe-dn-kjpaw_psl.1.0.0.UPF: wavefunction(s)  5S 5P renormalized

     IMPORTANT: XC functional enforced from input :
     Exchange-correlation= BEEF-VDW
                           (   1   4  43  14   2   0   0)
     Any further DFT definition will be discarded
     Please, verify this is what you really want

     R & G space division:  proc/nbgrp/npool/nimage =     128
     Subspace diagonalization in iterative solution of the eigenvalue problem:
     a serial algorithm will be used

     Using Slab Decomposition

     bravais-lattice index     =            4
     lattice parameter (alat)  =      35.6073  a.u.
     unit-cell volume          =   30614.2220 (a.u.)^3
     number of atoms/cell      =           96
     number of atomic types    =            2
     number of electrons       =      1538.00
     number of Kohn-Sham states=          923
     kinetic-energy cutoff     =      70.0000  Ry
     charge density cutoff     =     350.0000  Ry
     scf convergence threshold =      1.0E-07
     mixing beta               =       0.7000
     number of iterations used =            8  plain     mixing
     Exchange-correlation= BEEF-VDW
                           (   1   4  43  14   2   0   0)

     celldm(1)=  35.607290  celldm(2)=   0.000000  celldm(3)=   0.783025
     celldm(4)=   0.000000  celldm(5)=   0.000000  celldm(6)=   0.000000

     crystal axes: (cart. coord. in units of alat)
               a(1) = (   1.000000   0.000000   0.000000 )
               a(2) = (  -0.500000   0.866025   0.000000 )
               a(3) = (   0.000000   0.000000   0.783025 )

     reciprocal axes: (cart. coord. in units 2 pi/alat)
               b(1) = (  1.000000  0.577350 -0.000000 )
               b(2) = (  0.000000  1.154701  0.000000 )
               b(3) = (  0.000000 -0.000000  1.277098 )

     PseudoPot. # 1 for Pb read from file:
     /trace/group/acmegroup/atimmins/packages/espresso/pseudo/psl_1.0.0/pslibrary.1.0.0/pbe/PSEUDOPOTENTIALS/Pb.pbe-dn-kjpaw_psl.1.0.0.UPF
     MD5 check sum: 39ab5b8a6bbd56b7735ad9f188aac93a
     Pseudo is Projector augmented-wave + core cor, Zval = 14.0
     Generated using 'atomic' code by A. Dal Corso  v.7.1
     Shape of augmentation charge: PSQ
     Using radial grid of 1281 points,  6 beta functions with:
                l(1) =   0
                l(2) =   0
                l(3) =   1
                l(4) =   1
                l(5) =   2
                l(6) =   2
     Q(r) pseudized with 0 coefficients

     PseudoPot. # 2 for I  read from file:
     /trace/group/acmegroup/atimmins/packages/espresso/pseudo/psl_1.0.0/pslibrary.1.0.0/pbe/PSEUDOPOTENTIALS/I.pbe-dn-kjpaw_psl.1.0.0.UPF
     MD5 check sum: bfa8781bc1224d19af3f3980e3fab11e
     Pseudo is Projector augmented-wave + core cor, Zval = 17.0
     Generated using 'atomic' code by A. Dal Corso  v.7.1
     Shape of augmentation charge: PSQ
     Using radial grid of 1247 points,  6 beta functions with:
                l(1) =   0
                l(2) =   0
                l(3) =   1
                l(4) =   1
                l(5) =   2
                l(6) =   2
     Q(r) pseudized with 0 coefficients

     atomic species   valence    mass     pseudopotential
        Pb            14.00   207.20000     Pb( 1.00)
        I             17.00   126.90447     I ( 1.00)

     No symmetry found

                                    s                        frac. trans.

      isym =  1     identity

 cryst.   s( 1) = (     1          0          0      )
                  (     0          1          0      )
                  (     0          0          1      )

 cart.    s( 1) = (  1.0000000  0.0000000  0.0000000 )
                  (  0.0000000  1.0000000  0.0000000 )
                  (  0.0000000  0.0000000  1.0000000 )

     point group C_1 (1)
     there are  1 classes
     the character table:

       E
A      1.00

     the symmetry operations in each class and the name of the first element:

     E        1
          identity

   Cartesian axes

     site n.     atom                  positions (alat units)
         1           Pb  tau(   1) = (   0.1250034   0.2164916   0.3915076  )
         2           Pb  tau(   2) = (   0.0000077   0.4329922   0.7830161  )
         3           Pb  tau(   3) = (   0.0000025   0.4329968   0.3915034  )
         4           Pb  tau(   4) = (  -0.1249932   0.6494975   0.7830119  )
         5           Pb  tau(   5) = (  -0.1249984   0.6495021   0.3914992  )
         6           Pb  tau(   6) = (  -0.2499941   0.8660028   0.7830077  )
         7           Pb  tau(   7) = (  -0.2499993   0.8660074   0.3914950  )
         8           Pb  tau(   8) = (   0.3750086   0.2164859   0.7830237  )
         9           Pb  tau(   9) = (   0.3750034   0.2164905   0.3915110  )
        10           Pb  tau(  10) = (   0.2500077   0.4329912   0.7830194  )
        11           Pb  tau(  11) = (   0.2500025   0.4329958   0.3915068  )
        12           Pb  tau(  12) = (   0.1250068   0.6494965   0.7830152  )
        13           Pb  tau(  13) = (   0.1250016   0.6495011   0.3915026  )
        14           Pb  tau(  14) = (   0.0000059   0.8660017   0.7830110  )
        15           Pb  tau(  15) = (   0.0000007   0.8660063   0.3914983  )
        16           Pb  tau(  16) = (   0.6250086   0.2164849   0.7830270  )
        17           Pb  tau(  17) = (   0.6250034   0.2164895   0.3915143  )
        18           Pb  tau(  18) = (   0.5000077   0.4329901   0.7830228  )
        19           Pb  tau(  19) = (   0.5000025   0.4329947   0.3915101  )
        20           Pb  tau(  20) = (   0.3750068   0.6494954   0.7830186  )
        21           Pb  tau(  21) = (   0.3750016   0.6495000   0.3915059  )
        22           Pb  tau(  22) = (   0.2500059   0.8660007   0.7830144  )
        23           Pb  tau(  23) = (   0.2500007   0.8660053   0.3915017  )
        24           Pb  tau(  24) = (   0.8750086   0.2164838   0.7830303  )
        25           Pb  tau(  25) = (   0.8750034   0.2164884   0.3915177  )
        26           Pb  tau(  26) = (   0.7500077   0.4329891   0.7830261  )
        27           Pb  tau(  27) = (   0.7500025   0.4329937   0.3915135  )
        28           Pb  tau(  28) = (   0.6250068   0.6494944   0.7830219  )
        29           Pb  tau(  29) = (   0.6250016   0.6494990   0.3915092  )
        30           Pb  tau(  30) = (   0.5000059   0.8659996   0.7830177  )
        31           Pb  tau(  31) = (   0.5000007   0.8660042   0.3915050  )
        32           I   tau(  32) = (   0.1250056   0.0721546   0.2909163  )
        33           I   tau(  33) = (   0.1250108   0.0721500   0.6824290  )
        34           I   tau(  34) = (   0.0000047   0.2886599   0.2909121  )
        35           I   tau(  35) = (   0.0000099   0.2886553   0.6824248  )
        36           I   tau(  36) = (  -0.1249962   0.5051652   0.2909079  )
        37           I   tau(  37) = (  -0.1249910   0.5051606   0.6824206  )
        38           I   tau(  38) = (  -0.2499972   0.7216704   0.2909037  )
        39           I   tau(  39) = (  -0.2499919   0.7216658   0.6824164  )
        40           I   tau(  40) = (   0.3750056   0.0721536   0.2909197  )
        41           I   tau(  41) = (   0.3750108   0.0721490   0.6824324  )
        42           I   tau(  42) = (   0.2500047   0.2886589   0.2909155  )
        43           I   tau(  43) = (   0.2500099   0.2886543   0.6824282  )
        44           I   tau(  44) = (   0.1250038   0.5051641   0.2909113  )
        45           I   tau(  45) = (   0.1250090   0.5051595   0.6824240  )
        46           I   tau(  46) = (   0.0000028   0.7216694   0.2909071  )
        47           I   tau(  47) = (   0.0000081   0.7216648   0.6824197  )
        48           I   tau(  48) = (   0.6250056   0.0721525   0.2909230  )
        49           I   tau(  49) = (   0.6250108   0.0721479   0.6824357  )
        50           I   tau(  50) = (   0.5000047   0.2886578   0.2909188  )
        51           I   tau(  51) = (   0.5000099   0.2886532   0.6824315  )
        52           I   tau(  52) = (   0.3750038   0.5051631   0.2909146  )
        53           I   tau(  53) = (   0.3750090   0.5051585   0.6824273  )
        54           I   tau(  54) = (   0.2500028   0.7216683   0.2909104  )
        55           I   tau(  55) = (   0.2500081   0.7216637   0.6824231  )
        56           I   tau(  56) = (   0.8750056   0.0721515   0.2909264  )
        57           I   tau(  57) = (   0.8750108   0.0721469   0.6824391  )
        58           I   tau(  58) = (   0.7500047   0.2886567   0.2909222  )
        59           I   tau(  59) = (   0.7500099   0.2886521   0.6824348  )
        60           I   tau(  60) = (   0.6250038   0.5051620   0.2909180  )
[...]
        82           I   tau(  82) = (   0.3749973   0.3608329   0.1005958  )
        83           I   tau(  83) = (   0.3750025   0.3608283   0.4921084  )
        84           I   tau(  84) = (   0.2499964   0.5773382   0.1005915  )
        85           I   tau(  85) = (   0.2500016   0.5773336   0.4921042  )
        86           I   tau(  86) = (   0.1249955   0.7938434   0.1005873  )
        87           I   tau(  87) = (   0.1250007   0.7938388   0.4921000  )
        88           I   tau(  88) = (   0.7499982   0.1443266   0.1006033  )
        89           I   tau(  89) = (   0.7500034   0.1443220   0.4921160  )
        90           I   tau(  90) = (   0.6249973   0.3608319   0.1005991  )
        91           I   tau(  91) = (   0.6250025   0.3608273   0.4921118  )
        92           I   tau(  92) = (   0.4999964   0.5773371   0.1005949  )
        93           I   tau(  93) = (   0.5000016   0.5773325   0.4921076  )
        94           I   tau(  94) = (   0.3749955   0.7938424   0.1005907  )
        95           I   tau(  95) = (   0.3750007   0.7938378   0.4921034  )
        96           I   tau(  96) = (   0.1250086   0.2164870   0.7830203  )

   Crystallographic axes

     site n.     atom                  positions (cryst. coord.)
         1           Pb  tau(   1) = (  0.2499949  0.2499829  0.4999935  )
         2           Pb  tau(   2) = (  0.2499959  0.4999764  0.9999882  )
         3           Pb  tau(   3) = (  0.2499933  0.4999817  0.4999882  )
         4           Pb  tau(   4) = (  0.2499944  0.7499751  0.9999828  )
         5           Pb  tau(   5) = (  0.2499918  0.7499804  0.4999828  )
         6           Pb  tau(   6) = (  0.2499928  0.9999739  0.9999774  )
         7           Pb  tau(   7) = (  0.2499903  0.9999792  0.4999774  )
         8           Pb  tau(   8) = (  0.4999968  0.2499764  0.9999978  )
         9           Pb  tau(   9) = (  0.4999943  0.2499817  0.4999978  )
[...]
     atom   26 type  1   force =     0.00000000    0.00000000    0.00000000
     atom   27 type  1   force =     0.00000000    0.00000000    0.00000000
     atom   28 type  1   force =     0.00000000    0.00000000    0.00000000
     atom   29 type  1   force =     0.00000000    0.00000000    0.00000000
     atom   30 type  1   force =     0.00000000    0.00000000    0.00000000
     atom   31 type  1   force =     0.00000000    0.00000000    0.00000000
     atom   32 type  2   force =     0.00000000    0.00000000    0.00000000
     atom   33 type  2   force =     0.00000000    0.00000000    0.00000000
     atom   34 type  2   force =     0.00000000    0.00000000    0.00000000
     atom   35 type  2   force =     0.00000000    0.00000000    0.00000000
     atom   36 type  2   force =     0.00000000    0.00000000    0.00000000
     atom   37 type  2   force =     0.00000000    0.00000000    0.00000000
     atom   38 type  2   force =     0.00000000    0.00000000    0.00000000
     atom   39 type  2   force =     0.00000000    0.00000000    0.00000000
     atom   40 type  2   force =     0.00000000    0.00000000    0.00000000
     atom   41 type  2   force =     0.00000000    0.00000000    0.00000000
     atom   42 type  2   force =     0.00000000    0.00000000    0.00000000
     atom   43 type  2   force =     0.00000000    0.00000000    0.00000000
     atom   44 type  2   force =     0.00000000    0.00000000    0.00000000
     atom   45 type  2   force =     0.00000000    0.00000000    0.00000000
     atom   46 type  2   force =     0.00000000    0.00000000    0.00000000
     atom   47 type  2   force =     0.00000000    0.00000000    0.00000000
     atom   48 type  2   force =     0.00000000    0.00000000    0.00000000
     atom   49 type  2   force =     0.00000000    0.00000000    0.00000000
     atom   50 type  2   force =     0.00000000    0.00000000    0.00000000
     atom   51 type  2   force =     0.00000000    0.00000000    0.00000000
     atom   52 type  2   force =     0.00000000    0.00000000    0.00000000
     atom   53 type  2   force =     0.00000000    0.00000000    0.00000000
     atom   54 type  2   force =     0.00000000    0.00000000    0.00000000
     atom   55 type  2   force =     0.00000000    0.00000000    0.00000000
     atom   56 type  2   force =     0.00000000    0.00000000    0.00000000
     atom   57 type  2   force =     0.00000000    0.00000000    0.00000000
     atom   58 type  2   force =     0.00000000    0.00000000    0.00000000
     atom   59 type  2   force =     0.00000000    0.00000000    0.00000000
     atom   60 type  2   force =     0.00000000    0.00000000    0.00000000
[...]
     atom   82 type  2   force =     0.00000000    0.00000000    0.00000000
     atom   83 type  2   force =     0.00000000    0.00000000    0.00000000
     atom   84 type  2   force =     0.00000000    0.00000000    0.00000000
     atom   85 type  2   force =     0.00000000    0.00000000    0.00000000
     atom   86 type  2   force =     0.00000000    0.00000000    0.00000000
     atom   87 type  2   force =     0.00000000    0.00000000    0.00000000
     atom   88 type  2   force =     0.00000000    0.00000000    0.00000000
     atom   89 type  2   force =     0.00000000    0.00000000    0.00000000
     atom   90 type  2   force =     0.00000000    0.00000000    0.00000000
     atom   91 type  2   force =     0.00000000    0.00000000    0.00000000
     atom   92 type  2   force =     0.00000000    0.00000000    0.00000000
     atom   93 type  2   force =     0.00000000    0.00000000    0.00000000
     atom   94 type  2   force =     0.00000000    0.00000000    0.00000000
     atom   95 type  2   force =     0.00000000    0.00000000    0.00000000
     atom   96 type  2   force =     0.00000000    0.00000000    0.00000000
     The SCF correction term to forces
     atom    1 type  1   force =     0.00000128   -0.00003298   -0.00003783
     atom    2 type  1   force =    -0.00006586    0.00007621    0.00000955
     atom    3 type  1   force =    -0.00002294    0.00003021   -0.00001979
     atom    4 type  1   force =    -0.00001442    0.00002562    0.00002306
     atom    5 type  1   force =    -0.00001180    0.00001983   -0.00002308
     atom    6 type  1   force =     0.00003048   -0.00004436    0.00005657
     atom    7 type  1   force =     0.00000986   -0.00003077   -0.00003810
     atom    8 type  1   force =     0.00004492   -0.00000159    0.00000544
     atom    9 type  1   force =     0.00004122   -0.00000692   -0.00001715
     atom   10 type  1   force =     0.00009690    0.00004450   -0.00003790
     atom   11 type  1   force =     0.00004623    0.00003439   -0.00000044
     atom   12 type  1   force =     0.00001866    0.00006888    0.00005070
     atom   13 type  1   force =     0.00001685    0.00005568   -0.00004307
     atom   14 type  1   force =     0.00002739   -0.00000302    0.00006647
     atom   15 type  1   force =     0.00002918   -0.00000644   -0.00005278
     atom   16 type  1   force =    -0.00000131   -0.00001492    0.00003236
     atom   17 type  1   force =    -0.00000112   -0.00001193   -0.00002815
     atom   18 type  1   force =     0.00001971    0.00001828   -0.00002312
     atom   19 type  1   force =     0.00002231    0.00002147    0.00001013
     atom   20 type  1   force =     0.00001435    0.00002407    0.00002259
     atom   21 type  1   force =     0.00001172    0.00001854   -0.00002281
     atom   22 type  1   force =     0.00000083   -0.00000827    0.00008025
     atom   23 type  1   force =    -0.00000817   -0.00001377   -0.00006462
     atom   24 type  1   force =    -0.00004699   -0.00008269    0.00009950
     atom   25 type  1   force =    -0.00004144   -0.00004048   -0.00005552
     atom   26 type  1   force =    -0.00005076    0.00001493   -0.00000868
     atom   27 type  1   force =    -0.00004552    0.00001551   -0.00000205
     atom   28 type  1   force =    -0.00001840   -0.00001540   -0.00000803
     atom   29 type  1   force =    -0.00001683   -0.00001659   -0.00000227
     atom   30 type  1   force =    -0.00005866   -0.00001653    0.00010308
     atom   31 type  1   force =    -0.00003096   -0.00003641   -0.00005715
     atom   32 type  2   force =    -0.00003675   -0.00004815   -0.00005796
     atom   33 type  2   force =    -0.00000591   -0.00007878    0.00001680
     atom   34 type  2   force =    -0.00005449   -0.00006520   -0.00003023
     atom   35 type  2   force =    -0.00005570   -0.00002004   -0.00000942
     atom   36 type  2   force =    -0.00003510    0.00003639   -0.00000315
     atom   37 type  2   force =    -0.00007550    0.00004958    0.00000171
     atom   38 type  2   force =    -0.00000401    0.00000061   -0.00001144
     atom   39 type  2   force =    -0.00001551   -0.00004663    0.00001498
     atom   40 type  2   force =     0.00003969   -0.00002838   -0.00003579
     atom   41 type  2   force =     0.00004357   -0.00000658    0.00002984
     atom   42 type  2   force =     0.00005201   -0.00002451    0.00000395
     atom   43 type  2   force =     0.00010019    0.00001253   -0.00002320
     atom   44 type  2   force =     0.00001597    0.00008933    0.00001344
     atom   45 type  2   force =     0.00003954    0.00007672   -0.00001467
     atom   46 type  2   force =     0.00002660    0.00004582   -0.00003294
     atom   47 type  2   force =     0.00000226    0.00002561    0.00003884
     atom   48 type  2   force =     0.00001833   -0.00003135   -0.00004299
     atom   49 type  2   force =     0.00000660   -0.00000140    0.00004881
     atom   50 type  2   force =     0.00003160   -0.00001471   -0.00000580
     atom   51 type  2   force =     0.00001653    0.00002787    0.00000400
     atom   52 type  2   force =     0.00003492    0.00004849    0.00000673
     atom   53 type  2   force =     0.00005777    0.00001797   -0.00000372
     atom   54 type  2   force =     0.00000430    0.00004901   -0.00003440
     atom   55 type  2   force =     0.00002566    0.00001700    0.00004448
     atom   56 type  2   force =    -0.00001745   -0.00003415   -0.00008451
     atom   57 type  2   force =    -0.00004358   -0.00005199    0.00007082
     atom   58 type  2   force =    -0.00002956   -0.00003977   -0.00002128
     atom   59 type  2   force =    -0.00007059    0.00000594    0.00001805
     atom   60 type  2   force =    -0.00001630    0.00001284    0.00002028
[...]
     atom   82 type  2   force =     0.00007399    0.00000749   -0.00000498
     atom   83 type  2   force =     0.00004898    0.00002257    0.00001841
     atom   84 type  2   force =     0.00004294    0.00010705    0.00002094
     atom   85 type  2   force =     0.00004727    0.00003776   -0.00002154
     atom   86 type  2   force =     0.00002255    0.00002850    0.00003793
     atom   87 type  2   force =     0.00001517    0.00001230   -0.00005657
     atom   88 type  2   force =     0.00000768   -0.00006031    0.00004083
     atom   89 type  2   force =    -0.00003209   -0.00001988   -0.00004398
     atom   90 type  2   force =    -0.00000898   -0.00001314   -0.00000338
     atom   91 type  2   force =    -0.00002073    0.00002782   -0.00000205
     atom   92 type  2   force =    -0.00000432    0.00002792   -0.00000829
     atom   93 type  2   force =     0.00001608   -0.00000379   -0.00000163
     atom   94 type  2   force =    -0.00001721    0.00003261    0.00003637
     atom   95 type  2   force =    -0.00000693   -0.00002940   -0.00004309
     atom   96 type  2   force =     0.00000479   -0.00010969    0.00007799

     Total force =     0.003282     Total SCF correction =     0.000665
     SCF correction compared to forces is large: reduce conv_thr to get better values

     Computing stress (Cartesian axis) and pressure

[...]

          total   stress  (Ry/bohr**3)                   (kbar)     P=       -2.08
  -0.00001422   0.00000001  -0.00000001           -2.09        0.00       -0.00
   0.00000001  -0.00001421   0.00000001            0.00       -2.09        0.00
  -0.00000001   0.00000001  -0.00001393           -0.00        0.00       -2.05

     kinetic stress (kbar)  14922.06      0.00     -0.01
                                0.00  14922.07      0.01
                               -0.01      0.01  14932.07

     local   stress (kbar)  -7494.63      0.10     -0.11
                                0.10  -7494.49      0.08
                               -0.11      0.08   1465.90

     nonloc. stress (kbar)   -967.57      0.00     -0.00
                                0.00   -967.56      0.00
                               -0.00      0.00   -973.89

     hartree stress (kbar)  12088.73     -0.04      0.04
                               -0.04  12088.68     -0.03
                                0.04     -0.03   8046.20

     exc-cor stress (kbar)   6986.84     -0.00     -0.00
                               -0.00   6986.84      0.00
                               -0.00      0.00   6985.80

     corecor stress (kbar) -11365.63     -0.00      0.00
                               -0.00 -11365.63     -0.00
                                0.00     -0.00 -11365.60

     ewald   stress (kbar) -14255.78     -0.07      0.07
                               -0.07 -14255.88     -0.06
                                0.07     -0.06 -19177.71

     hubbard stress (kbar)      0.00      0.00      0.00
                                0.00      0.00      0.00
                                0.00      0.00      0.00

     DFT-D   stress (kbar)      0.00      0.00      0.00
                                0.00      0.00      0.00
                                0.00      0.00      0.00

     XDM     stress (kbar)      0.00      0.00      0.00
                                0.00      0.00      0.00
                                0.00      0.00      0.00

     dft-nl  stress (kbar)     83.89      0.00     -0.00
                                0.00     83.89     -0.00
                               -0.00     -0.00     85.19

     TS-vdW  stress (kbar)      0.00      0.00      0.00
                                0.00      0.00      0.00
                                0.00      0.00      0.00

     MDB     stress (kbar)      0.00      0.00      0.00
                                0.00      0.00      0.00
                                0.00      0.00      0.00

     3D-RISM stress (kbar)      0.00      0.00      0.00
                                0.00      0.00      0.00
                                0.00      0.00      0.00

[...]

     Non-local corr. energy    =      46.32853963 Ry

 BEEFens 2000 ensemble energies
             -0.388335654159014E+02
             -0.390972672881725E+03
             -0.177913734951282E+03
              0.136516154709576E+03
             -0.298831148637087E+03
             -0.365920272179306E+03
              0.187807868790412E+03
              0.830874586086111E+00
              0.316502798606785E+03
             -0.200598461605011E+02
              0.162065905315600E+03
              0.165978070039995E+02
             -0.124466878277577E+02
             -0.100508290850764E+02
              0.202076027759826E+03
             -0.152038849506048E+03
             -0.298595978630970E+03
             -0.963761557441842E+02
              0.864022747122501E+02
             -0.179276480838371E+01
              0.440316415795550E+03
              0.367513346456001E+03
             -0.226431299816030E+03
              0.782281529048973E+02
             -0.471663849218436E+03
              0.387167066815645E+03
              0.132358288552319E+03
              0.349617256267736E+03
              0.235634163745308E+03
             -0.109408865752407E+03
              0.862272633468565E+02
             -0.154177713549476E+03
              0.643903647886618E+02
              0.234412323776788E+03
              0.252162873628738E+03
             -0.109631739860543E+03
              0.556452098873999E+03
             -0.223892684317603E+03
             -0.149188903111523E+03
              0.222557212432346E+03
              0.981087678439553E+02
              0.169085458087706E+03
             -0.326580422651840E+03
             -0.211838754285391E+02
              0.313366191620741E+03
              0.409562593967942E+03
             -0.415800912008381E+03
              0.267029175002181E+02
              0.144221127222223E+03
              0.931451028498091E+02
              0.162617306449821E+03
              0.357045761093083E+03
             -0.231881116997509E+03
             -0.225063527638573E+03
             -0.313583248512474E+03
             -0.455242334584484E+02
             -0.267537231278916E+03
              0.345680958808907E+02
             -0.385532641491400E+02
             -0.212156054584321E+03
[...]
              0.264901606349107E+03
              0.169742662977849E+03
              0.173058034856052E+03
             -0.320228649260406E+03
             -0.330772926277746E+03
             -0.745610347792875E+02
             -0.295636596389987E+03
              0.469371268710152E+03
              0.395374111870684E+03
              0.186438193130394E+03
              0.514066960238166E+03
             -0.256958097928435E+03
             -0.110611569373982E+03
             -0.159442978287911E+03
              0.444698469928333E+03

 BEEF-vdW xc energy contributions
            1 :    -4019.670153466333
            2 :     3683.397143357784
            3 :    -3109.974370268358
            4 :     2452.179490682316
            5 :    -1853.907826260021
            6 :     1403.811380891918
            7 :    -1120.825940014897
            8 :     967.4290824644013
            9 :    -878.1002028866942
           10 :     790.7494065383462
           11 :    -670.3919713491350
           12 :     516.8861219380583
           13 :    -355.3860589894639
           14 :     217.0280789949220
           15 :    -121.4922364503818
           16 :     69.52365012582140
           17 :    -46.26034173009157
           18 :     30.99887558646969
           19 :    -7.720966470136773
           20 :    -28.22489590782880
           21 :     69.84384933279398
           22 :    -104.2874372576380
           23 :     121.2811029914074
           24 :    -119.3110274832934
           25 :     106.2564231550268
           26 :    -94.66762106352053
           27 :     94.82195622678773
           28 :    -109.4070484119475
           29 :     132.3994391194747
           30 :    -152.4925381606545
           31 :    -345.3926579346480
           32 :    -248.4123086481186

     Writing all to output data dir ./PbI2.save/

     General routines

     Parallel routines

     PAW routines

   This run was terminated on:  12: 3:30  18Feb2024

   JOB DONE.