     Program PWSCF v.7.1 starts on 28Mar2024 at  2: 6:55

     Reading input from espresso.pwi
Warning: card &CELL ignored
Warning: card    CELL_DYNAMICS    = 'BFGS' ignored
Warning: card / ignored

     Current dimensions of program PWSCF are:
     Max number of different atomic species (ntypx) = 10
     Max number of k-points (npk) =  40000
     Max angular momentum in pseudopotentials (lmaxx) =  4
     file Pb.pbe-dn-kjpaw_psl.1.0.0.UPF: wavefunction(s)  6S 6P 5D renormalized
     file I.pbe-dn-kjpaw_psl.1.0.0.UPF: wavefunction(s)  5S 5P renormalized

     IMPORTANT: XC functional enforced from input :
     Exchange-correlation= BEEF-VDW
                           (   1   4  43  14   2   0   0)
     Any further DFT definition will be discarded
     Please, verify this is what you really want

     R & G space division:  proc/nbgrp/npool/nimage =      20
     Subspace diagonalization in iterative solution of the eigenvalue problem:
     a serial algorithm will be used

     Using Slab Decomposition

     bravais-lattice index     =            4
     lattice parameter (alat)  =      17.8060  a.u.
     unit-cell volume          =    7656.2263 (a.u.)^3
     number of atoms/cell      =           24
     number of atomic types    =            2
     number of electrons       =       385.00
     number of Kohn-Sham states=          232
     kinetic-energy cutoff     =      70.0000  Ry
     charge density cutoff     =     350.0000  Ry
     scf convergence threshold =      1.0E-07
     mixing beta               =       0.7000
     number of iterations used =            8  plain     mixing
     energy convergence thresh.=      1.0E-04
     force convergence thresh. =      1.0E-03
     Exchange-correlation= BEEF-VDW
                           (   1   4  43  14   2   0   0)
     nstep                     =           50

     celldm(1)=  17.806016  celldm(2)=   0.000000  celldm(3)=   1.565971
     celldm(4)=   0.000000  celldm(5)=   0.000000  celldm(6)=   0.000000

     crystal axes: (cart. coord. in units of alat)
               a(1) = (   1.000000   0.000000   0.000000 )
               a(2) = (  -0.500000   0.866025   0.000000 )
               a(3) = (   0.000000   0.000000   1.565971 )

     reciprocal axes: (cart. coord. in units 2 pi/alat)
               b(1) = (  1.000000  0.577350 -0.000000 )
               b(2) = (  0.000000  1.154701  0.000000 )
               b(3) = (  0.000000 -0.000000  0.638581 )

     PseudoPot. # 1 for Pb read from file:
     /trace/group/acmegroup/atimmins/packages/espresso/pseudo/psl_1.0.0/pslibrary.1.0.0/pbe/PSEUDOPOTENTIALS/Pb.pbe-dn-kjpaw_psl.1.0.0.UPF
     MD5 check sum: 39ab5b8a6bbd56b7735ad9f188aac93a
     Pseudo is Projector augmented-wave + core cor, Zval = 14.0
     Generated using 'atomic' code by A. Dal Corso  v.7.1
     Shape of augmentation charge: PSQ
     Using radial grid of 1281 points,  6 beta functions with:
                l(1) =   0
                l(2) =   0
                l(3) =   1
                l(4) =   1
                l(5) =   2
                l(6) =   2
     Q(r) pseudized with 0 coefficients

     PseudoPot. # 2 for I  read from file:
     /trace/group/acmegroup/atimmins/packages/espresso/pseudo/psl_1.0.0/pslibrary.1.0.0/pbe/PSEUDOPOTENTIALS/I.pbe-dn-kjpaw_psl.1.0.0.UPF
     MD5 check sum: bfa8781bc1224d19af3f3980e3fab11e
     Pseudo is Projector augmented-wave + core cor, Zval = 17.0
     Generated using 'atomic' code by A. Dal Corso  v.7.1
     Shape of augmentation charge: PSQ
     Using radial grid of 1247 points,  6 beta functions with:
                l(1) =   0
                l(2) =   0
                l(3) =   1
                l(4) =   1
                l(5) =   2
                l(6) =   2
     Q(r) pseudized with 0 coefficients

     atomic species   valence    mass     pseudopotential
        Pb            14.00   207.20000     Pb( 1.00)
        I             17.00   126.90447     I ( 1.00)

     No symmetry found

                                    s                        frac. trans.

      isym =  1     identity

 cryst.   s( 1) = (     1          0          0      )
                  (     0          1          0      )
                  (     0          0          1      )

 cart.    s( 1) = (  1.0000000  0.0000000  0.0000000 )
                  (  0.0000000  1.0000000  0.0000000 )
                  (  0.0000000  0.0000000  1.0000000 )

     point group C_1 (1)
     there are  1 classes
     the character table:

       E
A      1.00

     the symmetry operations in each class and the name of the first element:

     E        1
          identity

   Cartesian axes

     site n.     atom                  positions (alat units)
         1           Pb  tau(   1) = (   0.2500068   0.4329836   0.7829793  )
         2           Pb  tau(   2) = (   0.0000153   0.8659852   1.5659567  )
         3           Pb  tau(   3) = (   0.0000051   0.8659943   0.7829710  )
         4           Pb  tau(   4) = (   0.7500170   0.4329726   1.5659715  )
         5           Pb  tau(   5) = (   0.7500068   0.4329816   0.7829858  )
         6           Pb  tau(   6) = (   0.5000153   0.8659833   1.5659633  )
         7           Pb  tau(   7) = (   0.5000051   0.8659923   0.7829776  )
         8           I   tau(   8) = (   0.2500107   0.1443099   0.5818649  )
         9           I   tau(   9) = (   0.2500209   0.1443009   1.3648506  )
        10           I   tau(  10) = (   0.0000091   0.5773207   0.5818567  )
        11           I   tau(  11) = (   0.0000193   0.5773116   1.3648424  )
        12           I   tau(  12) = (   0.7500107   0.1443080   0.5818714  )
        13           I   tau(  13) = (   0.7500209   0.1442990   1.3648571  )
        14           I   tau(  14) = (   0.5000091   0.5773187   0.5818632  )
        15           I   tau(  15) = (   0.5000193   0.5773097   1.3648489  )
        16           I   tau(  16) = (  -0.0000034   0.2886595   0.2011110  )
        17           I   tau(  17) = (   0.0000068   0.2886504   0.9840967  )
        18           I   tau(  18) = (  -0.2500051   0.7216702   0.2011027  )
        19           I   tau(  19) = (  -0.2499949   0.7216611   0.9840884  )
        20           I   tau(  20) = (   0.4999966   0.2886575   0.2011175  )
        21           I   tau(  21) = (   0.5000068   0.2886485   0.9841032  )
        22           I   tau(  22) = (   0.2499949   0.7216682   0.2011092  )
        23           I   tau(  23) = (   0.2500051   0.7216592   0.9840949  )
        24           I   tau(  24) = (   0.2500170   0.4329745   1.5659650  )

   Crystallographic axes

     site n.     atom                  positions (cryst. coord.)
         1           Pb  tau(   1) = (  0.4999900  0.4999663  0.4999959  )
         2           Pb  tau(   2) = (  0.4999921  0.9999536  0.9999906  )
         3           Pb  tau(   3) = (  0.4999871  0.9999640  0.4999906  )
         4           Pb  tau(   4) = (  0.9999938  0.4999537  1.0000001  )
         5           Pb  tau(   5) = (  0.9999888  0.4999641  0.5000001  )
         6           Pb  tau(   6) = (  0.9999910  0.9999514  0.9999948  )
         7           Pb  tau(   7) = (  0.9999860  0.9999618  0.4999948  )
         8           I   tau(   8) = (  0.3333281  0.1666348  0.3715680  )
         9           I   tau(   9) = (  0.3333331  0.1666243  0.8715680  )
        10           I   tau(  10) = (  0.3333253  0.6666325  0.3715628  )
        11           I   tau(  11) = (  0.3333303  0.6666220  0.8715628  )
        12           I   tau(  12) = (  0.8333270  0.1666326  0.3715722  )
        13           I   tau(  13) = (  0.8333320  0.1666221  0.8715722  )
        14           I   tau(  14) = (  0.8333242  0.6666303  0.3715669  )
        15           I   tau(  15) = (  0.8333292  0.6666198  0.8715669  )
        16           I   tau(  16) = (  0.1666542  0.3333152  0.1284257  )
        17           I   tau(  17) = (  0.1666592  0.3333048  0.6284257  )
        18           I   tau(  18) = (  0.1666514  0.8333129  0.1284204  )
        19           I   tau(  19) = (  0.1666564  0.8333025  0.6284204  )
        20           I   tau(  20) = (  0.6666531  0.3333130  0.1284299  )
        21           I   tau(  21) = (  0.6666581  0.3333026  0.6284299  )
        22           I   tau(  22) = (  0.6666503  0.8333107  0.1284246  )
        23           I   tau(  23) = (  0.6666553  0.8333003  0.6284246  )
        24           I   tau(  24) = (  0.4999949  0.4999559  0.9999959  )

     number of k points=     4  Gaussian smearing, width (Ry)=  0.0100
                       cart. coord. in units 2pi/alat
        k(    1) = (   0.0000000   0.0000000   0.0000000), wk =   0.5000000
        k(    2) = (   0.0000000  -0.5773503   0.0000000), wk =   0.5000000
        k(    3) = (   0.5000000  -0.2886751   0.0000000), wk =   0.5000000
        k(    4) = (  -0.5000000  -0.2886751   0.0000000), wk =   0.5000000

                       cryst. coord.
        k(    1) = (   0.0000000   0.0000000   0.0000000), wk =   0.5000000
        k(    2) = (   0.0000000  -0.5000000   0.0000000), wk =   0.5000000
        k(    3) = (   0.5000000  -0.5000000   0.0000000), wk =   0.5000000
        k(    4) = (  -0.5000000  -0.0000000   0.0000000), wk =   0.5000000

     Check: negative core charge=   -0.000002

     Initial potential from superposition of free atoms

     starting charge     386.9823, renormalised to     385.0000

     %%%%%%%%%%%%%%%%%%%%%%%%%%%%%%%%%%%%%%%%%%%%%%%%%%%%%%%%%%%%%%%%%%%%%%%%
     %                                                                      %
     % You are using vdW-DF, which was implemented by the Thonhauser group. %
     % Please cite the following two papers that made this development      %
     % possible and the two reviews that describe the various versions:     %
     %                                                                      %
     %   T. Thonhauser et al., PRL 115, 136402 (2015).                      %
     %   T. Thonhauser et al., PRB 76, 125112 (2007).                       %
     %   K. Berland et al., Rep. Prog. Phys. 78, 066501 (2015).             %
     %   D.C. Langreth et al., J. Phys.: Condens. Matter 21, 084203 (2009). %
     %                                                                      %
     % If you are calculating stress with vdW-DF, please also cite:         %
     %                                                                      %
     %   R. Sabatini et al., J. Phys.: Condens. Matter 24, 424209 (2012).   %
     %                                                                      %
     %%%%%%%%%%%%%%%%%%%%%%%%%%%%%%%%%%%%%%%%%%%%%%%%%%%%%%%%%%%%%%%%%%%%%%%%

     %%%%%%%%%%%%%%%%%%%%%%%%%%%%%%%%%%%%%%%%%%%%%%%%%%%%%%%%%%%%%%%%%%%%%%%%
     %                                                                      %
     %  vdW-DF NEWS:                                                        %
     %                                                                      %
     %  * vdW-DF3 is now available. DOI: 10.1021/acs.jctc.0c00471           %
     %    use with input_dft = 'vdW-DF3-opt1' or 'vdW-DF3-opt2'             %
     %                                                                      %
[...]
     atom   20 type  2   force =    -0.00016039    0.00009398   -0.00008284
     atom   21 type  2   force =     0.00031431   -0.00018031   -0.00010189
     atom   22 type  2   force =    -0.00000132   -0.00015866   -0.00007071
     atom   23 type  2   force =    -0.00000109    0.00036122   -0.00010269
     atom   24 type  2   force =     0.00000555    0.00000108   -0.00000376
     The non-local contrib.  to forces
     atom    1 type  1   force =     0.00000545   -0.00001933    0.00000120
     atom    2 type  1   force =     0.00001644   -0.00001907    0.00001918
     atom    3 type  1   force =     0.00000857   -0.00001756   -0.00000559
     atom    4 type  1   force =     0.00000754   -0.00003125    0.00001069
     atom    5 type  1   force =     0.00000117   -0.00003128    0.00000213
     atom    6 type  1   force =     0.00001717   -0.00002601    0.00001502
     atom    7 type  1   force =    -0.00000572   -0.00002306   -0.00001525
     atom    8 type  2   force =     0.00000251    0.00036683    0.23861596
     atom    9 type  2   force =     0.00000471   -0.04278535    0.22247953
     atom   10 type  2   force =     0.00031302   -0.00016354    0.23862378
     atom   11 type  2   force =    -0.03693411    0.02133283    0.22258068
     atom   12 type  2   force =    -0.00000619    0.00000791    0.22072559
     atom   13 type  2   force =    -0.00001516    0.00001385    0.26485168
     atom   14 type  2   force =    -0.00031751   -0.00016534    0.23862115
     atom   15 type  2   force =     0.03702116    0.02137736    0.22251124
     atom   16 type  2   force =    -0.03705488   -0.02136107   -0.22251071
     atom   17 type  2   force =     0.00030243    0.00020130   -0.23862042
     atom   18 type  2   force =    -0.00000863    0.00000740   -0.26484754
     atom   19 type  2   force =     0.00000141   -0.00000220   -0.22070713
     atom   20 type  2   force =     0.03697260   -0.02132837   -0.22256314
     atom   21 type  2   force =    -0.00030774    0.00019868   -0.23862582
     atom   22 type  2   force =    -0.00001314    0.04281708   -0.22248784
     atom   23 type  2   force =    -0.00000165   -0.00035476   -0.23862007
     atom   24 type  2   force =    -0.00003465    0.00000685   -0.00003459
     The ionic contribution  to forces
     atom    1 type  1   force =    -0.00008617    0.00044736   -0.00194919
     atom    2 type  1   force =    -0.00039771    0.00132217    0.00130105
     atom    3 type  1   force =    -0.00022621    0.00033610   -0.00212857
     atom    4 type  1   force =    -0.00106540    0.00029839    0.00205933
     atom    5 type  1   force =    -0.00005237    0.00073296   -0.00168577
     atom    6 type  1   force =    -0.00040404    0.00044257    0.00199703
     atom    7 type  1   force =     0.00016450    0.00043491   -0.00153221
     atom    8 type  2   force =     0.00034352   -0.46847280  -13.77847051
     atom    9 type  2   force =     0.00117970   -1.59336414  -15.25732680
     atom   10 type  2   force =    -0.40579993    0.23375136  -13.77835734
     atom   11 type  2   force =    -1.38281426    0.79824097  -15.26026060
     atom   12 type  2   force =    -0.00045503    0.00036585  -13.16970039
     atom   13 type  2   force =    -0.00045782   -0.00007901  -14.96277741
     atom   14 type  2   force =     0.40596995    0.23335360  -13.77872092
     atom   15 type  2   force =     1.38092838    0.79583009  -15.25810139
     atom   16 type  2   force =    -1.38034435   -0.79696271   15.26301022
     atom   17 type  2   force =    -0.40577077   -0.23424402   13.77390523
     atom   18 type  2   force =     0.00011259   -0.00048412   14.96729266
     atom   19 type  2   force =     0.00033258   -0.00069598   13.16467848
     atom   20 type  2   force =     1.38120445   -0.79729463   15.26305263
     atom   21 type  2   force =     0.40576562   -0.23432793   13.77461425
     atom   22 type  2   force =     0.00019014    1.59278984   15.26268432
     atom   23 type  2   force =    -0.00013234    0.46818876   13.77441138
     atom   24 type  2   force =     0.00181500   -0.00060957    0.00200449
     The local contribution  to forces
     atom    1 type  1   force =     0.00008056   -0.00042823    0.00194501
     atom    2 type  1   force =     0.00037424   -0.00128288   -0.00132203
     atom    3 type  1   force =     0.00021599   -0.00031457    0.00213244
     atom    4 type  1   force =     0.00104414   -0.00027287   -0.00206842
     atom    5 type  1   force =     0.00005043   -0.00070020    0.00168087
     atom    6 type  1   force =     0.00039117   -0.00041114   -0.00202268
     atom    7 type  1   force =    -0.00015763   -0.00040779    0.00154804
     atom    8 type  2   force =    -0.00034402    0.46776393   13.54501778
     atom    9 type  2   force =    -0.00118135    1.63566345   15.03994763
     atom   10 type  2   force =     0.40518874   -0.23341670   13.54489984
     atom   11 type  2   force =     1.41935250   -0.81934483   15.04278312
     atom   12 type  2   force =     0.00045798   -0.00037021   12.95374753
     atom   13 type  2   force =     0.00047056    0.00006733   14.70349060
     atom   14 type  2   force =    -0.40535434   -0.23301967   13.54526387
     atom   15 type  2   force =    -1.41753598   -0.81697119   15.04069344
     atom   16 type  2   force =     1.41698610    0.81808654  -15.04559505
     atom   17 type  2   force =     0.40517078    0.23387122  -13.54045295
     atom   18 type  2   force =    -0.00010475    0.00047814  -14.70799880
     atom   19 type  2   force =    -0.00033472    0.00069866  -12.94874400
     atom   20 type  2   force =    -1.41778619    0.81839782  -15.04560051
     atom   21 type  2   force =    -0.40516148    0.23395894  -13.54115209
     atom   22 type  2   force =    -0.00017698   -1.63512012  -15.04528742
     atom   23 type  2   force =     0.00013466   -0.46748988  -13.54095843
     atom   24 type  2   force =    -0.00176453    0.00058956   -0.00196889
     The core correction contribution to forces
     atom    1 type  1   force =     0.00000004    0.00000017   -0.00000001
     atom    2 type  1   force =    -0.00000022   -0.00000042   -0.00000037
     atom    3 type  1   force =    -0.00000018    0.00000007    0.00000003
     atom    4 type  1   force =     0.00000039    0.00000059   -0.00000002
     atom    5 type  1   force =    -0.00000009    0.00000040    0.00000018
     atom    6 type  1   force =    -0.00000004    0.00000009    0.00000012
     atom    7 type  1   force =     0.00000013    0.00000000    0.00000017
     atom    8 type  2   force =    -0.00000059   -0.00003166   -0.00504483
     atom    9 type  2   force =    -0.00000070    0.00062213   -0.00503547
     atom   10 type  2   force =    -0.00002996    0.00001901   -0.00504536
     atom   11 type  2   force =     0.00052962   -0.00030352   -0.00503958
     atom   12 type  2   force =    -0.00000072    0.00000237   -0.00473989
     atom   13 type  2   force =    -0.00000057    0.00000230   -0.00551410
     atom   14 type  2   force =     0.00002873    0.00001893   -0.00504498
     atom   15 type  2   force =    -0.00053567   -0.00030608   -0.00503677
     atom   16 type  2   force =     0.00053427    0.00031116    0.00503880
     atom   17 type  2   force =    -0.00002991   -0.00001496    0.00504529
     atom   18 type  2   force =    -0.00000100    0.00000273    0.00551403
     atom   19 type  2   force =    -0.00000102    0.00000270    0.00473909
     atom   20 type  2   force =    -0.00053164    0.00030902    0.00504140
     atom   21 type  2   force =     0.00002856   -0.00001476    0.00504472
     atom   22 type  2   force =    -0.00000041   -0.00061751    0.00503773
     atom   23 type  2   force =    -0.00000052    0.00003618    0.00504511
     atom   24 type  2   force =     0.00000023    0.00000230   -0.00000193
     The Hubbard contrib.    to forces
     atom    1 type  1   force =     0.00000000    0.00000000    0.00000000
     atom    2 type  1   force =     0.00000000    0.00000000    0.00000000
     atom    3 type  1   force =     0.00000000    0.00000000    0.00000000
     atom    4 type  1   force =     0.00000000    0.00000000    0.00000000
     atom    5 type  1   force =     0.00000000    0.00000000    0.00000000
     atom    6 type  1   force =     0.00000000    0.00000000    0.00000000
     atom    7 type  1   force =     0.00000000    0.00000000    0.00000000
     atom    8 type  2   force =     0.00000000    0.00000000    0.00000000
     atom    9 type  2   force =     0.00000000    0.00000000    0.00000000
     atom   10 type  2   force =     0.00000000    0.00000000    0.00000000
     atom   11 type  2   force =     0.00000000    0.00000000    0.00000000
     atom   12 type  2   force =     0.00000000    0.00000000    0.00000000
     atom   13 type  2   force =     0.00000000    0.00000000    0.00000000
     atom   14 type  2   force =     0.00000000    0.00000000    0.00000000
     atom   15 type  2   force =     0.00000000    0.00000000    0.00000000
     atom   16 type  2   force =     0.00000000    0.00000000    0.00000000
     atom   17 type  2   force =     0.00000000    0.00000000    0.00000000
     atom   18 type  2   force =     0.00000000    0.00000000    0.00000000
     atom   19 type  2   force =     0.00000000    0.00000000    0.00000000
     atom   20 type  2   force =     0.00000000    0.00000000    0.00000000
     atom   21 type  2   force =     0.00000000    0.00000000    0.00000000
     atom   22 type  2   force =     0.00000000    0.00000000    0.00000000
     atom   23 type  2   force =     0.00000000    0.00000000    0.00000000
     atom   24 type  2   force =     0.00000000    0.00000000    0.00000000
     The SCF correction term to forces
     atom    1 type  1   force =    -0.00000148    0.00000176    0.00000231
     atom    2 type  1   force =     0.00000698   -0.00001207    0.00000203
     atom    3 type  1   force =     0.00000163   -0.00000231    0.00000102
     atom    4 type  1   force =     0.00000835    0.00000419   -0.00000270
     atom    5 type  1   force =     0.00000170    0.00000024    0.00000057
     atom    6 type  1   force =    -0.00000723   -0.00000164    0.00000710
     atom    7 type  1   force =    -0.00000134   -0.00000042   -0.00000040
     atom    8 type  2   force =    -0.00000197    0.00001385   -0.00001783
     atom    9 type  2   force =    -0.00000179    0.00002698    0.00001274
     atom   10 type  2   force =     0.00001405   -0.00000671   -0.00001961
     atom   11 type  2   force =     0.00002357   -0.00001267    0.00001687
     atom   12 type  2   force =     0.00000209   -0.00000243   -0.00001668
     atom   13 type  2   force =     0.00000159   -0.00000211    0.00002012
     atom   14 type  2   force =    -0.00001404   -0.00000447   -0.00001824
     atom   15 type  2   force =    -0.00002402   -0.00001129    0.00001472
     atom   16 type  2   force =     0.00002004    0.00001479   -0.00001558
     atom   17 type  2   force =     0.00001149    0.00001016    0.00001880
     atom   18 type  2   force =     0.00000201   -0.00000239   -0.00002093
     atom   19 type  2   force =     0.00000237   -0.00000261    0.00001723
     atom   20 type  2   force =    -0.00002064    0.00001326   -0.00001288
     atom   21 type  2   force =    -0.00001168    0.00000786    0.00001740
     atom   22 type  2   force =    -0.00000196   -0.00002485   -0.00001717
     atom   23 type  2   force =    -0.00000227   -0.00001597    0.00001965
     atom   24 type  2   force =    -0.00001153    0.00001505   -0.00000250

     Total force =     0.001034     Total SCF correction =     0.000105
     SCF correction compared to forces is large: reduce conv_thr to get better values

     Computing stress (Cartesian axis) and pressure

     Non-local corr. energy    =      11.81062750 Ry

          total   stress  (Ry/bohr**3)                   (kbar)     P=      -29.41
  -0.00019816   0.00000001  -0.00000002          -29.15        0.00       -0.00
   0.00000001  -0.00019813   0.00000002            0.00      -29.15        0.00
  -0.00000002   0.00000002  -0.00020346           -0.00        0.00      -29.93

     kinetic stress (kbar)  14684.61      0.01     -0.01
                                0.01  14684.62      0.01
                               -0.01      0.01  14696.30

     local   stress (kbar)  -7590.58      0.15     -0.15
                                0.15  -7590.26      0.16
                               -0.15      0.16   1407.39

     nonloc. stress (kbar)   -662.80      0.00     -0.01
                                0.00   -662.79      0.01
                               -0.01      0.01   -665.49

     hartree stress (kbar)  12288.55     -0.05      0.06
                               -0.05  12288.43     -0.06
                                0.06     -0.06   8217.33

     exc-cor stress (kbar)   7102.45     -0.00     -0.00
                               -0.00   7102.45      0.00
                               -0.00      0.00   7101.65

     corecor stress (kbar) -11516.27     -0.00      0.00
                               -0.00 -11516.27     -0.00
                                0.00     -0.00 -11516.30

     ewald   stress (kbar) -14420.63     -0.10      0.11
                               -0.10 -14420.86     -0.12
                                0.11     -0.12 -19357.54

     hubbard stress (kbar)      0.00      0.00      0.00
                                0.00      0.00      0.00
                                0.00      0.00      0.00

     DFT-D   stress (kbar)      0.00      0.00      0.00
                                0.00      0.00      0.00
                                0.00      0.00      0.00

     XDM     stress (kbar)      0.00      0.00      0.00
                                0.00      0.00      0.00
                                0.00      0.00      0.00

     dft-nl  stress (kbar)     85.53      0.00      0.00
                                0.00     85.53     -0.00
                                0.00     -0.00     86.74

     TS-vdW  stress (kbar)      0.00      0.00      0.00
                                0.00      0.00      0.00
                                0.00      0.00      0.00

     MDB     stress (kbar)      0.00      0.00      0.00
                                0.00      0.00      0.00
                                0.00      0.00      0.00

     3D-RISM stress (kbar)      0.00      0.00      0.00
                                0.00      0.00      0.00
                                0.00      0.00      0.00

     Energy error            =      2.0E-06 Ry
     Gradient error          =      3.6E-04 Ry/Bohr

     bfgs converged in   9 scf cycles and   8 bfgs steps
     (criteria: energy <  1.0E-04 Ry, force <  1.0E-03 Ry/Bohr)

     End of BFGS Geometry Optimization

     Final energy             =  -15856.6184763343 Ry

     File ./PbI2.bfgs deleted, as requested
Begin final coordinates

ATOMIC_POSITIONS (angstrom)
Pb            2.3557146930        4.0797787272        7.3777052831
Pb            0.0001329385        8.1598201239       14.7553261074
Pb            0.0000811712        8.1598363206        7.3776667779
Pb            7.0670186769        4.0797199949       14.7553694117
Pb            7.0669912087        4.0797634281        7.3777419703
Pb            4.7113902889        8.1597986803       14.7553787023
Pb            4.7113405575        8.1598312455        7.3777019951
I             2.3556890534        1.3632658627        5.5033464452
I             2.3556858970        1.3668582702       12.8361954124
I             0.0030939603        5.4380935296        5.5033230101
I             0.0065390718        5.4360768929       12.8363848176
I             7.0669907790        1.3597838986        5.4387391091
I             7.0670034568        1.3597659654       12.8915656787
I             4.7083228451        5.4381151098        5.5033520411
I             4.7051079899        5.4362239156       12.8362531072
I             0.0063887367        2.7233840397        1.9189301629
I             0.0031121436        2.7215397096        9.2520905997
I            -2.3555184083        6.7998478250        1.8636165497
I            -2.3555416093        6.7998877577        9.3167247701
I             4.7048805145        2.7234878790        1.9188377651
I             4.7083096121        2.7215240632        9.2520366884
I             2.3557107215        6.7926914805        1.9189645393
I             2.3556913711        6.7963835139        9.2520663172
I             2.3556601071        4.0797992089       14.7552150906
End final coordinates

     Writing all to output data dir ./PbI2.save/

     General routines

     Parallel routines

     PAW routines

   This run was terminated on:   3:20: 4  28Mar2024

   JOB DONE.