     Program PWSCF v.7.1 starts on 21Feb2024 at  7:49:53

     Reading input from espresso.pwi
Warning: card &CELL ignored
Warning: card    CELL_DYNAMICS    = 'BFGS' ignored
Warning: card / ignored

     Current dimensions of program PWSCF are:
     Max number of different atomic species (ntypx) = 10
     Max number of k-points (npk) =  40000
     Max angular momentum in pseudopotentials (lmaxx) =  4
     file Pb.pbe-dn-kjpaw_psl.1.0.0.UPF: wavefunction(s)  6S 6P 5D renormalized
     file I.pbe-dn-kjpaw_psl.1.0.0.UPF: wavefunction(s)  5S 5P renormalized

     IMPORTANT: XC functional enforced from input :
     Exchange-correlation= BEEF-VDW
                           (   1   4  43  14   2   0   0)
     Any further DFT definition will be discarded
     Please, verify this is what you really want

     R & G space division:  proc/nbgrp/npool/nimage =     128
     Subspace diagonalization in iterative solution of the eigenvalue problem:
     a serial algorithm will be used

     Using Slab Decomposition

     bravais-lattice index     =            4
     lattice parameter (alat)  =       8.9075  a.u.
     unit-cell volume          =    6736.8322 (a.u.)^3
     number of atoms/cell      =           21
     number of atomic types    =            2
     number of electrons       =       336.00
     number of Kohn-Sham states=          202
     kinetic-energy cutoff     =      70.0000  Ry
     charge density cutoff     =     350.0000  Ry
     scf convergence threshold =      1.0E-07
     mixing beta               =       0.7000
     number of iterations used =            8  plain     mixing
     Exchange-correlation= BEEF-VDW
                           (   1   4  43  14   2   0   0)

     celldm(1)=   8.907457  celldm(2)=   0.000000  celldm(3)=  11.006870
     celldm(4)=   0.000000  celldm(5)=   0.000000  celldm(6)=   0.000000

     crystal axes: (cart. coord. in units of alat)
               a(1) = (   1.000000   0.000000   0.000000 )
               a(2) = (  -0.500000   0.866025   0.000000 )
               a(3) = (   0.000000   0.000000  11.006870 )

     reciprocal axes: (cart. coord. in units 2 pi/alat)
               b(1) = (  1.000000  0.577350 -0.000000 )
               b(2) = (  0.000000  1.154701  0.000000 )
               b(3) = (  0.000000 -0.000000  0.090852 )

     PseudoPot. # 1 for Pb read from file:
     /trace/group/acmegroup/atimmins/packages/espresso/pseudo/psl_1.0.0/pslibrary.1.0.0/pbe/PSEUDOPOTENTIALS/Pb.pbe-dn-kjpaw_psl.1.0.0.UPF
     MD5 check sum: 39ab5b8a6bbd56b7735ad9f188aac93a
     Pseudo is Projector augmented-wave + core cor, Zval = 14.0
     Generated using 'atomic' code by A. Dal Corso  v.7.1
     Shape of augmentation charge: PSQ
     Using radial grid of 1281 points,  6 beta functions with:
                l(1) =   0
                l(2) =   0
                l(3) =   1
                l(4) =   1
                l(5) =   2
                l(6) =   2
     Q(r) pseudized with 0 coefficients

     PseudoPot. # 2 for I  read from file:
     /trace/group/acmegroup/atimmins/packages/espresso/pseudo/psl_1.0.0/pslibrary.1.0.0/pbe/PSEUDOPOTENTIALS/I.pbe-dn-kjpaw_psl.1.0.0.UPF
     MD5 check sum: bfa8781bc1224d19af3f3980e3fab11e
     Pseudo is Projector augmented-wave + core cor, Zval = 17.0
     Generated using 'atomic' code by A. Dal Corso  v.7.1
     Shape of augmentation charge: PSQ
     Using radial grid of 1247 points,  6 beta functions with:
                l(1) =   0
                l(2) =   0
                l(3) =   1
                l(4) =   1
                l(5) =   2
                l(6) =   2
     Q(r) pseudized with 0 coefficients

     atomic species   valence    mass     pseudopotential
        Pb            14.00   207.20000     Pb( 1.00)
        I             17.00   126.90447     I ( 1.00)

      6 Sym. Ops. (no inversion) found

                                    s                        frac. trans.

      isym =  1     identity

 cryst.   s( 1) = (     1          0          0      )
                  (     0          1          0      )
                  (     0          0          1      )

 cart.    s( 1) = (  1.0000000  0.0000000  0.0000000 )
                  (  0.0000000  1.0000000  0.0000000 )
                  (  0.0000000  0.0000000  1.0000000 )

      isym =  2     120 deg rotation - cryst. axis [0,0,1]

[...]

      isym =  3     120 deg rotation - cryst. axis [0,0,-1]

[...]

      isym =  4     inv. 180 deg rotation - cart. axis [1,0,0]

[...]

      isym =  5     inv. 180 deg rotation - cryst. axis [0,1,0]

[...]

      isym =  6     inv. 180 deg rotation - cryst. axis [1,1,0]

 cryst.   s( 6) = (     0         -1          0      )
                  (    -1          0          0      )
                  (     0          0          1      )

 cart.    s( 6) = (  0.5000000 -0.8660254  0.0000000 )
                  ( -0.8660254 -0.5000000  0.0000000 )
                  (  0.0000000  0.0000000  1.0000000 )

     point group C_3v (3m)
     there are  3 classes
     the character table:

       E     2C3   3s_v
A_1    1.00  1.00  1.00
A_2    1.00  1.00 -1.00
E      2.00 -1.00  0.00

     the symmetry operations in each class and the name of the first element:

     E        1
          identity
     2C3      2    3
          120 deg rotation - cryst. axis [0,0,1]
     3s_v     4    5    6
          inv. 180 deg rotation - cart. axis [1,0,0]

   Cartesian axes

     site n.     atom                  positions (alat units)
         1           Pb  tau(   1) = (  -0.0000005   0.5773506   1.9891441  )
         2           Pb  tau(   2) = (  -0.0000005   0.5773506   5.1375496  )
         3           Pb  tau(   3) = (   0.0000000   0.0000000   9.8476795  )
         4           Pb  tau(   4) = (  -0.0000005   0.5773506   8.2727135  )
         5           Pb  tau(   5) = (  -0.0000005   0.5773506   6.7035270  )
         6           Pb  tau(   6) = (  -0.0000005   0.5773506   3.5659889  )
         7           Pb  tau(   7) = (  -0.0000005   0.5773506   0.4199623  )
         8           I   tau(   8) = (   0.5000005   0.2886749  10.2465175  )
         9           I   tau(   9) = (   0.0000000   0.0000000   4.7380411  )
        10           I   tau(  10) = (   0.5000005   0.2886749   0.8208850  )
        11           I   tau(  11) = (   0.5000005   0.2886749   8.6735618  )
        12           I   tau(  12) = (   0.0000000   0.0000000   1.5882937  )
        13           I   tau(  13) = (   0.5000005   0.2886749   3.9659526  )
        14           I   tau(  14) = (  -0.0000005   0.5773506   9.4473058  )
        15           I   tau(  15) = (   0.0000000   0.0000000   0.0188360  )
        16           I   tau(  16) = (   0.5000005   0.2886749   7.1038436  )
        17           I   tau(  17) = (   0.0000000   0.0000000   6.3048629  )
        18           I   tau(  18) = (   0.0000000   0.0000000   3.1676260  )
        19           I   tau(  19) = (   0.5000005   0.2886749   2.3892931  )
        20           I   tau(  20) = (   0.5000005   0.2886749   5.5380259  )
        21           I   tau(  21) = (   0.0000000   0.0000000   7.8727187  )

   Crystallographic axes

     site n.     atom                  positions (cryst. coord.)
         1           Pb  tau(   1) = (  0.3333330  0.6666670  0.1807184  )
         2           Pb  tau(   2) = (  0.3333330  0.6666670  0.4667584  )
         3           Pb  tau(   3) = (  0.0000000  0.0000000  0.8946848  )
         4           Pb  tau(   4) = (  0.3333330  0.6666670  0.7515954  )
         5           Pb  tau(   5) = (  0.3333330  0.6666670  0.6090311  )
         6           Pb  tau(   6) = (  0.3333330  0.6666670  0.3239785  )
         7           Pb  tau(   7) = (  0.3333330  0.6666670  0.0381546  )
         8           I   tau(   8) = (  0.6666670  0.3333330  0.9309201  )
         9           I   tau(   9) = (  0.0000000  0.0000000  0.4304621  )
        10           I   tau(  10) = (  0.6666670  0.3333330  0.0745793  )
        11           I   tau(  11) = (  0.6666670  0.3333330  0.7880134  )
        12           I   tau(  12) = (  0.0000000  0.0000000  0.1443002  )
        13           I   tau(  13) = (  0.6666670  0.3333330  0.3603161  )
        14           I   tau(  14) = (  0.3333330  0.6666670  0.8583099  )
        15           I   tau(  15) = (  0.0000000  0.0000000  0.0017113  )
        16           I   tau(  16) = (  0.6666670  0.3333330  0.6454009  )
        17           I   tau(  17) = (  0.0000000  0.0000000  0.5728116  )
        18           I   tau(  18) = (  0.0000000  0.0000000  0.2877863  )
        19           I   tau(  19) = (  0.6666670  0.3333330  0.2170729  )
        20           I   tau(  20) = (  0.6666670  0.3333330  0.5031426  )
        21           I   tau(  21) = (  0.0000000  0.0000000  0.7152550  )

     number of k points=     4  Gaussian smearing, width (Ry)=  0.0100
                       cart. coord. in units 2pi/alat
        k(    1) = (   0.0000000   0.0000000   0.0000000), wk =   0.1250000
        k(    2) = (   0.0000000   0.2886751   0.0000000), wk =   0.7500000
        k(    3) = (   0.0000000  -0.5773503   0.0000000), wk =   0.3750000
        k(    4) = (   0.2500000   0.4330127   0.0000000), wk =   0.7500000

                       cryst. coord.
        k(    1) = (   0.0000000   0.0000000   0.0000000), wk =   0.1250000
        k(    2) = (   0.0000000   0.2500000   0.0000000), wk =   0.7500000
        k(    3) = (   0.0000000  -0.5000000   0.0000000), wk =   0.3750000
        k(    4) = (   0.2500000   0.2500000   0.0000000), wk =   0.7500000

     Atomic positions and unit cell read from directory:
     ./PbI2.save/
     Atomic positions from file used, from input discarded

     Check: negative core charge=   -0.000001

     The initial density is read from file :
     ./PbI2.save/charge-density

     %%%%%%%%%%%%%%%%%%%%%%%%%%%%%%%%%%%%%%%%%%%%%%%%%%%%%%%%%%%%%%%%%%%%%%%%
     %                                                                      %
     % You are using vdW-DF, which was implemented by the Thonhauser group. %
     % Please cite the following two papers that made this development      %
     % possible and the two reviews that describe the various versions:     %
     %                                                                      %
     %   T. Thonhauser et al., PRL 115, 136402 (2015).                      %
     %   T. Thonhauser et al., PRB 76, 125112 (2007).                       %
     %   K. Berland et al., Rep. Prog. Phys. 78, 066501 (2015).             %
     %   D.C. Langreth et al., J. Phys.: Condens. Matter 21, 084203 (2009). %
     %                                                                      %
     % If you are calculating stress with vdW-DF, please also cite:         %
     %                                                                      %
     %   R. Sabatini et al., J. Phys.: Condens. Matter 24, 424209 (2012).   %
     %                                                                      %
     %%%%%%%%%%%%%%%%%%%%%%%%%%%%%%%%%%%%%%%%%%%%%%%%%%%%%%%%%%%%%%%%%%%%%%%%

     %%%%%%%%%%%%%%%%%%%%%%%%%%%%%%%%%%%%%%%%%%%%%%%%%%%%%%%%%%%%%%%%%%%%%%%%
[...]
     atom    4 type  1   force =     0.00000000    0.00000000   -0.00041414
     atom    5 type  1   force =     0.00000000    0.00000000   -0.00015879
     atom    6 type  1   force =     0.00000000    0.00000000   -0.00013912
     atom    7 type  1   force =     0.00000000    0.00000000    0.00011220
     atom    8 type  2   force =     0.00000000    0.00000000   -0.24533232
     atom    9 type  2   force =     0.00000000   -0.00000000    0.24605398
     atom   10 type  2   force =     0.00000000    0.00000000   -0.24685640
     atom   11 type  2   force =     0.00000000   -0.00000000   -0.24600692
     atom   12 type  2   force =     0.00000000    0.00000000    0.24655155
     atom   13 type  2   force =     0.00000000    0.00000000   -0.24593283
     atom   14 type  2   force =     0.00000000    0.00000000    0.24547159
     atom   15 type  2   force =     0.00000000    0.00000000    0.24512588
     atom   16 type  2   force =     0.00000000    0.00000000   -0.24611821
     atom   17 type  2   force =     0.00000000    0.00000000    0.24607506
     atom   18 type  2   force =     0.00000000    0.00000000    0.24519959
     atom   19 type  2   force =     0.00000000    0.00000000   -0.24551893
     atom   20 type  2   force =     0.00000000   -0.00000000   -0.24662699
     atom   21 type  2   force =     0.00000000   -0.00000000    0.24665886
     The ionic contribution  to forces
     atom    1 type  1   force =     0.00002817   -0.00001733    0.01778241
     atom    2 type  1   force =     0.00002826   -0.00001739   -0.61229712
     atom    3 type  1   force =     0.00000003    0.00000101    0.53920835
     atom    4 type  1   force =     0.00002816   -0.00001733    0.82299205
     atom    5 type  1   force =     0.00002828   -0.00001740    0.35333124
     atom    6 type  1   force =     0.00002829   -0.00001741   -0.76757146
     atom    7 type  1   force =     0.00002814   -0.00001731   -0.48718051
     atom    8 type  2   force =    -0.00001207    0.00000665   15.42370297
     atom    9 type  2   force =    -0.00000761    0.00000516  -15.43087379
     atom   10 type  2   force =    -0.00002061    0.00001220   13.98687286
     atom   11 type  2   force =    -0.00002154    0.00001282   15.70175911
     atom   12 type  2   force =    -0.00000755    0.00000512  -14.57585787
     atom   13 type  2   force =    -0.00002067    0.00001224   13.76551382
     atom   14 type  2   force =     0.00001304   -0.00000829  -13.84364273
     atom   15 type  2   force =    -0.00000757    0.00000512  -15.04128510
     atom   16 type  2   force =    -0.00002067    0.00001224   15.12082976
     atom   17 type  2   force =    -0.00000759    0.00000515  -14.30919634
     atom   18 type  2   force =    -0.00000766    0.00000519  -15.64137332
     atom   19 type  2   force =    -0.00002055    0.00001217   14.58306141
     atom   20 type  2   force =    -0.00002069    0.00001225   13.94752970
     atom   21 type  2   force =    -0.00000758    0.00000514  -13.55330544
     The local contribution  to forces
     atom    1 type  1   force =     0.00024538   -0.00015982   -0.01792275
     atom    2 type  1   force =     0.00024531   -0.00015977    0.61253596
     atom    3 type  1   force =     0.00000000    0.00000000   -0.53929247
     atom    4 type  1   force =     0.00024548   -0.00015988   -0.82243078
     atom    5 type  1   force =     0.00024529   -0.00015976   -0.35308697
     atom    6 type  1   force =     0.00024528   -0.00015975    0.76792478
     atom    7 type  1   force =     0.00024539   -0.00015982    0.48682172
     atom    8 type  2   force =    -0.00069878    0.00037922  -15.18323622
     atom    9 type  2   force =     0.00000000   -0.00000000   15.19019073
     atom   10 type  2   force =    -0.00069876    0.00037921  -13.74600105
     atom   11 type  2   force =    -0.00069879    0.00037922  -15.46136178
     atom   12 type  2   force =     0.00000000   -0.00000000   14.33480522
     atom   13 type  2   force =    -0.00069874    0.00037920  -13.52445466
     atom   14 type  2   force =     0.00070190   -0.00045715   13.60346329
     atom   15 type  2   force =     0.00000000   -0.00000000   14.80173226
     atom   16 type  2   force =    -0.00069873    0.00037919  -14.87991952
     atom   17 type  2   force =     0.00000000   -0.00000000   14.06799488
     atom   18 type  2   force =    -0.00000000   -0.00000000   15.40064076
     atom   19 type  2   force =    -0.00069882    0.00037924  -14.34265153
     atom   20 type  2   force =    -0.00069872    0.00037918  -13.70637846
     atom   21 type  2   force =    -0.00000000   -0.00000000   13.31222061
     The core correction contribution to forces
     atom    1 type  1   force =     0.00001652   -0.00001076   -0.00001154
     atom    2 type  1   force =     0.00001652   -0.00001076   -0.00001380
     atom    3 type  1   force =    -0.00000000   -0.00000000    0.00003708
     atom    4 type  1   force =     0.00001652   -0.00001076   -0.00000945
     atom    5 type  1   force =     0.00001652   -0.00001076   -0.00003747
     atom    6 type  1   force =     0.00001652   -0.00001076   -0.00002940
     atom    7 type  1   force =     0.00001652   -0.00001076    0.00002208
     atom    8 type  2   force =    -0.00005755    0.00003123    0.00527466
     atom    9 type  2   force =    -0.00000000    0.00000000   -0.00526458
     atom   10 type  2   force =    -0.00005755    0.00003123    0.00530485
     atom   11 type  2   force =    -0.00005754    0.00003123    0.00529756
     atom   12 type  2   force =    -0.00000000    0.00000000   -0.00536572
     atom   13 type  2   force =    -0.00005755    0.00003123    0.00534935
     atom   14 type  2   force =     0.00005779   -0.00003764   -0.00533417
     atom   15 type  2   force =    -0.00000000    0.00000000   -0.00529608
     atom   16 type  2   force =    -0.00005755    0.00003123    0.00538773
     atom   17 type  2   force =    -0.00000000    0.00000000   -0.00536896
     atom   18 type  2   force =    -0.00000000    0.00000000   -0.00531762
     atom   19 type  2   force =    -0.00005755    0.00003123    0.00535576
     atom   20 type  2   force =    -0.00005755    0.00003123    0.00530776
     atom   21 type  2   force =    -0.00000000    0.00000000   -0.00529818
     The Hubbard contrib.    to forces
     atom    1 type  1   force =     0.00000000    0.00000000    0.00000000
     atom    2 type  1   force =     0.00000000    0.00000000    0.00000000
     atom    3 type  1   force =     0.00000000    0.00000000    0.00000000
     atom    4 type  1   force =     0.00000000    0.00000000    0.00000000
     atom    5 type  1   force =     0.00000000    0.00000000    0.00000000
     atom    6 type  1   force =     0.00000000    0.00000000    0.00000000
     atom    7 type  1   force =     0.00000000    0.00000000    0.00000000
     atom    8 type  2   force =     0.00000000    0.00000000    0.00000000
     atom    9 type  2   force =     0.00000000    0.00000000    0.00000000
     atom   10 type  2   force =     0.00000000    0.00000000    0.00000000
     atom   11 type  2   force =     0.00000000    0.00000000    0.00000000
     atom   12 type  2   force =     0.00000000    0.00000000    0.00000000
     atom   13 type  2   force =     0.00000000    0.00000000    0.00000000
     atom   14 type  2   force =     0.00000000    0.00000000    0.00000000
     atom   15 type  2   force =     0.00000000    0.00000000    0.00000000
     atom   16 type  2   force =     0.00000000    0.00000000    0.00000000
     atom   17 type  2   force =     0.00000000    0.00000000    0.00000000
     atom   18 type  2   force =     0.00000000    0.00000000    0.00000000
     atom   19 type  2   force =     0.00000000    0.00000000    0.00000000
     atom   20 type  2   force =     0.00000000    0.00000000    0.00000000
     atom   21 type  2   force =     0.00000000    0.00000000    0.00000000
     The SCF correction term to forces
     atom    1 type  1   force =    -0.00000000    0.00000000    0.00019441
     atom    2 type  1   force =     0.00000000   -0.00000000   -0.00005681
     atom    3 type  1   force =     0.00000000    0.00000000   -0.00003963
     atom    4 type  1   force =     0.00000000   -0.00000000    0.00003874
     atom    5 type  1   force =    -0.00000000    0.00000000    0.00024142
     atom    6 type  1   force =    -0.00000000    0.00000000    0.00003302
     atom    7 type  1   force =     0.00000000   -0.00000000    0.00003688
     atom    8 type  2   force =    -0.00000000    0.00000000    0.00003123
     atom    9 type  2   force =     0.00000000   -0.00000000   -0.00002510
     atom   10 type  2   force =    -0.00000000    0.00000000   -0.00004653
     atom   11 type  2   force =    -0.00000000    0.00000000   -0.00012374
     atom   12 type  2   force =     0.00000000   -0.00000000    0.00012853
     atom   13 type  2   force =    -0.00000000    0.00000000    0.00000386
     atom   14 type  2   force =     0.00000000   -0.00000000   -0.00013851
     atom   15 type  2   force =     0.00000000   -0.00000000    0.00007451
     atom   16 type  2   force =    -0.00000000    0.00000000    0.00018561
     atom   17 type  2   force =     0.00000000   -0.00000000    0.00002969
     atom   18 type  2   force =    -0.00000000    0.00000000   -0.00007434
     atom   19 type  2   force =    -0.00000000    0.00000000    0.00010197
     atom   20 type  2   force =     0.00000000   -0.00000000   -0.00023031
     atom   21 type  2   force =     0.00000000   -0.00000000    0.00004201

     Total force =     0.001795     Total SCF correction =     0.000521
     SCF correction compared to forces is large: reduce conv_thr to get better values

     Computing stress (Cartesian axis) and pressure

[...]

          total   stress  (Ry/bohr**3)                   (kbar)     P=        1.03
   0.00000646   0.00000000   0.00000000            0.95        0.00        0.00
   0.00000000   0.00000646  -0.00000000            0.00        0.95       -0.00
   0.00000000   0.00000000   0.00000817            0.00        0.00        1.20

     kinetic stress (kbar)  14907.09      0.00     -0.00
                                0.00  14907.09     -0.00
                               -0.00     -0.00  14918.15

     local   stress (kbar)  -7735.39     -0.00      0.00
                               -0.00  -7735.39     -0.00
                                0.00     -0.00   1727.47

     nonloc. stress (kbar)  -1066.52      0.00      0.00
                                0.00  -1066.52      0.00
                                0.00      0.00  -1072.51

     hartree stress (kbar)  12092.70      0.00      0.00
                                0.00  12092.70     -0.00
                                0.00     -0.00   7821.90

     exc-cor stress (kbar)   6907.78      0.00     -0.00
                                0.00   6907.78      0.00
                               -0.00      0.00   6906.58

     corecor stress (kbar) -11246.84     -0.00     -0.00
                               -0.00 -11246.84      0.00
                               -0.00      0.00 -11246.77

     ewald   stress (kbar) -13940.69      0.00     -0.01
                                0.00 -13940.69      0.00
                               -0.01      0.00 -19137.84

     hubbard stress (kbar)      0.00      0.00      0.00
                                0.00      0.00      0.00
                                0.00      0.00      0.00

     DFT-D   stress (kbar)      0.00      0.00      0.00
                                0.00      0.00      0.00
                                0.00      0.00      0.00

     XDM     stress (kbar)      0.00      0.00      0.00
                                0.00      0.00      0.00
                                0.00      0.00      0.00

     dft-nl  stress (kbar)     82.82     -0.00      0.00
                               -0.00     82.82     -0.00
                                0.00     -0.00     84.21

     TS-vdW  stress (kbar)      0.00      0.00      0.00
                                0.00      0.00      0.00
                                0.00      0.00      0.00

     MDB     stress (kbar)      0.00      0.00      0.00
                                0.00      0.00      0.00
                                0.00      0.00      0.00

     3D-RISM stress (kbar)      0.00      0.00      0.00
                                0.00      0.00      0.00
                                0.00      0.00      0.00

[...]

     Non-local corr. energy    =      10.07165131 Ry

 BEEFens 2000 ensemble energies
             -0.846123380995675E+01
             -0.851508821160101E+02
             -0.387510571010844E+02
              0.297393281418434E+02
             -0.650810674236535E+02
             -0.796796952267881E+02
              0.408989863871141E+02
              0.172682314901351E+00
              0.689295202575378E+02
             -0.436339739046520E+01
              0.352933723525159E+02
              0.360260497713142E+01
             -0.270573109322319E+01
             -0.218544751574785E+01
              0.439874637273710E+02
             -0.331297674279556E+02
             -0.650283554156688E+02
             -0.209897736370877E+02
              0.188046545569866E+02
             -0.401537663999420E+00
              0.958896702853797E+02
              0.800387975922762E+02
             -0.492976524082761E+02
              0.170390940733211E+02
             -0.102708994614170E+03
              0.843104311301705E+02
              0.288352821531182E+02
              0.761293719948206E+02
              0.513093492962722E+02
             -0.238220587458704E+02
              0.187749797570391E+02
             -0.335665834602661E+02
              0.140201939965421E+02
              0.510481145278612E+02
              0.549287927036664E+02
             -0.238752011826832E+02
              0.121173680940352E+03
             -0.487605556294828E+02
             -0.324788353044192E+02
              0.484658133297143E+02
              0.213693939761582E+02
              0.368228657955874E+02
             -0.711338204912344E+02
             -0.462524669150298E+01
              0.682433394026864E+02
              0.891981590181557E+02
             -0.905663822556809E+02
              0.581367988195135E+01
              0.314162731382894E+02
              0.202843697173480E+02
              0.354130962788593E+02
              0.777667182296101E+02
             -0.505012238535898E+02
             -0.490100867758238E+02
             -0.682793508303961E+02
             -0.990227308130198E+01
             -0.582511206607065E+02
              0.752400439047005E+01
             -0.840030470319459E+01
             -0.462088357256451E+02
[...]
              0.577023418756912E+02
              0.369647091871292E+02
              0.376829284678407E+02
             -0.697407868418209E+02
             -0.720231212699789E+02
             -0.162361722988216E+02
             -0.643775982015929E+02
              0.102212128590119E+03
              0.861007907784986E+02
              0.406125790999258E+02
              0.111945944743676E+03
             -0.559404702079870E+02
             -0.240964492682527E+02
             -0.347344464867007E+02
              0.968499621094181E+02

 BEEF-vdW xc energy contributions
            1 :    -875.4207748395403
            2 :     802.1470325403827
            3 :    -677.2347132288756
            4 :     533.9969440564773
            5 :    -403.7677732177909
            6 :     305.8216370363789
            7 :    -244.2516987966980
            8 :     210.8643084351298
            9 :    -191.3785813336045
           10 :     172.2885064327567
           11 :    -146.0273640941879
           12 :     112.6205785471781
           13 :    -77.55435124829580
           14 :     47.55293837354827
           15 :    -26.82036983096316
           16 :     15.46826481813878
           17 :    -10.26472302512514
           18 :     6.745000483239323
           19 :    -1.475287509945815
           20 :    -6.512033901890277
           21 :     15.66860441042365
           22 :    -23.19606964259037
           23 :     26.87356972296595
           24 :    -26.38752790592764
           25 :     23.45903969425433
           26 :    -20.82394217430613
           27 :     20.73861768303721
           28 :    -23.83200150756807
           29 :     28.85323276253018
           30 :    -33.39264672715296
           31 :    -75.36161298516652
           32 :    -54.21832370282971

     Writing all to output data dir ./PbI2.save/

     General routines

     Parallel routines

     PAW routines

   This run was terminated on:   7:50:32  21Feb2024

   JOB DONE.