     Program PWSCF v.7.1 starts on 20Feb2024 at 17:15:43

     Reading input from espresso.pwi
Warning: card &CELL ignored
Warning: card    CELL_DYNAMICS    = 'BFGS' ignored
Warning: card / ignored

     Current dimensions of program PWSCF are:
     Max number of different atomic species (ntypx) = 10
     Max number of k-points (npk) =  40000
     Max angular momentum in pseudopotentials (lmaxx) =  4
     file Pb.pbe-dn-kjpaw_psl.1.0.0.UPF: wavefunction(s)  6S 6P 5D renormalized
     file I.pbe-dn-kjpaw_psl.1.0.0.UPF: wavefunction(s)  5S 5P renormalized

     IMPORTANT: XC functional enforced from input :
     Exchange-correlation= BEEF-VDW
                           (   1   4  43  14   2   0   0)
     Any further DFT definition will be discarded
     Please, verify this is what you really want

     R & G space division:  proc/nbgrp/npool/nimage =     128
     Subspace diagonalization in iterative solution of the eigenvalue problem:
     a serial algorithm will be used

     Using Slab Decomposition

     bravais-lattice index     =            4
     lattice parameter (alat)  =       8.9075  a.u.
     unit-cell volume          =    6736.8322 (a.u.)^3
     number of atoms/cell      =           21
     number of atomic types    =            2
     number of electrons       =       336.00
     number of Kohn-Sham states=          202
     kinetic-energy cutoff     =      70.0000  Ry
     charge density cutoff     =     350.0000  Ry
     scf convergence threshold =      1.0E-07
     mixing beta               =       0.7000
     number of iterations used =            8  plain     mixing
     energy convergence thresh.=      1.0E-04
     force convergence thresh. =      1.0E-03
     Exchange-correlation= BEEF-VDW
                           (   1   4  43  14   2   0   0)
     nstep                     =           50

     celldm(1)=   8.907457  celldm(2)=   0.000000  celldm(3)=  11.006870
     celldm(4)=   0.000000  celldm(5)=   0.000000  celldm(6)=   0.000000

     crystal axes: (cart. coord. in units of alat)
               a(1) = (   1.000000   0.000000   0.000000 )
               a(2) = (  -0.500000   0.866025   0.000000 )
               a(3) = (   0.000000   0.000000  11.006870 )

     reciprocal axes: (cart. coord. in units 2 pi/alat)
               b(1) = (  1.000000  0.577350 -0.000000 )
               b(2) = (  0.000000  1.154701  0.000000 )
               b(3) = (  0.000000 -0.000000  0.090852 )

     PseudoPot. # 1 for Pb read from file:
     /trace/group/acmegroup/atimmins/packages/espresso/pseudo/psl_1.0.0/pslibrary.1.0.0/pbe/PSEUDOPOTENTIALS/Pb.pbe-dn-kjpaw_psl.1.0.0.UPF
     MD5 check sum: 39ab5b8a6bbd56b7735ad9f188aac93a
     Pseudo is Projector augmented-wave + core cor, Zval = 14.0
     Generated using 'atomic' code by A. Dal Corso  v.7.1
     Shape of augmentation charge: PSQ
     Using radial grid of 1281 points,  6 beta functions with:
                l(1) =   0
                l(2) =   0
                l(3) =   1
                l(4) =   1
                l(5) =   2
                l(6) =   2
     Q(r) pseudized with 0 coefficients

     PseudoPot. # 2 for I  read from file:
     /trace/group/acmegroup/atimmins/packages/espresso/pseudo/psl_1.0.0/pslibrary.1.0.0/pbe/PSEUDOPOTENTIALS/I.pbe-dn-kjpaw_psl.1.0.0.UPF
     MD5 check sum: bfa8781bc1224d19af3f3980e3fab11e
     Pseudo is Projector augmented-wave + core cor, Zval = 17.0
     Generated using 'atomic' code by A. Dal Corso  v.7.1
     Shape of augmentation charge: PSQ
     Using radial grid of 1247 points,  6 beta functions with:
                l(1) =   0
                l(2) =   0
                l(3) =   1
                l(4) =   1
                l(5) =   2
                l(6) =   2
     Q(r) pseudized with 0 coefficients

     atomic species   valence    mass     pseudopotential
        Pb            14.00   207.20000     Pb( 1.00)
        I             17.00   126.90447     I ( 1.00)

      6 Sym. Ops. (no inversion) found

                                    s                        frac. trans.

      isym =  1     identity

 cryst.   s( 1) = (     1          0          0      )
                  (     0          1          0      )
                  (     0          0          1      )

 cart.    s( 1) = (  1.0000000  0.0000000  0.0000000 )
                  (  0.0000000  1.0000000  0.0000000 )
                  (  0.0000000  0.0000000  1.0000000 )

      isym =  2     120 deg rotation - cryst. axis [0,0,1]

[...]

      isym =  3     120 deg rotation - cryst. axis [0,0,-1]

[...]

      isym =  4     inv. 180 deg rotation - cart. axis [1,0,0]

[...]

      isym =  5     inv. 180 deg rotation - cryst. axis [0,1,0]

[...]

      isym =  6     inv. 180 deg rotation - cryst. axis [1,1,0]

 cryst.   s( 6) = (     0         -1          0      )
                  (    -1          0          0      )
                  (     0          0          1      )

 cart.    s( 6) = (  0.5000000 -0.8660254  0.0000000 )
                  ( -0.8660254 -0.5000000  0.0000000 )
                  (  0.0000000  0.0000000  1.0000000 )

     point group C_3v (3m)
     there are  3 classes
     the character table:

       E     2C3   3s_v
A_1    1.00  1.00  1.00
A_2    1.00  1.00 -1.00
E      2.00 -1.00  0.00

     the symmetry operations in each class and the name of the first element:

     E        1
          identity
     2C3      2    3
          120 deg rotation - cryst. axis [0,0,1]
     3s_v     4    5    6
          inv. 180 deg rotation - cart. axis [1,0,0]

   Cartesian axes

     site n.     atom                  positions (alat units)
         1           Pb  tau(   1) = (  -0.0000005   0.5773506   1.9891441  )
         2           Pb  tau(   2) = (  -0.0000005   0.5773506   5.1375496  )
         3           Pb  tau(   3) = (   0.0000000   0.0000000   9.8476795  )
         4           Pb  tau(   4) = (  -0.0000005   0.5773506   8.2727135  )
         5           Pb  tau(   5) = (  -0.0000005   0.5773506   6.7035270  )
         6           Pb  tau(   6) = (  -0.0000005   0.5773506   3.5659889  )
         7           Pb  tau(   7) = (  -0.0000005   0.5773506   0.4199623  )
         8           I   tau(   8) = (   0.5000005   0.2886749  10.2465175  )
         9           I   tau(   9) = (   0.0000000   0.0000000   4.7380411  )
        10           I   tau(  10) = (   0.5000005   0.2886749   0.8208850  )
        11           I   tau(  11) = (   0.5000005   0.2886749   8.6735618  )
        12           I   tau(  12) = (   0.0000000   0.0000000   1.5882937  )
        13           I   tau(  13) = (   0.5000005   0.2886749   3.9659526  )
        14           I   tau(  14) = (  -0.0000005   0.5773506   9.4473058  )
        15           I   tau(  15) = (   0.0000000   0.0000000   0.0188360  )
        16           I   tau(  16) = (   0.5000005   0.2886749   7.1038436  )
        17           I   tau(  17) = (   0.0000000   0.0000000   6.3048629  )
        18           I   tau(  18) = (   0.0000000   0.0000000   3.1676260  )
        19           I   tau(  19) = (   0.5000005   0.2886749   2.3892931  )
        20           I   tau(  20) = (   0.5000005   0.2886749   5.5380259  )
        21           I   tau(  21) = (   0.0000000   0.0000000   7.8727187  )

   Crystallographic axes

     site n.     atom                  positions (cryst. coord.)
         1           Pb  tau(   1) = (  0.3333330  0.6666670  0.1807184  )
         2           Pb  tau(   2) = (  0.3333330  0.6666670  0.4667584  )
         3           Pb  tau(   3) = (  0.0000000  0.0000000  0.8946848  )
         4           Pb  tau(   4) = (  0.3333330  0.6666670  0.7515954  )
         5           Pb  tau(   5) = (  0.3333330  0.6666670  0.6090311  )
         6           Pb  tau(   6) = (  0.3333330  0.6666670  0.3239785  )
         7           Pb  tau(   7) = (  0.3333330  0.6666670  0.0381546  )
         8           I   tau(   8) = (  0.6666670  0.3333330  0.9309201  )
         9           I   tau(   9) = (  0.0000000  0.0000000  0.4304621  )
        10           I   tau(  10) = (  0.6666670  0.3333330  0.0745793  )
        11           I   tau(  11) = (  0.6666670  0.3333330  0.7880134  )
        12           I   tau(  12) = (  0.0000000  0.0000000  0.1443002  )
        13           I   tau(  13) = (  0.6666670  0.3333330  0.3603161  )
        14           I   tau(  14) = (  0.3333330  0.6666670  0.8583099  )
        15           I   tau(  15) = (  0.0000000  0.0000000  0.0017113  )
        16           I   tau(  16) = (  0.6666670  0.3333330  0.6454009  )
        17           I   tau(  17) = (  0.0000000  0.0000000  0.5728116  )
        18           I   tau(  18) = (  0.0000000  0.0000000  0.2877863  )
        19           I   tau(  19) = (  0.6666670  0.3333330  0.2170729  )
        20           I   tau(  20) = (  0.6666670  0.3333330  0.5031426  )
        21           I   tau(  21) = (  0.0000000  0.0000000  0.7152550  )

     number of k points=     4  Gaussian smearing, width (Ry)=  0.0100
                       cart. coord. in units 2pi/alat
        k(    1) = (   0.0000000   0.0000000   0.0000000), wk =   0.1250000
        k(    2) = (   0.0000000   0.2886751   0.0000000), wk =   0.7500000
        k(    3) = (   0.0000000  -0.5773503   0.0000000), wk =   0.3750000
        k(    4) = (   0.2500000   0.4330127   0.0000000), wk =   0.7500000

                       cryst. coord.
        k(    1) = (   0.0000000   0.0000000   0.0000000), wk =   0.1250000
        k(    2) = (   0.0000000   0.2500000   0.0000000), wk =   0.7500000
        k(    3) = (   0.0000000  -0.5000000   0.0000000), wk =   0.3750000
        k(    4) = (   0.2500000   0.2500000   0.0000000), wk =   0.7500000

     Check: negative core charge=   -0.000001

     Initial potential from superposition of free atoms

     starting charge     335.9825, renormalised to     336.0000

     %%%%%%%%%%%%%%%%%%%%%%%%%%%%%%%%%%%%%%%%%%%%%%%%%%%%%%%%%%%%%%%%%%%%%%%%
     %                                                                      %
     % You are using vdW-DF, which was implemented by the Thonhauser group. %
     % Please cite the following two papers that made this development      %
     % possible and the two reviews that describe the various versions:     %
     %                                                                      %
     %   T. Thonhauser et al., PRL 115, 136402 (2015).                      %
     %   T. Thonhauser et al., PRB 76, 125112 (2007).                       %
     %   K. Berland et al., Rep. Prog. Phys. 78, 066501 (2015).             %
     %   D.C. Langreth et al., J. Phys.: Condens. Matter 21, 084203 (2009). %
     %                                                                      %
     % If you are calculating stress with vdW-DF, please also cite:         %
     %                                                                      %
     %   R. Sabatini et al., J. Phys.: Condens. Matter 24, 424209 (2012).   %
     %                                                                      %
     %%%%%%%%%%%%%%%%%%%%%%%%%%%%%%%%%%%%%%%%%%%%%%%%%%%%%%%%%%%%%%%%%%%%%%%%

     %%%%%%%%%%%%%%%%%%%%%%%%%%%%%%%%%%%%%%%%%%%%%%%%%%%%%%%%%%%%%%%%%%%%%%%%
[...]
      -> PAW hartree energy AE =      95.90136290 Ry
      -> PAW hartree energy PS =     -96.13801559 Ry
      -> PAW xc energy AE      =    -798.42986113 Ry
      -> PAW xc energy PS      =      33.30980357 Ry
      -> total E_H with PAW    =    1465.57164598 Ry
      -> total E_XC with PAW   =   -1757.49583040 Ry

     convergence has been achieved in   7 iterations

[...]

     Forces acting on atoms (cartesian axes, Ry/au):

     atom    1 type  1   force =     0.00000000    0.00000000    0.00001880
     atom    2 type  1   force =     0.00000000    0.00000000    0.00010090
     atom    3 type  1   force =     0.00000000    0.00000000   -0.00024778
     atom    4 type  1   force =     0.00000000    0.00000000    0.00018849
     atom    5 type  1   force =     0.00000000    0.00000000    0.00031733
     atom    6 type  1   force =     0.00000000    0.00000000    0.00023203
     atom    7 type  1   force =     0.00000000    0.00000000   -0.00018979
     atom    8 type  2   force =     0.00000000    0.00000000    0.00039717
     atom    9 type  2   force =     0.00000000    0.00000000    0.00008174
     atom   10 type  2   force =     0.00000000    0.00000000   -0.00068973
     atom   11 type  2   force =     0.00000000    0.00000000   -0.00035989
     atom   12 type  2   force =     0.00000000    0.00000000    0.00020067
     atom   13 type  2   force =     0.00000000    0.00000000    0.00047993
     atom   14 type  2   force =     0.00000000    0.00000000   -0.00012863
     atom   15 type  2   force =     0.00000000    0.00000000    0.00030542
     atom   16 type  2   force =     0.00000000    0.00000000    0.00029441
     atom   17 type  2   force =     0.00000000    0.00000000   -0.00044585
     atom   18 type  2   force =     0.00000000    0.00000000   -0.00087402
     atom   19 type  2   force =     0.00000000    0.00000000    0.00030495
     atom   20 type  2   force =     0.00000000    0.00000000   -0.00028215
     atom   21 type  2   force =     0.00000000    0.00000000    0.00029601
     The non-local contrib.  to forces
     atom    1 type  1   force =     0.00000000    0.00000000   -0.00002468
     atom    2 type  1   force =     0.00000000    0.00000000   -0.00006422
     atom    3 type  1   force =    -0.00000000   -0.00000000   -0.00015984
     atom    4 type  1   force =     0.00000000    0.00000000   -0.00040182
     atom    5 type  1   force =     0.00000000    0.00000000   -0.00013341
     atom    6 type  1   force =     0.00000000    0.00000000   -0.00012410
     atom    7 type  1   force =     0.00000000   -0.00000000    0.00010596
     atom    8 type  2   force =     0.00000000    0.00000000   -0.24535109
     atom    9 type  2   force =     0.00000000    0.00000000    0.24605931
     atom   10 type  2   force =     0.00000000    0.00000000   -0.24683450
     atom   11 type  2   force =     0.00000000   -0.00000000   -0.24595909
     atom   12 type  2   force =     0.00000000    0.00000000    0.24651191
     atom   13 type  2   force =     0.00000000    0.00000000   -0.24593030
     atom   14 type  2   force =     0.00000000   -0.00000000    0.24551222
     atom   15 type  2   force =     0.00000000    0.00000000    0.24509946
     atom   16 type  2   force =     0.00000000    0.00000000   -0.24617040
     atom   17 type  2   force =     0.00000000    0.00000000    0.24608157
     atom   18 type  2   force =     0.00000000    0.00000000    0.24522964
     atom   19 type  2   force =     0.00000000    0.00000000   -0.24554679
     atom   20 type  2   force =     0.00000000    0.00000000   -0.24654817
     atom   21 type  2   force =     0.00000000    0.00000000    0.24664432
     The ionic contribution  to forces
     atom    1 type  1   force =     0.00002817   -0.00001733    0.01778241
     atom    2 type  1   force =     0.00002826   -0.00001739   -0.61229712
     atom    3 type  1   force =     0.00000003    0.00000101    0.53920835
     atom    4 type  1   force =     0.00002816   -0.00001733    0.82299205
     atom    5 type  1   force =     0.00002828   -0.00001740    0.35333124
     atom    6 type  1   force =     0.00002829   -0.00001741   -0.76757146
     atom    7 type  1   force =     0.00002814   -0.00001731   -0.48718051
     atom    8 type  2   force =    -0.00001207    0.00000665   15.42370297
     atom    9 type  2   force =    -0.00000761    0.00000516  -15.43087379
     atom   10 type  2   force =    -0.00002061    0.00001220   13.98687286
     atom   11 type  2   force =    -0.00002154    0.00001282   15.70175911
     atom   12 type  2   force =    -0.00000755    0.00000512  -14.57585787
     atom   13 type  2   force =    -0.00002067    0.00001224   13.76551382
     atom   14 type  2   force =     0.00001304   -0.00000829  -13.84364273
     atom   15 type  2   force =    -0.00000757    0.00000512  -15.04128510
     atom   16 type  2   force =    -0.00002067    0.00001224   15.12082976
     atom   17 type  2   force =    -0.00000759    0.00000515  -14.30919634
     atom   18 type  2   force =    -0.00000766    0.00000519  -15.64137332
     atom   19 type  2   force =    -0.00002055    0.00001217   14.58306141
     atom   20 type  2   force =    -0.00002069    0.00001225   13.94752970
     atom   21 type  2   force =    -0.00000758    0.00000514  -13.55330544
     The local contribution  to forces
     atom    1 type  1   force =     0.00024538   -0.00015982   -0.01768379
     atom    2 type  1   force =     0.00024531   -0.00015977    0.61249518
     atom    3 type  1   force =    -0.00000000    0.00000000   -0.53932478
     atom    4 type  1   force =     0.00024548   -0.00015988   -0.82236869
     atom    5 type  1   force =     0.00024529   -0.00015976   -0.35278670
     atom    6 type  1   force =     0.00024528   -0.00015975    0.76797912
     atom    7 type  1   force =     0.00024539   -0.00015982    0.48686535
     atom    8 type  2   force =    -0.00069878    0.00037922  -15.18318720
     atom    9 type  2   force =     0.00000000   -0.00000000   15.19017138
     atom   10 type  2   force =    -0.00069876    0.00037921  -13.74605779
     atom   11 type  2   force =    -0.00069879    0.00037922  -15.46150751
     atom   12 type  2   force =     0.00000000   -0.00000000   14.33494888
     atom   13 type  2   force =    -0.00069874    0.00037920  -13.52445128
     atom   14 type  2   force =     0.00070190   -0.00045715   13.60331519
     atom   15 type  2   force =    -0.00000000   -0.00000000   14.80182318
     atom   16 type  2   force =    -0.00069873    0.00037919  -14.87971909
     atom   17 type  2   force =     0.00000000   -0.00000000   14.06801383
     atom   18 type  2   force =     0.00000000   -0.00000000   15.40055508
     atom   19 type  2   force =    -0.00069882    0.00037924  -14.34254092
     atom   20 type  2   force =    -0.00069872    0.00037918  -13.70664146
     atom   21 type  2   force =     0.00000000   -0.00000000   13.31226832
     The core correction contribution to forces
     atom    1 type  1   force =     0.00001652   -0.00001076   -0.00000771
     atom    2 type  1   force =     0.00001652   -0.00001076   -0.00001193
     atom    3 type  1   force =    -0.00000000   -0.00000000    0.00003785
     atom    4 type  1   force =     0.00001652   -0.00001076   -0.00000722
     atom    5 type  1   force =     0.00001652   -0.00001076   -0.00003216
     atom    6 type  1   force =     0.00001652   -0.00001076   -0.00002736
     atom    7 type  1   force =     0.00001652   -0.00001076    0.00002250
     atom    8 type  2   force =    -0.00005755    0.00003123    0.00527571
     atom    9 type  2   force =    -0.00000000    0.00000000   -0.00526426
     atom   10 type  2   force =    -0.00005755    0.00003123    0.00530421
     atom   11 type  2   force =    -0.00005754    0.00003123    0.00529646
     atom   12 type  2   force =    -0.00000000    0.00000000   -0.00536515
     atom   13 type  2   force =    -0.00005755    0.00003123    0.00534911
     atom   14 type  2   force =     0.00005779   -0.00003764   -0.00533412
     atom   15 type  2   force =    -0.00000000    0.00000000   -0.00529534
     atom   16 type  2   force =    -0.00005755    0.00003123    0.00538786
     atom   17 type  2   force =    -0.00000000    0.00000000   -0.00536988
     atom   18 type  2   force =    -0.00000000    0.00000000   -0.00531817
     atom   19 type  2   force =    -0.00005755    0.00003123    0.00535592
     atom   20 type  2   force =    -0.00005755    0.00003123    0.00530644
     atom   21 type  2   force =    -0.00000000    0.00000000   -0.00529813
     The Hubbard contrib.    to forces
     atom    1 type  1   force =     0.00000000    0.00000000    0.00000000
     atom    2 type  1   force =     0.00000000    0.00000000    0.00000000
     atom    3 type  1   force =     0.00000000    0.00000000    0.00000000
     atom    4 type  1   force =     0.00000000    0.00000000    0.00000000
     atom    5 type  1   force =     0.00000000    0.00000000    0.00000000
     atom    6 type  1   force =     0.00000000    0.00000000    0.00000000
     atom    7 type  1   force =     0.00000000    0.00000000    0.00000000
     atom    8 type  2   force =     0.00000000    0.00000000    0.00000000
     atom    9 type  2   force =     0.00000000    0.00000000    0.00000000
     atom   10 type  2   force =     0.00000000    0.00000000    0.00000000
     atom   11 type  2   force =     0.00000000    0.00000000    0.00000000
     atom   12 type  2   force =     0.00000000    0.00000000    0.00000000
     atom   13 type  2   force =     0.00000000    0.00000000    0.00000000
     atom   14 type  2   force =     0.00000000    0.00000000    0.00000000
     atom   15 type  2   force =     0.00000000    0.00000000    0.00000000
     atom   16 type  2   force =     0.00000000    0.00000000    0.00000000
     atom   17 type  2   force =     0.00000000    0.00000000    0.00000000
     atom   18 type  2   force =     0.00000000    0.00000000    0.00000000
     atom   19 type  2   force =     0.00000000    0.00000000    0.00000000
     atom   20 type  2   force =     0.00000000    0.00000000    0.00000000
     atom   21 type  2   force =     0.00000000    0.00000000    0.00000000
     The SCF correction term to forces
     atom    1 type  1   force =     0.00000000   -0.00000000   -0.00004788
     atom    2 type  1   force =    -0.00000000    0.00000000   -0.00002147
     atom    3 type  1   force =     0.00000000   -0.00000000   -0.00000981
     atom    4 type  1   force =    -0.00000000    0.00000000   -0.00002628
     atom    5 type  1   force =     0.00000000   -0.00000000   -0.00006210
     atom    6 type  1   force =     0.00000000   -0.00000000   -0.00002463
     atom    7 type  1   force =    -0.00000000    0.00000000   -0.00000354
     atom    8 type  2   force =     0.00000000   -0.00000000   -0.00004367
     atom    9 type  2   force =    -0.00000000    0.00000000   -0.00001136
     atom   10 type  2   force =     0.00000000   -0.00000000    0.00002504
     atom   11 type  2   force =     0.00000000   -0.00000000    0.00005068
     atom   12 type  2   force =     0.00000000   -0.00000000   -0.00003756
     atom   13 type  2   force =     0.00000000   -0.00000000   -0.00000187
     atom   14 type  2   force =    -0.00000000    0.00000000    0.00002035
     atom   15 type  2   force =     0.00000000   -0.00000000   -0.00003724
     atom   16 type  2   force =     0.00000000   -0.00000000   -0.00003417
     atom   17 type  2   force =    -0.00000000    0.00000000    0.00002451
     atom   18 type  2   force =    -0.00000000    0.00000000    0.00003229
     atom   19 type  2   force =     0.00000000   -0.00000000   -0.00002512
     atom   20 type  2   force =     0.00000000   -0.00000000    0.00007088
     atom   21 type  2   force =    -0.00000000    0.00000000   -0.00001352

     Total force =     0.001661     Total SCF correction =     0.000158

     Computing stress (Cartesian axis) and pressure

     Non-local corr. energy    =      10.07165202 Ry

          total   stress  (Ry/bohr**3)                   (kbar)     P=        1.03
   0.00000645   0.00000000   0.00000000            0.95        0.00        0.00
  -0.00000000   0.00000645  -0.00000000           -0.00        0.95       -0.00
   0.00000000   0.00000000   0.00000817            0.00        0.00        1.20

     kinetic stress (kbar)  14907.09     -0.00      0.00
                               -0.00  14907.09      0.00
                                0.00      0.00  14918.15

     local   stress (kbar)  -7735.39     -0.00      0.00
                               -0.00  -7735.39     -0.00
                                0.00     -0.00   1727.48

     nonloc. stress (kbar)  -1066.52     -0.00      0.00
                                0.00  -1066.52      0.00
                                0.00      0.00  -1072.51

     hartree stress (kbar)  12092.70      0.00     -0.00
                                0.00  12092.70     -0.00
                               -0.00     -0.00   7821.90

     exc-cor stress (kbar)   6907.78      0.00     -0.00
                                0.00   6907.78      0.00
                               -0.00      0.00   6906.58

     corecor stress (kbar) -11246.84     -0.00     -0.00
                               -0.00 -11246.84      0.00
                               -0.00      0.00 -11246.77

     ewald   stress (kbar) -13940.69      0.00     -0.01
                                0.00 -13940.69      0.00
                               -0.01      0.00 -19137.84

     hubbard stress (kbar)      0.00      0.00      0.00
                                0.00      0.00      0.00
                                0.00      0.00      0.00

     DFT-D   stress (kbar)      0.00      0.00      0.00
                                0.00      0.00      0.00
                                0.00      0.00      0.00

     XDM     stress (kbar)      0.00      0.00      0.00
                                0.00      0.00      0.00
                                0.00      0.00      0.00

     dft-nl  stress (kbar)     82.82     -0.00      0.00
                               -0.00     82.82     -0.00
                                0.00     -0.00     84.21

     TS-vdW  stress (kbar)      0.00      0.00      0.00
                                0.00      0.00      0.00
                                0.00      0.00      0.00

     MDB     stress (kbar)      0.00      0.00      0.00
                                0.00      0.00      0.00
                                0.00      0.00      0.00

     3D-RISM stress (kbar)      0.00      0.00      0.00
                                0.00      0.00      0.00
                                0.00      0.00      0.00

     Energy error            =      9.7E-06 Ry
     Gradient error          =      8.7E-04 Ry/Bohr

     bfgs converged in   4 scf cycles and   3 bfgs steps
     (criteria: energy <  1.0E-04 Ry, force <  1.0E-03 Ry/Bohr)

     End of BFGS Geometry Optimization

     Final energy             =  -14165.4311495793 Ry

     File ./PbI2.bfgs deleted, as requested
Begin final coordinates

ATOMIC_POSITIONS (angstrom)
Pb           -0.0000023569        2.7214132730        9.3752833671
Pb           -0.0000023569        2.7214132730       24.2175704399
Pb            0.0000000000        0.0000000000       46.4165788183
Pb           -0.0000023569        2.7214132730       38.9954734590
Pb           -0.0000023569        2.7214132730       31.5997497889
Pb           -0.0000023569        2.7214132730       16.8101959816
Pb           -0.0000023569        2.7214132730        1.9789615621
I             2.3568140460        1.3607045954       48.2998662201
I             0.0000000000        0.0000000000       22.3333919696
I             2.3568140460        1.3607045954        3.8673560696
I             2.3568140460        1.3607045954       40.8825443306
I             0.0000000000        0.0000000000        7.4874271478
I             2.3568140460        1.3607045954       18.6950717491
I            -0.0000023569        2.7214132730       44.5311586187
I             0.0000000000        0.0000000000        0.0898479430
I             2.3568140460        1.3607045954       33.4854067096
I             0.0000000000        0.0000000000       29.7170562693
I             0.0000000000        0.0000000000       14.9278535638
I             2.3568140460        1.3607045954       11.2632055852
I             2.3568140460        1.3607045954       26.1030056865
I             0.0000000000        0.0000000000       37.1097091381
End final coordinates

     Writing all to output data dir ./PbI2.save/

     General routines

     Parallel routines

     PAW routines

   This run was terminated on:  17:25:38  20Feb2024

   JOB DONE.