     Program PWSCF v.7.1 starts on 17Feb2024 at 12:36:55

     Reading input from espresso.pwi
Warning: card &CELL ignored
Warning: card    CELL_DYNAMICS    = 'BFGS' ignored
Warning: card / ignored

     Current dimensions of program PWSCF are:
     Max number of different atomic species (ntypx) = 10
     Max number of k-points (npk) =  40000
     Max angular momentum in pseudopotentials (lmaxx) =  4
     file Ga.pbe-dn-kjpaw_psl.1.0.0.UPF: wavefunction(s)  4S renormalized
     file N.pbe-n-kjpaw_psl.1.0.0.UPF: wavefunction(s)  2S renormalized

     IMPORTANT: XC functional enforced from input :
     Exchange-correlation= BEEF-VDW
                           (   1   4  43  14   2   0   0)
     Any further DFT definition will be discarded
     Please, verify this is what you really want

     K-points division:     npool     =       4
     R & G space division:  proc/nbgrp/npool/nimage =      64
     Subspace diagonalization in iterative solution of the eigenvalue problem:
     a serial algorithm will be used

     Using Slab Decomposition

     bravais-lattice index     =            4
     lattice parameter (alat)  =      30.6565  a.u.
     unit-cell volume          =   24400.9461 (a.u.)^3
     number of atoms/cell      =          299
     number of atomic types    =            2
     number of electrons       =      2688.00
     number of Kohn-Sham states=         1613
     kinetic-energy cutoff     =      70.0000  Ry
     charge density cutoff     =     350.0000  Ry
     scf convergence threshold =      1.0E-07
     mixing beta               =       0.7000
     number of iterations used =            8  plain     mixing
     energy convergence thresh.=      1.0E-04
     force convergence thresh. =      1.0E-03
     Exchange-correlation= BEEF-VDW
                           (   1   4  43  14   2   0   0)
     nstep                     =           50

     celldm(1)=  30.656540  celldm(2)=   0.000000  celldm(3)=   0.977927
     celldm(4)=   0.000000  celldm(5)=   0.000000  celldm(6)=   0.000000

     crystal axes: (cart. coord. in units of alat)
               a(1) = (   1.000000   0.000000   0.000000 )
               a(2) = (  -0.500000   0.866025   0.000000 )
               a(3) = (   0.000000   0.000000   0.977927 )

     reciprocal axes: (cart. coord. in units 2 pi/alat)
               b(1) = (  1.000000  0.577350 -0.000000 )
               b(2) = (  0.000000  1.154701  0.000000 )
               b(3) = (  0.000000 -0.000000  1.022571 )

     PseudoPot. # 1 for Ga read from file:
     /trace/group/acmegroup/atimmins/packages/espresso/pseudo/psl_1.0.0/pslibrary.1.0.0/pbe/PSEUDOPOTENTIALS/Ga.pbe-dn-kjpaw_psl.1.0.0.UPF
     MD5 check sum: cd2a01e492f15b435d17032472d8505c
     Pseudo is Projector augmented-wave + core cor, Zval = 13.0
     Generated using 'atomic' code by A. Dal Corso  v.7.1
     Shape of augmentation charge: PSQ
     Using radial grid of 1205 points,  6 beta functions with:
                l(1) =   0
                l(2) =   0
                l(3) =   1
                l(4) =   1
                l(5) =   2
                l(6) =   2
     Q(r) pseudized with 0 coefficients

     PseudoPot. # 2 for N  read from file:
     /trace/group/acmegroup/atimmins/packages/espresso/pseudo/psl_1.0.0/pslibrary.1.0.0/pbe/PSEUDOPOTENTIALS/N.pbe-n-kjpaw_psl.1.0.0.UPF
     MD5 check sum: f77f775694dac7e2c3fe1c82443d1a16
     Pseudo is Projector augmented-wave + core cor, Zval =  5.0
     Generated using 'atomic' code by A. Dal Corso  v.7.1
     Shape of augmentation charge: PSQ
     Using radial grid of 1085 points,  4 beta functions with:
                l(1) =   0
                l(2) =   0
                l(3) =   1
                l(4) =   1
     Q(r) pseudized with 0 coefficients

     atomic species   valence    mass     pseudopotential
        Ga            13.00    69.72300     Ga( 1.00)
        N              5.00    14.00700     N ( 1.00)

      2 Sym. Ops. (no inversion) found

                                    s                        frac. trans.

      isym =  1     identity

 cryst.   s( 1) = (     1          0          0      )
                  (     0          1          0      )
                  (     0          0          1      )

 cart.    s( 1) = (  1.0000000  0.0000000  0.0000000 )
                  (  0.0000000  1.0000000  0.0000000 )
                  (  0.0000000  0.0000000  1.0000000 )

      isym =  2     inv. 180 deg rotation - cryst. axis [0,1,0]

 cryst.   s( 2) = (     1          1          0      )
                  (     0         -1          0      )
                  (     0          0          1      )

 cart.    s( 2) = (  0.5000000  0.8660254  0.0000000 )
                  (  0.8660254 -0.5000000  0.0000000 )
                  (  0.0000000  0.0000000  1.0000000 )

     point group C_s (m)
     there are  2 classes
     the character table:

       E     s
A'     1.00  1.00
A''    1.00 -1.00

     the symmetry operations in each class and the name of the first element:

     E        1
          identity
     s        2
          inv. 180 deg rotation - cryst. axis [0,1,0]

   Cartesian axes

     site n.     atom                  positions (alat units)
         1           Ga  tau(   1) = (   0.1000001   0.0577350   0.4886906  )
         2           Ga  tau(   2) = (   0.1000001   0.0577350   0.8146665  )
         3           Ga  tau(   3) = (   0.0000001   0.2309401   0.1627148  )
         4           Ga  tau(   4) = (   0.0000001   0.2309401   0.4886906  )
         5           Ga  tau(   5) = (   0.0000001   0.2309401   0.8146665  )
         6           Ga  tau(   6) = (  -0.0999999   0.4041451   0.1627148  )
         7           Ga  tau(   7) = (  -0.0999999   0.4041451   0.4886906  )
         8           Ga  tau(   8) = (  -0.0999999   0.4041451   0.8146665  )
         9           Ga  tau(   9) = (  -0.1999999   0.5773502   0.1627148  )
        10           Ga  tau(  10) = (  -0.1999999   0.5773502   0.4886906  )
        11           Ga  tau(  11) = (  -0.1999999   0.5773502   0.8146665  )
        12           Ga  tau(  12) = (  -0.2999999   0.7505553   0.1627148  )
        13           Ga  tau(  13) = (  -0.2999999   0.7505553   0.4886906  )
        14           Ga  tau(  14) = (  -0.2999999   0.7505553   0.8146665  )
        15           Ga  tau(  15) = (   0.3000001   0.0577350   0.1627148  )
        16           Ga  tau(  16) = (   0.3000001   0.0577350   0.4886906  )
        17           Ga  tau(  17) = (   0.3000001   0.0577350   0.8146665  )
        18           Ga  tau(  18) = (   0.2000001   0.2309401   0.1627148  )
        19           Ga  tau(  19) = (   0.2000001   0.2309401   0.4886906  )
        20           Ga  tau(  20) = (   0.2000001   0.2309401   0.8146665  )
        21           Ga  tau(  21) = (   0.1000001   0.4041451   0.1627148  )
        22           Ga  tau(  22) = (   0.1000001   0.4041451   0.4886906  )
        23           Ga  tau(  23) = (   0.1000001   0.4041451   0.8146665  )
        24           Ga  tau(  24) = (   0.0000001   0.5773502   0.1627148  )
        25           Ga  tau(  25) = (   0.0000001   0.5773502   0.4886906  )
        26           Ga  tau(  26) = (   0.0000001   0.5773502   0.8146665  )
        27           Ga  tau(  27) = (  -0.0999999   0.7505553   0.1627148  )
        28           Ga  tau(  28) = (  -0.0999999   0.7505553   0.4886906  )
        29           Ga  tau(  29) = (  -0.0999999   0.7505553   0.8146665  )
        30           Ga  tau(  30) = (   0.5000001   0.0577350   0.1627148  )
        31           Ga  tau(  31) = (   0.5000001   0.0577350   0.4886906  )
        32           Ga  tau(  32) = (   0.5000001   0.0577350   0.8146665  )
        33           Ga  tau(  33) = (   0.4000001   0.2309401   0.1627148  )
        34           Ga  tau(  34) = (   0.4000001   0.2309401   0.4886906  )
        35           Ga  tau(  35) = (   0.4000001   0.2309401   0.8146665  )
        36           Ga  tau(  36) = (   0.3000001   0.4041451   0.1627148  )
        37           Ga  tau(  37) = (   0.3000001   0.4041451   0.4886906  )
        38           Ga  tau(  38) = (   0.3000001   0.4041451   0.8146665  )
        39           Ga  tau(  39) = (   0.2000001   0.5773502   0.1627148  )
        40           Ga  tau(  40) = (   0.2000001   0.5773502   0.4886906  )
        41           Ga  tau(  41) = (   0.2000001   0.5773502   0.8146665  )
        42           Ga  tau(  42) = (   0.1000001   0.7505553   0.1627148  )
        43           Ga  tau(  43) = (   0.1000001   0.7505553   0.4886906  )
        44           Ga  tau(  44) = (   0.1000001   0.7505553   0.8146665  )
        45           Ga  tau(  45) = (   0.7000001   0.0577350   0.1627148  )
        46           Ga  tau(  46) = (   0.7000001   0.0577350   0.4886906  )
        47           Ga  tau(  47) = (   0.7000001   0.0577350   0.8146665  )
        48           Ga  tau(  48) = (   0.6000001   0.2309401   0.1627148  )
        49           Ga  tau(  49) = (   0.6000001   0.2309401   0.4886906  )
        50           Ga  tau(  50) = (   0.6000001   0.2309401   0.8146665  )
        51           Ga  tau(  51) = (   0.5000001   0.4041451   0.1627148  )
        52           Ga  tau(  52) = (   0.5000001   0.4041451   0.4886906  )
        53           Ga  tau(  53) = (   0.5000001   0.4041451   0.8146665  )
        54           Ga  tau(  54) = (   0.4000001   0.5773502   0.1627148  )
        55           Ga  tau(  55) = (   0.4000001   0.5773502   0.4886906  )
        56           Ga  tau(  56) = (   0.4000001   0.5773502   0.8146665  )
        57           Ga  tau(  57) = (   0.3000001   0.7505553   0.1627148  )
        58           Ga  tau(  58) = (   0.3000001   0.7505553   0.4886906  )
        59           Ga  tau(  59) = (   0.3000001   0.7505553   0.8146665  )
        60           Ga  tau(  60) = (   0.9000001   0.0577350   0.1627148  )
[...]
       285           N   tau( 285) = (   0.7999999   0.1154701   0.1225140  )
       286           N   tau( 286) = (   0.7999999   0.1154701   0.4484898  )
       287           N   tau( 287) = (   0.7999999   0.1154701   0.7744656  )
       288           N   tau( 288) = (   0.6999999   0.2886752   0.1225140  )
       289           N   tau( 289) = (   0.6999999   0.2886752   0.4484898  )
       290           N   tau( 290) = (   0.6999999   0.2886752   0.7744656  )
       291           N   tau( 291) = (   0.5999999   0.4618803   0.1225140  )
       292           N   tau( 292) = (   0.5999999   0.4618803   0.4484898  )
       293           N   tau( 293) = (   0.5999999   0.4618803   0.7744656  )
       294           N   tau( 294) = (   0.4999999   0.6350854   0.1225140  )
       295           N   tau( 295) = (   0.4999999   0.6350854   0.4484898  )
       296           N   tau( 296) = (   0.4999999   0.6350854   0.7744656  )
       297           N   tau( 297) = (   0.3999999   0.8082905   0.1225140  )
       298           N   tau( 298) = (   0.3999999   0.8082905   0.4484898  )
       299           N   tau( 299) = (   0.3999999   0.8082905   0.7744656  )

   Crystallographic axes

     site n.     atom                  positions (cryst. coord.)
[...]
     atom   56 type  1   force =     0.00000000    0.00000000    0.00000000
     atom   57 type  1   force =     0.00000000    0.00000000    0.00000000
     atom   58 type  1   force =     0.00000000    0.00000000    0.00000000
     atom   59 type  1   force =     0.00000000    0.00000000    0.00000000
     atom   60 type  1   force =     0.00000000    0.00000000    0.00000000
[...]
     atom  285 type  2   force =     0.00000000    0.00000000    0.00000000
     atom  286 type  2   force =     0.00000000    0.00000000    0.00000000
     atom  287 type  2   force =     0.00000000    0.00000000    0.00000000
     atom  288 type  2   force =     0.00000000    0.00000000    0.00000000
     atom  289 type  2   force =     0.00000000    0.00000000    0.00000000
     atom  290 type  2   force =     0.00000000    0.00000000    0.00000000
     atom  291 type  2   force =     0.00000000    0.00000000    0.00000000
     atom  292 type  2   force =     0.00000000    0.00000000    0.00000000
     atom  293 type  2   force =     0.00000000    0.00000000    0.00000000
     atom  294 type  2   force =     0.00000000    0.00000000    0.00000000
     atom  295 type  2   force =     0.00000000    0.00000000    0.00000000
     atom  296 type  2   force =     0.00000000    0.00000000    0.00000000
     atom  297 type  2   force =     0.00000000    0.00000000    0.00000000
     atom  298 type  2   force =     0.00000000    0.00000000    0.00000000
     atom  299 type  2   force =     0.00000000    0.00000000    0.00000000
     The SCF correction term to forces
     atom    1 type  1   force =    -0.00000048   -0.00000027    0.00000056
     atom    2 type  1   force =    -0.00000034   -0.00000020    0.00000093
     atom    3 type  1   force =    -0.00000087   -0.00000366   -0.00000308
     atom    4 type  1   force =    -0.00000063    0.00000127    0.00000006
     atom    5 type  1   force =    -0.00000051    0.00000082    0.00000140
     atom    6 type  1   force =     0.00000078   -0.00000005   -0.00000133
     atom    7 type  1   force =     0.00000042    0.00000055    0.00000017
     atom    8 type  1   force =     0.00000012    0.00000064    0.00000134
     atom    9 type  1   force =     0.00000035    0.00000070   -0.00000133
     atom   10 type  1   force =     0.00000069    0.00000009    0.00000017
     atom   11 type  1   force =     0.00000061   -0.00000022    0.00000134
     atom   12 type  1   force =    -0.00000361    0.00000107   -0.00000308
     atom   13 type  1   force =     0.00000078   -0.00000118    0.00000006
     atom   14 type  1   force =     0.00000046   -0.00000085    0.00000140
     atom   15 type  1   force =    -0.00000081    0.00000005   -0.00000202
     atom   16 type  1   force =     0.00000143   -0.00000068    0.00000007
     atom   17 type  1   force =     0.00000095   -0.00000040    0.00000146
     atom   18 type  1   force =    -0.00000036   -0.00000073   -0.00000202
     atom   19 type  1   force =     0.00000012    0.00000158    0.00000007
     atom   20 type  1   force =     0.00000013    0.00000102    0.00000146
     atom   21 type  1   force =    -0.00000002    0.00000046   -0.00000118
     atom   22 type  1   force =    -0.00000013    0.00000128   -0.00000002
     atom   23 type  1   force =    -0.00000004    0.00000106    0.00000152
     atom   24 type  1   force =     0.00000076    0.00000044   -0.00000118
     atom   25 type  1   force =     0.00000052    0.00000030    0.00000016
     atom   26 type  1   force =     0.00000039    0.00000022    0.00000150
     atom   27 type  1   force =     0.00000039   -0.00000025   -0.00000118
     atom   28 type  1   force =     0.00000104   -0.00000075   -0.00000002
     atom   29 type  1   force =     0.00000089   -0.00000057    0.00000152
     atom   30 type  1   force =     0.00000010   -0.00000087   -0.00000131
     atom   31 type  1   force =     0.00000067   -0.00000092    0.00000009
     atom   32 type  1   force =     0.00000078   -0.00000069    0.00000143
     atom   33 type  1   force =    -0.00000074   -0.00000043   -0.00000160
     atom   34 type  1   force =     0.00000036    0.00000021    0.00000006
     atom   35 type  1   force =     0.00000033    0.00000019    0.00000139
     atom   36 type  1   force =    -0.00000070    0.00000053   -0.00000131
     atom   37 type  1   force =    -0.00000046    0.00000105    0.00000009
     atom   38 type  1   force =    -0.00000021    0.00000102    0.00000143
     atom   39 type  1   force =    -0.00000044    0.00000056   -0.00000117
     atom   40 type  1   force =    -0.00000028    0.00000056    0.00000013
     atom   41 type  1   force =    -0.00000017    0.00000044    0.00000153
     atom   42 type  1   force =     0.00000026   -0.00000066   -0.00000117
     atom   43 type  1   force =     0.00000035   -0.00000052    0.00000013
     atom   44 type  1   force =     0.00000030   -0.00000037    0.00000153
     atom   45 type  1   force =     0.00000057   -0.00000094   -0.00000130
     atom   46 type  1   force =     0.00000005   -0.00000093    0.00000012
     atom   47 type  1   force =    -0.00000025   -0.00000068    0.00000132
     atom   48 type  1   force =     0.00000009   -0.00000097   -0.00000128
     atom   49 type  1   force =     0.00000034   -0.00000073    0.00000014
     atom   50 type  1   force =     0.00000025   -0.00000042    0.00000147
     atom   51 type  1   force =    -0.00000079    0.00000056   -0.00000128
     atom   52 type  1   force =    -0.00000046    0.00000066    0.00000014
     atom   53 type  1   force =    -0.00000024    0.00000043    0.00000147
     atom   54 type  1   force =    -0.00000053    0.00000096   -0.00000130
     atom   55 type  1   force =    -0.00000078    0.00000051    0.00000012
     atom   56 type  1   force =    -0.00000071    0.00000013    0.00000132
     atom   57 type  1   force =    -0.00000009   -0.00000005   -0.00000112
     atom   58 type  1   force =    -0.00000078   -0.00000045   -0.00000004
     atom   59 type  1   force =    -0.00000067   -0.00000039    0.00000144
     atom   60 type  1   force =     0.00000294    0.00000166   -0.00000311
[...]
     atom  285 type  2   force =     0.00000057   -0.00000036   -0.00000028
     atom  286 type  2   force =    -0.00000016   -0.00000035   -0.00000006
     atom  287 type  2   force =    -0.00000010   -0.00000032    0.00000060
     atom  288 type  2   force =     0.00000026   -0.00000021   -0.00000037
     atom  289 type  2   force =     0.00000037   -0.00000022    0.00000007
     atom  290 type  2   force =     0.00000012   -0.00000006    0.00000076
     atom  291 type  2   force =    -0.00000005    0.00000033   -0.00000037
     atom  292 type  2   force =    -0.00000000    0.00000044    0.00000007
     atom  293 type  2   force =     0.00000001    0.00000013    0.00000076
     atom  294 type  2   force =    -0.00000003    0.00000068   -0.00000028
     atom  295 type  2   force =    -0.00000039    0.00000004   -0.00000006
     atom  296 type  2   force =    -0.00000033    0.00000007    0.00000060
     atom  297 type  2   force =     0.00000023    0.00000013   -0.00000030
     atom  298 type  2   force =    -0.00000056   -0.00000032   -0.00000012
     atom  299 type  2   force =    -0.00000040   -0.00000023    0.00000058

     Total force =     0.005085     Total SCF correction =     0.000025

     Computing stress (Cartesian axis) and pressure

[...]

          total   stress  (Ry/bohr**3)                   (kbar)     P=        8.34
   0.00005278  -0.00000003   0.00000001            7.76       -0.00        0.00
  -0.00000003   0.00005281   0.00000000           -0.00        7.77        0.00
   0.00000001   0.00000000   0.00006450            0.00        0.00        9.49

     kinetic stress (kbar)  18386.46     -0.01      0.00
                               -0.01  18386.47      0.00
                                0.00      0.00  18383.23

     local   stress (kbar)   5104.07      0.97     -0.17
                                0.97   5102.78     -0.10
                               -0.17     -0.10   3446.46

     nonloc. stress (kbar)     53.35      0.01     -0.00
                                0.01     53.34     -0.00
                               -0.00     -0.00     63.97

     hartree stress (kbar)  19610.51     -0.39      0.06
                               -0.39  19610.96      0.03
                                0.06      0.03  20366.98

     exc-cor stress (kbar)   5175.42     -0.00      0.00
                               -0.00   5175.42      0.00
                                0.00      0.00   5175.76

     corecor stress (kbar) -14020.45      0.00     -0.00
                                0.00 -14020.45     -0.00
                               -0.00     -0.00 -14019.93

     ewald   stress (kbar) -34462.79     -0.58      0.11
                               -0.58 -34461.90      0.07
                                0.11      0.07 -33567.30

     hubbard stress (kbar)      0.00      0.00      0.00
                                0.00      0.00      0.00
                                0.00      0.00      0.00

     DFT-D   stress (kbar)      0.00      0.00      0.00
                                0.00      0.00      0.00
                                0.00      0.00      0.00

     XDM     stress (kbar)      0.00      0.00      0.00
                                0.00      0.00      0.00
                                0.00      0.00      0.00

     dft-nl  stress (kbar)    161.18      0.00     -0.00
                                0.00    161.18     -0.00
                               -0.00     -0.00    160.31

     TS-vdW  stress (kbar)      0.00      0.00      0.00
                                0.00      0.00      0.00
                                0.00      0.00      0.00

     MDB     stress (kbar)      0.00      0.00      0.00
                                0.00      0.00      0.00
                                0.00      0.00      0.00

     3D-RISM stress (kbar)      0.00      0.00      0.00
                                0.00      0.00      0.00
                                0.00      0.00      0.00

     Energy error            =      4.6E-05 Ry
     Gradient error          =      1.2E-03 Ry/Bohr

     number of scf cycles    =   4
     number of bfgs steps    =   3

     energy             old  =  -46559.0327687996 Ry
     energy             new  =  -46559.0328145852 Ry

     CASE: energy            _new < energy            _old

     new trust radius        =       0.0023534298 bohr
     new conv_thr            =       0.0000000010 Ry

ATOMIC_POSITIONS (angstrom)
Ga            1.6219702410        0.9364434843        7.8933321446
Ga            1.6217633780        0.9363240519       13.2177000384
Ga            0.0146430593        3.7289798842        2.6455104142
Ga           -0.0020000774        3.7459701007        7.9249174495
Ga            0.0021803511        3.7442397490       13.2153020883
Ga           -1.6210349190        6.5597036647        2.6419449009
Ga           -1.6229742983        6.5558719319        7.9273674886
Ga           -1.6219068207        6.5541540332       13.2187344009
Ga           -3.2410172136        9.3655953063        2.6419449009
Ga           -3.2453052811        9.3658316209        7.9273674886
Ga           -3.2462592863        9.3676150330       13.2187344009
Ga           -4.8746569293       12.1974958781        2.6455104142
Ga           -4.8682645385       12.1745873907        7.9249174495
Ga           -4.8676728528       12.1790729239       13.2153020883
Ga            4.8430751458        0.9309851507        2.6451774483
Ga            4.8677975020        0.9384810875        7.9245972656
Ga            4.8638588218        0.9353567332       13.2151243698
Ga            3.2277956377        3.7287313270        2.6451774483
Ga            3.2466484875        3.7463935471        7.9245972656
Ga            3.2419733773        3.7445447272       13.2151243698
Ga            1.6224422879        6.5550845429        2.6407607069
Ga            1.6225414160        6.5558954919        7.9281295868
Ga            1.6224802172        6.5539277365       13.2170374881
Ga            0.0012515754        9.3669256366        2.6397890521
Ga           -0.0001481852        9.3661174845        7.9281415949
Ga           -0.0006269214        9.3658410860       13.2168599571
Ga           -1.6232788869       12.1768385251        2.6407607069
Ga           -1.6225270205       12.1765188980        7.9281295868
Ga           -1.6242617461       12.1774497759       13.2170374881
Ga            8.1134830415        0.9334127798        2.6417960419
Ga            8.1114389187        0.9371799664        7.9272133188
Ga            8.1094950810        0.9371554049       13.2185608716
Ga            6.4811375101        3.7418850153        2.6348833092
Ga            6.4889667220        3.7464052129        7.9258245733
Ga            6.4870221708        3.7452825257       13.2196722262
Ga            4.8651019742        6.5597738310        2.6417960419
Ga            4.8673423921        6.5561199755        7.9272133188
Ga            4.8663492024        6.5544488434       13.2185608716
Ga            3.2436572089        9.3667412934        2.6399763295
Ga            3.2450983600        9.3660543649        7.9283377186
Ga            3.2455265561        9.3657910620       13.2170012684
Ga            1.6222947462       12.1750234564        2.6399763295
Ga            1.6224204243       12.1766149941        7.9283377186
Ga            1.6224064953       12.1771174743       13.2170012684
Ga           11.3528545334        0.9329059150        2.6419379353
Ga           11.3556465737        0.9368747610        7.9272810903
Ga           11.3577137280        0.9367842553       13.2184537497
Ga            9.7332922882        3.7457656680        2.6384048812
Ga            9.7333440727        3.7470448114        7.9270839078
Ga            9.7333370123        3.7464950574       13.2173754148
Ga            8.1105756430        6.5563933439        2.6384048812
Ga            8.1117093059        6.5557986189        7.9270839078
Ga            8.1112296747        6.5560673814       13.2173754148
Ga            6.4843487623        9.3654052677        2.6419379353
Ga            6.4891819040        9.3658388225        7.9272810903
Ga            6.4901371009        9.3676742836       13.2184537497
Ga            4.8672762558       12.1763262959        2.6409776989
Ga            4.8670390707       12.1761893570        7.9283859484
Ga            4.8687832137       12.1771963384       13.2171180194
Ga           14.6227810158        0.9314150483        2.6451644766
[...]
N            12.9594382816        1.8684198761        1.9911806640
N            12.9734078079        1.8739991763        7.2757172155
N            12.9776925771        1.8738060573       12.5617279403
N            11.3559890717        4.6830672505        1.9881427274
N            11.3552753168        4.6835606916        7.2750852360
N            11.3565335351        4.6828336173       12.5641309186
N             9.7336474223        7.4930454146        1.9881427274
N             9.7337178775        7.4921805641        7.2750852360
N             9.7337173217        7.4936337503       12.5641309186
N             8.0978158985       10.2889968511        1.9911806640
N             8.1096324773       10.2983051657        7.2757172155
N             8.1116076160       10.3021124442       12.5617279403
N             6.4795176773       13.1071584644        1.9874614428
N             6.4865207775       13.1112017062        7.2794206271
N             6.4875028360       13.1117686979       12.5568003823

     Writing config-only to output data dir ./GaN.save/
     NEW-OLD atomic charge density approx. for the potential

     Check: negative core charge=   -0.000003

[...]

     Self-consistent Calculation

[...]

     Threshold (ethr) on eigenvalues was too large:
     Diagonalizing with lowered threshold

     Davidson diagonalization with overlap

[...]

     c_bands:  1 eigenvalues not converged
     ethr =  4.66E-10,  avg # of iterations = 19.2

[...]

     ethr =  4.38E-11,  avg # of iterations = 16.7

     Non-local corr. energy    =      81.30988595 Ry

     total energy              =  -46559.03285437 Ry
     estimated scf accuracy    <       0.00000017 Ry

     iteration # 11     ecut=    70.00 Ry     beta= 0.70
     Davidson diagonalization with overlap

     max_seconds     =  154800.00
     Calculation stopped in k-point loop, point #     1
     Calculation stopped in scf loop at iteration #    10

     Writing config to output data dir ./GaN.save/

     General routines

     Parallel routines

     PAW routines

   This run was terminated on:   7:54:20  19Feb2024

   JOB DONE.