     Program PWSCF v.7.1 starts on 23Mar2024 at  7:53:27

     Reading input from espresso.pwi
Warning: card &CELL ignored
Warning: card    CELL_DYNAMICS    = 'BFGS' ignored
Warning: card / ignored

     Current dimensions of program PWSCF are:
     Max number of different atomic species (ntypx) = 10
     Max number of k-points (npk) =  40000
     Max angular momentum in pseudopotentials (lmaxx) =  4
     file Ga.pbe-dn-kjpaw_psl.1.0.0.UPF: wavefunction(s)  4S renormalized
     file N.pbe-n-kjpaw_psl.1.0.0.UPF: wavefunction(s)  2S renormalized

     IMPORTANT: XC functional enforced from input :
     Exchange-correlation= BEEF-VDW
                           (   1   4  43  14   2   0   0)
     Any further DFT definition will be discarded
     Please, verify this is what you really want

     K-points division:     npool     =       3
     R & G space division:  proc/nbgrp/npool/nimage =      60
     Subspace diagonalization in iterative solution of the eigenvalue problem:
     a serial algorithm will be used

     Using Slab Decomposition

     bravais-lattice index     =            4
     lattice parameter (alat)  =      30.6565  a.u.
     unit-cell volume          =   24400.9461 (a.u.)^3
     number of atoms/cell      =          299
     number of atomic types    =            2
     number of electrons       =      2689.00
     number of Kohn-Sham states=         1614
     kinetic-energy cutoff     =      70.0000  Ry
     charge density cutoff     =     350.0000  Ry
     scf convergence threshold =      1.0E-07
     mixing beta               =       0.7000
     number of iterations used =            8  plain     mixing
     Exchange-correlation= BEEF-VDW
                           (   1   4  43  14   2   0   0)

     celldm(1)=  30.656540  celldm(2)=   0.000000  celldm(3)=   0.977927
     celldm(4)=   0.000000  celldm(5)=   0.000000  celldm(6)=   0.000000

     crystal axes: (cart. coord. in units of alat)
               a(1) = (   1.000000   0.000000   0.000000 )
               a(2) = (  -0.500000   0.866025   0.000000 )
               a(3) = (   0.000000   0.000000   0.977927 )

     reciprocal axes: (cart. coord. in units 2 pi/alat)
               b(1) = (  1.000000  0.577350 -0.000000 )
               b(2) = (  0.000000  1.154701  0.000000 )
               b(3) = (  0.000000 -0.000000  1.022571 )

     PseudoPot. # 1 for Ga read from file:
     /trace/group/acmegroup/atimmins/packages/espresso/pseudo/psl_1.0.0/pslibrary.1.0.0/pbe/PSEUDOPOTENTIALS/Ga.pbe-dn-kjpaw_psl.1.0.0.UPF
     MD5 check sum: cd2a01e492f15b435d17032472d8505c
     Pseudo is Projector augmented-wave + core cor, Zval = 13.0
     Generated using 'atomic' code by A. Dal Corso  v.7.1
     Shape of augmentation charge: PSQ
     Using radial grid of 1205 points,  6 beta functions with:
                l(1) =   0
                l(2) =   0
                l(3) =   1
                l(4) =   1
                l(5) =   2
                l(6) =   2
     Q(r) pseudized with 0 coefficients

     PseudoPot. # 2 for N  read from file:
     /trace/group/acmegroup/atimmins/packages/espresso/pseudo/psl_1.0.0/pslibrary.1.0.0/pbe/PSEUDOPOTENTIALS/N.pbe-n-kjpaw_psl.1.0.0.UPF
     MD5 check sum: f77f775694dac7e2c3fe1c82443d1a16
     Pseudo is Projector augmented-wave + core cor, Zval =  5.0
     Generated using 'atomic' code by A. Dal Corso  v.7.1
     Shape of augmentation charge: PSQ
     Using radial grid of 1085 points,  4 beta functions with:
                l(1) =   0
                l(2) =   0
                l(3) =   1
                l(4) =   1
     Q(r) pseudized with 0 coefficients

     atomic species   valence    mass     pseudopotential
        Ga            13.00    69.72300     Ga( 1.00)
        N              5.00    14.00700     N ( 1.00)

      2 Sym. Ops. (no inversion) found

                                    s                        frac. trans.

      isym =  1     identity

 cryst.   s( 1) = (     1          0          0      )
                  (     0          1          0      )
                  (     0          0          1      )

 cart.    s( 1) = (  1.0000000  0.0000000  0.0000000 )
                  (  0.0000000  1.0000000  0.0000000 )
                  (  0.0000000  0.0000000  1.0000000 )

      isym =  2     inv. 180 deg rotation - cryst. axis [0,1,0]

 cryst.   s( 2) = (     1          1          0      )
                  (     0         -1          0      )
                  (     0          0          1      )

 cart.    s( 2) = (  0.5000000  0.8660254  0.0000000 )
                  (  0.8660254 -0.5000000  0.0000000 )
                  (  0.0000000  0.0000000  1.0000000 )

     point group C_s (m)
     there are  2 classes
     the character table:

       E     s
A'     1.00  1.00
A''    1.00 -1.00

     the symmetry operations in each class and the name of the first element:

     E        1
          identity
     s        2
          inv. 180 deg rotation - cryst. axis [0,1,0]

   Cartesian axes

     site n.     atom                  positions (alat units)
         1           Ga  tau(   1) = (   0.1000001   0.0577350   0.4886906  )
         2           Ga  tau(   2) = (   0.1000001   0.0577350   0.8146665  )
         3           Ga  tau(   3) = (   0.0000001   0.2309401   0.1627148  )
         4           Ga  tau(   4) = (   0.0000001   0.2309401   0.4886906  )
         5           Ga  tau(   5) = (   0.0000001   0.2309401   0.8146665  )
         6           Ga  tau(   6) = (  -0.0999999   0.4041451   0.1627148  )
         7           Ga  tau(   7) = (  -0.0999999   0.4041451   0.4886906  )
         8           Ga  tau(   8) = (  -0.0999999   0.4041451   0.8146665  )
         9           Ga  tau(   9) = (  -0.1999999   0.5773502   0.1627148  )
        10           Ga  tau(  10) = (  -0.1999999   0.5773502   0.4886906  )
        11           Ga  tau(  11) = (  -0.1999999   0.5773502   0.8146665  )
        12           Ga  tau(  12) = (  -0.2999999   0.7505553   0.1627148  )
        13           Ga  tau(  13) = (  -0.2999999   0.7505553   0.4886906  )
        14           Ga  tau(  14) = (  -0.2999999   0.7505553   0.8146665  )
        15           Ga  tau(  15) = (   0.3000001   0.0577350   0.1627148  )
        16           Ga  tau(  16) = (   0.3000001   0.0577350   0.4886906  )
        17           Ga  tau(  17) = (   0.3000001   0.0577350   0.8146665  )
        18           Ga  tau(  18) = (   0.2000001   0.2309401   0.1627148  )
        19           Ga  tau(  19) = (   0.2000001   0.2309401   0.4886906  )
        20           Ga  tau(  20) = (   0.2000001   0.2309401   0.8146665  )
        21           Ga  tau(  21) = (   0.1000001   0.4041451   0.1627148  )
        22           Ga  tau(  22) = (   0.1000001   0.4041451   0.4886906  )
        23           Ga  tau(  23) = (   0.1000001   0.4041451   0.8146665  )
        24           Ga  tau(  24) = (   0.0000001   0.5773502   0.1627148  )
        25           Ga  tau(  25) = (   0.0000001   0.5773502   0.4886906  )
        26           Ga  tau(  26) = (   0.0000001   0.5773502   0.8146665  )
        27           Ga  tau(  27) = (  -0.0999999   0.7505553   0.1627148  )
        28           Ga  tau(  28) = (  -0.0999999   0.7505553   0.4886906  )
        29           Ga  tau(  29) = (  -0.0999999   0.7505553   0.8146665  )
        30           Ga  tau(  30) = (   0.5000001   0.0577350   0.1627148  )
        31           Ga  tau(  31) = (   0.5000001   0.0577350   0.4886906  )
        32           Ga  tau(  32) = (   0.5000001   0.0577350   0.8146665  )
        33           Ga  tau(  33) = (   0.4000001   0.2309401   0.1627148  )
        34           Ga  tau(  34) = (   0.4000001   0.2309401   0.4886906  )
        35           Ga  tau(  35) = (   0.4000001   0.2309401   0.8146665  )
        36           Ga  tau(  36) = (   0.3000001   0.4041451   0.1627148  )
        37           Ga  tau(  37) = (   0.3000001   0.4041451   0.4886906  )
        38           Ga  tau(  38) = (   0.3000001   0.4041451   0.8146665  )
        39           Ga  tau(  39) = (   0.2000001   0.5773502   0.1627148  )
        40           Ga  tau(  40) = (   0.2000001   0.5773502   0.4886906  )
        41           Ga  tau(  41) = (   0.2000001   0.5773502   0.8146665  )
        42           Ga  tau(  42) = (   0.1000001   0.7505553   0.1627148  )
        43           Ga  tau(  43) = (   0.1000001   0.7505553   0.4886906  )
        44           Ga  tau(  44) = (   0.1000001   0.7505553   0.8146665  )
        45           Ga  tau(  45) = (   0.7000001   0.0577350   0.1627148  )
        46           Ga  tau(  46) = (   0.7000001   0.0577350   0.4886906  )
        47           Ga  tau(  47) = (   0.7000001   0.0577350   0.8146665  )
        48           Ga  tau(  48) = (   0.6000001   0.2309401   0.1627148  )
        49           Ga  tau(  49) = (   0.6000001   0.2309401   0.4886906  )
        50           Ga  tau(  50) = (   0.6000001   0.2309401   0.8146665  )
        51           Ga  tau(  51) = (   0.5000001   0.4041451   0.1627148  )
        52           Ga  tau(  52) = (   0.5000001   0.4041451   0.4886906  )
        53           Ga  tau(  53) = (   0.5000001   0.4041451   0.8146665  )
        54           Ga  tau(  54) = (   0.4000001   0.5773502   0.1627148  )
        55           Ga  tau(  55) = (   0.4000001   0.5773502   0.4886906  )
        56           Ga  tau(  56) = (   0.4000001   0.5773502   0.8146665  )
        57           Ga  tau(  57) = (   0.3000001   0.7505553   0.1627148  )
        58           Ga  tau(  58) = (   0.3000001   0.7505553   0.4886906  )
        59           Ga  tau(  59) = (   0.3000001   0.7505553   0.8146665  )
        60           Ga  tau(  60) = (   0.9000001   0.0577350   0.1627148  )
[...]
       285           N   tau( 285) = (   0.7999999   0.1154701   0.1225140  )
       286           N   tau( 286) = (   0.7999999   0.1154701   0.4484898  )
       287           N   tau( 287) = (   0.7999999   0.1154701   0.7744656  )
       288           N   tau( 288) = (   0.6999999   0.2886752   0.1225140  )
       289           N   tau( 289) = (   0.6999999   0.2886752   0.4484898  )
       290           N   tau( 290) = (   0.6999999   0.2886752   0.7744656  )
       291           N   tau( 291) = (   0.5999999   0.4618803   0.1225140  )
       292           N   tau( 292) = (   0.5999999   0.4618803   0.4484898  )
       293           N   tau( 293) = (   0.5999999   0.4618803   0.7744656  )
       294           N   tau( 294) = (   0.4999999   0.6350854   0.1225140  )
       295           N   tau( 295) = (   0.4999999   0.6350854   0.4484898  )
       296           N   tau( 296) = (   0.4999999   0.6350854   0.7744656  )
       297           N   tau( 297) = (   0.3999999   0.8082905   0.1225140  )
       298           N   tau( 298) = (   0.3999999   0.8082905   0.4484898  )
       299           N   tau( 299) = (   0.3999999   0.8082905   0.7744656  )

   Crystallographic axes

     site n.     atom                  positions (cryst. coord.)
         1           Ga  tau(   1) = (  0.1333334  0.0666666  0.4997208  )
         2           Ga  tau(   2) = (  0.1333334  0.0666666  0.8330541  )
[...]
     atom   26 type  1   force =     0.00000000    0.00000000    0.00000000
     atom   27 type  1   force =     0.00000000    0.00000000    0.00000000
     atom   28 type  1   force =     0.00000000    0.00000000    0.00000000
     atom   29 type  1   force =     0.00000000    0.00000000    0.00000000
     atom   30 type  1   force =     0.00000000    0.00000000    0.00000000
     atom   31 type  1   force =     0.00000000    0.00000000    0.00000000
     atom   32 type  1   force =     0.00000000    0.00000000    0.00000000
     atom   33 type  1   force =     0.00000000    0.00000000    0.00000000
     atom   34 type  1   force =     0.00000000    0.00000000    0.00000000
     atom   35 type  1   force =     0.00000000    0.00000000    0.00000000
     atom   36 type  1   force =     0.00000000    0.00000000    0.00000000
     atom   37 type  1   force =     0.00000000    0.00000000    0.00000000
     atom   38 type  1   force =     0.00000000    0.00000000    0.00000000
     atom   39 type  1   force =     0.00000000    0.00000000    0.00000000
     atom   40 type  1   force =     0.00000000    0.00000000    0.00000000
     atom   41 type  1   force =     0.00000000    0.00000000    0.00000000
     atom   42 type  1   force =     0.00000000    0.00000000    0.00000000
     atom   43 type  1   force =     0.00000000    0.00000000    0.00000000
     atom   44 type  1   force =     0.00000000    0.00000000    0.00000000
     atom   45 type  1   force =     0.00000000    0.00000000    0.00000000
     atom   46 type  1   force =     0.00000000    0.00000000    0.00000000
     atom   47 type  1   force =     0.00000000    0.00000000    0.00000000
     atom   48 type  1   force =     0.00000000    0.00000000    0.00000000
     atom   49 type  1   force =     0.00000000    0.00000000    0.00000000
     atom   50 type  1   force =     0.00000000    0.00000000    0.00000000
     atom   51 type  1   force =     0.00000000    0.00000000    0.00000000
     atom   52 type  1   force =     0.00000000    0.00000000    0.00000000
     atom   53 type  1   force =     0.00000000    0.00000000    0.00000000
     atom   54 type  1   force =     0.00000000    0.00000000    0.00000000
     atom   55 type  1   force =     0.00000000    0.00000000    0.00000000
     atom   56 type  1   force =     0.00000000    0.00000000    0.00000000
     atom   57 type  1   force =     0.00000000    0.00000000    0.00000000
     atom   58 type  1   force =     0.00000000    0.00000000    0.00000000
     atom   59 type  1   force =     0.00000000    0.00000000    0.00000000
     atom   60 type  1   force =     0.00000000    0.00000000    0.00000000
[...]
     atom  285 type  2   force =     0.00000000    0.00000000    0.00000000
     atom  286 type  2   force =     0.00000000    0.00000000    0.00000000
     atom  287 type  2   force =     0.00000000    0.00000000    0.00000000
     atom  288 type  2   force =     0.00000000    0.00000000    0.00000000
     atom  289 type  2   force =     0.00000000    0.00000000    0.00000000
     atom  290 type  2   force =     0.00000000    0.00000000    0.00000000
     atom  291 type  2   force =     0.00000000    0.00000000    0.00000000
     atom  292 type  2   force =     0.00000000    0.00000000    0.00000000
     atom  293 type  2   force =     0.00000000    0.00000000    0.00000000
     atom  294 type  2   force =     0.00000000    0.00000000    0.00000000
     atom  295 type  2   force =     0.00000000    0.00000000    0.00000000
     atom  296 type  2   force =     0.00000000    0.00000000    0.00000000
     atom  297 type  2   force =     0.00000000    0.00000000    0.00000000
     atom  298 type  2   force =     0.00000000    0.00000000    0.00000000
     atom  299 type  2   force =     0.00000000    0.00000000    0.00000000
     The SCF correction term to forces
     atom    1 type  1   force =    -0.00000718   -0.00000415    0.00018414
     atom    2 type  1   force =    -0.00002019   -0.00001166    0.00009835
     atom    3 type  1   force =    -0.00009596   -0.00013634   -0.00018154
     atom    4 type  1   force =    -0.00004295    0.00008761    0.00002340
     atom    5 type  1   force =    -0.00000990   -0.00000999    0.00008135
     atom    6 type  1   force =    -0.00001645   -0.00004033   -0.00004755
     atom    7 type  1   force =    -0.00001467    0.00001641   -0.00000610
     atom    8 type  1   force =    -0.00000548   -0.00000289    0.00004029
     atom    9 type  1   force =    -0.00004315    0.00000592   -0.00004755
     atom   10 type  1   force =     0.00000687   -0.00002091   -0.00000610
     atom   11 type  1   force =    -0.00000524   -0.00000330    0.00004029
     atom   12 type  1   force =    -0.00016605   -0.00001493   -0.00018154
     atom   13 type  1   force =     0.00005440   -0.00008100    0.00002340
     atom   14 type  1   force =    -0.00001360   -0.00000358    0.00008135
     atom   15 type  1   force =     0.00003136   -0.00004799   -0.00008968
     atom   16 type  1   force =     0.00009158   -0.00001766    0.00003235
     atom   17 type  1   force =    -0.00000925   -0.00001272    0.00005223
     atom   18 type  1   force =    -0.00002588    0.00005115   -0.00008968
     atom   19 type  1   force =     0.00003050    0.00008814    0.00003235
     atom   20 type  1   force =    -0.00001564   -0.00000165    0.00005223
     atom   21 type  1   force =    -0.00002198    0.00000035   -0.00003907
     atom   22 type  1   force =    -0.00000461    0.00004148   -0.00000204
     atom   23 type  1   force =    -0.00000879    0.00000307    0.00003551
     atom   24 type  1   force =    -0.00001410   -0.00000814   -0.00002668
     atom   25 type  1   force =     0.00000318    0.00000183   -0.00000667
     atom   26 type  1   force =    -0.00000270   -0.00000156    0.00002392
     atom   27 type  1   force =    -0.00001069   -0.00001921   -0.00003907
     atom   28 type  1   force =     0.00003362   -0.00002473   -0.00000204
     atom   29 type  1   force =    -0.00000173   -0.00000914    0.00003551
     atom   30 type  1   force =     0.00001554    0.00000385   -0.00003332
     atom   31 type  1   force =     0.00002594   -0.00000065   -0.00000052
     atom   32 type  1   force =     0.00001100   -0.00000302    0.00002852
     atom   33 type  1   force =     0.00001769    0.00001021   -0.00002862
     atom   34 type  1   force =     0.00003646    0.00002105    0.00000365
     atom   35 type  1   force =     0.00000811    0.00000468    0.00002869
     atom   36 type  1   force =     0.00001110    0.00001153   -0.00003332
     atom   37 type  1   force =     0.00001241    0.00002279   -0.00000052
     atom   38 type  1   force =     0.00000289    0.00001103    0.00002852
     atom   39 type  1   force =     0.00001046    0.00000465   -0.00002531
     atom   40 type  1   force =    -0.00000343    0.00000645   -0.00000624
     atom   41 type  1   force =     0.00000136    0.00000543    0.00002296
     atom   42 type  1   force =     0.00000926    0.00000673   -0.00002531
     atom   43 type  1   force =     0.00000387   -0.00000619   -0.00000624
     atom   44 type  1   force =     0.00000539   -0.00000154    0.00002296
     atom   45 type  1   force =     0.00004721    0.00002356   -0.00004602
     atom   46 type  1   force =    -0.00001517    0.00000083   -0.00000512
     atom   47 type  1   force =     0.00000957    0.00000125    0.00003903
     atom   48 type  1   force =     0.00002465    0.00000092   -0.00002820
     atom   49 type  1   force =     0.00000675    0.00000779   -0.00000622
     atom   50 type  1   force =     0.00001082    0.00000198    0.00002798
     atom   51 type  1   force =     0.00001313    0.00002088   -0.00002820
     atom   52 type  1   force =     0.00001012    0.00000196   -0.00000622
     atom   53 type  1   force =     0.00000712    0.00000838    0.00002798
     atom   54 type  1   force =     0.00004401    0.00002910   -0.00004602
     atom   55 type  1   force =    -0.00000687   -0.00001355   -0.00000512
     atom   56 type  1   force =     0.00000587    0.00000767    0.00003903
     atom   57 type  1   force =     0.00002870    0.00001657   -0.00004422
     atom   58 type  1   force =    -0.00003190   -0.00001841   -0.00000556
     atom   59 type  1   force =     0.00000776    0.00000448    0.00004420
     atom   60 type  1   force =     0.00010220    0.00009885   -0.00018836
[...]
     atom  285 type  2   force =     0.00004024    0.00000148   -0.00001239
     atom  286 type  2   force =    -0.00001961    0.00000583   -0.00000744
     atom  287 type  2   force =     0.00000089    0.00000103    0.00002050
     atom  288 type  2   force =     0.00001071   -0.00000204   -0.00000622
     atom  289 type  2   force =    -0.00000265    0.00000308   -0.00000863
     atom  290 type  2   force =     0.00000229    0.00000051    0.00001332
     atom  291 type  2   force =     0.00000358    0.00001030   -0.00000622
     atom  292 type  2   force =     0.00000134   -0.00000384   -0.00000863
     atom  293 type  2   force =     0.00000158    0.00000172    0.00001332
     atom  294 type  2   force =     0.00002140    0.00003411   -0.00001239
     atom  295 type  2   force =    -0.00000475   -0.00001990   -0.00000744
     atom  296 type  2   force =     0.00000134    0.00000025    0.00002050
     atom  297 type  2   force =     0.00003758    0.00002170   -0.00002417
     atom  298 type  2   force =    -0.00002850   -0.00001645   -0.00000347
     atom  299 type  2   force =     0.00000067    0.00000039    0.00002784

     Total force =     0.004878     Total SCF correction =     0.001221
     SCF correction compared to forces is large: reduce conv_thr to get better values

     Computing stress (Cartesian axis) and pressure

[...]

          total   stress  (Ry/bohr**3)                   (kbar)     P=       14.73
   0.00009686  -0.00000002   0.00000002           14.25       -0.00        0.00
  -0.00000002   0.00009687   0.00000001           -0.00       14.25        0.00
   0.00000002   0.00000001   0.00010662            0.00        0.00       15.68

     kinetic stress (kbar)  18398.49      0.01      0.00
                                0.01  18398.48      0.00
                                0.00      0.00  18393.97

     local   stress (kbar)   5120.53      1.31     -0.06
                                1.31   5118.84     -0.04
                               -0.06     -0.04   3471.03

     nonloc. stress (kbar)     46.20      0.02     -0.01
                                0.02     46.18     -0.00
                               -0.01     -0.00     57.43

     hartree stress (kbar)  19603.75     -0.52      0.01
                               -0.52  19604.35      0.00
                                0.01      0.00  20358.09

     exc-cor stress (kbar)   5173.64     -0.00      0.00
                               -0.00   5173.65      0.00
                                0.00      0.00   5173.94

     corecor stress (kbar) -14020.55      0.00     -0.00
                                0.00 -14020.55     -0.00
                               -0.00     -0.00 -14020.01

     ewald   stress (kbar) -34469.01     -0.80      0.06
                               -0.80 -34467.86      0.04
                                0.06      0.04 -33579.10

     hubbard stress (kbar)      0.00      0.00      0.00
                                0.00      0.00      0.00
                                0.00      0.00      0.00

     DFT-D   stress (kbar)      0.00      0.00      0.00
                                0.00      0.00      0.00
                                0.00      0.00      0.00

     XDM     stress (kbar)      0.00      0.00      0.00
                                0.00      0.00      0.00
                                0.00      0.00      0.00

     dft-nl  stress (kbar)    161.19      0.00     -0.00
                                0.00    161.19     -0.00
                               -0.00     -0.00    160.34

     TS-vdW  stress (kbar)      0.00      0.00      0.00
                                0.00      0.00      0.00
                                0.00      0.00      0.00

     MDB     stress (kbar)      0.00      0.00      0.00
                                0.00      0.00      0.00
                                0.00      0.00      0.00

     3D-RISM stress (kbar)      0.00      0.00      0.00
                                0.00      0.00      0.00
                                0.00      0.00      0.00

[...]

     Non-local corr. energy    =      81.31047036 Ry

 BEEFens 2000 ensemble energies
             -0.658341362222554E+02
             -0.592339656291574E+03
             -0.254678298851752E+03
              0.208486775552110E+03
             -0.425790988494323E+03
             -0.547687536407295E+03
              0.281472001932207E+03
             -0.296962922455682E+02
              0.469137616116886E+03
             -0.202421139666285E+02
              0.230035235566006E+03
              0.956062891567058E+01
              0.948826851616332E+01
             -0.201307182594933E+02
              0.307025126763280E+03
             -0.223602692787890E+03
             -0.460917383414079E+03
             -0.150548843352491E+03
              0.112527366436262E+03
             -0.100758715413313E+02
              0.672480459214527E+03
              0.572419152985171E+03
             -0.327590507372663E+03
              0.118719024546345E+03
             -0.718432240235096E+03
              0.576066940025546E+03
              0.188161355195083E+03
              0.560114626459272E+03
              0.368034760949929E+03
             -0.179212670836055E+03
              0.135581458473756E+03
             -0.264750892594136E+03
              0.739397047472536E+02
              0.359970669185797E+03
              0.381814776819471E+03
             -0.137860673290284E+03
              0.848166042252802E+03
             -0.321865711480352E+03
             -0.231721300351534E+03
              0.339888624523450E+03
              0.152007487083330E+03
              0.254440067315296E+03
             -0.484904583012438E+03
             -0.136332477972428E+02
              0.476061674629424E+03
              0.618313697947448E+03
             -0.615486513296923E+03
              0.438563649664547E+02
              0.232090708804068E+03
              0.112908321256125E+03
              0.257392347377418E+03
              0.545234906932177E+03
             -0.329621832050910E+03
             -0.361327396417229E+03
             -0.469792336929465E+03
             -0.727794901176835E+02
             -0.428494068194228E+03
              0.419153312162093E+02
             -0.793826794582524E+02
             -0.334038611304700E+03
[...]
              0.416901189027593E+03
              0.230189389325762E+03
              0.292639463408628E+03
             -0.472819747121839E+03
             -0.452494729828119E+03
             -0.114539390605016E+03
             -0.443610895018811E+03
              0.710324786253251E+03
              0.608785853970199E+03
              0.290889990608716E+03
              0.787681618175081E+03
             -0.409947756990993E+03
             -0.167114003372498E+03
             -0.232393207247390E+03
              0.651467208424824E+03

 BEEF-vdW xc energy contributions
            1 :    -5971.415129434996
            2 :     5378.479922797646
            3 :    -4384.996981307064
            4 :     3281.627783027610
            5 :    -2324.235389498712
            6 :     1636.623081585372
            7 :    -1196.644508976386
            8 :     899.2258729096284
            9 :    -645.5236764371821
           10 :     400.2788091476559
           11 :    -189.8821228252182
           12 :     57.08561113054566
           13 :    -14.02845933710887
           14 :     28.34529635307808
           15 :    -47.05891134930971
           16 :     34.27761571931933
           17 :     8.130527292476472
           18 :    -50.64382097905855
           19 :     65.47728625395666
           20 :    -50.30086864706209
           21 :     28.52745262122698
           22 :    -28.51675536330822
           23 :     60.24701178882970
           24 :    -108.1822409808710
           25 :     144.6216686662374
           26 :    -151.3683429828507
           27 :     132.1154367332801
           28 :    -106.7903556086694
           29 :     94.03333157600719
           30 :    -96.75555702184192
           31 :    -511.9138689325109
           32 :    -350.8015300253892

     Writing all to output data dir ./GaN.save/

     General routines

     Parallel routines

     PAW routines

   This run was terminated on:  11:27: 9  23Mar2024

   JOB DONE.