     Program PWSCF v.7.1 starts on 27Mar2024 at 19:58:44

     Reading input from espresso.pwi
Warning: card &CELL ignored
Warning: card    CELL_DYNAMICS    = 'BFGS' ignored
Warning: card / ignored

     Current dimensions of program PWSCF are:
     Max number of different atomic species (ntypx) = 10
     Max number of k-points (npk) =  40000
     Max angular momentum in pseudopotentials (lmaxx) =  4
     file Ga.pbe-dn-kjpaw_psl.1.0.0.UPF: wavefunction(s)  4S renormalized
     file N.pbe-n-kjpaw_psl.1.0.0.UPF: wavefunction(s)  2S renormalized

     IMPORTANT: XC functional enforced from input :
     Exchange-correlation= BEEF-VDW
                           (   1   4  43  14   2   0   0)
     Any further DFT definition will be discarded
     Please, verify this is what you really want

     Found identity + (  0.0000  0.0000  0.5000) symmetry
     This is a supercell, fractional translations are disabled

     R & G space division:  proc/nbgrp/npool/nimage =      27
     Subspace diagonalization in iterative solution of the eigenvalue problem:
     a serial algorithm will be used

     Using Slab Decomposition

     bravais-lattice index     =            4
     lattice parameter (alat)  =      12.2626  a.u.
     unit-cell volume          =    2602.7676 (a.u.)^3
     number of atoms/cell      =           32
     number of atomic types    =            2
     number of electrons       =       288.00
     number of Kohn-Sham states=          173
     kinetic-energy cutoff     =      70.0000  Ry
     charge density cutoff     =     350.0000  Ry
     scf convergence threshold =      1.0E-07
     mixing beta               =       0.7000
     number of iterations used =            8  plain     mixing
     energy convergence thresh.=      1.0E-04
     force convergence thresh. =      1.0E-03
     Exchange-correlation= BEEF-VDW
                           (   1   4  43  14   2   0   0)
     nstep                     =           50

     celldm(1)=  12.262616  celldm(2)=   0.000000  celldm(3)=   1.629879
     celldm(4)=   0.000000  celldm(5)=   0.000000  celldm(6)=   0.000000

     crystal axes: (cart. coord. in units of alat)
               a(1) = (   1.000000   0.000000   0.000000 )
               a(2) = (  -0.500000   0.866025   0.000000 )
               a(3) = (   0.000000   0.000000   1.629879 )

     reciprocal axes: (cart. coord. in units 2 pi/alat)
               b(1) = (  1.000000  0.577350 -0.000000 )
               b(2) = (  0.000000  1.154701  0.000000 )
               b(3) = (  0.000000 -0.000000  0.613542 )

     PseudoPot. # 1 for Ga read from file:
     /trace/group/acmegroup/atimmins/packages/espresso/pseudo/psl_1.0.0/pslibrary.1.0.0/pbe/PSEUDOPOTENTIALS/Ga.pbe-dn-kjpaw_psl.1.0.0.UPF
     MD5 check sum: cd2a01e492f15b435d17032472d8505c
     Pseudo is Projector augmented-wave + core cor, Zval = 13.0
     Generated using 'atomic' code by A. Dal Corso  v.7.1
     Shape of augmentation charge: PSQ
     Using radial grid of 1205 points,  6 beta functions with:
                l(1) =   0
                l(2) =   0
                l(3) =   1
                l(4) =   1
                l(5) =   2
                l(6) =   2
     Q(r) pseudized with 0 coefficients

     PseudoPot. # 2 for N  read from file:
     /trace/group/acmegroup/atimmins/packages/espresso/pseudo/psl_1.0.0/pslibrary.1.0.0/pbe/PSEUDOPOTENTIALS/N.pbe-n-kjpaw_psl.1.0.0.UPF
     MD5 check sum: f77f775694dac7e2c3fe1c82443d1a16
     Pseudo is Projector augmented-wave + core cor, Zval =  5.0
     Generated using 'atomic' code by A. Dal Corso  v.7.1
     Shape of augmentation charge: PSQ
     Using radial grid of 1085 points,  4 beta functions with:
                l(1) =   0
                l(2) =   0
                l(3) =   1
                l(4) =   1
     Q(r) pseudized with 0 coefficients

     atomic species   valence    mass     pseudopotential
        Ga            13.00    69.72300     Ga( 1.00)
        N              5.00    14.00700     N ( 1.00)

      6 Sym. Ops. (no inversion) found

                                    s                        frac. trans.

      isym =  1     identity

 cryst.   s( 1) = (     1          0          0      )
                  (     0          1          0      )
                  (     0          0          1      )

 cart.    s( 1) = (  1.0000000  0.0000000  0.0000000 )
                  (  0.0000000  1.0000000  0.0000000 )
                  (  0.0000000  0.0000000  1.0000000 )

      isym =  2     120 deg rotation - cryst. axis [0,0,1]

[...]

      isym =  3     120 deg rotation - cryst. axis [0,0,-1]

[...]

      isym =  4     inv. 180 deg rotation - cart. axis [1,0,0]

[...]

      isym =  5     inv. 180 deg rotation - cryst. axis [0,1,0]

[...]

      isym =  6     inv. 180 deg rotation - cryst. axis [1,1,0]

 cryst.   s( 6) = (     0         -1          0      )
                  (    -1          0          0      )
                  (     0          0          1      )

 cart.    s( 6) = (  0.5000000 -0.8660254  0.0000000 )
                  ( -0.8660254 -0.5000000  0.0000000 )
                  (  0.0000000  0.0000000  1.0000000 )

     point group C_3v (3m)
     there are  3 classes
     the character table:

       E     2C3   3s_v
A_1    1.00  1.00  1.00
A_2    1.00  1.00 -1.00
E      2.00 -1.00  0.00

     the symmetry operations in each class and the name of the first element:

     E        1
          identity
     2C3      2    3
          120 deg rotation - cryst. axis [0,0,1]
     3s_v     4    5    6
          inv. 180 deg rotation - cart. axis [1,0,0]

   Cartesian axes

     site n.     atom                  positions (alat units)
         1           Ga  tau(   1) = (   0.2500002   0.1443375   0.4067871  )
         2           Ga  tau(   2) = (   0.2500002   0.1443375   1.2217266  )
         3           Ga  tau(   3) = (   0.0000002   0.5773502   0.4067871  )
         4           Ga  tau(   4) = (   0.0000002   0.5773502   1.2217266  )
         5           Ga  tau(   5) = (   0.7500002   0.1443375   0.4067871  )
         6           Ga  tau(   6) = (   0.7500002   0.1443375   1.2217266  )
         7           Ga  tau(   7) = (   0.5000002   0.5773502   0.4067871  )
         8           Ga  tau(   8) = (   0.5000002   0.5773502   1.2217266  )
         9           Ga  tau(   9) = (  -0.0000003   0.2886754   0.8142568  )
        10           Ga  tau(  10) = (  -0.0000003   0.2886754   1.6291964  )
        11           Ga  tau(  11) = (  -0.2500003   0.7216881   0.8142568  )
        12           Ga  tau(  12) = (  -0.2500003   0.7216881   1.6291964  )
        13           Ga  tau(  13) = (   0.4999997   0.2886754   0.8142568  )
        14           Ga  tau(  14) = (   0.4999997   0.2886754   1.6291964  )
        15           Ga  tau(  15) = (   0.2499997   0.7216881   0.8142568  )
        16           Ga  tau(  16) = (   0.2499997   0.7216881   1.6291964  )
        17           N   tau(  17) = (   0.2500002   0.1443375   0.7137548  )
        18           N   tau(  18) = (   0.2500002   0.1443375   1.5286943  )
        19           N   tau(  19) = (   0.0000002   0.5773502   0.7137548  )
        20           N   tau(  20) = (   0.0000002   0.5773502   1.5286943  )
        21           N   tau(  21) = (   0.7500002   0.1443375   0.7137548  )
        22           N   tau(  22) = (   0.7500002   0.1443375   1.5286943  )
        23           N   tau(  23) = (   0.5000002   0.5773502   0.7137548  )
        24           N   tau(  24) = (   0.5000002   0.5773502   1.5286943  )
        25           N   tau(  25) = (  -0.0000003   0.2886754   0.3062850  )
        26           N   tau(  26) = (  -0.0000003   0.2886754   1.1212245  )
        27           N   tau(  27) = (  -0.2500003   0.7216881   0.3062850  )
        28           N   tau(  28) = (  -0.2500003   0.7216881   1.1212245  )
        29           N   tau(  29) = (   0.4999997   0.2886754   0.3062850  )
        30           N   tau(  30) = (   0.4999997   0.2886754   1.1212245  )
        31           N   tau(  31) = (   0.2499997   0.7216881   0.3062850  )
        32           N   tau(  32) = (   0.2499997   0.7216881   1.1212245  )

   Crystallographic axes

     site n.     atom                  positions (cryst. coord.)
         1           Ga  tau(   1) = (  0.3333335  0.1666666  0.2495811  )
         2           Ga  tau(   2) = (  0.3333335  0.1666666  0.7495811  )
         3           Ga  tau(   3) = (  0.3333335  0.6666666  0.2495811  )
         4           Ga  tau(   4) = (  0.3333335  0.6666666  0.7495811  )
         5           Ga  tau(   5) = (  0.8333335  0.1666666  0.2495811  )
         6           Ga  tau(   6) = (  0.8333335  0.1666666  0.7495811  )
         7           Ga  tau(   7) = (  0.8333335  0.6666666  0.2495811  )
         8           Ga  tau(   8) = (  0.8333335  0.6666666  0.7495811  )
         9           Ga  tau(   9) = (  0.1666665  0.3333336  0.4995811  )
        10           Ga  tau(  10) = (  0.1666665  0.3333336  0.9995811  )
        11           Ga  tau(  11) = (  0.1666665  0.8333336  0.4995811  )
        12           Ga  tau(  12) = (  0.1666665  0.8333336  0.9995811  )
        13           Ga  tau(  13) = (  0.6666665  0.3333336  0.4995811  )
        14           Ga  tau(  14) = (  0.6666665  0.3333336  0.9995811  )
        15           Ga  tau(  15) = (  0.6666665  0.8333336  0.4995811  )
        16           Ga  tau(  16) = (  0.6666665  0.8333336  0.9995811  )
        17           N   tau(  17) = (  0.3333335  0.1666666  0.4379189  )
        18           N   tau(  18) = (  0.3333335  0.1666666  0.9379189  )
        19           N   tau(  19) = (  0.3333335  0.6666666  0.4379189  )
        20           N   tau(  20) = (  0.3333335  0.6666666  0.9379189  )
        21           N   tau(  21) = (  0.8333335  0.1666666  0.4379189  )
        22           N   tau(  22) = (  0.8333335  0.1666666  0.9379189  )
        23           N   tau(  23) = (  0.8333335  0.6666666  0.4379189  )
        24           N   tau(  24) = (  0.8333335  0.6666666  0.9379189  )
        25           N   tau(  25) = (  0.1666665  0.3333336  0.1879189  )
        26           N   tau(  26) = (  0.1666665  0.3333336  0.6879189  )
        27           N   tau(  27) = (  0.1666665  0.8333336  0.1879189  )
        28           N   tau(  28) = (  0.1666665  0.8333336  0.6879189  )
        29           N   tau(  29) = (  0.6666665  0.3333336  0.1879189  )
        30           N   tau(  30) = (  0.6666665  0.3333336  0.6879189  )
        31           N   tau(  31) = (  0.6666665  0.8333336  0.1879189  )
        32           N   tau(  32) = (  0.6666665  0.8333336  0.6879189  )

     number of k points=     8  Gaussian smearing, width (Ry)=  0.0100
                       cart. coord. in units 2pi/alat
        k(    1) = (   0.0000000   0.0000000   0.0000000), wk =   0.0625000
        k(    2) = (   0.0000000   0.0000000  -0.3067712), wk =   0.0625000
        k(    3) = (   0.0000000   0.2886751   0.0000000), wk =   0.3750000
        k(    4) = (   0.0000000   0.2886751  -0.3067712), wk =   0.3750000
        k(    5) = (   0.0000000  -0.5773503   0.0000000), wk =   0.1875000
[...]
     atom   18 type  2   force =    -0.00002983    0.00001855   -0.15864968
     atom   19 type  2   force =    -0.00002980    0.00001898   -0.15865046
     atom   20 type  2   force =    -0.00002980    0.00001898   -0.15864979
     atom   21 type  2   force =    -0.00002947    0.00001879   -0.15865024
     atom   22 type  2   force =    -0.00002947    0.00001879   -0.15864956
     atom   23 type  2   force =    -0.00002944    0.00001922   -0.15865034
     atom   24 type  2   force =    -0.00002944    0.00001922   -0.15864967
     atom   25 type  2   force =     0.00002944   -0.00001922   -0.15865085
     atom   26 type  2   force =     0.00002944   -0.00001922   -0.15864997
     atom   27 type  2   force =     0.00002947   -0.00001879   -0.15865074
     atom   28 type  2   force =     0.00002947   -0.00001879   -0.15864986
     atom   29 type  2   force =     0.00002980   -0.00001898   -0.15865096
     atom   30 type  2   force =     0.00002980   -0.00001898   -0.15865008
     atom   31 type  2   force =     0.00002983   -0.00001855   -0.15865085
     atom   32 type  2   force =     0.00002983   -0.00001855   -0.15864997
     The local contribution  to forces
     atom    1 type  1   force =    -0.00044743    0.00024699   -0.15976297
     atom    2 type  1   force =    -0.00044656    0.00024749   -0.15980530
     atom    3 type  1   force =    -0.00049884    0.00022348   -0.15976153
     atom    4 type  1   force =    -0.00049884    0.00022348   -0.15981040
     atom    5 type  1   force =    -0.00053949    0.00024699   -0.15976297
     atom    6 type  1   force =    -0.00054036    0.00024749   -0.15980530
     atom    7 type  1   force =    -0.00049344    0.00016723   -0.15976297
     atom    8 type  1   force =    -0.00049344    0.00016622   -0.15980530
     atom    9 type  1   force =     0.00067496   -0.00046693   -0.15979541
     atom   10 type  1   force =     0.00067496   -0.00047280   -0.15977556
     atom   11 type  1   force =     0.00072470   -0.00055314   -0.15979541
     atom   12 type  1   force =     0.00071962   -0.00055021   -0.15977556
     atom   13 type  1   force =     0.00068032   -0.00052748   -0.15979623
     atom   14 type  1   force =     0.00068032   -0.00052748   -0.15977845
     atom   15 type  1   force =     0.00062522   -0.00055314   -0.15979541
     atom   16 type  1   force =     0.00063030   -0.00055021   -0.15977556
     atom   17 type  2   force =    -0.00003907    0.00001870    0.14488484
     atom   18 type  2   force =    -0.00003923    0.00001861    0.14488849
     atom   19 type  2   force =    -0.00004073    0.00001825    0.14488139
     atom   20 type  2   force =    -0.00004073    0.00001825    0.14488439
     atom   21 type  2   force =    -0.00004152    0.00001870    0.14488484
     atom   22 type  2   force =    -0.00004136    0.00001861    0.14488849
     atom   23 type  2   force =    -0.00004029    0.00001658    0.14488484
     atom   24 type  2   force =    -0.00004029    0.00001677    0.14488849
     atom   25 type  2   force =     0.00005512   -0.00004188    0.14489478
     atom   26 type  2   force =     0.00005512   -0.00004122    0.14487931
     atom   27 type  2   force =     0.00005593   -0.00004329    0.14489478
     atom   28 type  2   force =     0.00005650   -0.00004362    0.14487931
     atom   29 type  2   force =     0.00005555   -0.00004307    0.14489080
     atom   30 type  2   force =     0.00005555   -0.00004307    0.14487475
     atom   31 type  2   force =     0.00005430   -0.00004329    0.14489478
     atom   32 type  2   force =     0.00005373   -0.00004362    0.14487931
     The core correction contribution to forces
     atom    1 type  1   force =    -0.00005553    0.00000536    0.00007369
     atom    2 type  1   force =    -0.00005556    0.00000534    0.00007340
     atom    3 type  1   force =    -0.00003691    0.00001654    0.00005842
     atom    4 type  1   force =    -0.00003691    0.00001654    0.00005815
     atom    5 type  1   force =    -0.00001753    0.00000535    0.00007369
     atom    6 type  1   force =    -0.00001750    0.00000533    0.00007340
     atom    7 type  1   force =    -0.00003654    0.00003824    0.00007369
     atom    8 type  1   force =    -0.00003654    0.00003828    0.00007340
     atom    9 type  1   force =     0.00004998   -0.00006076    0.00007352
     atom   10 type  1   force =     0.00004998   -0.00006073    0.00007338
     atom   11 type  1   force =     0.00003095   -0.00002785    0.00007352
     atom   12 type  1   force =     0.00003097   -0.00002786    0.00007338
     atom   13 type  1   force =     0.00005034   -0.00003903    0.00005823
     atom   14 type  1   force =     0.00005034   -0.00003903    0.00005816
     atom   15 type  1   force =     0.00006898   -0.00002787    0.00007352
     atom   16 type  1   force =     0.00006896   -0.00002788    0.00007338
     atom   17 type  2   force =    -0.00000072   -0.00000152   -0.00022582
     atom   18 type  2   force =    -0.00000073   -0.00000153   -0.00022584
     atom   19 type  2   force =     0.00000110   -0.00000049   -0.00022525
     atom   20 type  2   force =     0.00000110   -0.00000049   -0.00022526
     atom   21 type  2   force =     0.00000289   -0.00000153   -0.00022582
     atom   22 type  2   force =     0.00000290   -0.00000153   -0.00022584
     atom   23 type  2   force =     0.00000108    0.00000160   -0.00022582
     atom   24 type  2   force =     0.00000108    0.00000160   -0.00022584
     atom   25 type  2   force =    -0.00000148   -0.00000093   -0.00022591
     atom   26 type  2   force =    -0.00000148   -0.00000093   -0.00022576
     atom   27 type  2   force =    -0.00000329    0.00000220   -0.00022591
     atom   28 type  2   force =    -0.00000329    0.00000220   -0.00022576
     atom   29 type  2   force =    -0.00000150    0.00000116   -0.00022533
     atom   30 type  2   force =    -0.00000150    0.00000116   -0.00022521
     atom   31 type  2   force =     0.00000032    0.00000219   -0.00022591
     atom   32 type  2   force =     0.00000033    0.00000219   -0.00022576
     The Hubbard contrib.    to forces
     atom    1 type  1   force =     0.00000000    0.00000000    0.00000000
     atom    2 type  1   force =     0.00000000    0.00000000    0.00000000
     atom    3 type  1   force =     0.00000000    0.00000000    0.00000000
     atom    4 type  1   force =     0.00000000    0.00000000    0.00000000
     atom    5 type  1   force =     0.00000000    0.00000000    0.00000000
     atom    6 type  1   force =     0.00000000    0.00000000    0.00000000
     atom    7 type  1   force =     0.00000000    0.00000000    0.00000000
     atom    8 type  1   force =     0.00000000    0.00000000    0.00000000
     atom    9 type  1   force =     0.00000000    0.00000000    0.00000000
     atom   10 type  1   force =     0.00000000    0.00000000    0.00000000
     atom   11 type  1   force =     0.00000000    0.00000000    0.00000000
     atom   12 type  1   force =     0.00000000    0.00000000    0.00000000
     atom   13 type  1   force =     0.00000000    0.00000000    0.00000000
     atom   14 type  1   force =     0.00000000    0.00000000    0.00000000
     atom   15 type  1   force =     0.00000000    0.00000000    0.00000000
     atom   16 type  1   force =     0.00000000    0.00000000    0.00000000
     atom   17 type  2   force =     0.00000000    0.00000000    0.00000000
     atom   18 type  2   force =     0.00000000    0.00000000    0.00000000
     atom   19 type  2   force =     0.00000000    0.00000000    0.00000000
     atom   20 type  2   force =     0.00000000    0.00000000    0.00000000
     atom   21 type  2   force =     0.00000000    0.00000000    0.00000000
     atom   22 type  2   force =     0.00000000    0.00000000    0.00000000
     atom   23 type  2   force =     0.00000000    0.00000000    0.00000000
     atom   24 type  2   force =     0.00000000    0.00000000    0.00000000
     atom   25 type  2   force =     0.00000000    0.00000000    0.00000000
     atom   26 type  2   force =     0.00000000    0.00000000    0.00000000
     atom   27 type  2   force =     0.00000000    0.00000000    0.00000000
     atom   28 type  2   force =     0.00000000    0.00000000    0.00000000
     atom   29 type  2   force =     0.00000000    0.00000000    0.00000000
     atom   30 type  2   force =     0.00000000    0.00000000    0.00000000
     atom   31 type  2   force =     0.00000000    0.00000000    0.00000000
     atom   32 type  2   force =     0.00000000    0.00000000    0.00000000
     The SCF correction term to forces
     atom    1 type  1   force =     0.00000180    0.00000104   -0.00003577
     atom    2 type  1   force =     0.00000192    0.00000111    0.00002931
     atom    3 type  1   force =    -0.00000000    0.00000000   -0.00004377
     atom    4 type  1   force =    -0.00000000    0.00000000    0.00003305
     atom    5 type  1   force =    -0.00000181    0.00000104   -0.00003577
     atom    6 type  1   force =    -0.00000193    0.00000111    0.00002931
     atom    7 type  1   force =    -0.00000000   -0.00000208   -0.00003577
     atom    8 type  1   force =    -0.00000000   -0.00000222    0.00002931
     atom    9 type  1   force =     0.00000000    0.00000697    0.00001930
     atom   10 type  1   force =     0.00000000    0.00001228   -0.00001248
     atom   11 type  1   force =     0.00000604   -0.00000349    0.00001930
     atom   12 type  1   force =     0.00001065   -0.00000615   -0.00001248
     atom   13 type  1   force =     0.00000000   -0.00000000    0.00001452
     atom   14 type  1   force =     0.00000000   -0.00000000   -0.00001166
     atom   15 type  1   force =    -0.00000603   -0.00000349    0.00001930
     atom   16 type  1   force =    -0.00001064   -0.00000615   -0.00001248
     atom   17 type  2   force =     0.00000310    0.00000179    0.00000422
     atom   18 type  2   force =     0.00000365    0.00000211   -0.00000252
     atom   19 type  2   force =    -0.00000000    0.00000000    0.00000387
     atom   20 type  2   force =    -0.00000000    0.00000000   -0.00000193
     atom   21 type  2   force =    -0.00000310    0.00000179    0.00000422
     atom   22 type  2   force =    -0.00000365    0.00000211   -0.00000252
     atom   23 type  2   force =    -0.00000000   -0.00000358    0.00000422
     atom   24 type  2   force =    -0.00000000   -0.00000421   -0.00000252
     atom   25 type  2   force =    -0.00000000    0.00000454   -0.00001233
     atom   26 type  2   force =     0.00000000    0.00000361    0.00001038
     atom   27 type  2   force =     0.00000393   -0.00000227   -0.00001233
     atom   28 type  2   force =     0.00000313   -0.00000180    0.00001038
     atom   29 type  2   force =     0.00000000   -0.00000000   -0.00001156
     atom   30 type  2   force =     0.00000000   -0.00000000    0.00001055
     atom   31 type  2   force =    -0.00000393   -0.00000227   -0.00001233
     atom   32 type  2   force =    -0.00000313   -0.00000180    0.00001038

     Total force =     0.000894     Total SCF correction =     0.000115
     SCF correction compared to forces is large: reduce conv_thr to get better values

     Computing stress (Cartesian axis) and pressure

     Non-local corr. energy    =       8.72074162 Ry

          total   stress  (Ry/bohr**3)                   (kbar)     P=        1.00
   0.00000365   0.00000000   0.00000000            0.54        0.00        0.00
   0.00000000   0.00000365  -0.00000000            0.00        0.54       -0.00
   0.00000000  -0.00000000   0.00001317            0.00       -0.00        1.94

     kinetic stress (kbar)  18449.25     -0.00      0.00
                               -0.00  18449.25      0.00
                                0.00     -0.00  18444.19

     local   stress (kbar)   5447.16     -0.07     -0.00
                               -0.07   5447.07      0.00
                               -0.00      0.00   3811.46

     nonloc. stress (kbar)     61.24      0.00      0.00
                                0.00     61.24      0.00
                                0.00      0.00     73.07

     hartree stress (kbar)  19596.06     -0.00      0.00
                               -0.00  19596.06      0.00
                                0.00      0.00  20346.23

     exc-cor stress (kbar)   5218.04      0.00      0.00
                                0.00   5218.04     -0.00
                                0.00     -0.00   5218.26

     corecor stress (kbar) -14110.26     -0.00     -0.00
                               -0.00 -14110.26      0.00
                               -0.00      0.00 -14109.69

     ewald   stress (kbar) -34823.05      0.10      0.00
                                0.10 -34822.93     -0.00
                                0.00     -0.00 -33942.83

     hubbard stress (kbar)      0.00      0.00      0.00
                                0.00      0.00      0.00
                                0.00      0.00      0.00

     DFT-D   stress (kbar)      0.00      0.00      0.00
                                0.00      0.00      0.00
                                0.00      0.00      0.00

     XDM     stress (kbar)      0.00      0.00      0.00
                                0.00      0.00      0.00
                                0.00      0.00      0.00

     dft-nl  stress (kbar)    162.09     -0.00     -0.00
                               -0.00    162.09      0.00
                               -0.00      0.00    161.24

     TS-vdW  stress (kbar)      0.00      0.00      0.00
                                0.00      0.00      0.00
                                0.00      0.00      0.00

     MDB     stress (kbar)      0.00      0.00      0.00
                                0.00      0.00      0.00
                                0.00      0.00      0.00

     3D-RISM stress (kbar)      0.00      0.00      0.00
                                0.00      0.00      0.00
                                0.00      0.00      0.00

     BFGS Geometry Optimization
     Energy error            =      0.0E+00 Ry
     Gradient error          =      1.8E-04 Ry/Bohr

     bfgs converged in   1 scf cycles and   0 bfgs steps
     (criteria: energy <  1.0E-04 Ry, force <  1.0E-03 Ry/Bohr)

     End of BFGS Geometry Optimization

     Final energy             =   -4996.6443791518 Ry
Begin final coordinates

ATOMIC_POSITIONS (angstrom)
Ga            1.6222756606        0.9366198184        2.6396807677
Ga            1.6222756606        0.9366198184        7.9279023555
Ga            0.0000014521        3.7464811715        2.6396807677
Ga            0.0000014521        3.7464811715        7.9279023555
Ga            4.8668240777        0.9366198184        2.6396807677
Ga            4.8668240777        0.9366198184        7.9279023555
Ga            3.2445498691        3.7464811715        2.6396807677
Ga            3.2445498691        3.7464811715        7.9279023555
Ga           -0.0000019648        1.8732424465        5.2837915627
Ga           -0.0000019648        1.8732424465       10.5720131505
Ga           -1.6222761733        4.6831037996        5.2837915627
Ga           -1.6222761733        4.6831037996       10.5720131505
Ga            3.2445464523        1.8732424465        5.2837915627
Ga            3.2445464523        1.8732424465       10.5720131505
Ga            1.6222722437        4.6831037996        5.2837915627
Ga            1.6222722437        4.6831037996       10.5720131505
N             1.6222756606        0.9366198184        4.6316239188
N             1.6222756606        0.9366198184        9.9198455066
N             0.0000014521        3.7464811715        4.6316239188
N             0.0000014521        3.7464811715        9.9198455066
N             4.8668240777        0.9366198184        4.6316239188
N             4.8668240777        0.9366198184        9.9198455066
N             3.2445498691        3.7464811715        4.6316239188
N             3.2445498691        3.7464811715        9.9198455066
N            -0.0000019648        1.8732424465        1.9875131237
N            -0.0000019648        1.8732424465        7.2757347115
N            -1.6222761733        4.6831037996        1.9875131237
N            -1.6222761733        4.6831037996        7.2757347115
N             3.2445464523        1.8732424465        1.9875131237
N             3.2445464523        1.8732424465        7.2757347115
N             1.6222722437        4.6831037996        1.9875131237
N             1.6222722437        4.6831037996        7.2757347115
End final coordinates

     Writing all to output data dir ./GaN.save/

     General routines

     Parallel routines

     PAW routines

   This run was terminated on:  20: 2:15  27Mar2024

   JOB DONE.