     Program PWSCF v.7.1 starts on 19Feb2024 at  7:35:58

     Reading input from espresso.pwi
Warning: card &CELL ignored
Warning: card    CELL_DYNAMICS    = 'BFGS' ignored
Warning: card / ignored

     Current dimensions of program PWSCF are:
     Max number of different atomic species (ntypx) = 10
     Max number of k-points (npk) =  40000
     Max angular momentum in pseudopotentials (lmaxx) =  4
     file C.pbe-n-kjpaw_psl.1.0.0.UPF: wavefunction(s)  2S 2P renormalized

     IMPORTANT: XC functional enforced from input :
     Exchange-correlation= BEEF-VDW
                           (   1   4  43  14   2   0   0)
     Any further DFT definition will be discarded
     Please, verify this is what you really want

     R & G space division:  proc/nbgrp/npool/nimage =     256
     wavefunctions fft division:  task group distribution
                                  #TG    x Z-proc =       8     32
     Subspace diagonalization in iterative solution of the eigenvalue problem:
     a serial algorithm will be used

     Using Pencil Decomposition

     bravais-lattice index     =            1
     lattice parameter (alat)  =      33.7534  a.u.
     unit-cell volume          =   38454.8879 (a.u.)^3
     number of atoms/cell      =          999
     number of atomic types    =            1
     number of electrons       =      3998.00
     number of Kohn-Sham states=         2399
     kinetic-energy cutoff     =      70.0000  Ry
     charge density cutoff     =     350.0000  Ry
     scf convergence threshold =      1.0E-07
     mixing beta               =       0.7000
     number of iterations used =            8  plain     mixing
     energy convergence thresh.=      1.0E-04
     force convergence thresh. =      1.0E-03
     Exchange-correlation= BEEF-VDW
                           (   1   4  43  14   2   0   0)
     nstep                     =           50

     celldm(1)=  33.753373  celldm(2)=   0.000000  celldm(3)=   0.000000
     celldm(4)=   0.000000  celldm(5)=   0.000000  celldm(6)=   0.000000

     crystal axes: (cart. coord. in units of alat)
               a(1) = (   1.000000   0.000000   0.000000 )
               a(2) = (   0.000000   1.000000   0.000000 )
               a(3) = (   0.000000   0.000000   1.000000 )

     reciprocal axes: (cart. coord. in units 2 pi/alat)
               b(1) = (  1.000000  0.000000  0.000000 )
               b(2) = (  0.000000  1.000000  0.000000 )
               b(3) = (  0.000000  0.000000  1.000000 )

     PseudoPot. # 1 for C  read from file:
     /trace/group/acmegroup/atimmins/packages/espresso/pseudo/psl_1.0.0/pslibrary.1.0.0/pbe/PSEUDOPOTENTIALS/C.pbe-n-kjpaw_psl.1.0.0.UPF
     MD5 check sum: 5459cf7f2c8c37df2f7cde8914797f4d
     Pseudo is Projector augmented-wave + core cor, Zval =  4.0
     Generated using 'atomic' code by A. Dal Corso  v.7.1
     Shape of augmentation charge: PSQ
     Using radial grid of 1073 points,  4 beta functions with:
                l(1) =   0
                l(2) =   0
                l(3) =   1
                l(4) =   1
     Q(r) pseudized with 0 coefficients

     atomic species   valence    mass     pseudopotential
        C              4.00    12.01100     C ( 1.00)

      2 Sym. Ops. (no inversion) found

                                    s                        frac. trans.

      isym =  1     identity

 cryst.   s( 1) = (     1          0          0      )
                  (     0          1          0      )
                  (     0          0          1      )

 cart.    s( 1) = (  1.0000000  0.0000000  0.0000000 )
                  (  0.0000000  1.0000000  0.0000000 )
                  (  0.0000000  0.0000000  1.0000000 )

      isym =  2     inv. 180 deg rotation - cart. axis [-1,0,1]

 cryst.   s( 2) = (     0          0          1      )
                  (     0          1          0      )
                  (     1          0          0      )

 cart.    s( 2) = (  0.0000000  0.0000000  1.0000000 )
                  (  0.0000000  1.0000000  0.0000000 )
                  (  1.0000000  0.0000000  0.0000000 )

     point group C_s (m)
     there are  2 classes
     the character table:

       E     s
A'     1.00  1.00
A''    1.00 -1.00

     the symmetry operations in each class and the name of the first element:

     E        1
          identity
     s        2
          inv. 180 deg rotation - cart. axis [-1,0,1]

   Cartesian axes

     site n.     atom                  positions (alat units)
         1           C   tau(   1) = (   0.0500012   0.1499988   0.2500012  )
         2           C   tau(   2) = (   0.0500012   0.1499988   0.4500012  )
         3           C   tau(   3) = (   0.0500012   0.1499988   0.6500012  )
         4           C   tau(   4) = (   0.0500012   0.1499988   0.8500012  )
         5           C   tau(   5) = (   0.0500012   0.3499988   0.0500012  )
         6           C   tau(   6) = (   0.0500012   0.3499988   0.2500012  )
         7           C   tau(   7) = (   0.0500012   0.3499988   0.4500012  )
         8           C   tau(   8) = (   0.0500012   0.3499988   0.6500012  )
         9           C   tau(   9) = (   0.0500012   0.3499988   0.8500012  )
        10           C   tau(  10) = (   0.0500012   0.5499988   0.0500012  )
        11           C   tau(  11) = (   0.0500012   0.5499988   0.2500012  )
        12           C   tau(  12) = (   0.0500012   0.5499988   0.4500012  )
        13           C   tau(  13) = (   0.0500012   0.5499988   0.6500012  )
        14           C   tau(  14) = (   0.0500012   0.5499988   0.8500012  )
        15           C   tau(  15) = (   0.0500012   0.7499988   0.0500012  )
        16           C   tau(  16) = (   0.0500012   0.7499988   0.2500012  )
        17           C   tau(  17) = (   0.0500012   0.7499988   0.4500012  )
        18           C   tau(  18) = (   0.0500012   0.7499988   0.6500012  )
        19           C   tau(  19) = (   0.0500012   0.7499988   0.8500012  )
        20           C   tau(  20) = (   0.0500012   0.9499988   0.0500012  )
        21           C   tau(  21) = (   0.0500012   0.9499988   0.2500012  )
        22           C   tau(  22) = (   0.0500012   0.9499988   0.4500012  )
        23           C   tau(  23) = (   0.0500012   0.9499988   0.6500012  )
        24           C   tau(  24) = (   0.0500012   0.9499988   0.8500012  )
        25           C   tau(  25) = (   0.2500012   0.1499988   0.0500012  )
        26           C   tau(  26) = (   0.2500012   0.1499988   0.2500012  )
        27           C   tau(  27) = (   0.2500012   0.1499988   0.4500012  )
        28           C   tau(  28) = (   0.2500012   0.1499988   0.6500012  )
        29           C   tau(  29) = (   0.2500012   0.1499988   0.8500012  )
        30           C   tau(  30) = (   0.2500012   0.3499988   0.0500012  )
        31           C   tau(  31) = (   0.2500012   0.3499988   0.2500012  )
        32           C   tau(  32) = (   0.2500012   0.3499988   0.4500012  )
        33           C   tau(  33) = (   0.2500012   0.3499988   0.6500012  )
        34           C   tau(  34) = (   0.2500012   0.3499988   0.8500012  )
        35           C   tau(  35) = (   0.2500012   0.5499988   0.0500012  )
        36           C   tau(  36) = (   0.2500012   0.5499988   0.2500012  )
        37           C   tau(  37) = (   0.2500012   0.5499988   0.4500012  )
        38           C   tau(  38) = (   0.2500012   0.5499988   0.6500012  )
        39           C   tau(  39) = (   0.2500012   0.5499988   0.8500012  )
        40           C   tau(  40) = (   0.2500012   0.7499988   0.0500012  )
        41           C   tau(  41) = (   0.2500012   0.7499988   0.2500012  )
        42           C   tau(  42) = (   0.2500012   0.7499988   0.4500012  )
        43           C   tau(  43) = (   0.2500012   0.7499988   0.6500012  )
        44           C   tau(  44) = (   0.2500012   0.7499988   0.8500012  )
        45           C   tau(  45) = (   0.2500012   0.9499988   0.0500012  )
        46           C   tau(  46) = (   0.2500012   0.9499988   0.2500012  )
        47           C   tau(  47) = (   0.2500012   0.9499988   0.4500012  )
        48           C   tau(  48) = (   0.2500012   0.9499988   0.6500012  )
        49           C   tau(  49) = (   0.2500012   0.9499988   0.8500012  )
        50           C   tau(  50) = (   0.4500012   0.1499988   0.0500012  )
        51           C   tau(  51) = (   0.4500012   0.1499988   0.2500012  )
        52           C   tau(  52) = (   0.4500012   0.1499988   0.4500012  )
        53           C   tau(  53) = (   0.4500012   0.1499988   0.6500012  )
        54           C   tau(  54) = (   0.4500012   0.1499988   0.8500012  )
        55           C   tau(  55) = (   0.4500012   0.3499988   0.0500012  )
        56           C   tau(  56) = (   0.4500012   0.3499988   0.2500012  )
        57           C   tau(  57) = (   0.4500012   0.3499988   0.4500012  )
        58           C   tau(  58) = (   0.4500012   0.3499988   0.6500012  )
        59           C   tau(  59) = (   0.4500012   0.3499988   0.8500012  )
        60           C   tau(  60) = (   0.4500012   0.5499988   0.0500012  )
[...]
       985           C   tau( 985) = (   0.9000000   0.5000000   0.1000000  )
       986           C   tau( 986) = (   0.9000000   0.5000000   0.3000000  )
       987           C   tau( 987) = (   0.9000000   0.5000000   0.5000000  )
       988           C   tau( 988) = (   0.9000000   0.5000000   0.7000000  )
       989           C   tau( 989) = (   0.9000000   0.5000000   0.9000000  )
       990           C   tau( 990) = (   0.9000000   0.7000000   0.1000000  )
       991           C   tau( 991) = (   0.9000000   0.7000000   0.3000000  )
       992           C   tau( 992) = (   0.9000000   0.7000000   0.5000000  )
       993           C   tau( 993) = (   0.9000000   0.7000000   0.7000000  )
       994           C   tau( 994) = (   0.9000000   0.7000000   0.9000000  )
       995           C   tau( 995) = (   0.9000000   0.9000000   0.1000000  )
       996           C   tau( 996) = (   0.9000000   0.9000000   0.3000000  )
       997           C   tau( 997) = (   0.9000000   0.9000000   0.5000000  )
       998           C   tau( 998) = (   0.9000000   0.9000000   0.7000000  )
       999           C   tau( 999) = (   0.9000000   0.9000000   0.9000000  )

   Crystallographic axes

     site n.     atom                  positions (cryst. coord.)
         1           C   tau(   1) = (  0.0500012  0.1499988  0.2500012  )
         2           C   tau(   2) = (  0.0500012  0.1499988  0.4500012  )
         3           C   tau(   3) = (  0.0500012  0.1499988  0.6500012  )
         4           C   tau(   4) = (  0.0500012  0.1499988  0.8500012  )
         5           C   tau(   5) = (  0.0500012  0.3499988  0.0500012  )
         6           C   tau(   6) = (  0.0500012  0.3499988  0.2500012  )
         7           C   tau(   7) = (  0.0500012  0.3499988  0.4500012  )
         8           C   tau(   8) = (  0.0500012  0.3499988  0.6500012  )
         9           C   tau(   9) = (  0.0500012  0.3499988  0.8500012  )
        10           C   tau(  10) = (  0.0500012  0.5499988  0.0500012  )
[...]
     atom   45 type  1   force =     0.00000000    0.00000000    0.00000000
     atom   46 type  1   force =     0.00000000    0.00000000    0.00000000
     atom   47 type  1   force =     0.00000000    0.00000000    0.00000000
     atom   48 type  1   force =     0.00000000    0.00000000    0.00000000
     atom   49 type  1   force =     0.00000000    0.00000000    0.00000000
     atom   50 type  1   force =     0.00000000    0.00000000    0.00000000
     atom   51 type  1   force =     0.00000000    0.00000000    0.00000000
     atom   52 type  1   force =     0.00000000    0.00000000    0.00000000
     atom   53 type  1   force =     0.00000000    0.00000000    0.00000000
     atom   54 type  1   force =     0.00000000    0.00000000    0.00000000
     atom   55 type  1   force =     0.00000000    0.00000000    0.00000000
     atom   56 type  1   force =     0.00000000    0.00000000    0.00000000
     atom   57 type  1   force =     0.00000000    0.00000000    0.00000000
     atom   58 type  1   force =     0.00000000    0.00000000    0.00000000
     atom   59 type  1   force =     0.00000000    0.00000000    0.00000000
     atom   60 type  1   force =     0.00000000    0.00000000    0.00000000
[...]
     atom  985 type  1   force =     0.00000000    0.00000000    0.00000000
     atom  986 type  1   force =     0.00000000    0.00000000    0.00000000
     atom  987 type  1   force =     0.00000000    0.00000000    0.00000000
     atom  988 type  1   force =     0.00000000    0.00000000    0.00000000
     atom  989 type  1   force =     0.00000000    0.00000000    0.00000000
     atom  990 type  1   force =     0.00000000    0.00000000    0.00000000
     atom  991 type  1   force =     0.00000000    0.00000000    0.00000000
     atom  992 type  1   force =     0.00000000    0.00000000    0.00000000
     atom  993 type  1   force =     0.00000000    0.00000000    0.00000000
     atom  994 type  1   force =     0.00000000    0.00000000    0.00000000
     atom  995 type  1   force =     0.00000000    0.00000000    0.00000000
     atom  996 type  1   force =     0.00000000    0.00000000    0.00000000
     atom  997 type  1   force =     0.00000000    0.00000000    0.00000000
     atom  998 type  1   force =     0.00000000    0.00000000    0.00000000
     atom  999 type  1   force =     0.00000000    0.00000000    0.00000000
     The SCF correction term to forces
     atom    1 type  1   force =     0.00000094   -0.00000387    0.00001608
     atom    2 type  1   force =    -0.00000294   -0.00000279    0.00000912
     atom    3 type  1   force =    -0.00000106   -0.00000090   -0.00001097
     atom    4 type  1   force =     0.00000530    0.00000419   -0.00002816
     atom    5 type  1   force =    -0.00000058    0.00002058   -0.00000058
     atom    6 type  1   force =    -0.00001535    0.00001684    0.00001484
     atom    7 type  1   force =    -0.00000930    0.00002297    0.00000535
     atom    8 type  1   force =     0.00000282    0.00002479   -0.00000305
     atom    9 type  1   force =     0.00001237    0.00002192   -0.00001644
     atom   10 type  1   force =    -0.00000265    0.00001839   -0.00000265
     atom   11 type  1   force =    -0.00000836    0.00001462    0.00002054
     atom   12 type  1   force =    -0.00000593    0.00001110    0.00000475
     atom   13 type  1   force =    -0.00000065    0.00001200   -0.00000017
     atom   14 type  1   force =     0.00000289    0.00001439   -0.00002248
     atom   15 type  1   force =    -0.00000057   -0.00001918   -0.00000057
     atom   16 type  1   force =     0.00000397   -0.00001169    0.00002177
     atom   17 type  1   force =     0.00000020   -0.00000690    0.00000508
     atom   18 type  1   force =    -0.00000519   -0.00000879   -0.00000148
     atom   19 type  1   force =    -0.00000699   -0.00001567   -0.00002461
     atom   20 type  1   force =     0.00000786   -0.00002064    0.00000786
     atom   21 type  1   force =     0.00001260   -0.00001580    0.00001486
     atom   22 type  1   force =     0.00000350   -0.00002437    0.00000577
     atom   23 type  1   force =    -0.00000603   -0.00002696   -0.00000731
     atom   24 type  1   force =    -0.00000829   -0.00002492   -0.00002112
     atom   25 type  1   force =     0.00001608   -0.00000387    0.00000094
     atom   26 type  1   force =     0.00001395   -0.00001579    0.00001395
     atom   27 type  1   force =     0.00002046   -0.00000913    0.00000704
     atom   28 type  1   force =     0.00002338    0.00000268   -0.00000402
     atom   29 type  1   force =     0.00002184    0.00001157   -0.00001788
     atom   30 type  1   force =     0.00001484    0.00001684   -0.00001535
     atom   31 type  1   force =     0.00001593    0.00001806    0.00001593
     atom   32 type  1   force =     0.00002096    0.00002293    0.00001110
     atom   33 type  1   force =     0.00002466    0.00002597    0.00000820
     atom   34 type  1   force =     0.00002010    0.00002185   -0.00001978
     atom   35 type  1   force =     0.00002054    0.00001462   -0.00000836
     atom   36 type  1   force =     0.00001999    0.00001979    0.00001999
     atom   37 type  1   force =     0.00003024    0.00001922    0.00001309
     atom   38 type  1   force =     0.00003430    0.00001078    0.00000027
     atom   39 type  1   force =     0.00002288    0.00000352   -0.00002451
     atom   40 type  1   force =     0.00002177   -0.00001169    0.00000397
     atom   41 type  1   force =     0.00002326   -0.00000011    0.00002326
     atom   42 type  1   force =     0.00003486   -0.00000466    0.00000484
     atom   43 type  1   force =     0.00003120   -0.00001403   -0.00000956
     atom   44 type  1   force =     0.00002174   -0.00001611   -0.00002283
     atom   45 type  1   force =     0.00001486   -0.00001580    0.00001260
     atom   46 type  1   force =     0.00001862   -0.00002211    0.00001862
     atom   47 type  1   force =     0.00002429   -0.00002774   -0.00000216
     atom   48 type  1   force =     0.00002409   -0.00002582   -0.00001019
     atom   49 type  1   force =     0.00002127   -0.00002118   -0.00001827
     atom   50 type  1   force =     0.00000912   -0.00000279   -0.00000294
     atom   51 type  1   force =     0.00000704   -0.00000913    0.00002046
     atom   52 type  1   force =     0.00000526   -0.00000651    0.00000526
     atom   53 type  1   force =     0.00000511   -0.00000074    0.00000045
     atom   54 type  1   force =     0.00000610    0.00000358   -0.00002323
     atom   55 type  1   force =     0.00000535    0.00002297   -0.00000930
     atom   56 type  1   force =     0.00001110    0.00002293    0.00002096
     atom   57 type  1   force =     0.00001400    0.00003375    0.00001400
     atom   58 type  1   force =     0.00000615    0.00003729    0.00000073
     atom   59 type  1   force =    -0.00000315    0.00002536   -0.00002584
     atom   60 type  1   force =     0.00000475    0.00001110   -0.00000593
[...]
     atom  985 type  1   force =    -0.00002489    0.00001334    0.00001459
     atom  986 type  1   force =    -0.00002870    0.00000835    0.00001747
     atom  987 type  1   force =    -0.00003119    0.00001590   -0.00000074
     atom  988 type  1   force =    -0.00002353    0.00002136   -0.00001099
     atom  989 type  1   force =    -0.00001979    0.00002172   -0.00001979
     atom  990 type  1   force =    -0.00002161   -0.00001244    0.00000494
     atom  991 type  1   force =    -0.00002189   -0.00001013    0.00001850
     atom  992 type  1   force =    -0.00003238   -0.00000505    0.00000731
     atom  993 type  1   force =    -0.00003090    0.00000064   -0.00000706
     atom  994 type  1   force =    -0.00002384   -0.00000324   -0.00002384
     atom  995 type  1   force =    -0.00002025   -0.00001763    0.00000376
     atom  996 type  1   force =    -0.00001796   -0.00002102    0.00002035
     atom  997 type  1   force =    -0.00002362   -0.00002354    0.00000873
     atom  998 type  1   force =    -0.00003082   -0.00002628   -0.00000422
     atom  999 type  1   force =    -0.00002889   -0.00002146   -0.00002889

     Total force =     0.004002     Total SCF correction =     0.001014
     SCF correction compared to forces is large: reduce conv_thr to get better values

     Computing stress (Cartesian axis) and pressure

     Non-local corr. energy    =      34.16010880 Ry

          total   stress  (Ry/bohr**3)                   (kbar)     P=       10.65
   0.00007261   0.00000002   0.00000001           10.68        0.00        0.00
   0.00000002   0.00007193   0.00000002            0.00       10.58        0.00
   0.00000001   0.00000002   0.00007261            0.00        0.00       10.68

     kinetic stress (kbar)  18989.85      0.00     -0.00
                                0.00  18989.76      0.00
                               -0.00      0.00  18989.85

     local   stress (kbar)  -3507.20     -0.02     -0.04
                               -0.02  -3507.43     -0.02
                               -0.04     -0.02  -3507.20

     nonloc. stress (kbar)   4320.37      0.00      0.00
                                0.00   4320.37      0.00
                                0.00      0.00   4320.37

     hartree stress (kbar)   1275.99      0.00      0.01
                                0.00   1276.09      0.00
                                0.01      0.00   1275.99

     exc-cor stress (kbar)   -416.08      0.00     -0.00
                                0.00   -416.07      0.00
                               -0.00      0.00   -416.08

     corecor stress (kbar)  -4430.86     -0.00      0.00
                               -0.00  -4430.88     -0.00
                                0.00     -0.00  -4430.86

     ewald   stress (kbar) -16246.22      0.01      0.03
                                0.01 -16246.08      0.01
                                0.03      0.01 -16246.22

     hubbard stress (kbar)      0.00      0.00      0.00
                                0.00      0.00      0.00
                                0.00      0.00      0.00

     DFT-D   stress (kbar)      0.00      0.00      0.00
                                0.00      0.00      0.00
                                0.00      0.00      0.00

     XDM     stress (kbar)      0.00      0.00      0.00
                                0.00      0.00      0.00
                                0.00      0.00      0.00

     dft-nl  stress (kbar)     24.82     -0.00     -0.00
                               -0.00     24.82     -0.00
                               -0.00     -0.00     24.82

     TS-vdW  stress (kbar)      0.00      0.00      0.00
                                0.00      0.00      0.00
                                0.00      0.00      0.00

     MDB     stress (kbar)      0.00      0.00      0.00
                                0.00      0.00      0.00
                                0.00      0.00      0.00

     3D-RISM stress (kbar)      0.00      0.00      0.00
                                0.00      0.00      0.00
                                0.00      0.00      0.00

     BFGS Geometry Optimization
     Energy error            =      0.0E+00 Ry
     Gradient error          =      3.5E-04 Ry/Bohr

     bfgs converged in   1 scf cycles and   0 bfgs steps
     (criteria: energy <  1.0E-04 Ry, force <  1.0E-03 Ry/Bohr)

     End of BFGS Geometry Optimization

     Final energy             =  -18971.0739337170 Ry
Begin final coordinates

ATOMIC_POSITIONS (angstrom)
C             0.8928269437        2.6794041495        4.4576545624
C             0.8927711738        2.6793710904        8.0371738598
C             0.8929227299        2.6793876702       11.6108903544
C             0.8930452459        2.6792933382       15.1893516474
C             0.8929852339        6.2437167675        0.8929852339
C             0.8904378206        6.2557768654        4.4701309645
C             0.8926574693        6.2511584508        8.0376497430
C             0.8930316086        6.2512258209       11.6104026879
C             0.8953323748        6.2557240822       15.1778121989
C             0.8927108990        9.8227073289        0.8927108990
C             0.8925566852        9.8231878773        4.4651005097
C             0.8925568929        9.8241598311        8.0386168932
C             0.8929265706        9.8242078428       11.6095975677
C             0.8928925064        9.8232802581       15.1822625083
C             0.8926772123       13.3968205338        0.8926772123
C             0.8928203826       13.3964425348        4.4652131884
C             0.8928371813       13.3956258633        8.0386568495
C             0.8924879208       13.3955597992       11.6095678143
C             0.8925276731       13.3964011608       15.1821862438
C             0.8929144430       16.9768313774        0.8929144430
C             0.8951143442       16.9641535368        4.4703246373
C             0.8928163651       16.9689530398        8.0377287635
C             0.8926580195       16.9688816465       11.6103560390
C             0.8904856458       16.9639903371       15.1776811752
C             4.4576545624        2.6794041495        0.8928269437
C             4.4703725412        2.6771001542        4.4703725412
C             4.4651642474        2.6793460448        8.0377828703
C             4.4651927503        2.6795674372       11.6104443660
C             4.4701602928        2.6817185661       15.1776090530
C             4.4701309645        6.2557768654        0.8904378206
C             4.4630270132        6.2491032830        4.4630270132
C             4.4652639800        6.2511911371        8.0379261607
C             4.4655172869        6.2514662889       11.6100585122
C             4.4647441169        6.2507384839       15.1826147792
C             4.4651005097        9.8231878773        0.8925566852
C             4.4652118638        9.8233578707        4.4652118638
C             4.4654269561        9.8234136605        8.0379864111
C             4.4654234309        9.8234450007       11.6101713757
C             4.4654481733        9.8235627662       15.1819145003
C             4.4652131884       13.3964425348        0.8928203826
C             4.4655010739       13.3960299432        4.4655010739
C             4.4653712410       13.3961537720        8.0380042338
C             4.4653133926       13.3962024089       11.6102125900
C             4.4652111401       13.3962867714       15.1822045912
C             4.4703246373       16.9641535368        0.8951143442
C             4.4647606109       16.9693999323        4.4647606109
C             4.4653926058       16.9686914215        8.0381650368
C             4.4651612762       16.9690014698       11.6103216345
C             4.4631006497       16.9711588949       15.1842771984
C             8.0371738598        2.6793710904        0.8927711738
C             8.0377828703        2.6793460448        4.4651642474
C             8.0385533312        2.6793197012        8.0385533312
C             8.0384184538        2.6795759912       11.6095226538
C             8.0374981028        2.6795011113       15.1822500599
C             8.0376497430        6.2511584508        0.8926574693
C             8.0379261607        6.2511911371        4.4652639800
C             8.0378846486        6.2513702404        8.0378846486
C             8.0377898269        6.2514146445       11.6101106786
C             8.0379153686        6.2515096420       15.1819483661
C             8.0386168932        9.8241598311        0.8925568929
[...]
C            16.0758575203        8.9300051632        1.7855753689
C            16.0757874812        8.9309181684        5.3580192693
C            16.0755519743        8.9308510014        8.9308143184
C            16.0755558545        8.9307351751       12.5035259712
C            16.0755410895        8.9303952943       16.0755410895
C            16.0755392242       12.5033816304        1.7859878532
C            16.0755227228       12.5033039755        5.3582039674
C            16.0755522654       12.5034822504        8.9307780011
C            16.0754836361       12.5032756304       12.5032423412
C            16.0755791117       12.5033840489       16.0755791117
C            16.0763468611       16.0773760354        1.7856539100
C            16.0758837611       16.0765462432        5.3572697980
C            16.0754973045       16.0755476199        8.9307992378
C            16.0757196867       16.0755496203       12.5029752533
C            16.0761052286       16.0751066607       16.0761052286
End final coordinates

     Writing all to output data dir ./diamond.save/

     General routines

     Parallel routines

     PAW routines

   This run was terminated on:  13:40: 9  19Feb2024

   JOB DONE.