     Program PWSCF v.7.1 starts on 18Feb2024 at 18:55:43

     Reading input from espresso.pwi
Warning: card &CELL ignored
Warning: card    CELL_DYNAMICS    = 'BFGS' ignored
Warning: card / ignored

     Current dimensions of program PWSCF are:
     Max number of different atomic species (ntypx) = 10
     Max number of k-points (npk) =  40000
     Max angular momentum in pseudopotentials (lmaxx) =  4
     file C.pbe-n-kjpaw_psl.1.0.0.UPF: wavefunction(s)  2S 2P renormalized

     IMPORTANT: XC functional enforced from input :
     Exchange-correlation= BEEF-VDW
                           (   1   4  43  14   2   0   0)
     Any further DFT definition will be discarded
     Please, verify this is what you really want

     R & G space division:  proc/nbgrp/npool/nimage =     256
     wavefunctions fft division:  task group distribution
                                  #TG    x Z-proc =       8     32
     Subspace diagonalization in iterative solution of the eigenvalue problem:
     a serial algorithm will be used

     Using Pencil Decomposition

     bravais-lattice index     =            1
     lattice parameter (alat)  =      27.0027  a.u.
     unit-cell volume          =   19688.9026 (a.u.)^3
     number of atoms/cell      =          511
     number of atomic types    =            1
     number of electrons       =      2043.00
     number of Kohn-Sham states=         1226
     kinetic-energy cutoff     =      70.0000  Ry
     charge density cutoff     =     350.0000  Ry
     scf convergence threshold =      1.0E-07
     mixing beta               =       0.7000
     number of iterations used =            8  plain     mixing
     energy convergence thresh.=      1.0E-04
     force convergence thresh. =      1.0E-03
     Exchange-correlation= BEEF-VDW
                           (   1   4  43  14   2   0   0)
     nstep                     =           50

     celldm(1)=  27.002699  celldm(2)=   0.000000  celldm(3)=   0.000000
     celldm(4)=   0.000000  celldm(5)=   0.000000  celldm(6)=   0.000000

     crystal axes: (cart. coord. in units of alat)
               a(1) = (   1.000000   0.000000   0.000000 )
               a(2) = (   0.000000   1.000000   0.000000 )
               a(3) = (   0.000000   0.000000   1.000000 )

     reciprocal axes: (cart. coord. in units 2 pi/alat)
               b(1) = (  1.000000  0.000000  0.000000 )
               b(2) = (  0.000000  1.000000  0.000000 )
               b(3) = (  0.000000  0.000000  1.000000 )

     PseudoPot. # 1 for C  read from file:
     /trace/group/acmegroup/atimmins/packages/espresso/pseudo/psl_1.0.0/pslibrary.1.0.0/pbe/PSEUDOPOTENTIALS/C.pbe-n-kjpaw_psl.1.0.0.UPF
     MD5 check sum: 5459cf7f2c8c37df2f7cde8914797f4d
     Pseudo is Projector augmented-wave + core cor, Zval =  4.0
     Generated using 'atomic' code by A. Dal Corso  v.7.1
     Shape of augmentation charge: PSQ
     Using radial grid of 1073 points,  4 beta functions with:
                l(1) =   0
                l(2) =   0
                l(3) =   1
                l(4) =   1
     Q(r) pseudized with 0 coefficients

     atomic species   valence    mass     pseudopotential
        C              4.00    12.01100     C ( 1.00)

      6 Sym. Ops. (no inversion) found ( 4 have fractional translation)

                                    s                        frac. trans.

      isym =  1     identity

 cryst.   s( 1) = (     1          0          0      )
                  (     0          1          0      )
                  (     0          0          1      )

 cart.    s( 1) = (  1.0000000  0.0000000  0.0000000 )
                  (  0.0000000  1.0000000  0.0000000 )
                  (  0.0000000  0.0000000  1.0000000 )

      isym =  2     120 deg rotation - cart. axis [1,-1,1]

 cryst.   s( 2) = (     0          0          1      )    f =( -0.2500000 )
                  (    -1          0          0      )       ( -0.2500000 )
                  (     0         -1          0      )       (  0.0000000 )

 cart.    s( 2) = (  0.0000000 -1.0000000  0.0000000 )    f =( -0.2500000 )
                  (  0.0000000  0.0000000 -1.0000000 )       ( -0.2500000 )
                  (  1.0000000  0.0000000  0.0000000 )       (  0.0000000 )

      isym =  3     120 deg rotation - cart. axis [-1,1,-1]

[...]

      isym =  4     inv. 180 deg rotation - cart. axis [1,1,0]

[...]

 cryst.   s( 5) = (     0          0          1      )
                  (     0          1          0      )
                  (     1          0          0      )

 cart.    s( 5) = (  0.0000000  0.0000000  1.0000000 )
                  (  0.0000000  1.0000000  0.0000000 )
                  (  1.0000000  0.0000000  0.0000000 )

      isym =  6     inv. 180 deg rotation - cart. axis [0,1,1]

 cryst.   s( 6) = (     1          0          0      )    f =(  0.0000000 )
                  (     0          0         -1      )       ( -0.2500000 )
                  (     0         -1          0      )       ( -0.2500000 )

 cart.    s( 6) = (  1.0000000  0.0000000  0.0000000 )    f =(  0.0000000 )
                  (  0.0000000  0.0000000 -1.0000000 )       ( -0.2500000 )
                  (  0.0000000 -1.0000000  0.0000000 )       ( -0.2500000 )

     point group C_3v (3m)
     there are  3 classes
     the character table:

       E     2C3   3s_v
A_1    1.00  1.00  1.00
A_2    1.00  1.00 -1.00
E      2.00 -1.00  0.00

     the symmetry operations in each class and the name of the first element:

     E        1
          identity
     2C3      2    3
          120 deg rotation - cart. axis [1,-1,1]
     3s_v     4    5    6
          inv. 180 deg rotation - cart. axis [1,1,0]

   Cartesian axes

     site n.     atom                  positions (alat units)
         1           C   tau(   1) = (   0.0625015   0.1874985   0.3125015  )
         2           C   tau(   2) = (   0.0625015   0.1874985   0.5625015  )
         3           C   tau(   3) = (   0.0625015   0.1874985   0.8125015  )
         4           C   tau(   4) = (   0.0625015   0.4374985   0.0625015  )
         5           C   tau(   5) = (   0.0625015   0.4374985   0.3125015  )
         6           C   tau(   6) = (   0.0625015   0.4374985   0.5625015  )
         7           C   tau(   7) = (   0.0625015   0.4374985   0.8125015  )
         8           C   tau(   8) = (   0.0625015   0.6874985   0.0625015  )
         9           C   tau(   9) = (   0.0625015   0.6874985   0.3125015  )
        10           C   tau(  10) = (   0.0625015   0.6874985   0.5625015  )
        11           C   tau(  11) = (   0.0625015   0.6874985   0.8125015  )
        12           C   tau(  12) = (   0.0625015   0.9374985   0.0625015  )
        13           C   tau(  13) = (   0.0625015   0.9374985   0.3125015  )
        14           C   tau(  14) = (   0.0625015   0.9374985   0.5625015  )
        15           C   tau(  15) = (   0.0625015   0.9374985   0.8125015  )
        16           C   tau(  16) = (   0.3125015   0.1874985   0.0625015  )
        17           C   tau(  17) = (   0.3125015   0.1874985   0.3125015  )
        18           C   tau(  18) = (   0.3125015   0.1874985   0.5625015  )
        19           C   tau(  19) = (   0.3125015   0.1874985   0.8125015  )
        20           C   tau(  20) = (   0.3125015   0.4374985   0.0625015  )
        21           C   tau(  21) = (   0.3125015   0.4374985   0.3125015  )
        22           C   tau(  22) = (   0.3125015   0.4374985   0.5625015  )
        23           C   tau(  23) = (   0.3125015   0.4374985   0.8125015  )
        24           C   tau(  24) = (   0.3125015   0.6874985   0.0625015  )
        25           C   tau(  25) = (   0.3125015   0.6874985   0.3125015  )
        26           C   tau(  26) = (   0.3125015   0.6874985   0.5625015  )
        27           C   tau(  27) = (   0.3125015   0.6874985   0.8125015  )
        28           C   tau(  28) = (   0.3125015   0.9374985   0.0625015  )
        29           C   tau(  29) = (   0.3125015   0.9374985   0.3125015  )
        30           C   tau(  30) = (   0.3125015   0.9374985   0.5625015  )
        31           C   tau(  31) = (   0.3125015   0.9374985   0.8125015  )
        32           C   tau(  32) = (   0.5625015   0.1874985   0.0625015  )
        33           C   tau(  33) = (   0.5625015   0.1874985   0.3125015  )
        34           C   tau(  34) = (   0.5625015   0.1874985   0.5625015  )
        35           C   tau(  35) = (   0.5625015   0.1874985   0.8125015  )
        36           C   tau(  36) = (   0.5625015   0.4374985   0.0625015  )
        37           C   tau(  37) = (   0.5625015   0.4374985   0.3125015  )
        38           C   tau(  38) = (   0.5625015   0.4374985   0.5625015  )
        39           C   tau(  39) = (   0.5625015   0.4374985   0.8125015  )
        40           C   tau(  40) = (   0.5625015   0.6874985   0.0625015  )
        41           C   tau(  41) = (   0.5625015   0.6874985   0.3125015  )
        42           C   tau(  42) = (   0.5625015   0.6874985   0.5625015  )
        43           C   tau(  43) = (   0.5625015   0.6874985   0.8125015  )
        44           C   tau(  44) = (   0.5625015   0.9374985   0.0625015  )
        45           C   tau(  45) = (   0.5625015   0.9374985   0.3125015  )
        46           C   tau(  46) = (   0.5625015   0.9374985   0.5625015  )
        47           C   tau(  47) = (   0.5625015   0.9374985   0.8125015  )
        48           C   tau(  48) = (   0.8125015   0.1874985   0.0625015  )
        49           C   tau(  49) = (   0.8125015   0.1874985   0.3125015  )
        50           C   tau(  50) = (   0.8125015   0.1874985   0.5625015  )
        51           C   tau(  51) = (   0.8125015   0.1874985   0.8125015  )
        52           C   tau(  52) = (   0.8125015   0.4374985   0.0625015  )
        53           C   tau(  53) = (   0.8125015   0.4374985   0.3125015  )
        54           C   tau(  54) = (   0.8125015   0.4374985   0.5625015  )
        55           C   tau(  55) = (   0.8125015   0.4374985   0.8125015  )
        56           C   tau(  56) = (   0.8125015   0.6874985   0.0625015  )
        57           C   tau(  57) = (   0.8125015   0.6874985   0.3125015  )
        58           C   tau(  58) = (   0.8125015   0.6874985   0.5625015  )
        59           C   tau(  59) = (   0.8125015   0.6874985   0.8125015  )
        60           C   tau(  60) = (   0.8125015   0.9374985   0.0625015  )
[...]
       497           C   tau( 497) = (   0.8750000   0.1250000   0.3750000  )
       498           C   tau( 498) = (   0.8750000   0.1250000   0.6250000  )
       499           C   tau( 499) = (   0.8750000   0.1250000   0.8750000  )
       500           C   tau( 500) = (   0.8750000   0.3750000   0.1250000  )
       501           C   tau( 501) = (   0.8750000   0.3750000   0.3750000  )
       502           C   tau( 502) = (   0.8750000   0.3750000   0.6250000  )
       503           C   tau( 503) = (   0.8750000   0.3750000   0.8750000  )
       504           C   tau( 504) = (   0.8750000   0.6250000   0.1250000  )
       505           C   tau( 505) = (   0.8750000   0.6250000   0.3750000  )
[...]
     atom   44 type  1   force =     0.00000000    0.00000000    0.00000000
     atom   45 type  1   force =     0.00000000    0.00000000    0.00000000
     atom   46 type  1   force =     0.00000000    0.00000000    0.00000000
     atom   47 type  1   force =     0.00000000    0.00000000    0.00000000
     atom   48 type  1   force =     0.00000000    0.00000000    0.00000000
     atom   49 type  1   force =     0.00000000    0.00000000    0.00000000
     atom   50 type  1   force =     0.00000000    0.00000000    0.00000000
     atom   51 type  1   force =     0.00000000    0.00000000    0.00000000
     atom   52 type  1   force =     0.00000000    0.00000000    0.00000000
     atom   53 type  1   force =     0.00000000    0.00000000    0.00000000
     atom   54 type  1   force =     0.00000000    0.00000000    0.00000000
     atom   55 type  1   force =     0.00000000    0.00000000    0.00000000
     atom   56 type  1   force =     0.00000000    0.00000000    0.00000000
     atom   57 type  1   force =     0.00000000    0.00000000    0.00000000
     atom   58 type  1   force =     0.00000000    0.00000000    0.00000000
     atom   59 type  1   force =     0.00000000    0.00000000    0.00000000
     atom   60 type  1   force =     0.00000000    0.00000000    0.00000000
[...]
     atom  497 type  1   force =     0.00000000    0.00000000    0.00000000
     atom  498 type  1   force =     0.00000000    0.00000000    0.00000000
     atom  499 type  1   force =     0.00000000    0.00000000    0.00000000
     atom  500 type  1   force =     0.00000000    0.00000000    0.00000000
     atom  501 type  1   force =     0.00000000    0.00000000    0.00000000
     atom  502 type  1   force =     0.00000000    0.00000000    0.00000000
     atom  503 type  1   force =     0.00000000    0.00000000    0.00000000
     atom  504 type  1   force =     0.00000000    0.00000000    0.00000000
     atom  505 type  1   force =     0.00000000    0.00000000    0.00000000
     atom  506 type  1   force =     0.00000000    0.00000000    0.00000000
     atom  507 type  1   force =     0.00000000    0.00000000    0.00000000
     atom  508 type  1   force =     0.00000000    0.00000000    0.00000000
     atom  509 type  1   force =     0.00000000    0.00000000    0.00000000
     atom  510 type  1   force =     0.00000000    0.00000000    0.00000000
     atom  511 type  1   force =     0.00000000    0.00000000    0.00000000
     The SCF correction term to forces
     atom    1 type  1   force =    -0.00003234    0.00003234    0.00001647
     atom    2 type  1   force =    -0.00000331    0.00000331    0.00000860
     atom    3 type  1   force =    -0.00000519    0.00000519    0.00002658
     atom    4 type  1   force =    -0.00000519   -0.00002658   -0.00000519
     atom    5 type  1   force =    -0.00000669   -0.00000451   -0.00001020
     atom    6 type  1   force =    -0.00000271    0.00000069    0.00000215
     atom    7 type  1   force =    -0.00000148   -0.00001255    0.00001255
     atom    8 type  1   force =    -0.00000331   -0.00000860   -0.00000331
     atom    9 type  1   force =    -0.00000272   -0.00000836    0.00000163
     atom   10 type  1   force =    -0.00000266   -0.00000240    0.00000240
     atom   11 type  1   force =    -0.00000271   -0.00000215   -0.00000069
     atom   12 type  1   force =    -0.00003234   -0.00001647   -0.00003234
     atom   13 type  1   force =    -0.00002209   -0.00002034    0.00002034
     atom   14 type  1   force =    -0.00000272   -0.00000163    0.00000836
     atom   15 type  1   force =    -0.00000669    0.00001020    0.00000451
     atom   16 type  1   force =     0.00001647    0.00003234   -0.00003234
     atom   17 type  1   force =     0.00002034    0.00002209    0.00002034
     atom   18 type  1   force =     0.00000163    0.00000272    0.00000836
     atom   19 type  1   force =    -0.00001020    0.00000669    0.00000451
     atom   20 type  1   force =    -0.00001020   -0.00000451   -0.00000669
     atom   21 type  1   force =    -0.00001178   -0.00000595   -0.00001178
     atom   22 type  1   force =    -0.00000845   -0.00000864    0.00000509
     atom   23 type  1   force =    -0.00001074   -0.00001130    0.00001130
     atom   24 type  1   force =     0.00000163   -0.00000836   -0.00000272
     atom   25 type  1   force =    -0.00000769   -0.00000359   -0.00000769
     atom   26 type  1   force =    -0.00000853   -0.00000170    0.00000170
     atom   27 type  1   force =    -0.00000845   -0.00000509    0.00000864
     atom   28 type  1   force =     0.00002034   -0.00002034   -0.00002209
     atom   29 type  1   force =     0.00000875   -0.00000875    0.00000875
     atom   30 type  1   force =    -0.00000769    0.00000769    0.00000359
     atom   31 type  1   force =    -0.00001178    0.00001178    0.00000595
     atom   32 type  1   force =     0.00000860    0.00000331   -0.00000331
     atom   33 type  1   force =     0.00000836    0.00000272    0.00000163
     atom   34 type  1   force =     0.00000240    0.00000266    0.00000240
     atom   35 type  1   force =     0.00000215    0.00000271   -0.00000069
     atom   36 type  1   force =     0.00000215    0.00000069   -0.00000271
     atom   37 type  1   force =     0.00000509   -0.00000864   -0.00000845
     atom   38 type  1   force =     0.00000279   -0.00000854    0.00000279
     atom   39 type  1   force =    -0.00000018   -0.00000844    0.00000844
     atom   40 type  1   force =     0.00000240   -0.00000240   -0.00000266
     atom   41 type  1   force =     0.00000170   -0.00000170   -0.00000853
     atom   42 type  1   force =     0.00000249   -0.00000249    0.00000249
     atom   43 type  1   force =     0.00000279   -0.00000279    0.00000854
     atom   44 type  1   force =     0.00000836   -0.00000163   -0.00000272
     atom   45 type  1   force =     0.00000359    0.00000769   -0.00000769
     atom   46 type  1   force =     0.00000170    0.00000853    0.00000170
     atom   47 type  1   force =     0.00000509    0.00000845    0.00000864
     atom   48 type  1   force =     0.00002658    0.00000519   -0.00000519
     atom   49 type  1   force =     0.00000451    0.00000669   -0.00001020
     atom   50 type  1   force =    -0.00000069    0.00000271    0.00000215
     atom   51 type  1   force =     0.00001255    0.00000148    0.00001255
     atom   52 type  1   force =     0.00001255   -0.00001255   -0.00000148
     atom   53 type  1   force =     0.00001130   -0.00001130   -0.00001074
     atom   54 type  1   force =     0.00000844   -0.00000844   -0.00000018
     atom   55 type  1   force =     0.00001362   -0.00001362    0.00001362
     atom   56 type  1   force =    -0.00000069   -0.00000215   -0.00000271
     atom   57 type  1   force =     0.00000864   -0.00000509   -0.00000845
     atom   58 type  1   force =     0.00000854   -0.00000279    0.00000279
     atom   59 type  1   force =     0.00000844    0.00000018    0.00000844
     atom   60 type  1   force =     0.00000451    0.00001020   -0.00000669
[...]
     atom  497 type  1   force =    -0.00001285    0.00000426   -0.00001228
     atom  498 type  1   force =    -0.00000452    0.00000049    0.00001471
     atom  499 type  1   force =     0.00001424    0.00000310    0.00001424
     atom  500 type  1   force =     0.00001424   -0.00001424   -0.00000310
     atom  501 type  1   force =     0.00000063   -0.00000063   -0.00001763
     atom  502 type  1   force =     0.00000217   -0.00000217    0.00001245
     atom  503 type  1   force =     0.00000688   -0.00000688    0.00000688
     atom  504 type  1   force =    -0.00000452   -0.00001471   -0.00000049
     atom  505 type  1   force =     0.00000735   -0.00001413   -0.00000904
     atom  506 type  1   force =     0.00000817   -0.00000726    0.00000726
     atom  507 type  1   force =     0.00000217   -0.00001245    0.00000217
     atom  508 type  1   force =    -0.00001285    0.00001228   -0.00000426
     atom  509 type  1   force =     0.00000230    0.00001106   -0.00001106
     atom  510 type  1   force =     0.00000735    0.00000904    0.00001413
     atom  511 type  1   force =     0.00000063    0.00001763    0.00000063

     Total force =     0.005448     Total SCF correction =     0.000524

     Computing stress (Cartesian axis) and pressure

     Non-local corr. energy    =      17.48073540 Ry

          total   stress  (Ry/bohr**3)                   (kbar)     P=       -8.91
  -0.00006060   0.00000003  -0.00000003           -8.91        0.00       -0.00
   0.00000003  -0.00006060   0.00000003            0.00       -8.91        0.00
  -0.00000003   0.00000003  -0.00006060           -0.00        0.00       -8.91

     kinetic stress (kbar)  18945.35      0.00     -0.00
                                0.00  18945.35      0.00
                               -0.00      0.00  18945.35

     local   stress (kbar)  -3533.79      0.07     -0.07
                                0.07  -3533.79      0.07
                               -0.07      0.07  -3533.79

     nonloc. stress (kbar)   4316.67     -0.00      0.00
                               -0.00   4316.67     -0.00
                                0.00     -0.00   4316.67

     hartree stress (kbar)   1286.54     -0.02      0.02
                               -0.02   1286.54     -0.02
                                0.02     -0.02   1286.54

     exc-cor stress (kbar)   -410.25     -0.00      0.00
                               -0.00   -410.25     -0.00
                                0.00     -0.00   -410.25

     corecor stress (kbar)  -4426.18      0.00     -0.00
                                0.00  -4426.18      0.00
                               -0.00      0.00  -4426.18

     ewald   stress (kbar) -16212.04     -0.05      0.05
                               -0.05 -16212.04     -0.05
                                0.05     -0.05 -16212.04

     hubbard stress (kbar)      0.00      0.00      0.00
                                0.00      0.00      0.00
                                0.00      0.00      0.00

     DFT-D   stress (kbar)      0.00      0.00      0.00
                                0.00      0.00      0.00
                                0.00      0.00      0.00

     XDM     stress (kbar)      0.00      0.00      0.00
                                0.00      0.00      0.00
                                0.00      0.00      0.00

     dft-nl  stress (kbar)     24.79      0.00     -0.00
                                0.00     24.79      0.00
                               -0.00      0.00     24.79

     TS-vdW  stress (kbar)      0.00      0.00      0.00
                                0.00      0.00      0.00
                                0.00      0.00      0.00

     MDB     stress (kbar)      0.00      0.00      0.00
                                0.00      0.00      0.00
                                0.00      0.00      0.00

     3D-RISM stress (kbar)      0.00      0.00      0.00
                                0.00      0.00      0.00
                                0.00      0.00      0.00

     BFGS Geometry Optimization
     Energy error            =      0.0E+00 Ry
     Gradient error          =      4.0E-04 Ry/Bohr

     bfgs converged in   1 scf cycles and   0 bfgs steps
     (criteria: energy <  1.0E-04 Ry, force <  1.0E-03 Ry/Bohr)

     End of BFGS Geometry Optimization

     Final energy             =   -9705.8445365928 Ry
Begin final coordinates

ATOMIC_POSITIONS (angstrom)
C             0.8931404386        2.6791627384        4.4641009480
C             0.8931036311        2.6791995459        8.0377150525
C             0.8930957094        2.6792074676       11.6113730022
C             0.8930957094        6.2501428795        0.8930957094
C             0.8949804637        6.2525092368        4.4664159805
C             0.8931050593        6.2513715283        8.0377102410
C             0.8912467512        6.2525338846       11.6089819971
C             0.8931036311        9.8238008291        0.8931036311
C             0.8931072896        9.8238035542        4.4652814899
C             0.8931079910        9.8238041014        8.0377117802
C             0.8931050593        9.8238056406       11.6101443534
C             0.8931404386       13.3974149337        0.8931404386
C             0.8911829573       13.3950536616        4.4664622201
C             0.8931072896       13.3962343918        8.0377123274
C             0.8949804637       13.3950999012       11.6090066449
C             4.4641009480        2.6791627384        0.8931404386
C             4.4664622201        2.6811202197        4.4664622201
C             4.4652814899        2.6791958874        8.0377123274
C             4.4664159805        2.6773227133       11.6090066449
C             4.4664159805        6.2525092368        0.8949804637
C             4.4648357778        6.2509311705        4.4648357778
C             4.4654055568        6.2515002526        8.0376098886
C             4.4652018729        6.2512910181       11.6102248636
C             4.4652814899        9.8238035542        0.8931072896
C             4.4654061554        9.8236994844        4.4654061554
C             4.4653790591        9.8238041952        8.0377116864
C             4.4654055568        9.8239059930       11.6100156291
C             4.4664622201       13.3950536616        0.8911829573
C             4.4651822139       13.3963336678        4.4651822139
C             4.4654061554       13.3961097263        8.0378163972
C             4.4648357778       13.3966801039       11.6105847112
C             8.0377150525        2.6791995459        0.8931036311
C             8.0377123274        2.6791958874        4.4652814899
C             8.0377117802        2.6791951860        8.0377117802
C             8.0377102410        2.6791981177       11.6101443534
C             8.0377102410        6.2513715283        0.8931050593
C             8.0376098886        6.2515002526        4.4654055568
C             8.0377113281        6.2514721646        8.0377113281
C             8.0378200652        6.2514981417       11.6100177400
C             8.0377117802        9.8238041014        0.8931079910
C             8.0377116864        9.8238041952        4.4653790591
C             8.0377118853        9.8238039963        8.0377118853
C             8.0377113281        9.8238045535       11.6100437171
C             8.0377123274       13.3962343918        0.8931072896
C             8.0378163972       13.3961097263        4.4654061554
C             8.0377116864       13.3961368226        8.0377116864
C             8.0376098886       13.3961103249       11.6100156291
C            11.6113730022        2.6792074676        0.8930957094
C            11.6090066449        2.6773227133        4.4664159805
C            11.6101443534        2.6791981177        8.0377102410
C            11.6089819971        2.6810564258       11.6089819971
C            11.6089819971        6.2525338846        0.8912467512
C            11.6102248636        6.2512910181        4.4652018729
C            11.6100177400        6.2514981417        8.0378200652
C            11.6106074207        6.2509084610       11.6106074207
C            11.6101443534        9.8238056406        0.8931050593
C            11.6100156291        9.8239059930        4.4654055568
C            11.6100437171        9.8238045535        8.0377113281
C            11.6100177400        9.8236958164       11.6100177400
C            11.6090066449       13.3950999012        0.8949804637
[...]
C            12.5041247334        1.7864577959        5.3577056342
C            12.5031635243        1.7861982971        8.9305881736
C            12.4938224394        1.7781977310       12.4938224394
C            12.4938224394        5.3676934423        1.7941054460
C            12.5014343659        5.3600815159        5.3610178358
C            12.5031916454        5.3583242363        8.9311622168
C            12.5050595319        5.3564563498       12.5050595319
C            12.5031635243        8.9309277080        1.7861048799
C            12.5028025743        8.9312506408        5.3587045543
C            12.5030036777        8.9306854834        8.9308303982
C            12.5031916454        8.9303536649       12.5031916454
C            12.5041247334       12.5038102475        1.7858453811
C            12.5031703228       12.5035885070        5.3579273747
C            12.5028025743       12.5028113274        8.9302652408
C            12.5014343659       12.5004980459       12.5014343659
End final coordinates

     Writing all to output data dir ./diamond.save/

     General routines

     Parallel routines

     PAW routines

   This run was terminated on:  19:28:19  18Feb2024

   JOB DONE.