     Program PWSCF v.7.1 starts on 19Feb2024 at 11:18: 0

     Reading input from espresso.pwi
Warning: card &CELL ignored
Warning: card    CELL_DYNAMICS    = 'BFGS' ignored
Warning: card / ignored

     Current dimensions of program PWSCF are:
     Max number of different atomic species (ntypx) = 10
     Max number of k-points (npk) =  40000
     Max angular momentum in pseudopotentials (lmaxx) =  4
     file C.pbe-n-kjpaw_psl.1.0.0.UPF: wavefunction(s)  2S 2P renormalized

     IMPORTANT: XC functional enforced from input :
     Exchange-correlation= BEEF-VDW
                           (   1   4  43  14   2   0   0)
     Any further DFT definition will be discarded
     Please, verify this is what you really want

     R & G space division:  proc/nbgrp/npool/nimage =     256
     wavefunctions fft division:  task group distribution
                                  #TG    x Z-proc =       8     32
     Subspace diagonalization in iterative solution of the eigenvalue problem:
     a serial algorithm will be used

     Using Pencil Decomposition

     bravais-lattice index     =            1
     lattice parameter (alat)  =      27.0027  a.u.
     unit-cell volume          =   19688.9026 (a.u.)^3
     number of atoms/cell      =          511
     number of atomic types    =            1
     number of electrons       =      2043.00
     number of Kohn-Sham states=         1226
     kinetic-energy cutoff     =      70.0000  Ry
     charge density cutoff     =     350.0000  Ry
     scf convergence threshold =      1.0E-07
     mixing beta               =       0.7000
     number of iterations used =            8  plain     mixing
     Exchange-correlation= BEEF-VDW
                           (   1   4  43  14   2   0   0)

     celldm(1)=  27.002699  celldm(2)=   0.000000  celldm(3)=   0.000000
     celldm(4)=   0.000000  celldm(5)=   0.000000  celldm(6)=   0.000000

     crystal axes: (cart. coord. in units of alat)
               a(1) = (   1.000000   0.000000   0.000000 )
               a(2) = (   0.000000   1.000000   0.000000 )
               a(3) = (   0.000000   0.000000   1.000000 )

     reciprocal axes: (cart. coord. in units 2 pi/alat)
               b(1) = (  1.000000  0.000000  0.000000 )
               b(2) = (  0.000000  1.000000  0.000000 )
               b(3) = (  0.000000  0.000000  1.000000 )

     PseudoPot. # 1 for C  read from file:
     /trace/group/acmegroup/atimmins/packages/espresso/pseudo/psl_1.0.0/pslibrary.1.0.0/pbe/PSEUDOPOTENTIALS/C.pbe-n-kjpaw_psl.1.0.0.UPF
     MD5 check sum: 5459cf7f2c8c37df2f7cde8914797f4d
     Pseudo is Projector augmented-wave + core cor, Zval =  4.0
     Generated using 'atomic' code by A. Dal Corso  v.7.1
     Shape of augmentation charge: PSQ
     Using radial grid of 1073 points,  4 beta functions with:
                l(1) =   0
                l(2) =   0
                l(3) =   1
                l(4) =   1
     Q(r) pseudized with 0 coefficients

     atomic species   valence    mass     pseudopotential
        C              4.00    12.01100     C ( 1.00)

      6 Sym. Ops. (no inversion) found ( 4 have fractional translation)

                                    s                        frac. trans.

      isym =  1     identity

 cryst.   s( 1) = (     1          0          0      )
                  (     0          1          0      )
                  (     0          0          1      )

 cart.    s( 1) = (  1.0000000  0.0000000  0.0000000 )
                  (  0.0000000  1.0000000  0.0000000 )
                  (  0.0000000  0.0000000  1.0000000 )

      isym =  2     120 deg rotation - cart. axis [1,-1,1]

 cryst.   s( 2) = (     0          0          1      )    f =( -0.2500000 )
                  (    -1          0          0      )       ( -0.2500000 )
                  (     0         -1          0      )       (  0.0000000 )

 cart.    s( 2) = (  0.0000000 -1.0000000  0.0000000 )    f =( -0.2500000 )
                  (  0.0000000  0.0000000 -1.0000000 )       ( -0.2500000 )
                  (  1.0000000  0.0000000  0.0000000 )       (  0.0000000 )

      isym =  3     120 deg rotation - cart. axis [-1,1,-1]

[...]

      isym =  4     inv. 180 deg rotation - cart. axis [1,1,0]

[...]

 cryst.   s( 5) = (     0          0          1      )
                  (     0          1          0      )
                  (     1          0          0      )

 cart.    s( 5) = (  0.0000000  0.0000000  1.0000000 )
                  (  0.0000000  1.0000000  0.0000000 )
                  (  1.0000000  0.0000000  0.0000000 )

      isym =  6     inv. 180 deg rotation - cart. axis [0,1,1]

 cryst.   s( 6) = (     1          0          0      )    f =(  0.0000000 )
                  (     0          0         -1      )       ( -0.2500000 )
                  (     0         -1          0      )       ( -0.2500000 )

 cart.    s( 6) = (  1.0000000  0.0000000  0.0000000 )    f =(  0.0000000 )
                  (  0.0000000  0.0000000 -1.0000000 )       ( -0.2500000 )
                  (  0.0000000 -1.0000000  0.0000000 )       ( -0.2500000 )

     point group C_3v (3m)
     there are  3 classes
     the character table:

       E     2C3   3s_v
A_1    1.00  1.00  1.00
A_2    1.00  1.00 -1.00
E      2.00 -1.00  0.00

     the symmetry operations in each class and the name of the first element:

     E        1
          identity
     2C3      2    3
          120 deg rotation - cart. axis [1,-1,1]
     3s_v     4    5    6
          inv. 180 deg rotation - cart. axis [1,1,0]

   Cartesian axes

     site n.     atom                  positions (alat units)
         1           C   tau(   1) = (   0.0625015   0.1874985   0.3125015  )
         2           C   tau(   2) = (   0.0625015   0.1874985   0.5625015  )
         3           C   tau(   3) = (   0.0625015   0.1874985   0.8125015  )
         4           C   tau(   4) = (   0.0625015   0.4374985   0.0625015  )
         5           C   tau(   5) = (   0.0625015   0.4374985   0.3125015  )
         6           C   tau(   6) = (   0.0625015   0.4374985   0.5625015  )
         7           C   tau(   7) = (   0.0625015   0.4374985   0.8125015  )
         8           C   tau(   8) = (   0.0625015   0.6874985   0.0625015  )
         9           C   tau(   9) = (   0.0625015   0.6874985   0.3125015  )
        10           C   tau(  10) = (   0.0625015   0.6874985   0.5625015  )
        11           C   tau(  11) = (   0.0625015   0.6874985   0.8125015  )
        12           C   tau(  12) = (   0.0625015   0.9374985   0.0625015  )
        13           C   tau(  13) = (   0.0625015   0.9374985   0.3125015  )
        14           C   tau(  14) = (   0.0625015   0.9374985   0.5625015  )
        15           C   tau(  15) = (   0.0625015   0.9374985   0.8125015  )
        16           C   tau(  16) = (   0.3125015   0.1874985   0.0625015  )
        17           C   tau(  17) = (   0.3125015   0.1874985   0.3125015  )
        18           C   tau(  18) = (   0.3125015   0.1874985   0.5625015  )
        19           C   tau(  19) = (   0.3125015   0.1874985   0.8125015  )
        20           C   tau(  20) = (   0.3125015   0.4374985   0.0625015  )
        21           C   tau(  21) = (   0.3125015   0.4374985   0.3125015  )
        22           C   tau(  22) = (   0.3125015   0.4374985   0.5625015  )
        23           C   tau(  23) = (   0.3125015   0.4374985   0.8125015  )
        24           C   tau(  24) = (   0.3125015   0.6874985   0.0625015  )
        25           C   tau(  25) = (   0.3125015   0.6874985   0.3125015  )
        26           C   tau(  26) = (   0.3125015   0.6874985   0.5625015  )
        27           C   tau(  27) = (   0.3125015   0.6874985   0.8125015  )
        28           C   tau(  28) = (   0.3125015   0.9374985   0.0625015  )
        29           C   tau(  29) = (   0.3125015   0.9374985   0.3125015  )
        30           C   tau(  30) = (   0.3125015   0.9374985   0.5625015  )
        31           C   tau(  31) = (   0.3125015   0.9374985   0.8125015  )
        32           C   tau(  32) = (   0.5625015   0.1874985   0.0625015  )
        33           C   tau(  33) = (   0.5625015   0.1874985   0.3125015  )
        34           C   tau(  34) = (   0.5625015   0.1874985   0.5625015  )
        35           C   tau(  35) = (   0.5625015   0.1874985   0.8125015  )
        36           C   tau(  36) = (   0.5625015   0.4374985   0.0625015  )
        37           C   tau(  37) = (   0.5625015   0.4374985   0.3125015  )
        38           C   tau(  38) = (   0.5625015   0.4374985   0.5625015  )
        39           C   tau(  39) = (   0.5625015   0.4374985   0.8125015  )
        40           C   tau(  40) = (   0.5625015   0.6874985   0.0625015  )
        41           C   tau(  41) = (   0.5625015   0.6874985   0.3125015  )
        42           C   tau(  42) = (   0.5625015   0.6874985   0.5625015  )
        43           C   tau(  43) = (   0.5625015   0.6874985   0.8125015  )
        44           C   tau(  44) = (   0.5625015   0.9374985   0.0625015  )
        45           C   tau(  45) = (   0.5625015   0.9374985   0.3125015  )
        46           C   tau(  46) = (   0.5625015   0.9374985   0.5625015  )
        47           C   tau(  47) = (   0.5625015   0.9374985   0.8125015  )
        48           C   tau(  48) = (   0.8125015   0.1874985   0.0625015  )
        49           C   tau(  49) = (   0.8125015   0.1874985   0.3125015  )
        50           C   tau(  50) = (   0.8125015   0.1874985   0.5625015  )
        51           C   tau(  51) = (   0.8125015   0.1874985   0.8125015  )
        52           C   tau(  52) = (   0.8125015   0.4374985   0.0625015  )
        53           C   tau(  53) = (   0.8125015   0.4374985   0.3125015  )
        54           C   tau(  54) = (   0.8125015   0.4374985   0.5625015  )
        55           C   tau(  55) = (   0.8125015   0.4374985   0.8125015  )
        56           C   tau(  56) = (   0.8125015   0.6874985   0.0625015  )
        57           C   tau(  57) = (   0.8125015   0.6874985   0.3125015  )
        58           C   tau(  58) = (   0.8125015   0.6874985   0.5625015  )
        59           C   tau(  59) = (   0.8125015   0.6874985   0.8125015  )
        60           C   tau(  60) = (   0.8125015   0.9374985   0.0625015  )
[...]
       497           C   tau( 497) = (   0.8750000   0.1250000   0.3750000  )
       498           C   tau( 498) = (   0.8750000   0.1250000   0.6250000  )
       499           C   tau( 499) = (   0.8750000   0.1250000   0.8750000  )
       500           C   tau( 500) = (   0.8750000   0.3750000   0.1250000  )
       501           C   tau( 501) = (   0.8750000   0.3750000   0.3750000  )
       502           C   tau( 502) = (   0.8750000   0.3750000   0.6250000  )
       503           C   tau( 503) = (   0.8750000   0.3750000   0.8750000  )
       504           C   tau( 504) = (   0.8750000   0.6250000   0.1250000  )
       505           C   tau( 505) = (   0.8750000   0.6250000   0.3750000  )
       506           C   tau( 506) = (   0.8750000   0.6250000   0.6250000  )
       507           C   tau( 507) = (   0.8750000   0.6250000   0.8750000  )
[...]
     atom   25 type  1   force =     0.00000000    0.00000000    0.00000000
     atom   26 type  1   force =     0.00000000    0.00000000    0.00000000
     atom   27 type  1   force =     0.00000000    0.00000000    0.00000000
     atom   28 type  1   force =     0.00000000    0.00000000    0.00000000
     atom   29 type  1   force =     0.00000000    0.00000000    0.00000000
     atom   30 type  1   force =     0.00000000    0.00000000    0.00000000
     atom   31 type  1   force =     0.00000000    0.00000000    0.00000000
     atom   32 type  1   force =     0.00000000    0.00000000    0.00000000
     atom   33 type  1   force =     0.00000000    0.00000000    0.00000000
     atom   34 type  1   force =     0.00000000    0.00000000    0.00000000
     atom   35 type  1   force =     0.00000000    0.00000000    0.00000000
     atom   36 type  1   force =     0.00000000    0.00000000    0.00000000
     atom   37 type  1   force =     0.00000000    0.00000000    0.00000000
     atom   38 type  1   force =     0.00000000    0.00000000    0.00000000
     atom   39 type  1   force =     0.00000000    0.00000000    0.00000000
     atom   40 type  1   force =     0.00000000    0.00000000    0.00000000
     atom   41 type  1   force =     0.00000000    0.00000000    0.00000000
     atom   42 type  1   force =     0.00000000    0.00000000    0.00000000
     atom   43 type  1   force =     0.00000000    0.00000000    0.00000000
     atom   44 type  1   force =     0.00000000    0.00000000    0.00000000
     atom   45 type  1   force =     0.00000000    0.00000000    0.00000000
     atom   46 type  1   force =     0.00000000    0.00000000    0.00000000
     atom   47 type  1   force =     0.00000000    0.00000000    0.00000000
     atom   48 type  1   force =     0.00000000    0.00000000    0.00000000
     atom   49 type  1   force =     0.00000000    0.00000000    0.00000000
     atom   50 type  1   force =     0.00000000    0.00000000    0.00000000
     atom   51 type  1   force =     0.00000000    0.00000000    0.00000000
     atom   52 type  1   force =     0.00000000    0.00000000    0.00000000
     atom   53 type  1   force =     0.00000000    0.00000000    0.00000000
     atom   54 type  1   force =     0.00000000    0.00000000    0.00000000
     atom   55 type  1   force =     0.00000000    0.00000000    0.00000000
     atom   56 type  1   force =     0.00000000    0.00000000    0.00000000
     atom   57 type  1   force =     0.00000000    0.00000000    0.00000000
     atom   58 type  1   force =     0.00000000    0.00000000    0.00000000
     atom   59 type  1   force =     0.00000000    0.00000000    0.00000000
     atom   60 type  1   force =     0.00000000    0.00000000    0.00000000
[...]
     atom  497 type  1   force =     0.00000000    0.00000000    0.00000000
     atom  498 type  1   force =     0.00000000    0.00000000    0.00000000
     atom  499 type  1   force =     0.00000000    0.00000000    0.00000000
     atom  500 type  1   force =     0.00000000    0.00000000    0.00000000
     atom  501 type  1   force =     0.00000000    0.00000000    0.00000000
     atom  502 type  1   force =     0.00000000    0.00000000    0.00000000
     atom  503 type  1   force =     0.00000000    0.00000000    0.00000000
     atom  504 type  1   force =     0.00000000    0.00000000    0.00000000
     atom  505 type  1   force =     0.00000000    0.00000000    0.00000000
     atom  506 type  1   force =     0.00000000    0.00000000    0.00000000
     atom  507 type  1   force =     0.00000000    0.00000000    0.00000000
     atom  508 type  1   force =     0.00000000    0.00000000    0.00000000
     atom  509 type  1   force =     0.00000000    0.00000000    0.00000000
     atom  510 type  1   force =     0.00000000    0.00000000    0.00000000
     atom  511 type  1   force =     0.00000000    0.00000000    0.00000000
     The SCF correction term to forces
     atom    1 type  1   force =     0.00001043   -0.00001043    0.00000515
     atom    2 type  1   force =    -0.00000000    0.00000000   -0.00000306
     atom    3 type  1   force =     0.00000072   -0.00000072   -0.00001787
     atom    4 type  1   force =     0.00000072    0.00001787    0.00000072
     atom    5 type  1   force =     0.00000375    0.00001013    0.00001276
     atom    6 type  1   force =    -0.00000075    0.00000985    0.00000014
     atom    7 type  1   force =    -0.00000311    0.00001338   -0.00001338
     atom    8 type  1   force =    -0.00000000    0.00000306   -0.00000000
     atom    9 type  1   force =    -0.00000035    0.00000252    0.00000967
     atom   10 type  1   force =    -0.00000104   -0.00000019    0.00000019
     atom   11 type  1   force =    -0.00000075   -0.00000014   -0.00000985
     atom   12 type  1   force =     0.00001043   -0.00000515    0.00001043
     atom   13 type  1   force =     0.00000449   -0.00000222    0.00000222
     atom   14 type  1   force =    -0.00000035   -0.00000967   -0.00000252
     atom   15 type  1   force =     0.00000375   -0.00001276   -0.00001013
     atom   16 type  1   force =     0.00000515   -0.00001043    0.00001043
     atom   17 type  1   force =     0.00000222   -0.00000449    0.00000222
     atom   18 type  1   force =     0.00000967    0.00000035   -0.00000252
     atom   19 type  1   force =     0.00001276   -0.00000375   -0.00001013
     atom   20 type  1   force =     0.00001276    0.00001013    0.00000375
     atom   21 type  1   force =     0.00000577    0.00000295    0.00000577
     atom   22 type  1   force =     0.00000795    0.00000711    0.00000088
     atom   23 type  1   force =     0.00001038    0.00000974   -0.00000974
     atom   24 type  1   force =     0.00000967    0.00000252   -0.00000035
     atom   25 type  1   force =     0.00000694    0.00000220    0.00000694
     atom   26 type  1   force =     0.00000955   -0.00000058    0.00000058
     atom   27 type  1   force =     0.00000795   -0.00000088   -0.00000711
     atom   28 type  1   force =     0.00000222   -0.00000222    0.00000449
     atom   29 type  1   force =     0.00000206   -0.00000206    0.00000206
     atom   30 type  1   force =     0.00000694   -0.00000694   -0.00000220
     atom   31 type  1   force =     0.00000577   -0.00000577   -0.00000295
     atom   32 type  1   force =    -0.00000306    0.00000000   -0.00000000
     atom   33 type  1   force =    -0.00000252    0.00000035    0.00000967
     atom   34 type  1   force =     0.00000019    0.00000104    0.00000019
     atom   35 type  1   force =     0.00000014    0.00000075   -0.00000985
     atom   36 type  1   force =     0.00000014    0.00000985   -0.00000075
     atom   37 type  1   force =     0.00000088    0.00000711    0.00000795
     atom   38 type  1   force =     0.00000093    0.00000967    0.00000093
     atom   39 type  1   force =    -0.00000018    0.00000794   -0.00000794
     atom   40 type  1   force =     0.00000019   -0.00000019   -0.00000104
     atom   41 type  1   force =     0.00000058   -0.00000058    0.00000955
     atom   42 type  1   force =     0.00000123   -0.00000123    0.00000123
     atom   43 type  1   force =     0.00000093   -0.00000093   -0.00000967
     atom   44 type  1   force =    -0.00000252   -0.00000967   -0.00000035
     atom   45 type  1   force =    -0.00000220   -0.00000694    0.00000694
     atom   46 type  1   force =     0.00000058   -0.00000955    0.00000058
     atom   47 type  1   force =     0.00000088   -0.00000795   -0.00000711
     atom   48 type  1   force =    -0.00001787   -0.00000072    0.00000072
     atom   49 type  1   force =    -0.00001013   -0.00000375    0.00001276
     atom   50 type  1   force =    -0.00000985    0.00000075    0.00000014
     atom   51 type  1   force =    -0.00001338    0.00000311   -0.00001338
     atom   52 type  1   force =    -0.00001338    0.00001338   -0.00000311
     atom   53 type  1   force =    -0.00000974    0.00000974    0.00001038
     atom   54 type  1   force =    -0.00000794    0.00000794   -0.00000018
     atom   55 type  1   force =    -0.00000729    0.00000729   -0.00000729
     atom   56 type  1   force =    -0.00000985   -0.00000014   -0.00000075
     atom   57 type  1   force =    -0.00000711   -0.00000088    0.00000795
     atom   58 type  1   force =    -0.00000967   -0.00000093    0.00000093
     atom   59 type  1   force =    -0.00000794    0.00000018   -0.00000794
     atom   60 type  1   force =    -0.00001013   -0.00001276    0.00000375
[...]
     atom  497 type  1   force =    -0.00000781   -0.00000764    0.00000650
     atom  498 type  1   force =    -0.00001139   -0.00000342   -0.00000207
     atom  499 type  1   force =    -0.00001841   -0.00000439   -0.00001841
     atom  500 type  1   force =    -0.00001841    0.00001841    0.00000439
     atom  501 type  1   force =    -0.00001020    0.00001020    0.00000927
     atom  502 type  1   force =    -0.00000886    0.00000886   -0.00000049
     atom  503 type  1   force =    -0.00001311    0.00001311   -0.00001311
     atom  504 type  1   force =    -0.00001139    0.00000207    0.00000342
     atom  505 type  1   force =    -0.00000735    0.00000045    0.00000702
     atom  506 type  1   force =    -0.00000787    0.00000191   -0.00000191
     atom  507 type  1   force =    -0.00000886    0.00000049   -0.00000886
     atom  508 type  1   force =    -0.00000781   -0.00000650    0.00000764
     atom  509 type  1   force =    -0.00000407   -0.00000322    0.00000322
     atom  510 type  1   force =    -0.00000735   -0.00000702   -0.00000045
     atom  511 type  1   force =    -0.00001020   -0.00000927   -0.00001020

     Total force =     0.005450     Total SCF correction =     0.000292

     Computing stress (Cartesian axis) and pressure

[...]

          total   stress  (Ry/bohr**3)                   (kbar)     P=       -8.92
  -0.00006060   0.00000004  -0.00000004           -8.92        0.01       -0.01
   0.00000004  -0.00006060   0.00000004            0.01       -8.92        0.01
  -0.00000004   0.00000004  -0.00006060           -0.01        0.01       -8.92

     kinetic stress (kbar)  18945.35      0.00     -0.00
                                0.00  18945.35      0.00
                               -0.00      0.00  18945.35

     local   stress (kbar)  -3533.79      0.07     -0.07
                                0.07  -3533.79      0.07
                               -0.07      0.07  -3533.79

     nonloc. stress (kbar)   4316.67     -0.00      0.00
                               -0.00   4316.67     -0.00
                                0.00     -0.00   4316.67

     hartree stress (kbar)   1286.54     -0.02      0.02
                               -0.02   1286.54     -0.02
                                0.02     -0.02   1286.54

     exc-cor stress (kbar)   -410.25     -0.00      0.00
                               -0.00   -410.25     -0.00
                                0.00     -0.00   -410.25

     corecor stress (kbar)  -4426.18      0.00     -0.00
                                0.00  -4426.18      0.00
                               -0.00      0.00  -4426.18

     ewald   stress (kbar) -16212.04     -0.05      0.05
                               -0.05 -16212.04     -0.05
                                0.05     -0.05 -16212.04

     hubbard stress (kbar)      0.00      0.00      0.00
                                0.00      0.00      0.00
                                0.00      0.00      0.00

     DFT-D   stress (kbar)      0.00      0.00      0.00
                                0.00      0.00      0.00
                                0.00      0.00      0.00

     XDM     stress (kbar)      0.00      0.00      0.00
                                0.00      0.00      0.00
                                0.00      0.00      0.00

     dft-nl  stress (kbar)     24.79      0.00     -0.00
                                0.00     24.79      0.00
                               -0.00      0.00     24.79

     TS-vdW  stress (kbar)      0.00      0.00      0.00
                                0.00      0.00      0.00
                                0.00      0.00      0.00

     MDB     stress (kbar)      0.00      0.00      0.00
                                0.00      0.00      0.00
                                0.00      0.00      0.00

     3D-RISM stress (kbar)      0.00      0.00      0.00
                                0.00      0.00      0.00
                                0.00      0.00      0.00

[...]

     Non-local corr. energy    =      17.48073528 Ry

 BEEFens 2000 ensemble energies
             -0.309242224894426E+02
             -0.215290603963251E+03
             -0.764175255599200E+02
              0.845745627963415E+02
             -0.142408850432065E+03
             -0.199257553864557E+03
              0.117981918011373E+03
             -0.245222193051902E+02
              0.163655603431754E+03
             -0.267877078882930E+01
              0.665612086816226E+02
              0.331411364870678E+01
              0.919834774912624E+01
             -0.194671041278543E+02
              0.110782296711628E+03
             -0.828763776832254E+02
             -0.190131650128129E+03
             -0.526885564624611E+02
              0.429374151736876E+02
              0.461038187400004E+01
              0.227511929397109E+03
              0.206293945995981E+03
             -0.101336527797394E+03
              0.569265117813497E+02
             -0.258480336252474E+03
              0.208176121034711E+03
              0.745402191329557E+02
              0.219181259855543E+03
              0.138237460423350E+03
             -0.863737765348817E+02
              0.539570326340638E+02
             -0.112180643350124E+03
              0.326490379820839E+01
              0.110265388841273E+03
              0.142343302714003E+03
             -0.349831229172314E+02
              0.306738363125295E+03
             -0.107417565507556E+03
             -0.776269597853321E+02
              0.118888101380797E+03
              0.409109892841331E+02
              0.100090430773250E+03
             -0.174847649564685E+03
             -0.717612119898740E+01
              0.185315453612240E+03
              0.226059762657379E+03
             -0.204834925803069E+03
              0.169467309195596E+02
              0.807395930009056E+02
              0.188479277019464E+02
              0.987663500590145E+02
              0.198153868315428E+03
             -0.132780375895760E+03
             -0.139743561653121E+03
             -0.177062050978583E+03
             -0.488146013316065E+02
             -0.147814201487943E+03
              0.788272665102704E+01
             -0.392948140318126E+02
             -0.134119887820490E+03
[...]
              0.173964064564218E+03
              0.711013951733124E+02
              0.121255037149501E+03
             -0.173594752595207E+03
             -0.135244420262281E+03
             -0.550742397619272E+02
             -0.148769834860401E+03
              0.268155452926334E+03
              0.230015212475805E+03
              0.999574380408967E+02
              0.271161820989297E+03
             -0.145445778057105E+03
             -0.699736188596369E+02
             -0.722235652916598E+02
              0.213960836517789E+03

 BEEF-vdW xc energy contributions
            1 :    -2090.899588616490
            2 :     1844.690230291987
            3 :    -1420.163182515553
            4 :     927.4646296846465
            5 :    -479.0184407461948
            6 :     152.3645218928245
            7 :     29.28180899704694
            8 :    -92.78985573551790
            9 :     92.22989861878796
           10 :    -80.02945652031349
           11 :     85.76686945864549
           12 :    -110.5997899534427
           13 :     136.6580970059149
           14 :    -143.6395913143165
           15 :     122.6798326710718
           16 :    -80.76568605397915
           17 :     35.13125454933152
           18 :    -2.557979627333225
           19 :    -9.528359685800297
           20 :     5.379772436313488
           21 :     3.662699686321048
           22 :    -7.006637970160227
           23 :    0.8916447828860328
           24 :     10.56255171942485
           25 :    -19.22790926251582
           26 :     18.75855105777418
           27 :    -8.550025377528073
           28 :    -6.309997118105457
           29 :     18.59030790779616
           30 :    -23.38839694138460
           31 :    -273.5607663010978
           32 :    -198.4629251867027

     Writing all to output data dir ./diamond.save/

     General routines

     Parallel routines

     PAW routines

   This run was terminated on:  11:51:36  19Feb2024

   JOB DONE.