     Program PWSCF v.7.1 starts on 18Feb2024 at 19:34:43

     Reading input from espresso.pwi
Warning: card &CELL ignored
Warning: card    CELL_DYNAMICS    = 'BFGS' ignored
Warning: card / ignored

     Current dimensions of program PWSCF are:
     Max number of different atomic species (ntypx) = 10
     Max number of k-points (npk) =  40000
     Max angular momentum in pseudopotentials (lmaxx) =  4
     file C.pbe-n-kjpaw_psl.1.0.0.UPF: wavefunction(s)  2S 2P renormalized

     IMPORTANT: XC functional enforced from input :
     Exchange-correlation= BEEF-VDW
                           (   1   4  43  14   2   0   0)
     Any further DFT definition will be discarded
     Please, verify this is what you really want

     R & G space division:  proc/nbgrp/npool/nimage =     256
     wavefunctions fft division:  task group distribution
                                  #TG    x Z-proc =       8     32
     Subspace diagonalization in iterative solution of the eigenvalue problem:
     a serial algorithm will be used

     Using Pencil Decomposition

     bravais-lattice index     =            1
     lattice parameter (alat)  =      27.0027  a.u.
     unit-cell volume          =   19688.9026 (a.u.)^3
     number of atoms/cell      =          511
     number of atomic types    =            1
     number of electrons       =      2045.00
     number of Kohn-Sham states=         1228
     kinetic-energy cutoff     =      70.0000  Ry
     charge density cutoff     =     350.0000  Ry
     scf convergence threshold =      1.0E-07
     mixing beta               =       0.7000
     number of iterations used =            8  plain     mixing
     energy convergence thresh.=      1.0E-04
     force convergence thresh. =      1.0E-03
     Exchange-correlation= BEEF-VDW
                           (   1   4  43  14   2   0   0)
     nstep                     =           50

     celldm(1)=  27.002699  celldm(2)=   0.000000  celldm(3)=   0.000000
     celldm(4)=   0.000000  celldm(5)=   0.000000  celldm(6)=   0.000000

     crystal axes: (cart. coord. in units of alat)
               a(1) = (   1.000000   0.000000   0.000000 )
               a(2) = (   0.000000   1.000000   0.000000 )
               a(3) = (   0.000000   0.000000   1.000000 )

     reciprocal axes: (cart. coord. in units 2 pi/alat)
               b(1) = (  1.000000  0.000000  0.000000 )
               b(2) = (  0.000000  1.000000  0.000000 )
               b(3) = (  0.000000  0.000000  1.000000 )

     PseudoPot. # 1 for C  read from file:
     //group///packages/espresso/pseudo/psl_1.0.0/pslibrary.1.0.0/pbe/PSEUDOPOTENTIALS/C.pbe-n-kjpaw_psl.1.0.0.UPF
     MD5 check sum: 5459cf7f2c8c37df2f7cde8914797f4d
     Pseudo is Projector augmented-wave + core cor, Zval =  4.0
     Generated using 'atomic' code by A. Dal Corso  v.7.1
     Shape of augmentation charge: PSQ
     Using radial grid of 1073 points,  4 beta functions with:
                l(1) =   0
                l(2) =   0
                l(3) =   1
                l(4) =   1
     Q(r) pseudized with 0 coefficients

     atomic species   valence    mass     pseudopotential
        C              4.00    12.01100     C ( 1.00)

      6 Sym. Ops. (no inversion) found ( 4 have fractional translation)

                                    s                        frac. trans.

      isym =  1     identity

 cryst.   s( 1) = (     1          0          0      )
                  (     0          1          0      )
                  (     0          0          1      )

 cart.    s( 1) = (  1.0000000  0.0000000  0.0000000 )
                  (  0.0000000  1.0000000  0.0000000 )
                  (  0.0000000  0.0000000  1.0000000 )

      isym =  2     120 deg rotation - cart. axis [1,-1,1]

 cryst.   s( 2) = (     0          0          1      )    f =( -0.2500000 )
                  (    -1          0          0      )       ( -0.2500000 )
                  (     0         -1          0      )       (  0.0000000 )

 cart.    s( 2) = (  0.0000000 -1.0000000  0.0000000 )    f =( -0.2500000 )
                  (  0.0000000  0.0000000 -1.0000000 )       ( -0.2500000 )
                  (  1.0000000  0.0000000  0.0000000 )       (  0.0000000 )

      isym =  3     120 deg rotation - cart. axis [-1,1,-1]

[...]

      isym =  4     inv. 180 deg rotation - cart. axis [1,1,0]

[...]

 cryst.   s( 5) = (     0          0          1      )
                  (     0          1          0      )
                  (     1          0          0      )

 cart.    s( 5) = (  0.0000000  0.0000000  1.0000000 )
                  (  0.0000000  1.0000000  0.0000000 )
                  (  1.0000000  0.0000000  0.0000000 )

      isym =  6     inv. 180 deg rotation - cart. axis [0,1,1]

 cryst.   s( 6) = (     1          0          0      )    f =(  0.0000000 )
                  (     0          0         -1      )       ( -0.2500000 )
                  (     0         -1          0      )       ( -0.2500000 )

 cart.    s( 6) = (  1.0000000  0.0000000  0.0000000 )    f =(  0.0000000 )
                  (  0.0000000  0.0000000 -1.0000000 )       ( -0.2500000 )
                  (  0.0000000 -1.0000000  0.0000000 )       ( -0.2500000 )

     point group C_3v (3m)
     there are  3 classes
     the character table:

       E     2C3   3s_v
A_1    1.00  1.00  1.00
A_2    1.00  1.00 -1.00
E      2.00 -1.00  0.00

     the symmetry operations in each class and the name of the first element:

     E        1
          identity
     2C3      2    3
          120 deg rotation - cart. axis [1,-1,1]
     3s_v     4    5    6
          inv. 180 deg rotation - cart. axis [1,1,0]

   Cartesian axes

     site n.     atom                  positions (alat units)
         1           C   tau(   1) = (   0.0625015   0.1874985   0.3125015  )
         2           C   tau(   2) = (   0.0625015   0.1874985   0.5625015  )
         3           C   tau(   3) = (   0.0625015   0.1874985   0.8125015  )
         4           C   tau(   4) = (   0.0625015   0.4374985   0.0625015  )
         5           C   tau(   5) = (   0.0625015   0.4374985   0.3125015  )
         6           C   tau(   6) = (   0.0625015   0.4374985   0.5625015  )
         7           C   tau(   7) = (   0.0625015   0.4374985   0.8125015  )
         8           C   tau(   8) = (   0.0625015   0.6874985   0.0625015  )
         9           C   tau(   9) = (   0.0625015   0.6874985   0.3125015  )
        10           C   tau(  10) = (   0.0625015   0.6874985   0.5625015  )
        11           C   tau(  11) = (   0.0625015   0.6874985   0.8125015  )
        12           C   tau(  12) = (   0.0625015   0.9374985   0.0625015  )
        13           C   tau(  13) = (   0.0625015   0.9374985   0.3125015  )
        14           C   tau(  14) = (   0.0625015   0.9374985   0.5625015  )
        15           C   tau(  15) = (   0.0625015   0.9374985   0.8125015  )
        16           C   tau(  16) = (   0.3125015   0.1874985   0.0625015  )
        17           C   tau(  17) = (   0.3125015   0.1874985   0.3125015  )
        18           C   tau(  18) = (   0.3125015   0.1874985   0.5625015  )
        19           C   tau(  19) = (   0.3125015   0.1874985   0.8125015  )
        20           C   tau(  20) = (   0.3125015   0.4374985   0.0625015  )
        21           C   tau(  21) = (   0.3125015   0.4374985   0.3125015  )
        22           C   tau(  22) = (   0.3125015   0.4374985   0.5625015  )
        23           C   tau(  23) = (   0.3125015   0.4374985   0.8125015  )
        24           C   tau(  24) = (   0.3125015   0.6874985   0.0625015  )
        25           C   tau(  25) = (   0.3125015   0.6874985   0.3125015  )
        26           C   tau(  26) = (   0.3125015   0.6874985   0.5625015  )
        27           C   tau(  27) = (   0.3125015   0.6874985   0.8125015  )
        28           C   tau(  28) = (   0.3125015   0.9374985   0.0625015  )
        29           C   tau(  29) = (   0.3125015   0.9374985   0.3125015  )
        30           C   tau(  30) = (   0.3125015   0.9374985   0.5625015  )
        31           C   tau(  31) = (   0.3125015   0.9374985   0.8125015  )
        32           C   tau(  32) = (   0.5625015   0.1874985   0.0625015  )
        33           C   tau(  33) = (   0.5625015   0.1874985   0.3125015  )
        34           C   tau(  34) = (   0.5625015   0.1874985   0.5625015  )
        35           C   tau(  35) = (   0.5625015   0.1874985   0.8125015  )
        36           C   tau(  36) = (   0.5625015   0.4374985   0.0625015  )
        37           C   tau(  37) = (   0.5625015   0.4374985   0.3125015  )
        38           C   tau(  38) = (   0.5625015   0.4374985   0.5625015  )
        39           C   tau(  39) = (   0.5625015   0.4374985   0.8125015  )
        40           C   tau(  40) = (   0.5625015   0.6874985   0.0625015  )
        41           C   tau(  41) = (   0.5625015   0.6874985   0.3125015  )
        42           C   tau(  42) = (   0.5625015   0.6874985   0.5625015  )
        43           C   tau(  43) = (   0.5625015   0.6874985   0.8125015  )
        44           C   tau(  44) = (   0.5625015   0.9374985   0.0625015  )
        45           C   tau(  45) = (   0.5625015   0.9374985   0.3125015  )
        46           C   tau(  46) = (   0.5625015   0.9374985   0.5625015  )
        47           C   tau(  47) = (   0.5625015   0.9374985   0.8125015  )
        48           C   tau(  48) = (   0.8125015   0.1874985   0.0625015  )
        49           C   tau(  49) = (   0.8125015   0.1874985   0.3125015  )
        50           C   tau(  50) = (   0.8125015   0.1874985   0.5625015  )
        51           C   tau(  51) = (   0.8125015   0.1874985   0.8125015  )
        52           C   tau(  52) = (   0.8125015   0.4374985   0.0625015  )
        53           C   tau(  53) = (   0.8125015   0.4374985   0.3125015  )
        54           C   tau(  54) = (   0.8125015   0.4374985   0.5625015  )
        55           C   tau(  55) = (   0.8125015   0.4374985   0.8125015  )
        56           C   tau(  56) = (   0.8125015   0.6874985   0.0625015  )
        57           C   tau(  57) = (   0.8125015   0.6874985   0.3125015  )
        58           C   tau(  58) = (   0.8125015   0.6874985   0.5625015  )
        59           C   tau(  59) = (   0.8125015   0.6874985   0.8125015  )
        60           C   tau(  60) = (   0.8125015   0.9374985   0.0625015  )
[...]
       497           C   tau( 497) = (   0.8750000   0.1250000   0.3750000  )
       498           C   tau( 498) = (   0.8750000   0.1250000   0.6250000  )
       499           C   tau( 499) = (   0.8750000   0.1250000   0.8750000  )
       500           C   tau( 500) = (   0.8750000   0.3750000   0.1250000  )
       501           C   tau( 501) = (   0.8750000   0.3750000   0.3750000  )
       502           C   tau( 502) = (   0.8750000   0.3750000   0.6250000  )
       503           C   tau( 503) = (   0.8750000   0.3750000   0.8750000  )
       504           C   tau( 504) = (   0.8750000   0.6250000   0.1250000  )
       505           C   tau( 505) = (   0.8750000   0.6250000   0.3750000  )
       506           C   tau( 506) = (   0.8750000   0.6250000   0.6250000  )
[...]
     atom   45 type  1   force =     0.00000000    0.00000000    0.00000000
     atom   46 type  1   force =     0.00000000    0.00000000    0.00000000
     atom   47 type  1   force =     0.00000000    0.00000000    0.00000000
     atom   48 type  1   force =     0.00000000    0.00000000    0.00000000
     atom   49 type  1   force =     0.00000000    0.00000000    0.00000000
     atom   50 type  1   force =     0.00000000    0.00000000    0.00000000
     atom   51 type  1   force =     0.00000000    0.00000000    0.00000000
     atom   52 type  1   force =     0.00000000    0.00000000    0.00000000
     atom   53 type  1   force =     0.00000000    0.00000000    0.00000000
     atom   54 type  1   force =     0.00000000    0.00000000    0.00000000
     atom   55 type  1   force =     0.00000000    0.00000000    0.00000000
     atom   56 type  1   force =     0.00000000    0.00000000    0.00000000
     atom   57 type  1   force =     0.00000000    0.00000000    0.00000000
     atom   58 type  1   force =     0.00000000    0.00000000    0.00000000
     atom   59 type  1   force =     0.00000000    0.00000000    0.00000000
     atom   60 type  1   force =     0.00000000    0.00000000    0.00000000
[...]
     atom  497 type  1   force =     0.00000000    0.00000000    0.00000000
     atom  498 type  1   force =     0.00000000    0.00000000    0.00000000
     atom  499 type  1   force =     0.00000000    0.00000000    0.00000000
     atom  500 type  1   force =     0.00000000    0.00000000    0.00000000
     atom  501 type  1   force =     0.00000000    0.00000000    0.00000000
     atom  502 type  1   force =     0.00000000    0.00000000    0.00000000
     atom  503 type  1   force =     0.00000000    0.00000000    0.00000000
     atom  504 type  1   force =     0.00000000    0.00000000    0.00000000
     atom  505 type  1   force =     0.00000000    0.00000000    0.00000000
     atom  506 type  1   force =     0.00000000    0.00000000    0.00000000
     atom  507 type  1   force =     0.00000000    0.00000000    0.00000000
     atom  508 type  1   force =     0.00000000    0.00000000    0.00000000
     atom  509 type  1   force =     0.00000000    0.00000000    0.00000000
     atom  510 type  1   force =     0.00000000    0.00000000    0.00000000
     atom  511 type  1   force =     0.00000000    0.00000000    0.00000000
     The SCF correction term to forces
     atom    1 type  1   force =     0.00003478   -0.00003478   -0.00002470
     atom    2 type  1   force =     0.00000465   -0.00000465   -0.00001339
     atom    3 type  1   force =     0.00000727   -0.00000727   -0.00001758
     atom    4 type  1   force =     0.00000727    0.00001758    0.00000727
     atom    5 type  1   force =     0.00001046    0.00000323    0.00001232
     atom    6 type  1   force =     0.00000055    0.00000892   -0.00000440
     atom    7 type  1   force =    -0.00000210    0.00001453   -0.00001453
     atom    8 type  1   force =     0.00000465    0.00001339    0.00000465
     atom    9 type  1   force =     0.00000441    0.00001181    0.00000783
     atom   10 type  1   force =     0.00000056    0.00000347   -0.00000347
     atom   11 type  1   force =     0.00000055    0.00000440   -0.00000892
     atom   12 type  1   force =     0.00003478    0.00002470    0.00003478
     atom   13 type  1   force =     0.00002251    0.00002028   -0.00002028
     atom   14 type  1   force =     0.00000441   -0.00000783   -0.00001181
     atom   15 type  1   force =     0.00001046   -0.00001232   -0.00000323
     atom   16 type  1   force =    -0.00002470   -0.00003478    0.00003478
     atom   17 type  1   force =    -0.00002028   -0.00002251   -0.00002028
     atom   18 type  1   force =     0.00000783   -0.00000441   -0.00001181
     atom   19 type  1   force =     0.00001232   -0.00001046   -0.00000323
     atom   20 type  1   force =     0.00001232    0.00000323    0.00001046
     atom   21 type  1   force =    -0.00000013   -0.00000771   -0.00000013
     atom   22 type  1   force =    -0.00000165   -0.00000440   -0.00000513
     atom   23 type  1   force =     0.00000743    0.00000367   -0.00000367
     atom   24 type  1   force =     0.00000783    0.00001181    0.00000441
     atom   25 type  1   force =    -0.00000557    0.00000880   -0.00000557
     atom   26 type  1   force =    -0.00001974    0.00000337   -0.00000337
     atom   27 type  1   force =    -0.00000165    0.00000513    0.00000440
     atom   28 type  1   force =    -0.00002028    0.00002028    0.00002251
     atom   29 type  1   force =    -0.00001684    0.00001684   -0.00001684
     atom   30 type  1   force =    -0.00000557    0.00000557   -0.00000880
     atom   31 type  1   force =    -0.00000013    0.00000013    0.00000771
     atom   32 type  1   force =    -0.00001339   -0.00000465    0.00000465
     atom   33 type  1   force =    -0.00001181   -0.00000441    0.00000783
     atom   34 type  1   force =    -0.00000347   -0.00000056   -0.00000347
     atom   35 type  1   force =    -0.00000440   -0.00000055   -0.00000892
     atom   36 type  1   force =    -0.00000440    0.00000892    0.00000055
     atom   37 type  1   force =    -0.00000513   -0.00000440   -0.00000165
     atom   38 type  1   force =    -0.00000007   -0.00001961   -0.00000007
     atom   39 type  1   force =     0.00000078   -0.00000137    0.00000137
     atom   40 type  1   force =    -0.00000347    0.00000347    0.00000056
     atom   41 type  1   force =    -0.00000337    0.00000337   -0.00001974
     atom   42 type  1   force =    -0.00000046    0.00000046   -0.00000046
     atom   43 type  1   force =    -0.00000007    0.00000007    0.00001961
     atom   44 type  1   force =    -0.00001181   -0.00000783    0.00000441
     atom   45 type  1   force =    -0.00000880    0.00000557   -0.00000557
     atom   46 type  1   force =    -0.00000337    0.00001974   -0.00000337
     atom   47 type  1   force =    -0.00000513    0.00000165    0.00000440
     atom   48 type  1   force =    -0.00001758   -0.00000727    0.00000727
     atom   49 type  1   force =    -0.00000323   -0.00001046    0.00001232
     atom   50 type  1   force =    -0.00000892   -0.00000055   -0.00000440
     atom   51 type  1   force =    -0.00001453    0.00000210   -0.00001453
     atom   52 type  1   force =    -0.00001453    0.00001453   -0.00000210
     atom   53 type  1   force =    -0.00000367    0.00000367    0.00000743
     atom   54 type  1   force =     0.00000137   -0.00000137    0.00000078
     atom   55 type  1   force =    -0.00000680    0.00000680   -0.00000680
     atom   56 type  1   force =    -0.00000892    0.00000440    0.00000055
     atom   57 type  1   force =     0.00000440    0.00000513   -0.00000165
     atom   58 type  1   force =     0.00001961    0.00000007   -0.00000007
     atom   59 type  1   force =     0.00000137   -0.00000078    0.00000137
     atom   60 type  1   force =    -0.00000323   -0.00001232    0.00001046
[...]
     atom  497 type  1   force =     0.00000935   -0.00000791    0.00000306
     atom  498 type  1   force =    -0.00000404   -0.00000117   -0.00000986
     atom  499 type  1   force =    -0.00001497   -0.00000662   -0.00001497
     atom  500 type  1   force =    -0.00001497    0.00001497    0.00000662
     atom  501 type  1   force =    -0.00000038    0.00000038    0.00001079
     atom  502 type  1   force =    -0.00000278    0.00000278   -0.00000621
     atom  503 type  1   force =    -0.00001058    0.00001058   -0.00001058
     atom  504 type  1   force =    -0.00000404    0.00000986    0.00000117
     atom  505 type  1   force =     0.00000920    0.00000540    0.00000535
     atom  506 type  1   force =     0.00001412    0.00000417   -0.00000417
     atom  507 type  1   force =    -0.00000278    0.00000621   -0.00000278
     atom  508 type  1   force =     0.00000935   -0.00000306    0.00000791
     atom  509 type  1   force =     0.00001281    0.00000156   -0.00000156
     atom  510 type  1   force =     0.00000920   -0.00000535   -0.00000540
     atom  511 type  1   force =    -0.00000038   -0.00001079   -0.00000038

     Total force =     0.003807     Total SCF correction =     0.000527
     SCF correction compared to forces is large: reduce conv_thr to get better values

     Computing stress (Cartesian axis) and pressure

     Non-local corr. energy    =      17.48240079 Ry

          total   stress  (Ry/bohr**3)                   (kbar)     P=       10.88
   0.00007397  -0.00000001   0.00000001           10.88       -0.00        0.00
  -0.00000001   0.00007397  -0.00000001           -0.00       10.88       -0.00
   0.00000001  -0.00000001   0.00007397            0.00       -0.00       10.88

     kinetic stress (kbar)  18970.60      0.00     -0.00
                                0.00  18970.60      0.00
                               -0.00      0.00  18970.60

     local   stress (kbar)  -3530.09      0.02     -0.02
                                0.02  -3530.09      0.02
                               -0.02      0.02  -3530.09

     nonloc. stress (kbar)   4316.68      0.00     -0.00
                                0.00   4316.68      0.00
                               -0.00      0.00   4316.68

     hartree stress (kbar)   1284.87     -0.01      0.01
                               -0.01   1284.87     -0.01
                                0.01     -0.01   1284.87

     exc-cor stress (kbar)   -415.21      0.00     -0.00
                                0.00   -415.21      0.00
                               -0.00      0.00   -415.21

     corecor stress (kbar)  -4426.70     -0.00      0.00
                               -0.00  -4426.70     -0.00
                                0.00     -0.00  -4426.70

     ewald   stress (kbar) -16214.08     -0.02      0.02
                               -0.02 -16214.08     -0.02
                                0.02     -0.02 -16214.08

     hubbard stress (kbar)      0.00      0.00      0.00
                                0.00      0.00      0.00
                                0.00      0.00      0.00

     DFT-D   stress (kbar)      0.00      0.00      0.00
                                0.00      0.00      0.00
                                0.00      0.00      0.00

     XDM     stress (kbar)      0.00      0.00      0.00
                                0.00      0.00      0.00
                                0.00      0.00      0.00

     dft-nl  stress (kbar)     24.82      0.00     -0.00
                                0.00     24.82      0.00
                               -0.00      0.00     24.82

     TS-vdW  stress (kbar)      0.00      0.00      0.00
                                0.00      0.00      0.00
                                0.00      0.00      0.00

     MDB     stress (kbar)      0.00      0.00      0.00
                                0.00      0.00      0.00
                                0.00      0.00      0.00

     3D-RISM stress (kbar)      0.00      0.00      0.00
                                0.00      0.00      0.00
                                0.00      0.00      0.00

     BFGS Geometry Optimization
     Energy error            =      0.0E+00 Ry
     Gradient error          =      2.7E-04 Ry/Bohr

     bfgs converged in   1 scf cycles and   0 bfgs steps
     (criteria: energy <  1.0E-04 Ry, force <  1.0E-03 Ry/Bohr)

     End of BFGS Geometry Optimization

     Final energy             =   -9703.7058999499 Ry
Begin final coordinates

ATOMIC_POSITIONS (angstrom)
C             0.8931569972        2.6791461798        4.4603267466
C             0.8931059558        2.6791972212        8.0377159990
C             0.8930734855        2.6792296915       11.6151089567
C             0.8930734855        6.2464069250        0.8930734855
C             0.8921564980        6.2546709616        4.4685910690
C             0.8931044295        6.2512032362        8.0377114325
C             0.8940753922        6.2547099440       11.6068059377
C             0.8931059558        9.8237998826        0.8931059558
C             0.8931058092        9.8238043826        4.4651115923
C             0.8931025922        9.8238041097        8.0377117719
C             0.8931044295        9.8238044491       11.6103126455
C             0.8931569972       13.4011891351        0.8931569972
C             0.8939802653       13.3929149647        4.4686009170
C             0.8931058092       13.3964042894        8.0377114990
C             0.8921564980       13.3929248127       11.6068449201
C             4.4603267466        2.6791461798        0.8931569972
C             4.4686009170        2.6783229117        4.4686009170
C             4.4651115923        2.6791973678        8.0377114990
C             4.4685910690        2.6801466791       11.6068449201
C             4.4685910690        6.2546709616        0.8921564980
C             4.4638716805        6.2499590648        4.4638716805
C             4.4653860204        6.2514781215        8.0375420530
C             4.4650069033        6.2510970227       11.6104188590
C             4.4651115923        9.8238043826        0.8931058092
C             4.4653837800        9.8236331525        4.4653837800
C             4.4653643013        9.8238039132        8.0377119685
C             4.4653860204        9.8239738286       11.6100377602
C             4.4686009170       13.3929149647        0.8939802653
C             4.4650062565       13.3965096252        4.4650062565
C             4.4653837800       13.3961321017        8.0378827291
C             4.4638716805       13.3976442012       11.6115568169
C             8.0377159990        2.6791972212        0.8931059558
C             8.0377114990        2.6791973678        4.4651115923
C             8.0377117719        2.6792005848        8.0377117719
C             8.0377114325        2.6791987475       11.6103126455
C             8.0377114325        6.2512032362        0.8931044295
C             8.0375420530        6.2514781215        4.4653860204
C             8.0377116624        6.2514561772        8.0377116624
C             8.0378810979        6.2514767807       11.6100391010
C             8.0377117719        9.8238041097        0.8931025922
C             8.0377119685        9.8238039132        4.4653643013
C             8.0377118385        9.8238040431        8.0377118385
C             8.0377116624        9.8238042192       11.6100597045
C             8.0377114990       13.3964042894        0.8931058092
C             8.0378827291       13.3961321017        4.4653837800
C             8.0377119685       13.3961515804        8.0377119685
C             8.0375420530       13.3961298613       11.6100377602
C            11.6151089567        2.6792296915        0.8930734855
C            11.6068449201        2.6801466791        4.4685910690
C            11.6103126455        2.6791987475        8.0377114325
C            11.6068059377        2.6782277848       11.6068059377
C            11.6068059377        6.2547099440        0.8940753922
C            11.6104188590        6.2510970227        4.4650069033
C            11.6100391010        6.2514767807        8.0378810979
C            11.6115663820        6.2499494997       11.6115663820
C            11.6103126455        9.8238044491        0.8931044295
C            11.6100377602        9.8239738286        4.4653860204
C            11.6100597045        9.8238042192        8.0377116624
C            11.6100391010        9.8236347837       11.6100391010
C            11.6068449201       13.3929248127        0.8921564980
[...]
C            12.5038056360        1.7864619546        5.3571065310
C            12.5033270514        1.7863447959        8.9310614433
C            12.4954630584        1.7868549083       12.4954630584
C            12.4954630584        5.3660528233        1.7854482687
C            12.5031393160        5.3583765657        5.3592558735
C            12.5031436530        5.3583722287        8.9309660301
C            12.5058291174        5.3556867643       12.5058291174
C            12.5033270514        8.9304544383        1.7859583811
C            12.5031023218        8.9309565075        5.3584446516
C            12.5031038108        8.9306311353        8.9308847463
C            12.5031436530        8.9305498515       12.5031436530
C            12.5038056360       12.5044093507        1.7858412224
C            12.5033220932       12.5038115776        5.3577043041
C            12.5031023218       12.5030712301        8.9305593742
C            12.5031393160       12.5022600082       12.5031393160
End final coordinates

     Writing all to output data dir ./diamond.save/

     General routines

     Parallel routines

     PAW routines

   This run was terminated on:  20:10: 8  18Feb2024

   JOB DONE.