     Program PWSCF v.7.1 starts on 19Feb2024 at 11:51:43

     Reading input from espresso.pwi
Warning: card &CELL ignored
Warning: card    CELL_DYNAMICS    = 'BFGS' ignored
Warning: card / ignored

     Current dimensions of program PWSCF are:
     Max number of different atomic species (ntypx) = 10
     Max number of k-points (npk) =  40000
     Max angular momentum in pseudopotentials (lmaxx) =  4
     file C.pbe-n-kjpaw_psl.1.0.0.UPF: wavefunction(s)  2S 2P renormalized

     IMPORTANT: XC functional enforced from input :
     Exchange-correlation= BEEF-VDW
                           (   1   4  43  14   2   0   0)
     Any further DFT definition will be discarded
     Please, verify this is what you really want

     R & G space division:  proc/nbgrp/npool/nimage =     256
     wavefunctions fft division:  task group distribution
                                  #TG    x Z-proc =       8     32
     Subspace diagonalization in iterative solution of the eigenvalue problem:
     a serial algorithm will be used

     Using Pencil Decomposition

     bravais-lattice index     =            1
     lattice parameter (alat)  =      27.0027  a.u.
     unit-cell volume          =   19688.9026 (a.u.)^3
     number of atoms/cell      =          511
     number of atomic types    =            1
     number of electrons       =      2045.00
     number of Kohn-Sham states=         1228
     kinetic-energy cutoff     =      70.0000  Ry
     charge density cutoff     =     350.0000  Ry
     scf convergence threshold =      1.0E-07
     mixing beta               =       0.7000
     number of iterations used =            8  plain     mixing
     Exchange-correlation= BEEF-VDW
                           (   1   4  43  14   2   0   0)

     celldm(1)=  27.002699  celldm(2)=   0.000000  celldm(3)=   0.000000
     celldm(4)=   0.000000  celldm(5)=   0.000000  celldm(6)=   0.000000

     crystal axes: (cart. coord. in units of alat)
               a(1) = (   1.000000   0.000000   0.000000 )
               a(2) = (   0.000000   1.000000   0.000000 )
               a(3) = (   0.000000   0.000000   1.000000 )

     reciprocal axes: (cart. coord. in units 2 pi/alat)
               b(1) = (  1.000000  0.000000  0.000000 )
               b(2) = (  0.000000  1.000000  0.000000 )
               b(3) = (  0.000000  0.000000  1.000000 )

     PseudoPot. # 1 for C  read from file:
     //group///packages/espresso/pseudo/psl_1.0.0/pslibrary.1.0.0/pbe/PSEUDOPOTENTIALS/C.pbe-n-kjpaw_psl.1.0.0.UPF
     MD5 check sum: 5459cf7f2c8c37df2f7cde8914797f4d
     Pseudo is Projector augmented-wave + core cor, Zval =  4.0
     Generated using 'atomic' code by A. Dal Corso  v.7.1
     Shape of augmentation charge: PSQ
     Using radial grid of 1073 points,  4 beta functions with:
                l(1) =   0
                l(2) =   0
                l(3) =   1
                l(4) =   1
     Q(r) pseudized with 0 coefficients

     atomic species   valence    mass     pseudopotential
        C              4.00    12.01100     C ( 1.00)

      6 Sym. Ops. (no inversion) found ( 4 have fractional translation)

                                    s                        frac. trans.

      isym =  1     identity

 cryst.   s( 1) = (     1          0          0      )
                  (     0          1          0      )
                  (     0          0          1      )

 cart.    s( 1) = (  1.0000000  0.0000000  0.0000000 )
                  (  0.0000000  1.0000000  0.0000000 )
                  (  0.0000000  0.0000000  1.0000000 )

      isym =  2     120 deg rotation - cart. axis [1,-1,1]

 cryst.   s( 2) = (     0          0          1      )    f =( -0.2500000 )
                  (    -1          0          0      )       ( -0.2500000 )
                  (     0         -1          0      )       (  0.0000000 )

 cart.    s( 2) = (  0.0000000 -1.0000000  0.0000000 )    f =( -0.2500000 )
                  (  0.0000000  0.0000000 -1.0000000 )       ( -0.2500000 )
                  (  1.0000000  0.0000000  0.0000000 )       (  0.0000000 )

      isym =  3     120 deg rotation - cart. axis [-1,1,-1]

[...]

      isym =  4     inv. 180 deg rotation - cart. axis [1,1,0]

[...]

 cryst.   s( 5) = (     0          0          1      )
                  (     0          1          0      )
                  (     1          0          0      )

 cart.    s( 5) = (  0.0000000  0.0000000  1.0000000 )
                  (  0.0000000  1.0000000  0.0000000 )
                  (  1.0000000  0.0000000  0.0000000 )

      isym =  6     inv. 180 deg rotation - cart. axis [0,1,1]

 cryst.   s( 6) = (     1          0          0      )    f =(  0.0000000 )
                  (     0          0         -1      )       ( -0.2500000 )
                  (     0         -1          0      )       ( -0.2500000 )

 cart.    s( 6) = (  1.0000000  0.0000000  0.0000000 )    f =(  0.0000000 )
                  (  0.0000000  0.0000000 -1.0000000 )       ( -0.2500000 )
                  (  0.0000000 -1.0000000  0.0000000 )       ( -0.2500000 )

     point group C_3v (3m)
     there are  3 classes
     the character table:

       E     2C3   3s_v
A_1    1.00  1.00  1.00
A_2    1.00  1.00 -1.00
E      2.00 -1.00  0.00

     the symmetry operations in each class and the name of the first element:

     E        1
          identity
     2C3      2    3
          120 deg rotation - cart. axis [1,-1,1]
     3s_v     4    5    6
          inv. 180 deg rotation - cart. axis [1,1,0]

   Cartesian axes

     site n.     atom                  positions (alat units)
         1           C   tau(   1) = (   0.0625015   0.1874985   0.3125015  )
         2           C   tau(   2) = (   0.0625015   0.1874985   0.5625015  )
         3           C   tau(   3) = (   0.0625015   0.1874985   0.8125015  )
         4           C   tau(   4) = (   0.0625015   0.4374985   0.0625015  )
         5           C   tau(   5) = (   0.0625015   0.4374985   0.3125015  )
         6           C   tau(   6) = (   0.0625015   0.4374985   0.5625015  )
         7           C   tau(   7) = (   0.0625015   0.4374985   0.8125015  )
         8           C   tau(   8) = (   0.0625015   0.6874985   0.0625015  )
         9           C   tau(   9) = (   0.0625015   0.6874985   0.3125015  )
        10           C   tau(  10) = (   0.0625015   0.6874985   0.5625015  )
        11           C   tau(  11) = (   0.0625015   0.6874985   0.8125015  )
        12           C   tau(  12) = (   0.0625015   0.9374985   0.0625015  )
        13           C   tau(  13) = (   0.0625015   0.9374985   0.3125015  )
        14           C   tau(  14) = (   0.0625015   0.9374985   0.5625015  )
        15           C   tau(  15) = (   0.0625015   0.9374985   0.8125015  )
        16           C   tau(  16) = (   0.3125015   0.1874985   0.0625015  )
        17           C   tau(  17) = (   0.3125015   0.1874985   0.3125015  )
        18           C   tau(  18) = (   0.3125015   0.1874985   0.5625015  )
        19           C   tau(  19) = (   0.3125015   0.1874985   0.8125015  )
        20           C   tau(  20) = (   0.3125015   0.4374985   0.0625015  )
        21           C   tau(  21) = (   0.3125015   0.4374985   0.3125015  )
        22           C   tau(  22) = (   0.3125015   0.4374985   0.5625015  )
        23           C   tau(  23) = (   0.3125015   0.4374985   0.8125015  )
        24           C   tau(  24) = (   0.3125015   0.6874985   0.0625015  )
        25           C   tau(  25) = (   0.3125015   0.6874985   0.3125015  )
        26           C   tau(  26) = (   0.3125015   0.6874985   0.5625015  )
        27           C   tau(  27) = (   0.3125015   0.6874985   0.8125015  )
        28           C   tau(  28) = (   0.3125015   0.9374985   0.0625015  )
        29           C   tau(  29) = (   0.3125015   0.9374985   0.3125015  )
        30           C   tau(  30) = (   0.3125015   0.9374985   0.5625015  )
        31           C   tau(  31) = (   0.3125015   0.9374985   0.8125015  )
        32           C   tau(  32) = (   0.5625015   0.1874985   0.0625015  )
        33           C   tau(  33) = (   0.5625015   0.1874985   0.3125015  )
        34           C   tau(  34) = (   0.5625015   0.1874985   0.5625015  )
        35           C   tau(  35) = (   0.5625015   0.1874985   0.8125015  )
        36           C   tau(  36) = (   0.5625015   0.4374985   0.0625015  )
        37           C   tau(  37) = (   0.5625015   0.4374985   0.3125015  )
        38           C   tau(  38) = (   0.5625015   0.4374985   0.5625015  )
        39           C   tau(  39) = (   0.5625015   0.4374985   0.8125015  )
        40           C   tau(  40) = (   0.5625015   0.6874985   0.0625015  )
        41           C   tau(  41) = (   0.5625015   0.6874985   0.3125015  )
        42           C   tau(  42) = (   0.5625015   0.6874985   0.5625015  )
        43           C   tau(  43) = (   0.5625015   0.6874985   0.8125015  )
        44           C   tau(  44) = (   0.5625015   0.9374985   0.0625015  )
        45           C   tau(  45) = (   0.5625015   0.9374985   0.3125015  )
        46           C   tau(  46) = (   0.5625015   0.9374985   0.5625015  )
        47           C   tau(  47) = (   0.5625015   0.9374985   0.8125015  )
        48           C   tau(  48) = (   0.8125015   0.1874985   0.0625015  )
        49           C   tau(  49) = (   0.8125015   0.1874985   0.3125015  )
        50           C   tau(  50) = (   0.8125015   0.1874985   0.5625015  )
        51           C   tau(  51) = (   0.8125015   0.1874985   0.8125015  )
        52           C   tau(  52) = (   0.8125015   0.4374985   0.0625015  )
        53           C   tau(  53) = (   0.8125015   0.4374985   0.3125015  )
        54           C   tau(  54) = (   0.8125015   0.4374985   0.5625015  )
        55           C   tau(  55) = (   0.8125015   0.4374985   0.8125015  )
        56           C   tau(  56) = (   0.8125015   0.6874985   0.0625015  )
        57           C   tau(  57) = (   0.8125015   0.6874985   0.3125015  )
        58           C   tau(  58) = (   0.8125015   0.6874985   0.5625015  )
        59           C   tau(  59) = (   0.8125015   0.6874985   0.8125015  )
        60           C   tau(  60) = (   0.8125015   0.9374985   0.0625015  )
[...]
       497           C   tau( 497) = (   0.8750000   0.1250000   0.3750000  )
       498           C   tau( 498) = (   0.8750000   0.1250000   0.6250000  )
       499           C   tau( 499) = (   0.8750000   0.1250000   0.8750000  )
       500           C   tau( 500) = (   0.8750000   0.3750000   0.1250000  )
       501           C   tau( 501) = (   0.8750000   0.3750000   0.3750000  )
       502           C   tau( 502) = (   0.8750000   0.3750000   0.6250000  )
       503           C   tau( 503) = (   0.8750000   0.3750000   0.8750000  )
       504           C   tau( 504) = (   0.8750000   0.6250000   0.1250000  )
       505           C   tau( 505) = (   0.8750000   0.6250000   0.3750000  )
       506           C   tau( 506) = (   0.8750000   0.6250000   0.6250000  )
       507           C   tau( 507) = (   0.8750000   0.6250000   0.8750000  )
[...]
     atom   26 type  1   force =     0.00000000    0.00000000    0.00000000
     atom   27 type  1   force =     0.00000000    0.00000000    0.00000000
     atom   28 type  1   force =     0.00000000    0.00000000    0.00000000
     atom   29 type  1   force =     0.00000000    0.00000000    0.00000000
     atom   30 type  1   force =     0.00000000    0.00000000    0.00000000
     atom   31 type  1   force =     0.00000000    0.00000000    0.00000000
     atom   32 type  1   force =     0.00000000    0.00000000    0.00000000
     atom   33 type  1   force =     0.00000000    0.00000000    0.00000000
     atom   34 type  1   force =     0.00000000    0.00000000    0.00000000
     atom   35 type  1   force =     0.00000000    0.00000000    0.00000000
     atom   36 type  1   force =     0.00000000    0.00000000    0.00000000
     atom   37 type  1   force =     0.00000000    0.00000000    0.00000000
     atom   38 type  1   force =     0.00000000    0.00000000    0.00000000
     atom   39 type  1   force =     0.00000000    0.00000000    0.00000000
     atom   40 type  1   force =     0.00000000    0.00000000    0.00000000
     atom   41 type  1   force =     0.00000000    0.00000000    0.00000000
     atom   42 type  1   force =     0.00000000    0.00000000    0.00000000
     atom   43 type  1   force =     0.00000000    0.00000000    0.00000000
     atom   44 type  1   force =     0.00000000    0.00000000    0.00000000
     atom   45 type  1   force =     0.00000000    0.00000000    0.00000000
     atom   46 type  1   force =     0.00000000    0.00000000    0.00000000
     atom   47 type  1   force =     0.00000000    0.00000000    0.00000000
     atom   48 type  1   force =     0.00000000    0.00000000    0.00000000
     atom   49 type  1   force =     0.00000000    0.00000000    0.00000000
     atom   50 type  1   force =     0.00000000    0.00000000    0.00000000
     atom   51 type  1   force =     0.00000000    0.00000000    0.00000000
     atom   52 type  1   force =     0.00000000    0.00000000    0.00000000
     atom   53 type  1   force =     0.00000000    0.00000000    0.00000000
     atom   54 type  1   force =     0.00000000    0.00000000    0.00000000
     atom   55 type  1   force =     0.00000000    0.00000000    0.00000000
     atom   56 type  1   force =     0.00000000    0.00000000    0.00000000
     atom   57 type  1   force =     0.00000000    0.00000000    0.00000000
     atom   58 type  1   force =     0.00000000    0.00000000    0.00000000
     atom   59 type  1   force =     0.00000000    0.00000000    0.00000000
     atom   60 type  1   force =     0.00000000    0.00000000    0.00000000
[...]
     atom  497 type  1   force =     0.00000000    0.00000000    0.00000000
     atom  498 type  1   force =     0.00000000    0.00000000    0.00000000
     atom  499 type  1   force =     0.00000000    0.00000000    0.00000000
     atom  500 type  1   force =     0.00000000    0.00000000    0.00000000
     atom  501 type  1   force =     0.00000000    0.00000000    0.00000000
     atom  502 type  1   force =     0.00000000    0.00000000    0.00000000
     atom  503 type  1   force =     0.00000000    0.00000000    0.00000000
     atom  504 type  1   force =     0.00000000    0.00000000    0.00000000
     atom  505 type  1   force =     0.00000000    0.00000000    0.00000000
     atom  506 type  1   force =     0.00000000    0.00000000    0.00000000
     atom  507 type  1   force =     0.00000000    0.00000000    0.00000000
     atom  508 type  1   force =     0.00000000    0.00000000    0.00000000
     atom  509 type  1   force =     0.00000000    0.00000000    0.00000000
     atom  510 type  1   force =     0.00000000    0.00000000    0.00000000
     atom  511 type  1   force =     0.00000000    0.00000000    0.00000000
     The SCF correction term to forces
     atom    1 type  1   force =    -0.00002911    0.00002911   -0.00000252
     atom    2 type  1   force =    -0.00000807    0.00000807    0.00000465
     atom    3 type  1   force =    -0.00000867    0.00000867    0.00004349
     atom    4 type  1   force =    -0.00000867   -0.00004349   -0.00000867
     atom    5 type  1   force =    -0.00001125    0.00000242    0.00000417
     atom    6 type  1   force =    -0.00001284    0.00003141    0.00000450
     atom    7 type  1   force =    -0.00000898    0.00000053   -0.00000053
     atom    8 type  1   force =    -0.00000807   -0.00000465   -0.00000807
     atom    9 type  1   force =    -0.00000611   -0.00000612    0.00003300
     atom   10 type  1   force =    -0.00001144   -0.00000669    0.00000669
     atom   11 type  1   force =    -0.00001284   -0.00000450   -0.00003141
     atom   12 type  1   force =    -0.00002911    0.00000252   -0.00002911
     atom   13 type  1   force =    -0.00001668   -0.00002539    0.00002539
     atom   14 type  1   force =    -0.00000611   -0.00003300    0.00000612
     atom   15 type  1   force =    -0.00001125   -0.00000417   -0.00000242
     atom   16 type  1   force =    -0.00000252    0.00002911   -0.00002911
     atom   17 type  1   force =     0.00002539    0.00001668    0.00002539
     atom   18 type  1   force =     0.00003300    0.00000611    0.00000612
     atom   19 type  1   force =     0.00000417    0.00001125   -0.00000242
     atom   20 type  1   force =     0.00000417    0.00000242   -0.00001125
     atom   21 type  1   force =    -0.00000615   -0.00000616   -0.00000615
     atom   22 type  1   force =    -0.00002003   -0.00002488    0.00000393
     atom   23 type  1   force =    -0.00000309   -0.00001125    0.00001125
     atom   24 type  1   force =     0.00003300   -0.00000612   -0.00000611
     atom   25 type  1   force =    -0.00002323   -0.00000455   -0.00002323
     atom   26 type  1   force =    -0.00008930   -0.00000459    0.00000459
     atom   27 type  1   force =    -0.00002003   -0.00000393    0.00002488
     atom   28 type  1   force =     0.00002539   -0.00002539   -0.00001668
     atom   29 type  1   force =     0.00000530   -0.00000530    0.00000530
     atom   30 type  1   force =    -0.00002323    0.00002323    0.00000455
     atom   31 type  1   force =    -0.00000615    0.00000615    0.00000616
     atom   32 type  1   force =     0.00000465    0.00000807   -0.00000807
     atom   33 type  1   force =     0.00000612    0.00000611    0.00003300
     atom   34 type  1   force =     0.00000669    0.00001144    0.00000669
     atom   35 type  1   force =     0.00000450    0.00001284   -0.00003141
     atom   36 type  1   force =     0.00000450    0.00003141   -0.00001284
     atom   37 type  1   force =     0.00000393   -0.00002488   -0.00002003
     atom   38 type  1   force =     0.00001314   -0.00008955    0.00001314
     atom   39 type  1   force =     0.00001343   -0.00001993    0.00001993
     atom   40 type  1   force =     0.00000669   -0.00000669   -0.00001144
     atom   41 type  1   force =     0.00000459   -0.00000459   -0.00008930
     atom   42 type  1   force =     0.00001115   -0.00001115    0.00001115
     atom   43 type  1   force =     0.00001314   -0.00001314    0.00008955
     atom   44 type  1   force =     0.00000612   -0.00003300   -0.00000611
     atom   45 type  1   force =     0.00000455    0.00002323   -0.00002323
     atom   46 type  1   force =     0.00000459    0.00008930    0.00000459
     atom   47 type  1   force =     0.00000393    0.00002003    0.00002488
     atom   48 type  1   force =     0.00004349    0.00000867   -0.00000867
     atom   49 type  1   force =    -0.00000242    0.00001125    0.00000417
     atom   50 type  1   force =    -0.00003141    0.00001284    0.00000450
     atom   51 type  1   force =    -0.00000053    0.00000898   -0.00000053
     atom   52 type  1   force =    -0.00000053    0.00000053   -0.00000898
     atom   53 type  1   force =     0.00001125   -0.00001125   -0.00000309
     atom   54 type  1   force =     0.00001993   -0.00001993    0.00001343
     atom   55 type  1   force =     0.00000060   -0.00000060    0.00000060
     atom   56 type  1   force =    -0.00003141   -0.00000450   -0.00001284
     atom   57 type  1   force =     0.00002488   -0.00000393   -0.00002003
     atom   58 type  1   force =     0.00008955   -0.00001314    0.00001314
     atom   59 type  1   force =     0.00001993   -0.00001343    0.00001993
     atom   60 type  1   force =    -0.00000242   -0.00000417   -0.00001125
[...]
     atom  497 type  1   force =    -0.00000902    0.00001780    0.00000928
     atom  498 type  1   force =    -0.00001703    0.00001401    0.00000141
     atom  499 type  1   force =     0.00002657    0.00001159    0.00002657
     atom  500 type  1   force =     0.00002657   -0.00002657   -0.00001159
     atom  501 type  1   force =     0.00000468   -0.00000468    0.00000598
     atom  502 type  1   force =    -0.00000181    0.00000181   -0.00000274
     atom  503 type  1   force =     0.00000707   -0.00000707    0.00000707
     atom  504 type  1   force =    -0.00001703   -0.00000141   -0.00001401
     atom  505 type  1   force =     0.00004181   -0.00000583    0.00001295
     atom  506 type  1   force =     0.00006610   -0.00000187    0.00000187
     atom  507 type  1   force =    -0.00000181    0.00000274   -0.00000181
     atom  508 type  1   force =    -0.00000902   -0.00000928   -0.00001780
     atom  509 type  1   force =     0.00002506   -0.00000976    0.00000976
     atom  510 type  1   force =     0.00004181   -0.00001295    0.00000583
     atom  511 type  1   force =     0.00000468   -0.00000598    0.00000468

     Total force =     0.003805     Total SCF correction =     0.000928
     SCF correction compared to forces is large: reduce conv_thr to get better values

     Computing stress (Cartesian axis) and pressure

[...]

          total   stress  (Ry/bohr**3)                   (kbar)     P=       10.88
   0.00007397  -0.00000002   0.00000002           10.88       -0.00        0.00
  -0.00000002   0.00007397  -0.00000002           -0.00       10.88       -0.00
   0.00000002  -0.00000002   0.00007397            0.00       -0.00       10.88

     kinetic stress (kbar)  18970.60      0.00     -0.00
                                0.00  18970.60      0.00
                               -0.00      0.00  18970.60

     local   stress (kbar)  -3530.09      0.02     -0.02
                                0.02  -3530.09      0.02
                               -0.02      0.02  -3530.09

     nonloc. stress (kbar)   4316.68      0.00     -0.00
                                0.00   4316.68      0.00
                               -0.00      0.00   4316.68

     hartree stress (kbar)   1284.87     -0.01      0.01
                               -0.01   1284.87     -0.01
                                0.01     -0.01   1284.87

     exc-cor stress (kbar)   -415.21      0.00     -0.00
                                0.00   -415.21      0.00
                               -0.00      0.00   -415.21

     corecor stress (kbar)  -4426.70     -0.00      0.00
                               -0.00  -4426.70     -0.00
                                0.00     -0.00  -4426.70

     ewald   stress (kbar) -16214.08     -0.02      0.02
                               -0.02 -16214.08     -0.02
                                0.02     -0.02 -16214.08

     hubbard stress (kbar)      0.00      0.00      0.00
                                0.00      0.00      0.00
                                0.00      0.00      0.00

     DFT-D   stress (kbar)      0.00      0.00      0.00
                                0.00      0.00      0.00
                                0.00      0.00      0.00

     XDM     stress (kbar)      0.00      0.00      0.00
                                0.00      0.00      0.00
                                0.00      0.00      0.00

     dft-nl  stress (kbar)     24.82      0.00     -0.00
                                0.00     24.82      0.00
                               -0.00      0.00     24.82

     TS-vdW  stress (kbar)      0.00      0.00      0.00
                                0.00      0.00      0.00
                                0.00      0.00      0.00

     MDB     stress (kbar)      0.00      0.00      0.00
                                0.00      0.00      0.00
                                0.00      0.00      0.00

     3D-RISM stress (kbar)      0.00      0.00      0.00
                                0.00      0.00      0.00
                                0.00      0.00      0.00

[...]

     Non-local corr. energy    =      17.48240369 Ry

 BEEFens 2000 ensemble energies
             -0.309309834517186E+02
             -0.215482208340913E+03
             -0.765034582813326E+02
              0.846156597837239E+02
             -0.142522112650244E+03
             -0.199387536984278E+03
              0.118028668571631E+03
             -0.244726416957649E+02
              0.163820338437406E+03
             -0.269799970610370E+01
              0.665861675355501E+02
              0.335591457417723E+01
              0.920133550457552E+01
             -0.194237264736473E+02
              0.110895517467647E+03
             -0.829228814075660E+02
             -0.190268569054361E+03
             -0.527328498830134E+02
              0.430054030743459E+02
              0.463708937625483E+01
              0.227678751230334E+03
              0.206471240276319E+03
             -0.101446081890970E+03
              0.569753291784552E+02
             -0.258666437039783E+03
              0.208348239914853E+03
              0.745904948579332E+02
              0.219329489652191E+03
              0.138370464710765E+03
             -0.864278459695975E+02
              0.539775784878679E+02
             -0.112290956062546E+03
              0.331284189326664E+01
              0.110355767795165E+03
              0.142416394697162E+03
             -0.350771996373189E+02
              0.306994129995721E+03
             -0.107472856427568E+03
             -0.777170429847356E+02
              0.118980535458914E+03
              0.409697145149875E+02
              0.100118156236961E+03
             -0.174972911111943E+03
             -0.720055279945177E+01
              0.185439334226246E+03
              0.226206463408845E+03
             -0.204978251386461E+03
              0.169860879940400E+02
              0.808155523997240E+02
              0.188823013580018E+02
              0.988476283487436E+02
              0.198307117270274E+03
             -0.132852816957123E+03
             -0.139757156244205E+03
             -0.177175292765484E+03
             -0.488534649241335E+02
             -0.147926434182117E+03
              0.790938317221094E+01
             -0.393211403833980E+02
             -0.134187350151916E+03
[...]
              0.174058665347401E+03
              0.711999510142402E+02
              0.121332803114755E+03
             -0.173731875097051E+03
             -0.135397399444405E+03
             -0.550920805208128E+02
             -0.148889342898395E+03
              0.268353314859701E+03
              0.230200233962119E+03
              0.100043076300460E+03
              0.271381808756168E+03
             -0.145575180499121E+03
             -0.700272737992209E+02
             -0.722714246004747E+02
              0.214138781582041E+03

 BEEF-vdW xc energy contributions
            1 :    -2092.882177426405
            2 :     1846.697130524453
            3 :    -1422.128361665697
            4 :     929.2086111259914
            5 :    -480.3151109978271
            6 :     153.0601932215868
            7 :     29.17168007504097
            8 :    -93.07028106599682
            9 :     92.61438305584625
           10 :    -80.27799568715182
           11 :     85.79450764936473
           12 :    -110.4942429656708
           13 :     136.6002011559294
           14 :    -143.7781754203534
           15 :     123.0373396614414
           16 :    -81.22832188331995
           17 :     35.52327892353333
           18 :    -2.748737144092956
           19 :    -9.552558331368346
           20 :     5.520361683877127
           21 :     3.544284163393968
           22 :    -6.999688315499043
           23 :    0.9872963346733741
           24 :     10.45239586948264
           25 :    -19.20185701044375
           26 :     18.85599666002190
           27 :    -8.726349625252169
           28 :    -6.150025847013239
           29 :     18.52702710883841
           30 :    -23.43554486915809
           31 :    -273.8072233886087
           32 :    -198.6958660488381

     Writing all to output data dir ./diamond.save/

     General routines

     Parallel routines

     PAW routines

   This run was terminated on:  12:21:14  19Feb2024

   JOB DONE.