     Program PWSCF v.7.1 starts on  4Mar2024 at 16:11:35

     Reading input from espresso.pwi
Warning: card &CELL ignored
Warning: card    CELL_DYNAMICS    = 'BFGS' ignored
Warning: card / ignored

     Current dimensions of program PWSCF are:
     Max number of different atomic species (ntypx) = 10
     Max number of k-points (npk) =  40000
     Max angular momentum in pseudopotentials (lmaxx) =  4
     file Ga.pbe-dn-kjpaw_psl.1.0.0.UPF: wavefunction(s)  4S renormalized
     file N.pbe-n-kjpaw_psl.1.0.0.UPF: wavefunction(s)  2S renormalized

     IMPORTANT: XC functional enforced from input :
     Exchange-correlation= BEEF-VDW
                           (   1   4  43  14   2   0   0)
     Any further DFT definition will be discarded
     Please, verify this is what you really want

     K-points division:     npool     =       4
     R & G space division:  proc/nbgrp/npool/nimage =      64
     Subspace diagonalization in iterative solution of the eigenvalue problem:
     a serial algorithm will be used

     Using Slab Decomposition

     bravais-lattice index     =            4
     lattice parameter (alat)  =      24.5252  a.u.
     unit-cell volume          =   15616.6055 (a.u.)^3
     number of atoms/cell      =          192
     number of atomic types    =            2
     number of electrons       =      1718.00
     number of Kohn-Sham states=         1031
     kinetic-energy cutoff     =      70.0000  Ry
     charge density cutoff     =     350.0000  Ry
     scf convergence threshold =      1.0E-07
     mixing beta               =       0.7000
     number of iterations used =            8  plain     mixing
     energy convergence thresh.=      1.0E-04
     force convergence thresh. =      1.0E-03
     Exchange-correlation= BEEF-VDW
                           (   1   4  43  14   2   0   0)
     nstep                     =           50

     celldm(1)=  24.525232  celldm(2)=   0.000000  celldm(3)=   1.222409
     celldm(4)=   0.000000  celldm(5)=   0.000000  celldm(6)=   0.000000

     crystal axes: (cart. coord. in units of alat)
               a(1) = (   1.000000   0.000000   0.000000 )
               a(2) = (  -0.500000   0.866025   0.000000 )
               a(3) = (   0.000000   0.000000   1.222409 )

     reciprocal axes: (cart. coord. in units 2 pi/alat)
               b(1) = (  1.000000  0.577350 -0.000000 )
               b(2) = (  0.000000  1.154701  0.000000 )
               b(3) = (  0.000000 -0.000000  0.818057 )

     PseudoPot. # 1 for Ga read from file:
     //group///packages/espresso/pseudo/psl_1.0.0/pslibrary.1.0.0/pbe/PSEUDOPOTENTIALS/Ga.pbe-dn-kjpaw_psl.1.0.0.UPF
     MD5 check sum: cd2a01e492f15b435d17032472d8505c
     Pseudo is Projector augmented-wave + core cor, Zval = 13.0
     Generated using 'atomic' code by A. Dal Corso  v.7.1
     Shape of augmentation charge: PSQ
     Using radial grid of 1205 points,  6 beta functions with:
                l(1) =   0
                l(2) =   0
                l(3) =   1
                l(4) =   1
                l(5) =   2
                l(6) =   2
     Q(r) pseudized with 0 coefficients

     PseudoPot. # 2 for N  read from file:
     //group///packages/espresso/pseudo/psl_1.0.0/pslibrary.1.0.0/pbe/PSEUDOPOTENTIALS/N.pbe-n-kjpaw_psl.1.0.0.UPF
     MD5 check sum: f77f775694dac7e2c3fe1c82443d1a16
     Pseudo is Projector augmented-wave + core cor, Zval =  5.0
     Generated using 'atomic' code by A. Dal Corso  v.7.1
     Shape of augmentation charge: PSQ
     Using radial grid of 1085 points,  4 beta functions with:
                l(1) =   0
                l(2) =   0
                l(3) =   1
                l(4) =   1
     Q(r) pseudized with 0 coefficients

     atomic species   valence    mass     pseudopotential
        Ga            13.00    69.72300     Ga( 1.00)
        N              5.00    14.00700     N ( 1.00)

      6 Sym. Ops. (no inversion) found ( 4 have fractional translation)

                                    s                        frac. trans.

      isym =  1     identity

 cryst.   s( 1) = (     1          0          0      )
                  (     0          1          0      )
                  (     0          0          1      )

 cart.    s( 1) = (  1.0000000  0.0000000  0.0000000 )
                  (  0.0000000  1.0000000  0.0000000 )
                  (  0.0000000  0.0000000  1.0000000 )

      isym =  2     120 deg rotation - cryst. axis [0,0,1]

 cryst.   s( 2) = (     0          1          0      )    f =( -0.2500000 )
                  (    -1         -1          0      )       (  0.0000002 )
                  (     0          0          1      )       (  0.0000000 )

 cart.    s( 2) = ( -0.5000000 -0.8660254  0.0000000 )    f =( -0.2500001 )
                  (  0.8660254 -0.5000000  0.0000000 )       (  0.0000002 )
                  (  0.0000000  0.0000000  1.0000000 )       (  0.0000000 )

      isym =  3     120 deg rotation - cryst. axis [0,0,-1]

[...]

      isym =  4     inv. 180 deg rotation - cart. axis [1,0,0]

[...]

      isym =  5     inv. 180 deg rotation - cryst. axis [0,1,0]

 cryst.   s( 5) = (     1          1          0      )
                  (     0         -1          0      )
                  (     0          0          1      )

 cart.    s( 5) = (  0.5000000  0.8660254  0.0000000 )
                  (  0.8660254 -0.5000000  0.0000000 )
                  (  0.0000000  0.0000000  1.0000000 )

      isym =  6     inv. 180 deg rotation - cryst. axis [1,1,0]

 cryst.   s( 6) = (     0         -1          0      )    f =( -0.2500000 )
                  (    -1          0          0      )       ( -0.2500000 )
                  (     0          0          1      )       (  0.0000000 )

 cart.    s( 6) = (  0.5000000 -0.8660254  0.0000000 )    f =( -0.1250000 )
                  ( -0.8660254 -0.5000000  0.0000000 )       ( -0.2165064 )
                  (  0.0000000  0.0000000  1.0000000 )       (  0.0000000 )

     point group C_3v (3m)
     there are  3 classes
     the character table:

       E     2C3   3s_v
A_1    1.00  1.00  1.00
A_2    1.00  1.00 -1.00
E      2.00 -1.00  0.00

     the symmetry operations in each class and the name of the first element:

     E        1
          identity
     2C3      2    3
          120 deg rotation - cryst. axis [0,0,1]
     3s_v     4    5    6
          inv. 180 deg rotation - cart. axis [1,0,0]

   Cartesian axes

     site n.     atom                  positions (alat units)
         1           Ga  tau(   1) = (   0.1250001   0.0721687   0.6108633  )
         2           Ga  tau(   2) = (   0.1250001   0.0721687   1.0183331  )
         3           Ga  tau(   3) = (   0.0000001   0.2886751   0.2033935  )
         4           Ga  tau(   4) = (   0.0000001   0.2886751   0.6108633  )
         5           Ga  tau(   5) = (   0.0000001   0.2886751   1.0183331  )
         6           Ga  tau(   6) = (  -0.1249999   0.5051814   0.2033935  )
         7           Ga  tau(   7) = (  -0.1249999   0.5051814   0.6108633  )
         8           Ga  tau(   8) = (  -0.1249999   0.5051814   1.0183331  )
         9           Ga  tau(   9) = (  -0.2499999   0.7216878   0.2033935  )
        10           Ga  tau(  10) = (  -0.2499999   0.7216878   0.6108633  )
        11           Ga  tau(  11) = (  -0.2499999   0.7216878   1.0183331  )
        12           Ga  tau(  12) = (   0.3750001   0.0721687   0.2033935  )
        13           Ga  tau(  13) = (   0.3750001   0.0721687   0.6108633  )
        14           Ga  tau(  14) = (   0.3750001   0.0721687   1.0183331  )
        15           Ga  tau(  15) = (   0.2500001   0.2886751   0.2033935  )
        16           Ga  tau(  16) = (   0.2500001   0.2886751   0.6108633  )
        17           Ga  tau(  17) = (   0.2500001   0.2886751   1.0183331  )
        18           Ga  tau(  18) = (   0.1250001   0.5051814   0.2033935  )
        19           Ga  tau(  19) = (   0.1250001   0.5051814   0.6108633  )
        20           Ga  tau(  20) = (   0.1250001   0.5051814   1.0183331  )
        21           Ga  tau(  21) = (   0.0000001   0.7216878   0.2033935  )
        22           Ga  tau(  22) = (   0.0000001   0.7216878   0.6108633  )
        23           Ga  tau(  23) = (   0.0000001   0.7216878   1.0183331  )
        24           Ga  tau(  24) = (   0.6250001   0.0721687   0.2033935  )
        25           Ga  tau(  25) = (   0.6250001   0.0721687   0.6108633  )
        26           Ga  tau(  26) = (   0.6250001   0.0721687   1.0183331  )
        27           Ga  tau(  27) = (   0.5000001   0.2886751   0.2033935  )
        28           Ga  tau(  28) = (   0.5000001   0.2886751   0.6108633  )
        29           Ga  tau(  29) = (   0.5000001   0.2886751   1.0183331  )
        30           Ga  tau(  30) = (   0.3750001   0.5051814   0.2033935  )
        31           Ga  tau(  31) = (   0.3750001   0.5051814   0.6108633  )
        32           Ga  tau(  32) = (   0.3750001   0.5051814   1.0183331  )
        33           Ga  tau(  33) = (   0.2500001   0.7216878   0.2033935  )
        34           Ga  tau(  34) = (   0.2500001   0.7216878   0.6108633  )
        35           Ga  tau(  35) = (   0.2500001   0.7216878   1.0183331  )
        36           Ga  tau(  36) = (   0.8750001   0.0721687   0.2033935  )
        37           Ga  tau(  37) = (   0.8750001   0.0721687   0.6108633  )
        38           Ga  tau(  38) = (   0.8750001   0.0721687   1.0183331  )
        39           Ga  tau(  39) = (   0.7500001   0.2886751   0.2033935  )
        40           Ga  tau(  40) = (   0.7500001   0.2886751   0.6108633  )
        41           Ga  tau(  41) = (   0.7500001   0.2886751   1.0183331  )
        42           Ga  tau(  42) = (   0.6250001   0.5051814   0.2033935  )
        43           Ga  tau(  43) = (   0.6250001   0.5051814   0.6108633  )
        44           Ga  tau(  44) = (   0.6250001   0.5051814   1.0183331  )
        45           Ga  tau(  45) = (   0.5000001   0.7216878   0.2033935  )
        46           Ga  tau(  46) = (   0.5000001   0.7216878   0.6108633  )
        47           Ga  tau(  47) = (   0.5000001   0.7216878   1.0183331  )
        48           Ga  tau(  48) = (  -0.0000002   0.1443377   0.4071284  )
        49           Ga  tau(  49) = (  -0.0000002   0.1443377   0.8145982  )
        50           Ga  tau(  50) = (  -0.0000002   0.1443377   1.2220680  )
        51           Ga  tau(  51) = (  -0.1250002   0.3608440   0.4071284  )
        52           Ga  tau(  52) = (  -0.1250002   0.3608440   0.8145982  )
        53           Ga  tau(  53) = (  -0.1250002   0.3608440   1.2220680  )
        54           Ga  tau(  54) = (  -0.2500002   0.5773504   0.4071284  )
        55           Ga  tau(  55) = (  -0.2500002   0.5773504   0.8145982  )
        56           Ga  tau(  56) = (  -0.2500002   0.5773504   1.2220680  )
        57           Ga  tau(  57) = (  -0.3750001   0.7938567   0.4071284  )
        58           Ga  tau(  58) = (  -0.3750001   0.7938567   0.8145982  )
        59           Ga  tau(  59) = (  -0.3750001   0.7938567   1.2220680  )
        60           Ga  tau(  60) = (   0.2499998   0.1443377   0.4071284  )
[...]
[...]
     atom   44 type  1   force =     0.00000000    0.00000000    0.00000000
     atom   45 type  1   force =     0.00000000    0.00000000    0.00000000
     atom   46 type  1   force =     0.00000000    0.00000000    0.00000000
     atom   47 type  1   force =     0.00000000    0.00000000    0.00000000
     atom   48 type  1   force =     0.00000000    0.00000000    0.00000000
     atom   49 type  1   force =     0.00000000    0.00000000    0.00000000
     atom   50 type  1   force =     0.00000000    0.00000000    0.00000000
     atom   51 type  1   force =     0.00000000    0.00000000    0.00000000
     atom   52 type  1   force =     0.00000000    0.00000000    0.00000000
     atom   53 type  1   force =     0.00000000    0.00000000    0.00000000
     atom   54 type  1   force =     0.00000000    0.00000000    0.00000000
     atom   55 type  1   force =     0.00000000    0.00000000    0.00000000
     atom   56 type  1   force =     0.00000000    0.00000000    0.00000000
     atom   57 type  1   force =     0.00000000    0.00000000    0.00000000
     atom   58 type  1   force =     0.00000000    0.00000000    0.00000000
     atom   59 type  1   force =     0.00000000    0.00000000    0.00000000
     atom   60 type  1   force =     0.00000000    0.00000000    0.00000000
[...]
     atom  178 type  2   force =     0.00000000    0.00000000    0.00000000
     atom  179 type  2   force =     0.00000000    0.00000000    0.00000000
     atom  180 type  2   force =     0.00000000    0.00000000    0.00000000
     atom  181 type  2   force =     0.00000000    0.00000000    0.00000000
     atom  182 type  2   force =     0.00000000    0.00000000    0.00000000
     atom  183 type  2   force =     0.00000000    0.00000000    0.00000000
     atom  184 type  2   force =     0.00000000    0.00000000    0.00000000
     atom  185 type  2   force =     0.00000000    0.00000000    0.00000000
     atom  186 type  2   force =     0.00000000    0.00000000    0.00000000
     atom  187 type  2   force =     0.00000000    0.00000000    0.00000000
     atom  188 type  2   force =     0.00000000    0.00000000    0.00000000
     atom  189 type  2   force =     0.00000000    0.00000000    0.00000000
     atom  190 type  2   force =     0.00000000    0.00000000    0.00000000
     atom  191 type  2   force =     0.00000000    0.00000000    0.00000000
     atom  192 type  2   force =     0.00000000    0.00000000    0.00000000
     The SCF correction term to forces
     atom    1 type  1   force =     0.00000000   -0.00000000   -0.00002906
     atom    2 type  1   force =    -0.00000000   -0.00000000    0.00001496
     atom    3 type  1   force =     0.00000235   -0.00000400   -0.00000344
     atom    4 type  1   force =    -0.00000447    0.00001026    0.00000174
     atom    5 type  1   force =    -0.00000958    0.00001781    0.00001082
     atom    6 type  1   force =     0.00000456    0.00000263   -0.00001711
     atom    7 type  1   force =     0.00000358    0.00000207    0.00000141
     atom    8 type  1   force =     0.00000125    0.00000072    0.00000598
     atom    9 type  1   force =    -0.00000229    0.00000403   -0.00000344
     atom   10 type  1   force =     0.00000665   -0.00000900    0.00000174
     atom   11 type  1   force =     0.00001064   -0.00001720    0.00001082
     atom   12 type  1   force =    -0.00000464   -0.00000003   -0.00000344
     atom   13 type  1   force =     0.00001112   -0.00000126    0.00000174
     atom   14 type  1   force =     0.00002022   -0.00000061    0.00001082
     atom   15 type  1   force =    -0.00000235   -0.00000400   -0.00000344
     atom   16 type  1   force =     0.00000447    0.00001026    0.00000174
     atom   17 type  1   force =     0.00000958    0.00001781    0.00001082
     atom   18 type  1   force =    -0.00000000   -0.00001093   -0.00001572
     atom   19 type  1   force =    -0.00000000    0.00000903    0.00000013
     atom   20 type  1   force =     0.00000000    0.00000922    0.00000885
     atom   21 type  1   force =    -0.00000947    0.00000547   -0.00001572
     atom   22 type  1   force =     0.00000782   -0.00000452    0.00000013
     atom   23 type  1   force =     0.00000798   -0.00000461    0.00000885
     atom   24 type  1   force =     0.00000000   -0.00000526   -0.00001711
     atom   25 type  1   force =     0.00000000   -0.00000413    0.00000141
     atom   26 type  1   force =    -0.00000000   -0.00000145    0.00000598
     atom   27 type  1   force =    -0.00000029   -0.00000017   -0.00001579
     atom   28 type  1   force =     0.00000065    0.00000037   -0.00000363
     atom   29 type  1   force =     0.00001174    0.00000678    0.00000543
     atom   30 type  1   force =    -0.00000456    0.00000263   -0.00001711
     atom   31 type  1   force =    -0.00000358    0.00000207    0.00000141
     atom   32 type  1   force =    -0.00000125    0.00000072    0.00000598
     atom   33 type  1   force =     0.00000947    0.00000547   -0.00001572
     atom   34 type  1   force =    -0.00000782   -0.00000452    0.00000013
     atom   35 type  1   force =    -0.00000798   -0.00000461    0.00000885
     atom   36 type  1   force =     0.00000464   -0.00000003   -0.00000344
     atom   37 type  1   force =    -0.00001112   -0.00000126    0.00000174
     atom   38 type  1   force =    -0.00002022   -0.00000061    0.00001082
     atom   39 type  1   force =     0.00000029   -0.00000017   -0.00001579
     atom   40 type  1   force =    -0.00000065    0.00000037   -0.00000363
     atom   41 type  1   force =    -0.00001174    0.00000678    0.00000543
     atom   42 type  1   force =     0.00000000    0.00000034   -0.00001579
     atom   43 type  1   force =     0.00000000   -0.00000075   -0.00000363
     atom   44 type  1   force =     0.00000000   -0.00001355    0.00000543
     atom   45 type  1   force =     0.00000229    0.00000403   -0.00000344
     atom   46 type  1   force =    -0.00000665   -0.00000900    0.00000174
     atom   47 type  1   force =    -0.00001064   -0.00001720    0.00001082
     atom   48 type  1   force =     0.00000907   -0.00000524    0.00001609
     atom   49 type  1   force =    -0.00001774    0.00001024   -0.00001013
     atom   50 type  1   force =    -0.00000596    0.00000344    0.00000042
     atom   51 type  1   force =     0.00000440    0.00000079   -0.00001374
     atom   52 type  1   force =    -0.00000542    0.00001212    0.00000864
     atom   53 type  1   force =     0.00000264    0.00000336   -0.00000807
     atom   54 type  1   force =     0.00000288    0.00000342   -0.00001374
     atom   55 type  1   force =     0.00000778   -0.00001075    0.00000864
     atom   56 type  1   force =     0.00000423    0.00000061   -0.00000807
     atom   57 type  1   force =    -0.00000000    0.00001047    0.00001609
     atom   58 type  1   force =    -0.00000000   -0.00002049   -0.00001013
     atom   59 type  1   force =    -0.00000000   -0.00000688    0.00000042
     atom   60 type  1   force =    -0.00000907   -0.00000524    0.00001609
[...]
     atom  178 type  2   force =     0.00000000   -0.00000296    0.00000213
     atom  179 type  2   force =     0.00000000   -0.00000283    0.00000185
     atom  180 type  2   force =     0.00000037   -0.00000265   -0.00000247
     atom  181 type  2   force =     0.00000048   -0.00000071    0.00000067
     atom  182 type  2   force =    -0.00000649   -0.00000011    0.00000298
     atom  183 type  2   force =     0.00000000   -0.00000000   -0.00000530
     atom  184 type  2   force =     0.00000000   -0.00000000    0.00000283
     atom  185 type  2   force =     0.00000000   -0.00000000    0.00000253
     atom  186 type  2   force =    -0.00000211    0.00000165   -0.00000247
     atom  187 type  2   force =    -0.00000038    0.00000077    0.00000067
     atom  188 type  2   force =    -0.00000335   -0.00000556    0.00000298
     atom  189 type  2   force =    -0.00000278   -0.00000161   -0.00000235
     atom  190 type  2   force =    -0.00000301   -0.00000174    0.00000039
     atom  191 type  2   force =    -0.00000960   -0.00000554    0.00000418
     atom  192 type  2   force =     0.00000000   -0.00000000   -0.00000350

     Total force =     0.004656     Total SCF correction =     0.000152

     Computing stress (Cartesian axis) and pressure

     Non-local corr. energy    =      51.90382542 Ry

          total   stress  (Ry/bohr**3)                   (kbar)     P=      -22.41
  -0.00017600  -0.00000000   0.00000000          -25.89       -0.00        0.00
   0.00000000  -0.00017600   0.00000000            0.00      -25.89        0.00
   0.00000000   0.00000000  -0.00010502            0.00        0.00      -15.45

     kinetic stress (kbar)  18341.00     -0.00      0.00
                                0.00  18341.00      0.00
                                0.00      0.00  18358.82

     local   stress (kbar)   4941.02     -0.07     -0.00
                               -0.07   4940.92     -0.00
                               -0.00     -0.00   4000.46

     nonloc. stress (kbar)    104.39     -0.00      0.00
                               -0.00    104.39      0.00
                               -0.00     -0.00    119.78

     hartree stress (kbar)  19576.63     -0.00     -0.00
                               -0.00  19576.63      0.00
                               -0.00      0.00  20053.83

     exc-cor stress (kbar)   5150.62      0.00     -0.00
                                0.00   5150.62      0.00
                               -0.00      0.00   5148.70

     corecor stress (kbar) -13976.26     -0.00     -0.00
                               -0.00 -13976.26      0.00
                               -0.00      0.00 -13975.86

     ewald   stress (kbar) -34323.79      0.09      0.00
                                0.09 -34323.67     -0.00
                                0.00     -0.00 -33881.39

     hubbard stress (kbar)      0.00      0.00      0.00
                                0.00      0.00      0.00
                                0.00      0.00      0.00

     DFT-D   stress (kbar)      0.00      0.00      0.00
                                0.00      0.00      0.00
                                0.00      0.00      0.00

     XDM     stress (kbar)      0.00      0.00      0.00
                                0.00      0.00      0.00
                                0.00      0.00      0.00

     dft-nl  stress (kbar)    160.50     -0.00     -0.00
                               -0.00    160.50     -0.00
                               -0.00     -0.00    160.21

     TS-vdW  stress (kbar)      0.00      0.00      0.00
                                0.00      0.00      0.00
                                0.00      0.00      0.00

     MDB     stress (kbar)      0.00      0.00      0.00
                                0.00      0.00      0.00
                                0.00      0.00      0.00

     3D-RISM stress (kbar)      0.00      0.00      0.00
                                0.00      0.00      0.00
                                0.00      0.00      0.00

     Energy error            =      4.1E-05 Ry
     Gradient error          =      7.4E-04 Ry/Bohr

     bfgs converged in  11 scf cycles and  10 bfgs steps
     (criteria: energy <  1.0E-04 Ry, force <  1.0E-03 Ry/Bohr)

     End of BFGS Geometry Optimization

     Final energy             =  -29726.3059842471 Ry

     File ./GaN.bfgs deleted, as requested
Begin final coordinates

ATOMIC_POSITIONS (angstrom)
Ga            1.6222756606        0.9366198184        7.9294088256
Ga            1.6222756606        0.9366198184       13.1042052721
Ga            0.0721629033        3.7595913964        2.6842847560
Ga           -0.0044105675        3.7504183489        7.9387271086
Ga           -0.0027451799        3.7510316693       13.1957137636
Ga           -1.6165484272        6.5596474677        2.6458837921
Ga           -1.6229635687        6.5559436840        7.9297381257
Ga           -1.6220859040        6.5564504039       13.2214057513
Ga           -3.1971124516        9.4221424151        2.6842847560
Ga           -3.2433432792        9.3604143679        7.9387271086
Ga           -3.2419794343        9.3615499756       13.1957137636
Ga            4.8420971399        0.8675710560        2.6842847560
Ga            4.8724397831        0.9384721507        7.9387271086
Ga            4.8721382404        0.9367232226       13.1957137636
Ga            3.1723884179        3.7595913964        2.6842847560
Ga            3.2489618887        3.7504183489        7.9387271086
Ga            3.2472965011        3.7510316693       13.1957137636
Ga            1.6222756606        6.5770479129        2.6528927159
Ga            1.6222756606        6.5593155124        7.9352998792
Ga            1.6222756606        6.5617034959       13.2098134930
Ga            0.0179328444        9.3558511834        2.6528927159
Ga            0.0025761351        9.3647173837        7.9352998792
Ga            0.0046441894        9.3635233920       13.2098134930
Ga            8.1113724947        0.9300099322        2.6458837921
Ga            8.1113724947        0.9374174996        7.9297381257
Ga            8.1113724947        0.9364040598       13.2214057513
Ga            6.4806939503        3.7416289259        2.6542948659
Ga            6.4886016292        3.7461944265        7.9276860482
Ga            6.4921827817        3.7482620058       13.2155896347
Ga            4.8610997484        6.5596474677        2.6458837921
Ga            4.8675148899        6.5559436840        7.9297381257
Ga            4.8666372252        6.5564504039       13.2214057513
Ga            3.2266184768        9.3558511834        2.6528927159
Ga            3.2419751861        9.3647173837        7.9352998792
Ga            3.2399071318        9.3635233920       13.2098134930
Ga           11.3806478496        0.8675710560        2.6842847560
Ga           11.3503052064        0.9384721507        7.9387271086
Ga           11.3506067491        0.9367232226       13.1957137636
Ga            9.7420510392        3.7416289259        2.6542948659
Ga            9.7341433603        3.7461944265        7.9276860482
Ga            9.7305622078        3.7482620058       13.2155896347
Ga            8.1113724947        6.5660470158        2.6542948659
Ga            8.1113724947        6.5569160147        7.9276860482
Ga            8.1113724947        6.5527808559       13.2155896347
Ga            6.4416637728        9.4221424151        2.6842847560
Ga            6.4878946004        9.3604143679        7.9387271086
Ga            6.4865307555        9.3615499756       13.1957137636
Ga            0.0267095749        1.8578205319        5.3070780473
Ga           -0.0082111455        1.8779820192       10.5492608748
Ga            0.0362739526        1.8522985358       15.7482359938
Ga           -1.6271019493        4.6813786688        5.2885510711
Ga           -1.6263995786        4.6863248014       10.5730367195
Ga           -1.6246642140        4.6764020848       15.8611237549
Ga           -3.2484572770        7.4896484735        5.2885510711
Ga           -3.2438226152        7.4877836780       10.5730367195
Ga           -3.2515482576        7.4942479062       15.8611237549
Ga           -4.8668245904       10.3336703349        5.3070780473
Ga           -4.8668245904       10.2933473603       10.5492608748
Ga           -4.8668245904       10.3447143271       15.7482359938
Ga            3.2178349126        1.8578205319        5.3070780473
[...]
N             1.6222722437       10.3031869863        7.2773084259
N             1.6222722437       10.3056008392       12.5683245982
N             9.7938935589        1.8633871670        1.9939930413
N             9.7331215204        1.8717121578        7.2713916015
N             9.7307173804        1.8740874229       12.5722076915
N             8.1113690779        4.6831037996        1.9926826238
N             8.1113690779        4.6831037996        7.2755952240
N             8.1113690779        4.6831037996       12.5651283760
N             6.5106850831        7.5500710590        1.9939930413
N             6.4875087174        7.4932784344        7.2713916015
N             6.4883636873        7.4900087556       12.5722076915
N             4.8523441892       10.2944685110        1.9752673424
N             4.8668467345       10.3028415594        7.2846049251
N             4.8659166869       10.3023045961       12.5717876515
N             1.6222756606        0.9366198184        2.2345403558
End final coordinates

     Writing all to output data dir ./GaN.save/

     General routines

     Parallel routines

     PAW routines

   This run was terminated on:   4:46:13   5Mar2024

   JOB DONE.