     Program PWSCF v.7.1 starts on  5Mar2024 at 16:22:52

     Reading input from espresso.pwi
Warning: card &CELL ignored
Warning: card    CELL_DYNAMICS    = 'BFGS' ignored
Warning: card / ignored

     Current dimensions of program PWSCF are:
     Max number of different atomic species (ntypx) = 10
     Max number of k-points (npk) =  40000
     Max angular momentum in pseudopotentials (lmaxx) =  4
     file Ga.pbe-dn-kjpaw_psl.1.0.0.UPF: wavefunction(s)  4S renormalized
     file N.pbe-n-kjpaw_psl.1.0.0.UPF: wavefunction(s)  2S renormalized

     IMPORTANT: XC functional enforced from input :
     Exchange-correlation= BEEF-VDW
                           (   1   4  43  14   2   0   0)
     Any further DFT definition will be discarded
     Please, verify this is what you really want

     K-points division:     npool     =       4
     R & G space division:  proc/nbgrp/npool/nimage =      64
     Subspace diagonalization in iterative solution of the eigenvalue problem:
     a serial algorithm will be used

     Using Slab Decomposition

     bravais-lattice index     =            4
     lattice parameter (alat)  =      24.5252  a.u.
     unit-cell volume          =   15616.6055 (a.u.)^3
     number of atoms/cell      =          192
     number of atomic types    =            2
     number of electrons       =      1718.00
     number of Kohn-Sham states=         1031
     kinetic-energy cutoff     =      70.0000  Ry
     charge density cutoff     =     350.0000  Ry
     scf convergence threshold =      1.0E-07
     mixing beta               =       0.7000
     number of iterations used =            8  plain     mixing
     Exchange-correlation= BEEF-VDW
                           (   1   4  43  14   2   0   0)

     celldm(1)=  24.525232  celldm(2)=   0.000000  celldm(3)=   1.222409
     celldm(4)=   0.000000  celldm(5)=   0.000000  celldm(6)=   0.000000

     crystal axes: (cart. coord. in units of alat)
               a(1) = (   1.000000   0.000000   0.000000 )
               a(2) = (  -0.500000   0.866025   0.000000 )
               a(3) = (   0.000000   0.000000   1.222409 )

     reciprocal axes: (cart. coord. in units 2 pi/alat)
               b(1) = (  1.000000  0.577350 -0.000000 )
               b(2) = (  0.000000  1.154701  0.000000 )
               b(3) = (  0.000000 -0.000000  0.818057 )

     PseudoPot. # 1 for Ga read from file:
     //group///packages/espresso/pseudo/psl_1.0.0/pslibrary.1.0.0/pbe/PSEUDOPOTENTIALS/Ga.pbe-dn-kjpaw_psl.1.0.0.UPF
     MD5 check sum: cd2a01e492f15b435d17032472d8505c
     Pseudo is Projector augmented-wave + core cor, Zval = 13.0
     Generated using 'atomic' code by A. Dal Corso  v.7.1
     Shape of augmentation charge: PSQ
     Using radial grid of 1205 points,  6 beta functions with:
                l(1) =   0
                l(2) =   0
                l(3) =   1
                l(4) =   1
                l(5) =   2
                l(6) =   2
     Q(r) pseudized with 0 coefficients

     PseudoPot. # 2 for N  read from file:
     //group///packages/espresso/pseudo/psl_1.0.0/pslibrary.1.0.0/pbe/PSEUDOPOTENTIALS/N.pbe-n-kjpaw_psl.1.0.0.UPF
     MD5 check sum: f77f775694dac7e2c3fe1c82443d1a16
     Pseudo is Projector augmented-wave + core cor, Zval =  5.0
     Generated using 'atomic' code by A. Dal Corso  v.7.1
     Shape of augmentation charge: PSQ
     Using radial grid of 1085 points,  4 beta functions with:
                l(1) =   0
                l(2) =   0
                l(3) =   1
                l(4) =   1
     Q(r) pseudized with 0 coefficients

     atomic species   valence    mass     pseudopotential
        Ga            13.00    69.72300     Ga( 1.00)
        N              5.00    14.00700     N ( 1.00)

      6 Sym. Ops. (no inversion) found ( 4 have fractional translation)

                                    s                        frac. trans.

      isym =  1     identity

 cryst.   s( 1) = (     1          0          0      )
                  (     0          1          0      )
                  (     0          0          1      )

 cart.    s( 1) = (  1.0000000  0.0000000  0.0000000 )
                  (  0.0000000  1.0000000  0.0000000 )
                  (  0.0000000  0.0000000  1.0000000 )

      isym =  2     120 deg rotation - cryst. axis [0,0,1]

 cryst.   s( 2) = (     0          1          0      )    f =( -0.2500000 )
                  (    -1         -1          0      )       (  0.0000002 )
                  (     0          0          1      )       (  0.0000000 )

 cart.    s( 2) = ( -0.5000000 -0.8660254  0.0000000 )    f =( -0.2500001 )
                  (  0.8660254 -0.5000000  0.0000000 )       (  0.0000002 )
                  (  0.0000000  0.0000000  1.0000000 )       (  0.0000000 )

      isym =  3     120 deg rotation - cryst. axis [0,0,-1]

[...]

      isym =  4     inv. 180 deg rotation - cart. axis [1,0,0]

[...]

      isym =  5     inv. 180 deg rotation - cryst. axis [0,1,0]

 cryst.   s( 5) = (     1          1          0      )
                  (     0         -1          0      )
                  (     0          0          1      )

 cart.    s( 5) = (  0.5000000  0.8660254  0.0000000 )
                  (  0.8660254 -0.5000000  0.0000000 )
                  (  0.0000000  0.0000000  1.0000000 )

      isym =  6     inv. 180 deg rotation - cryst. axis [1,1,0]

 cryst.   s( 6) = (     0         -1          0      )    f =( -0.2500000 )
                  (    -1          0          0      )       ( -0.2500000 )
                  (     0          0          1      )       (  0.0000000 )

 cart.    s( 6) = (  0.5000000 -0.8660254  0.0000000 )    f =( -0.1250000 )
                  ( -0.8660254 -0.5000000  0.0000000 )       ( -0.2165064 )
                  (  0.0000000  0.0000000  1.0000000 )       (  0.0000000 )

     point group C_3v (3m)
     there are  3 classes
     the character table:

       E     2C3   3s_v
A_1    1.00  1.00  1.00
A_2    1.00  1.00 -1.00
E      2.00 -1.00  0.00

     the symmetry operations in each class and the name of the first element:

     E        1
          identity
     2C3      2    3
          120 deg rotation - cryst. axis [0,0,1]
     3s_v     4    5    6
          inv. 180 deg rotation - cart. axis [1,0,0]

   Cartesian axes

     site n.     atom                  positions (alat units)
         1           Ga  tau(   1) = (   0.1250001   0.0721687   0.6108633  )
         2           Ga  tau(   2) = (   0.1250001   0.0721687   1.0183331  )
         3           Ga  tau(   3) = (   0.0000001   0.2886751   0.2033935  )
         4           Ga  tau(   4) = (   0.0000001   0.2886751   0.6108633  )
         5           Ga  tau(   5) = (   0.0000001   0.2886751   1.0183331  )
         6           Ga  tau(   6) = (  -0.1249999   0.5051814   0.2033935  )
         7           Ga  tau(   7) = (  -0.1249999   0.5051814   0.6108633  )
         8           Ga  tau(   8) = (  -0.1249999   0.5051814   1.0183331  )
         9           Ga  tau(   9) = (  -0.2499999   0.7216878   0.2033935  )
        10           Ga  tau(  10) = (  -0.2499999   0.7216878   0.6108633  )
        11           Ga  tau(  11) = (  -0.2499999   0.7216878   1.0183331  )
        12           Ga  tau(  12) = (   0.3750001   0.0721687   0.2033935  )
        13           Ga  tau(  13) = (   0.3750001   0.0721687   0.6108633  )
        14           Ga  tau(  14) = (   0.3750001   0.0721687   1.0183331  )
        15           Ga  tau(  15) = (   0.2500001   0.2886751   0.2033935  )
        16           Ga  tau(  16) = (   0.2500001   0.2886751   0.6108633  )
        17           Ga  tau(  17) = (   0.2500001   0.2886751   1.0183331  )
        18           Ga  tau(  18) = (   0.1250001   0.5051814   0.2033935  )
        19           Ga  tau(  19) = (   0.1250001   0.5051814   0.6108633  )
        20           Ga  tau(  20) = (   0.1250001   0.5051814   1.0183331  )
        21           Ga  tau(  21) = (   0.0000001   0.7216878   0.2033935  )
        22           Ga  tau(  22) = (   0.0000001   0.7216878   0.6108633  )
        23           Ga  tau(  23) = (   0.0000001   0.7216878   1.0183331  )
        24           Ga  tau(  24) = (   0.6250001   0.0721687   0.2033935  )
        25           Ga  tau(  25) = (   0.6250001   0.0721687   0.6108633  )
        26           Ga  tau(  26) = (   0.6250001   0.0721687   1.0183331  )
        27           Ga  tau(  27) = (   0.5000001   0.2886751   0.2033935  )
        28           Ga  tau(  28) = (   0.5000001   0.2886751   0.6108633  )
        29           Ga  tau(  29) = (   0.5000001   0.2886751   1.0183331  )
        30           Ga  tau(  30) = (   0.3750001   0.5051814   0.2033935  )
        31           Ga  tau(  31) = (   0.3750001   0.5051814   0.6108633  )
        32           Ga  tau(  32) = (   0.3750001   0.5051814   1.0183331  )
        33           Ga  tau(  33) = (   0.2500001   0.7216878   0.2033935  )
        34           Ga  tau(  34) = (   0.2500001   0.7216878   0.6108633  )
        35           Ga  tau(  35) = (   0.2500001   0.7216878   1.0183331  )
        36           Ga  tau(  36) = (   0.8750001   0.0721687   0.2033935  )
        37           Ga  tau(  37) = (   0.8750001   0.0721687   0.6108633  )
        38           Ga  tau(  38) = (   0.8750001   0.0721687   1.0183331  )
        39           Ga  tau(  39) = (   0.7500001   0.2886751   0.2033935  )
        40           Ga  tau(  40) = (   0.7500001   0.2886751   0.6108633  )
        41           Ga  tau(  41) = (   0.7500001   0.2886751   1.0183331  )
        42           Ga  tau(  42) = (   0.6250001   0.5051814   0.2033935  )
        43           Ga  tau(  43) = (   0.6250001   0.5051814   0.6108633  )
        44           Ga  tau(  44) = (   0.6250001   0.5051814   1.0183331  )
        45           Ga  tau(  45) = (   0.5000001   0.7216878   0.2033935  )
        46           Ga  tau(  46) = (   0.5000001   0.7216878   0.6108633  )
        47           Ga  tau(  47) = (   0.5000001   0.7216878   1.0183331  )
        48           Ga  tau(  48) = (  -0.0000002   0.1443377   0.4071284  )
        49           Ga  tau(  49) = (  -0.0000002   0.1443377   0.8145982  )
        50           Ga  tau(  50) = (  -0.0000002   0.1443377   1.2220680  )
        51           Ga  tau(  51) = (  -0.1250002   0.3608440   0.4071284  )
        52           Ga  tau(  52) = (  -0.1250002   0.3608440   0.8145982  )
        53           Ga  tau(  53) = (  -0.1250002   0.3608440   1.2220680  )
        54           Ga  tau(  54) = (  -0.2500002   0.5773504   0.4071284  )
        55           Ga  tau(  55) = (  -0.2500002   0.5773504   0.8145982  )
        56           Ga  tau(  56) = (  -0.2500002   0.5773504   1.2220680  )
        57           Ga  tau(  57) = (  -0.3750001   0.7938567   0.4071284  )
        58           Ga  tau(  58) = (  -0.3750001   0.7938567   0.8145982  )
        59           Ga  tau(  59) = (  -0.3750001   0.7938567   1.2220680  )
        60           Ga  tau(  60) = (   0.2499998   0.1443377   0.4071284  )
[...]
       178           N   tau( 178) = (   0.1249998   0.7938567   0.5606123  )
       179           N   tau( 179) = (   0.1249998   0.7938567   0.9680820  )
[...]
     atom   26 type  1   force =     0.00000000    0.00000000    0.00000000
     atom   27 type  1   force =     0.00000000    0.00000000    0.00000000
     atom   28 type  1   force =     0.00000000    0.00000000    0.00000000
     atom   29 type  1   force =     0.00000000    0.00000000    0.00000000
     atom   30 type  1   force =     0.00000000    0.00000000    0.00000000
     atom   31 type  1   force =     0.00000000    0.00000000    0.00000000
     atom   32 type  1   force =     0.00000000    0.00000000    0.00000000
     atom   33 type  1   force =     0.00000000    0.00000000    0.00000000
     atom   34 type  1   force =     0.00000000    0.00000000    0.00000000
     atom   35 type  1   force =     0.00000000    0.00000000    0.00000000
     atom   36 type  1   force =     0.00000000    0.00000000    0.00000000
     atom   37 type  1   force =     0.00000000    0.00000000    0.00000000
     atom   38 type  1   force =     0.00000000    0.00000000    0.00000000
     atom   39 type  1   force =     0.00000000    0.00000000    0.00000000
     atom   40 type  1   force =     0.00000000    0.00000000    0.00000000
     atom   41 type  1   force =     0.00000000    0.00000000    0.00000000
     atom   42 type  1   force =     0.00000000    0.00000000    0.00000000
     atom   43 type  1   force =     0.00000000    0.00000000    0.00000000
     atom   44 type  1   force =     0.00000000    0.00000000    0.00000000
     atom   45 type  1   force =     0.00000000    0.00000000    0.00000000
     atom   46 type  1   force =     0.00000000    0.00000000    0.00000000
     atom   47 type  1   force =     0.00000000    0.00000000    0.00000000
     atom   48 type  1   force =     0.00000000    0.00000000    0.00000000
     atom   49 type  1   force =     0.00000000    0.00000000    0.00000000
     atom   50 type  1   force =     0.00000000    0.00000000    0.00000000
     atom   51 type  1   force =     0.00000000    0.00000000    0.00000000
     atom   52 type  1   force =     0.00000000    0.00000000    0.00000000
     atom   53 type  1   force =     0.00000000    0.00000000    0.00000000
     atom   54 type  1   force =     0.00000000    0.00000000    0.00000000
     atom   55 type  1   force =     0.00000000    0.00000000    0.00000000
     atom   56 type  1   force =     0.00000000    0.00000000    0.00000000
     atom   57 type  1   force =     0.00000000    0.00000000    0.00000000
     atom   58 type  1   force =     0.00000000    0.00000000    0.00000000
     atom   59 type  1   force =     0.00000000    0.00000000    0.00000000
     atom   60 type  1   force =     0.00000000    0.00000000    0.00000000
[...]
     atom  178 type  2   force =     0.00000000    0.00000000    0.00000000
     atom  179 type  2   force =     0.00000000    0.00000000    0.00000000
     atom  180 type  2   force =     0.00000000    0.00000000    0.00000000
     atom  181 type  2   force =     0.00000000    0.00000000    0.00000000
     atom  182 type  2   force =     0.00000000    0.00000000    0.00000000
     atom  183 type  2   force =     0.00000000    0.00000000    0.00000000
     atom  184 type  2   force =     0.00000000    0.00000000    0.00000000
     atom  185 type  2   force =     0.00000000    0.00000000    0.00000000
     atom  186 type  2   force =     0.00000000    0.00000000    0.00000000
     atom  187 type  2   force =     0.00000000    0.00000000    0.00000000
     atom  188 type  2   force =     0.00000000    0.00000000    0.00000000
     atom  189 type  2   force =     0.00000000    0.00000000    0.00000000
     atom  190 type  2   force =     0.00000000    0.00000000    0.00000000
     atom  191 type  2   force =     0.00000000    0.00000000    0.00000000
     atom  192 type  2   force =     0.00000000    0.00000000    0.00000000
     The SCF correction term to forces
     atom    1 type  1   force =    -0.00000000    0.00000000    0.00007492
     atom    2 type  1   force =     0.00000000   -0.00000000   -0.00008440
     atom    3 type  1   force =    -0.00000610   -0.00001601    0.00002063
     atom    4 type  1   force =     0.00000914   -0.00001466    0.00001495
     atom    5 type  1   force =     0.00003679   -0.00007246   -0.00004501
     atom    6 type  1   force =    -0.00001456   -0.00000841    0.00003646
     atom    7 type  1   force =    -0.00002009   -0.00001160   -0.00002915
     atom    8 type  1   force =    -0.00000218   -0.00000126   -0.00001272
     atom    9 type  1   force =    -0.00001691    0.00000272    0.00002063
     atom   10 type  1   force =    -0.00000813    0.00001524    0.00001495
     atom   11 type  1   force =    -0.00004435    0.00006809   -0.00004501
     atom   12 type  1   force =    -0.00001082    0.00001329    0.00002063
     atom   13 type  1   force =    -0.00001727   -0.00000058    0.00001495
     atom   14 type  1   force =    -0.00008115    0.00000437   -0.00004501
     atom   15 type  1   force =     0.00000610   -0.00001601    0.00002063
     atom   16 type  1   force =    -0.00000914   -0.00001466    0.00001495
     atom   17 type  1   force =    -0.00003679   -0.00007246   -0.00004501
     atom   18 type  1   force =    -0.00000000   -0.00000246    0.00003916
     atom   19 type  1   force =     0.00000000   -0.00003260   -0.00002633
     atom   20 type  1   force =    -0.00000000   -0.00004230   -0.00001823
     atom   21 type  1   force =    -0.00000213    0.00000123    0.00003916
     atom   22 type  1   force =    -0.00002823    0.00001630   -0.00002633
     atom   23 type  1   force =    -0.00003663    0.00002115   -0.00001823
     atom   24 type  1   force =     0.00000000    0.00001682    0.00003646
     atom   25 type  1   force =    -0.00000000    0.00002320   -0.00002915
     atom   26 type  1   force =     0.00000000    0.00000251   -0.00001272
     atom   27 type  1   force =    -0.00000321   -0.00000185    0.00004030
     atom   28 type  1   force =    -0.00001290   -0.00000745   -0.00001952
     atom   29 type  1   force =    -0.00004049   -0.00002337   -0.00001507
     atom   30 type  1   force =     0.00001456   -0.00000841    0.00003646
     atom   31 type  1   force =     0.00002009   -0.00001160   -0.00002915
     atom   32 type  1   force =     0.00000218   -0.00000126   -0.00001272
     atom   33 type  1   force =     0.00000213    0.00000123    0.00003916
     atom   34 type  1   force =     0.00002823    0.00001630   -0.00002633
     atom   35 type  1   force =     0.00003663    0.00002115   -0.00001823
     atom   36 type  1   force =     0.00001082    0.00001329    0.00002063
     atom   37 type  1   force =     0.00001727   -0.00000058    0.00001495
     atom   38 type  1   force =     0.00008115    0.00000437   -0.00004501
     atom   39 type  1   force =     0.00000321   -0.00000185    0.00004030
     atom   40 type  1   force =     0.00001290   -0.00000745   -0.00001952
     atom   41 type  1   force =     0.00004049   -0.00002337   -0.00001507
     atom   42 type  1   force =    -0.00000000    0.00000371    0.00004030
     atom   43 type  1   force =     0.00000000    0.00001489   -0.00001952
     atom   44 type  1   force =    -0.00000000    0.00004675   -0.00001507
     atom   45 type  1   force =     0.00001691    0.00000272    0.00002063
     atom   46 type  1   force =     0.00000813    0.00001524    0.00001495
     atom   47 type  1   force =     0.00004435    0.00006809   -0.00004501
     atom   48 type  1   force =    -0.00000141    0.00000081    0.00000299
     atom   49 type  1   force =     0.00006433   -0.00003714    0.00000881
     atom   50 type  1   force =     0.00001642   -0.00000948   -0.00002053
     atom   51 type  1   force =    -0.00002045    0.00000401    0.00001551
     atom   52 type  1   force =     0.00001571   -0.00004374   -0.00002961
     atom   53 type  1   force =    -0.00000391   -0.00001943    0.00002253
     atom   54 type  1   force =    -0.00000675   -0.00001972    0.00001551
     atom   55 type  1   force =    -0.00003002    0.00003548   -0.00002961
     atom   56 type  1   force =    -0.00001878    0.00000633    0.00002253
     atom   57 type  1   force =     0.00000000   -0.00000163    0.00000299
     atom   58 type  1   force =     0.00000000    0.00007428    0.00000881
     atom   59 type  1   force =     0.00000000    0.00001896   -0.00002053
     atom   60 type  1   force =     0.00000141    0.00000081    0.00000299
[...]
     atom  178 type  2   force =    -0.00000000    0.00001068   -0.00000997
     atom  179 type  2   force =    -0.00000000    0.00001126   -0.00000936
     atom  180 type  2   force =     0.00000111    0.00000653    0.00001396
     atom  181 type  2   force =    -0.00000009    0.00000456   -0.00000409
     atom  182 type  2   force =     0.00002335   -0.00000030   -0.00001158
     atom  183 type  2   force =    -0.00000000    0.00000000    0.00002116
     atom  184 type  2   force =    -0.00000000    0.00000000   -0.00001108
     atom  185 type  2   force =    -0.00000000    0.00000000   -0.00001087
     atom  186 type  2   force =     0.00000621   -0.00000230    0.00001396
     atom  187 type  2   force =     0.00000390   -0.00000236   -0.00000409
     atom  188 type  2   force =     0.00001141    0.00002037   -0.00001158
     atom  189 type  2   force =     0.00001031    0.00000595    0.00001142
     atom  190 type  2   force =     0.00000929    0.00000536    0.00000039
     atom  191 type  2   force =     0.00003440    0.00001986   -0.00001514
     atom  192 type  2   force =    -0.00000000    0.00000000    0.00000927

     Total force =     0.004715     Total SCF correction =     0.000495
     SCF correction compared to forces is large: reduce conv_thr to get better values

     Computing stress (Cartesian axis) and pressure

[...]

          total   stress  (Ry/bohr**3)                   (kbar)     P=      -22.41
  -0.00017600   0.00000000   0.00000000          -25.89        0.00        0.00
   0.00000000  -0.00017600   0.00000000            0.00      -25.89        0.00
   0.00000000   0.00000000  -0.00010501            0.00        0.00      -15.45

     kinetic stress (kbar)  18341.00     -0.00      0.00
                                0.00  18341.00      0.00
                               -0.00     -0.00  18358.82

     local   stress (kbar)   4941.02     -0.07     -0.00
                               -0.07   4940.92     -0.00
                               -0.00     -0.00   4000.46

     nonloc. stress (kbar)    104.38     -0.00      0.00
                                0.00    104.38      0.00
                                0.00      0.00    119.78

     hartree stress (kbar)  19576.63     -0.00     -0.00
                               -0.00  19576.63      0.00
                               -0.00      0.00  20053.83

     exc-cor stress (kbar)   5150.62      0.00     -0.00
                                0.00   5150.62      0.00
                               -0.00      0.00   5148.70

     corecor stress (kbar) -13976.26     -0.00     -0.00
                               -0.00 -13976.26      0.00
                               -0.00      0.00 -13975.86

     ewald   stress (kbar) -34323.79      0.09      0.00
                                0.09 -34323.67     -0.00
                                0.00     -0.00 -33881.39

     hubbard stress (kbar)      0.00      0.00      0.00
                                0.00      0.00      0.00
                                0.00      0.00      0.00

     DFT-D   stress (kbar)      0.00      0.00      0.00
                                0.00      0.00      0.00
                                0.00      0.00      0.00

     XDM     stress (kbar)      0.00      0.00      0.00
                                0.00      0.00      0.00
                                0.00      0.00      0.00

     dft-nl  stress (kbar)    160.50     -0.00     -0.00
                               -0.00    160.50     -0.00
                               -0.00     -0.00    160.21

     TS-vdW  stress (kbar)      0.00      0.00      0.00
                                0.00      0.00      0.00
                                0.00      0.00      0.00

     MDB     stress (kbar)      0.00      0.00      0.00
                                0.00      0.00      0.00
                                0.00      0.00      0.00

     3D-RISM stress (kbar)      0.00      0.00      0.00
                                0.00      0.00      0.00
                                0.00      0.00      0.00

[...]

     Non-local corr. energy    =      51.90382614 Ry

 BEEFens 2000 ensemble energies
             -0.420088239380611E+02
             -0.378039608906893E+03
             -0.162617401900802E+03
              0.133063029228166E+03
             -0.271759755734079E+03
             -0.349598449852184E+03
              0.179733820320161E+03
             -0.190575848649942E+02
              0.299403168927854E+03
             -0.129392620096498E+02
              0.146916551315940E+03
              0.604384540745411E+01
              0.609172663584548E+01
             -0.129172219561162E+02
              0.195991169215135E+03
             -0.142738287861776E+03
             -0.294186975184847E+03
             -0.961846055859855E+02
              0.717720254341011E+02
             -0.643480761319006E+01
              0.429314983842847E+03
              0.365408078956975E+03
             -0.209047690988197E+03
              0.757971961297703E+02
             -0.458569522913203E+03
              0.367683867598771E+03
              0.120125998312524E+03
              0.357554722411120E+03
              0.234866210495001E+03
             -0.114381651606529E+03
              0.865820438549010E+02
             -0.168986486501151E+03
              0.471912591573575E+02
              0.229768481745002E+03
              0.243786171729400E+03
             -0.880116643778542E+02
              0.541327994910760E+03
             -0.205419827480471E+03
             -0.147903476428671E+03
              0.216969122425035E+03
              0.969590677885242E+02
              0.162434392094599E+03
             -0.309526279241104E+03
             -0.865181699642881E+01
              0.303910361806772E+03
              0.394742033736653E+03
             -0.392865024038532E+03
              0.279854951051280E+02
              0.148132509193973E+03
              0.720280482946728E+02
              0.164379308134437E+03
              0.347981172405508E+03
             -0.210366200969389E+03
             -0.230602848934021E+03
             -0.299827867336108E+03
             -0.464660805560115E+02
             -0.273492119107200E+03
              0.267347562224825E+02
             -0.506847814428497E+02
             -0.213150943974203E+03
[...]
              0.266114615570160E+03
              0.146923795702055E+03
              0.186723869099750E+03
             -0.301744559623627E+03
             -0.288770163525416E+03
             -0.731265100998434E+02
             -0.283105921409339E+03
              0.453363672030582E+03
              0.388581517461500E+03
              0.185698068721133E+03
              0.502744956045277E+03
             -0.261715549717865E+03
             -0.106656052238721E+03
             -0.148293611475516E+03
              0.415848577254877E+03

 BEEF-vdW xc energy contributions
            1 :    -3810.767376033723
            2 :     3431.804307742019
            3 :    -2797.144499994387
            4 :     2092.862431726148
            5 :    -1482.440193973858
            6 :     1044.526217507207
            7 :    -764.3495068299148
            8 :     574.4471856304281
            9 :    -411.8874914976218
           10 :     254.7438883518857
           11 :    -120.3852326198107
           12 :     36.14846050080314
           13 :    -9.341300769250211
           14 :     18.77050800116695
           15 :    -30.45080304130215
           16 :     21.79406254972582
           17 :     5.498216449312622
           18 :    -32.34440654072796
           19 :     41.25264156369531
           20 :    -31.24350997119700
           21 :     17.58628405110585
           22 :    -18.23659652481228
           23 :     39.06182496563088
           24 :    -69.70206972292772
           25 :     92.44685770671049
           26 :    -96.06842772572827
           27 :     83.39167998807261
           28 :    -67.31363465195818
           29 :     59.53802828157450
           30 :    -61.62138698095487
           31 :    -326.8584050584800
           32 :    -223.9040810023475

     Writing all to output data dir ./GaN.save/

     General routines

     Parallel routines

     PAW routines

   This run was terminated on:  16:33: 3   5Mar2024

   JOB DONE.