     Program PWSCF v.7.1 starts on 12Apr2024 at  8:23:21

     Reading input from espresso.pwi
Warning: card &CELL ignored
Warning: card    CELL_DYNAMICS    = 'BFGS' ignored
Warning: card / ignored

     Current dimensions of program PWSCF are:
     Max number of different atomic species (ntypx) = 10
     Max number of k-points (npk) =  40000
     Max angular momentum in pseudopotentials (lmaxx) =  4
     file Ga.pbe-dn-kjpaw_psl.1.0.0.UPF: wavefunction(s)  4S renormalized
     file N.pbe-n-kjpaw_psl.1.0.0.UPF: wavefunction(s)  2S renormalized

     IMPORTANT: XC functional enforced from input :
     Exchange-correlation= BEEF-VDW
                           (   1   4  43  14   2   0   0)
     Any further DFT definition will be discarded
     Please, verify this is what you really want

     K-points division:     npool     =       2
     R & G space division:  proc/nbgrp/npool/nimage =      64
     Subspace diagonalization in iterative solution of the eigenvalue problem:
     a serial algorithm will be used

     Using Slab Decomposition

     bravais-lattice index     =            4
     lattice parameter (alat)  =      24.5252  a.u.
     unit-cell volume          =   15616.6055 (a.u.)^3
     number of atoms/cell      =          191
     number of atomic types    =            2
     number of electrons       =      1724.00
     number of Kohn-Sham states=         1034
     kinetic-energy cutoff     =      70.0000  Ry
     charge density cutoff     =     350.0000  Ry
     scf convergence threshold =      1.0E-07
     mixing beta               =       0.7000
     number of iterations used =            8  plain     mixing
     Exchange-correlation= BEEF-VDW
                           (   1   4  43  14   2   0   0)

     celldm(1)=  24.525232  celldm(2)=   0.000000  celldm(3)=   1.222409
     celldm(4)=   0.000000  celldm(5)=   0.000000  celldm(6)=   0.000000

     crystal axes: (cart. coord. in units of alat)
               a(1) = (   1.000000   0.000000   0.000000 )
               a(2) = (  -0.500000   0.866025   0.000000 )
               a(3) = (   0.000000   0.000000   1.222409 )

     reciprocal axes: (cart. coord. in units 2 pi/alat)
               b(1) = (  1.000000  0.577350 -0.000000 )
               b(2) = (  0.000000  1.154701  0.000000 )
               b(3) = (  0.000000 -0.000000  0.818057 )

     PseudoPot. # 1 for Ga read from file:
     //group///packages/espresso/pseudo/psl_1.0.0/pslibrary.1.0.0/pbe/PSEUDOPOTENTIALS/Ga.pbe-dn-kjpaw_psl.1.0.0.UPF
     MD5 check sum: cd2a01e492f15b435d17032472d8505c
     Pseudo is Projector augmented-wave + core cor, Zval = 13.0
     Generated using 'atomic' code by A. Dal Corso  v.7.1
     Shape of augmentation charge: PSQ
     Using radial grid of 1205 points,  6 beta functions with:
                l(1) =   0
                l(2) =   0
                l(3) =   1
                l(4) =   1
                l(5) =   2
                l(6) =   2
     Q(r) pseudized with 0 coefficients

     PseudoPot. # 2 for N  read from file:
     //group///packages/espresso/pseudo/psl_1.0.0/pslibrary.1.0.0/pbe/PSEUDOPOTENTIALS/N.pbe-n-kjpaw_psl.1.0.0.UPF
     MD5 check sum: f77f775694dac7e2c3fe1c82443d1a16
     Pseudo is Projector augmented-wave + core cor, Zval =  5.0
     Generated using 'atomic' code by A. Dal Corso  v.7.1
     Shape of augmentation charge: PSQ
     Using radial grid of 1085 points,  4 beta functions with:
                l(1) =   0
                l(2) =   0
                l(3) =   1
                l(4) =   1
     Q(r) pseudized with 0 coefficients

     atomic species   valence    mass     pseudopotential
        Ga            13.00    69.72300     Ga( 1.00)
        N              5.00    14.00700     N ( 1.00)

      6 Sym. Ops. (no inversion) found ( 4 have fractional translation)

                                    s                        frac. trans.

      isym =  1     identity

 cryst.   s( 1) = (     1          0          0      )
                  (     0          1          0      )
                  (     0          0          1      )

 cart.    s( 1) = (  1.0000000  0.0000000  0.0000000 )
                  (  0.0000000  1.0000000  0.0000000 )
                  (  0.0000000  0.0000000  1.0000000 )

      isym =  2     120 deg rotation - cryst. axis [0,0,1]

 cryst.   s( 2) = (     0          1          0      )    f =( -0.2500000 )
                  (    -1         -1          0      )       (  0.0000002 )
                  (     0          0          1      )       (  0.0000000 )

 cart.    s( 2) = ( -0.5000000 -0.8660254  0.0000000 )    f =( -0.2500001 )
                  (  0.8660254 -0.5000000  0.0000000 )       (  0.0000002 )
                  (  0.0000000  0.0000000  1.0000000 )       (  0.0000000 )

      isym =  3     120 deg rotation - cryst. axis [0,0,-1]

[...]

      isym =  4     inv. 180 deg rotation - cart. axis [1,0,0]

[...]

      isym =  5     inv. 180 deg rotation - cryst. axis [0,1,0]

 cryst.   s( 5) = (     1          1          0      )
                  (     0         -1          0      )
                  (     0          0          1      )

 cart.    s( 5) = (  0.5000000  0.8660254  0.0000000 )
                  (  0.8660254 -0.5000000  0.0000000 )
                  (  0.0000000  0.0000000  1.0000000 )

      isym =  6     inv. 180 deg rotation - cryst. axis [1,1,0]

 cryst.   s( 6) = (     0         -1          0      )    f =( -0.2500000 )
                  (    -1          0          0      )       ( -0.2500000 )
                  (     0          0          1      )       (  0.0000000 )

 cart.    s( 6) = (  0.5000000 -0.8660254  0.0000000 )    f =( -0.1250000 )
                  ( -0.8660254 -0.5000000  0.0000000 )       ( -0.2165064 )
                  (  0.0000000  0.0000000  1.0000000 )       (  0.0000000 )

     point group C_3v (3m)
     there are  3 classes
     the character table:

       E     2C3   3s_v
A_1    1.00  1.00  1.00
A_2    1.00  1.00 -1.00
E      2.00 -1.00  0.00

     the symmetry operations in each class and the name of the first element:

     E        1
          identity
     2C3      2    3
          120 deg rotation - cryst. axis [0,0,1]
     3s_v     4    5    6
          inv. 180 deg rotation - cart. axis [1,0,0]

   Cartesian axes

     site n.     atom                  positions (alat units)
         1           Ga  tau(   1) = (   0.1250001   0.0721687   0.2033935  )
         2           Ga  tau(   2) = (   0.1250001   0.0721687   0.6108633  )
         3           Ga  tau(   3) = (   0.1250001   0.0721687   1.0183331  )
         4           Ga  tau(   4) = (   0.0000001   0.2886751   0.2033935  )
         5           Ga  tau(   5) = (   0.0000001   0.2886751   0.6108633  )
         6           Ga  tau(   6) = (   0.0000001   0.2886751   1.0183331  )
         7           Ga  tau(   7) = (  -0.1249999   0.5051814   0.2033935  )
         8           Ga  tau(   8) = (  -0.1249999   0.5051814   0.6108633  )
         9           Ga  tau(   9) = (  -0.1249999   0.5051814   1.0183331  )
        10           Ga  tau(  10) = (  -0.2499999   0.7216878   0.2033935  )
        11           Ga  tau(  11) = (  -0.2499999   0.7216878   0.6108633  )
        12           Ga  tau(  12) = (  -0.2499999   0.7216878   1.0183331  )
        13           Ga  tau(  13) = (   0.3750001   0.0721687   0.2033935  )
        14           Ga  tau(  14) = (   0.3750001   0.0721687   0.6108633  )
        15           Ga  tau(  15) = (   0.3750001   0.0721687   1.0183331  )
        16           Ga  tau(  16) = (   0.2500001   0.2886751   0.2033935  )
        17           Ga  tau(  17) = (   0.2500001   0.2886751   0.6108633  )
        18           Ga  tau(  18) = (   0.2500001   0.2886751   1.0183331  )
        19           Ga  tau(  19) = (   0.1250001   0.5051814   0.2033935  )
        20           Ga  tau(  20) = (   0.1250001   0.5051814   0.6108633  )
        21           Ga  tau(  21) = (   0.1250001   0.5051814   1.0183331  )
        22           Ga  tau(  22) = (   0.0000001   0.7216878   0.2033935  )
        23           Ga  tau(  23) = (   0.0000001   0.7216878   0.6108633  )
        24           Ga  tau(  24) = (   0.0000001   0.7216878   1.0183331  )
        25           Ga  tau(  25) = (   0.6250001   0.0721687   0.2033935  )
        26           Ga  tau(  26) = (   0.6250001   0.0721687   0.6108633  )
        27           Ga  tau(  27) = (   0.6250001   0.0721687   1.0183331  )
        28           Ga  tau(  28) = (   0.5000001   0.2886751   0.2033935  )
        29           Ga  tau(  29) = (   0.5000001   0.2886751   0.6108633  )
        30           Ga  tau(  30) = (   0.5000001   0.2886751   1.0183331  )
        31           Ga  tau(  31) = (   0.3750001   0.5051814   0.2033935  )
        32           Ga  tau(  32) = (   0.3750001   0.5051814   0.6108633  )
        33           Ga  tau(  33) = (   0.3750001   0.5051814   1.0183331  )
        34           Ga  tau(  34) = (   0.2500001   0.7216878   0.2033935  )
        35           Ga  tau(  35) = (   0.2500001   0.7216878   0.6108633  )
        36           Ga  tau(  36) = (   0.2500001   0.7216878   1.0183331  )
        37           Ga  tau(  37) = (   0.8750001   0.0721687   0.2033935  )
        38           Ga  tau(  38) = (   0.8750001   0.0721687   0.6108633  )
        39           Ga  tau(  39) = (   0.8750001   0.0721687   1.0183331  )
        40           Ga  tau(  40) = (   0.7500001   0.2886751   0.2033935  )
        41           Ga  tau(  41) = (   0.7500001   0.2886751   0.6108633  )
        42           Ga  tau(  42) = (   0.7500001   0.2886751   1.0183331  )
        43           Ga  tau(  43) = (   0.6250001   0.5051814   0.2033935  )
        44           Ga  tau(  44) = (   0.6250001   0.5051814   0.6108633  )
        45           Ga  tau(  45) = (   0.6250001   0.5051814   1.0183331  )
        46           Ga  tau(  46) = (   0.5000001   0.7216878   0.2033935  )
        47           Ga  tau(  47) = (   0.5000001   0.7216878   0.6108633  )
        48           Ga  tau(  48) = (   0.5000001   0.7216878   1.0183331  )
        49           Ga  tau(  49) = (  -0.0000002   0.1443377   0.4071284  )
        50           Ga  tau(  50) = (  -0.0000002   0.1443377   0.8145982  )
        51           Ga  tau(  51) = (  -0.0000002   0.1443377   1.2220680  )
        52           Ga  tau(  52) = (  -0.1250002   0.3608440   0.4071284  )
        53           Ga  tau(  53) = (  -0.1250002   0.3608440   0.8145982  )
        54           Ga  tau(  54) = (  -0.1250002   0.3608440   1.2220680  )
        55           Ga  tau(  55) = (  -0.2500002   0.5773504   0.4071284  )
        56           Ga  tau(  56) = (  -0.2500002   0.5773504   0.8145982  )
        57           Ga  tau(  57) = (  -0.2500002   0.5773504   1.2220680  )
        58           Ga  tau(  58) = (  -0.3750001   0.7938567   0.4071284  )
        59           Ga  tau(  59) = (  -0.3750001   0.7938567   0.8145982  )
        60           Ga  tau(  60) = (  -0.3750001   0.7938567   1.2220680  )
[...]
       177           N   tau( 177) = (   0.1249998   0.7938567   0.1531425  )
       178           N   tau( 178) = (   0.1249998   0.7938567   0.5606123  )
[...]
     atom   26 type  1   force =     0.00000000    0.00000000    0.00000000
     atom   27 type  1   force =     0.00000000    0.00000000    0.00000000
     atom   28 type  1   force =     0.00000000    0.00000000    0.00000000
     atom   29 type  1   force =     0.00000000    0.00000000    0.00000000
     atom   30 type  1   force =     0.00000000    0.00000000    0.00000000
     atom   31 type  1   force =     0.00000000    0.00000000    0.00000000
     atom   32 type  1   force =     0.00000000    0.00000000    0.00000000
     atom   33 type  1   force =     0.00000000    0.00000000    0.00000000
     atom   34 type  1   force =     0.00000000    0.00000000    0.00000000
     atom   35 type  1   force =     0.00000000    0.00000000    0.00000000
     atom   36 type  1   force =     0.00000000    0.00000000    0.00000000
     atom   37 type  1   force =     0.00000000    0.00000000    0.00000000
     atom   38 type  1   force =     0.00000000    0.00000000    0.00000000
     atom   39 type  1   force =     0.00000000    0.00000000    0.00000000
     atom   40 type  1   force =     0.00000000    0.00000000    0.00000000
     atom   41 type  1   force =     0.00000000    0.00000000    0.00000000
     atom   42 type  1   force =     0.00000000    0.00000000    0.00000000
     atom   43 type  1   force =     0.00000000    0.00000000    0.00000000
     atom   44 type  1   force =     0.00000000    0.00000000    0.00000000
     atom   45 type  1   force =     0.00000000    0.00000000    0.00000000
     atom   46 type  1   force =     0.00000000    0.00000000    0.00000000
     atom   47 type  1   force =     0.00000000    0.00000000    0.00000000
     atom   48 type  1   force =     0.00000000    0.00000000    0.00000000
     atom   49 type  1   force =     0.00000000    0.00000000    0.00000000
     atom   50 type  1   force =     0.00000000    0.00000000    0.00000000
     atom   51 type  1   force =     0.00000000    0.00000000    0.00000000
     atom   52 type  1   force =     0.00000000    0.00000000    0.00000000
     atom   53 type  1   force =     0.00000000    0.00000000    0.00000000
     atom   54 type  1   force =     0.00000000    0.00000000    0.00000000
     atom   55 type  1   force =     0.00000000    0.00000000    0.00000000
     atom   56 type  1   force =     0.00000000    0.00000000    0.00000000
     atom   57 type  1   force =     0.00000000    0.00000000    0.00000000
     atom   58 type  1   force =     0.00000000    0.00000000    0.00000000
     atom   59 type  1   force =     0.00000000    0.00000000    0.00000000
     atom   60 type  1   force =     0.00000000    0.00000000    0.00000000
[...]
     atom  177 type  2   force =     0.00000000    0.00000000    0.00000000
     atom  178 type  2   force =     0.00000000    0.00000000    0.00000000
     atom  179 type  2   force =     0.00000000    0.00000000    0.00000000
     atom  180 type  2   force =     0.00000000    0.00000000    0.00000000
     atom  181 type  2   force =     0.00000000    0.00000000    0.00000000
     atom  182 type  2   force =     0.00000000    0.00000000    0.00000000
     atom  183 type  2   force =     0.00000000    0.00000000    0.00000000
     atom  184 type  2   force =     0.00000000    0.00000000    0.00000000
     atom  185 type  2   force =     0.00000000    0.00000000    0.00000000
     atom  186 type  2   force =     0.00000000    0.00000000    0.00000000
     atom  187 type  2   force =     0.00000000    0.00000000    0.00000000
     atom  188 type  2   force =     0.00000000    0.00000000    0.00000000
     atom  189 type  2   force =     0.00000000    0.00000000    0.00000000
     atom  190 type  2   force =     0.00000000    0.00000000    0.00000000
     atom  191 type  2   force =     0.00000000    0.00000000    0.00000000
     The SCF correction term to forces
     atom    1 type  1   force =    -0.00000000    0.00000000   -0.00004060
     atom    2 type  1   force =    -0.00000000    0.00000000   -0.00002049
     atom    3 type  1   force =    -0.00000000    0.00000000    0.00007106
     atom    4 type  1   force =    -0.00003061    0.00004863    0.00000501
     atom    5 type  1   force =    -0.00002900    0.00005592   -0.00005662
     atom    6 type  1   force =    -0.00001886    0.00003227    0.00006268
     atom    7 type  1   force =    -0.00001283   -0.00000741    0.00000240
     atom    8 type  1   force =    -0.00000859   -0.00000496   -0.00006432
     atom    9 type  1   force =    -0.00000174   -0.00000100    0.00005352
     atom   10 type  1   force =     0.00002680   -0.00005082    0.00000501
     atom   11 type  1   force =     0.00003393   -0.00005308   -0.00005662
     atom   12 type  1   force =     0.00001852   -0.00003247    0.00006268
     atom   13 type  1   force =     0.00005742    0.00000220    0.00000501
     atom   14 type  1   force =     0.00006293   -0.00000285   -0.00005662
     atom   15 type  1   force =     0.00003738    0.00000020    0.00006268
     atom   16 type  1   force =     0.00003061    0.00004863    0.00000501
     atom   17 type  1   force =     0.00002900    0.00005592   -0.00005662
     atom   18 type  1   force =     0.00001886    0.00003227    0.00006268
     atom   19 type  1   force =     0.00000000    0.00000558    0.00000734
     atom   20 type  1   force =     0.00000000    0.00002018   -0.00005876
     atom   21 type  1   force =     0.00000000    0.00001948    0.00005415
     atom   22 type  1   force =     0.00000483   -0.00000279    0.00000734
     atom   23 type  1   force =     0.00001747   -0.00001009   -0.00005876
     atom   24 type  1   force =     0.00001687   -0.00000974    0.00005415
     atom   25 type  1   force =     0.00000000    0.00001481    0.00000240
     atom   26 type  1   force =    -0.00000000    0.00000992   -0.00006432
     atom   27 type  1   force =    -0.00000000    0.00000201    0.00005352
     atom   28 type  1   force =     0.00000862    0.00000498    0.00000066
     atom   29 type  1   force =     0.00002178    0.00001257   -0.00006219
     atom   30 type  1   force =     0.00001732    0.00001000    0.00005455
     atom   31 type  1   force =     0.00001283   -0.00000741    0.00000240
     atom   32 type  1   force =     0.00000859   -0.00000496   -0.00006432
     atom   33 type  1   force =     0.00000174   -0.00000100    0.00005352
     atom   34 type  1   force =    -0.00000483   -0.00000279    0.00000734
     atom   35 type  1   force =    -0.00001747   -0.00001009   -0.00005876
     atom   36 type  1   force =    -0.00001687   -0.00000974    0.00005415
     atom   37 type  1   force =    -0.00005742    0.00000220    0.00000501
     atom   38 type  1   force =    -0.00006293   -0.00000285   -0.00005662
     atom   39 type  1   force =    -0.00003738    0.00000020    0.00006268
     atom   40 type  1   force =    -0.00000862    0.00000498    0.00000066
     atom   41 type  1   force =    -0.00002178    0.00001257   -0.00006219
     atom   42 type  1   force =    -0.00001732    0.00001000    0.00005455
     atom   43 type  1   force =    -0.00000000   -0.00000995    0.00000066
     atom   44 type  1   force =     0.00000000   -0.00002515   -0.00006219
     atom   45 type  1   force =     0.00000000   -0.00002000    0.00005455
     atom   46 type  1   force =    -0.00002680   -0.00005082    0.00000501
     atom   47 type  1   force =    -0.00003393   -0.00005308   -0.00005662
     atom   48 type  1   force =    -0.00001852   -0.00003247    0.00006268
     atom   49 type  1   force =    -0.00005790    0.00003343   -0.00008296
     atom   50 type  1   force =    -0.00001865    0.00001077    0.00001143
     atom   51 type  1   force =    -0.00002417    0.00001395    0.00004933
     atom   52 type  1   force =    -0.00001302    0.00002390   -0.00006720
     atom   53 type  1   force =    -0.00001570    0.00002238    0.00000058
     atom   54 type  1   force =    -0.00001393    0.00001751    0.00006876
     atom   55 type  1   force =     0.00001419   -0.00002323   -0.00006720
     atom   56 type  1   force =     0.00001153   -0.00002479    0.00000058
     atom   57 type  1   force =     0.00000821   -0.00002082    0.00006876
     atom   58 type  1   force =    -0.00000000   -0.00006686   -0.00008296
     atom   59 type  1   force =    -0.00000000   -0.00002153    0.00001143
     atom   60 type  1   force =    -0.00000000   -0.00002791    0.00004933
[...]
     atom  177 type  2   force =     0.00000000    0.00000036    0.00000753
     atom  178 type  2   force =     0.00000000   -0.00000322   -0.00002653
     atom  179 type  2   force =     0.00000000   -0.00000396    0.00002212
     atom  180 type  2   force =    -0.00001150    0.00000350    0.00000800
     atom  181 type  2   force =    -0.00001669    0.00000371   -0.00002877
     atom  182 type  2   force =    -0.00001071    0.00000113    0.00002303
     atom  183 type  2   force =    -0.00000000    0.00000000    0.00000772
     atom  184 type  2   force =    -0.00000000    0.00000000   -0.00002843
     atom  185 type  2   force =     0.00000000   -0.00000000    0.00002158
     atom  186 type  2   force =    -0.00000272   -0.00001171    0.00000800
     atom  187 type  2   force =    -0.00000513   -0.00001631   -0.00002877
     atom  188 type  2   force =    -0.00000437   -0.00000984    0.00002303
     atom  189 type  2   force =    -0.00001551   -0.00000895    0.00000643
     atom  190 type  2   force =    -0.00002153   -0.00001243   -0.00002863
     atom  191 type  2   force =    -0.00001411   -0.00000815    0.00002408

     Total force =     0.004236     Total SCF correction =     0.000649
     SCF correction compared to forces is large: reduce conv_thr to get better values

     Computing stress (Cartesian axis) and pressure

[...]

          total   stress  (Ry/bohr**3)                   (kbar)     P=       15.00
   0.00009498   0.00000000   0.00000000           13.97        0.00        0.00
   0.00000000   0.00009498   0.00000000            0.00       13.97        0.00
   0.00000000   0.00000000   0.00011605            0.00        0.00       17.07

     kinetic stress (kbar)  18345.90      0.00      0.00
                                0.00  18345.90      0.00
                                0.00      0.00  18343.17

     local   stress (kbar)   5392.79     -0.07      0.00
                               -0.07   5392.69     -0.00
                                0.00     -0.00   3758.88

     nonloc. stress (kbar)    107.31     -0.00      0.00
                                0.00    107.31     -0.00
                                0.00     -0.00    117.66

     hartree stress (kbar)  19609.00     -0.00      0.00
                               -0.00  19609.00     -0.00
                                0.00     -0.00  20353.51

     exc-cor stress (kbar)   5227.51      0.00     -0.00
                                0.00   5227.51      0.00
                               -0.00      0.00   5227.83

     corecor stress (kbar) -14104.24     -0.00     -0.00
                               -0.00 -14104.24      0.00
                               -0.00      0.00 -14103.76

     ewald   stress (kbar) -34726.19      0.09     -0.00
                                0.09 -34726.07      0.00
                               -0.00      0.00 -33841.26

     hubbard stress (kbar)      0.00      0.00      0.00
                                0.00      0.00      0.00
                                0.00      0.00      0.00

     DFT-D   stress (kbar)      0.00      0.00      0.00
                                0.00      0.00      0.00
                                0.00      0.00      0.00

     XDM     stress (kbar)      0.00      0.00      0.00
                                0.00      0.00      0.00
                                0.00      0.00      0.00

     dft-nl  stress (kbar)    161.88     -0.00     -0.00
                               -0.00    161.88     -0.00
                               -0.00     -0.00    161.03

     TS-vdW  stress (kbar)      0.00      0.00      0.00
                                0.00      0.00      0.00
                                0.00      0.00      0.00

     MDB     stress (kbar)      0.00      0.00      0.00
                                0.00      0.00      0.00
                                0.00      0.00      0.00

     3D-RISM stress (kbar)      0.00      0.00      0.00
                                0.00      0.00      0.00
                                0.00      0.00      0.00

[...]

     Non-local corr. energy    =      52.23551597 Ry

 BEEFens 2000 ensemble energies
             -0.422617552416780E+02
             -0.380688160865376E+03
             -0.163744518145056E+03
              0.133968151450366E+03
             -0.273803455926104E+03
             -0.352064471159952E+03
              0.180899425561205E+03
             -0.190093831543718E+02
              0.301569302035674E+03
             -0.130306123213836E+02
              0.147984205577583E+03
              0.617577963947656E+01
              0.598452416017074E+01
             -0.129203695484007E+02
              0.197360691893287E+03
             -0.143702263659007E+03
             -0.296119818861615E+03
             -0.967487350864033E+02
              0.723403813924009E+02
             -0.649385195217474E+01
              0.432318966304944E+03
              0.367881793569529E+03
             -0.210701277787331E+03
              0.762059264319726E+02
             -0.461811314988001E+03
              0.370286961559580E+03
              0.120922188796701E+03
              0.359926160313490E+03
              0.236499461939276E+03
             -0.115106041078908E+03
              0.871453268422924E+02
             -0.169968189308577E+03
              0.476650154424610E+02
              0.231441413709164E+03
              0.245409491827199E+03
             -0.886320395984135E+02
              0.545162358788353E+03
             -0.206995692589992E+03
             -0.148911624333349E+03
              0.218481181429978E+03
              0.977417569589838E+02
              0.163587191611492E+03
             -0.311712986706624E+03
             -0.876431053592205E+01
              0.305932602953254E+03
              0.397410859457946E+03
             -0.395697793107002E+03
              0.281305881703255E+02
              0.149116909076370E+03
              0.727247902208264E+02
              0.165381129881625E+03
              0.350437539641163E+03
             -0.211897959190067E+03
             -0.232296677134144E+03
             -0.302005740099287E+03
             -0.466642049795948E+02
             -0.275398037882234E+03
              0.270055051208531E+02
             -0.509028023489809E+02
             -0.214663187914201E+03
[...]
              0.267801638328607E+03
              0.148017872525404E+03
              0.188011452464812E+03
             -0.303934700789631E+03
             -0.291066301249991E+03
             -0.735984312607919E+02
             -0.285208489569331E+03
              0.456547871138969E+03
              0.391228175097329E+03
              0.186932305217092E+03
              0.506344682960482E+03
             -0.263462345827957E+03
             -0.107360102414076E+03
             -0.149467323823443E+03
              0.418855008222172E+03

 BEEF-vdW xc energy contributions
            1 :    -3838.355085199073
            2 :     3457.495851112307
            3 :    -2819.325880171926
            4 :     2110.551834234678
            5 :    -1495.600774511646
            6 :     1054.092866188385
            7 :    -771.8076450714780
            8 :     581.1061807937840
            9 :    -418.2693150918676
           10 :     260.4921898452435
           11 :    -124.7529389539441
           12 :     38.69660527385486
           13 :    -10.32466301177919
           14 :     18.94020783675842
           15 :    -30.47412711000743
           16 :     21.79388687891515
           17 :     5.899206434793086
           18 :    -33.52848371721575
           19 :     43.10547283062760
           20 :    -33.10116553149783
           21 :     18.70272451933033
           22 :    -18.38910231932641
           23 :     38.77287402609727
           24 :    -69.85787011861703
           25 :     93.59020726679682
           26 :    -97.92449594290883
           27 :     85.01383406012428
           28 :    -67.74974508948526
           29 :     58.51137692699422
           30 :    -59.72018728017429
           31 :    -328.7294751056588
           32 :    -225.3045402848011

     Writing all to output data dir ./GaN.save/

     General routines

     Parallel routines

     PAW routines

   This run was terminated on:   8:41:39  12Apr2024

   JOB DONE.