     Program PWSCF v.7.1 starts on 23Mar2024 at  8:10:16

     Reading input from espresso.pwi
Warning: card &CELL ignored
Warning: card    CELL_DYNAMICS    = 'BFGS' ignored
Warning: card / ignored

     Current dimensions of program PWSCF are:
     Max number of different atomic species (ntypx) = 10
     Max number of k-points (npk) =  40000
     Max angular momentum in pseudopotentials (lmaxx) =  4
     file Pb.pbe-dn-kjpaw_psl.1.0.0.UPF: wavefunction(s)  6S 6P 5D renormalized
     file I.pbe-dn-kjpaw_psl.1.0.0.UPF: wavefunction(s)  5S 5P renormalized

     IMPORTANT: XC functional enforced from input :
     Exchange-correlation= BEEF-VDW
                           (   1   4  43  14   2   0   0)
     Any further DFT definition will be discarded
     Please, verify this is what you really want

     K-points division:     npool     =       2
     R & G space division:  proc/nbgrp/npool/nimage =      45
     Subspace diagonalization in iterative solution of the eigenvalue problem:
     a serial algorithm will be used

     Using Slab Decomposition

     bravais-lattice index     =            4
     lattice parameter (alat)  =      26.7090  a.u.
     unit-cell volume          =   17226.5091 (a.u.)^3
     number of atoms/cell      =           54
     number of atomic types    =            2
     number of electrons       =       858.00
     number of Kohn-Sham states=          515
     kinetic-energy cutoff     =      70.0000  Ry
     charge density cutoff     =     350.0000  Ry
     scf convergence threshold =      1.0E-07
     mixing beta               =       0.7000
     number of iterations used =            8  plain     mixing
     Exchange-correlation= BEEF-VDW
                           (   1   4  43  14   2   0   0)

     celldm(1)=  26.709025  celldm(2)=   0.000000  celldm(3)=   1.043981
     celldm(4)=   0.000000  celldm(5)=   0.000000  celldm(6)=   0.000000

     crystal axes: (cart. coord. in units of alat)
               a(1) = (   1.000000   0.000000   0.000000 )
               a(2) = (  -0.500000   0.866025   0.000000 )
               a(3) = (   0.000000   0.000000   1.043981 )

     reciprocal axes: (cart. coord. in units 2 pi/alat)
               b(1) = (  1.000000  0.577350 -0.000000 )
               b(2) = (  0.000000  1.154701  0.000000 )
               b(3) = (  0.000000 -0.000000  0.957872 )

     PseudoPot. # 1 for Pb read from file:
     //group///packages/espresso/pseudo/psl_1.0.0/pslibrary.1.0.0/pbe/PSEUDOPOTENTIALS/Pb.pbe-dn-kjpaw_psl.1.0.0.UPF
     MD5 check sum: 39ab5b8a6bbd56b7735ad9f188aac93a
     Pseudo is Projector augmented-wave + core cor, Zval = 14.0
     Generated using 'atomic' code by A. Dal Corso  v.7.1
     Shape of augmentation charge: PSQ
     Using radial grid of 1281 points,  6 beta functions with:
                l(1) =   0
                l(2) =   0
                l(3) =   1
                l(4) =   1
                l(5) =   2
                l(6) =   2
     Q(r) pseudized with 0 coefficients

     PseudoPot. # 2 for I  read from file:
     //group///packages/espresso/pseudo/psl_1.0.0/pslibrary.1.0.0/pbe/PSEUDOPOTENTIALS/I.pbe-dn-kjpaw_psl.1.0.0.UPF
     MD5 check sum: bfa8781bc1224d19af3f3980e3fab11e
     Pseudo is Projector augmented-wave + core cor, Zval = 17.0
     Generated using 'atomic' code by A. Dal Corso  v.7.1
     Shape of augmentation charge: PSQ
     Using radial grid of 1247 points,  6 beta functions with:
                l(1) =   0
                l(2) =   0
                l(3) =   1
                l(4) =   1
                l(5) =   2
                l(6) =   2
     Q(r) pseudized with 0 coefficients

     atomic species   valence    mass     pseudopotential
        Pb            14.00   207.20000     Pb( 1.00)
        I             17.00   126.90447     I ( 1.00)

     No symmetry found

                                    s                        frac. trans.

      isym =  1     identity

 cryst.   s( 1) = (     1          0          0      )
                  (     0          1          0      )
                  (     0          0          1      )

 cart.    s( 1) = (  1.0000000  0.0000000  0.0000000 )
                  (  0.0000000  1.0000000  0.0000000 )
                  (  0.0000000  0.0000000  1.0000000 )

     point group C_1 (1)
     there are  1 classes
     the character table:

       E
A      1.00

     the symmetry operations in each class and the name of the first element:

     E        1
          identity

   Cartesian axes

     site n.     atom                  positions (alat units)
         1           Pb  tau(   1) = (   0.1666780   0.2886497   1.0439767  )
         2           Pb  tau(   2) = (   0.1666712   0.2886557   0.5219862  )
         3           Pb  tau(   3) = (   0.0000102   0.5773235   1.0439712  )
         4           Pb  tau(   4) = (   0.0000034   0.5773295   0.5219807  )
         5           Pb  tau(   5) = (  -0.1666576   0.8659973   1.0439657  )
         6           Pb  tau(   6) = (  -0.1666644   0.8660033   0.5219752  )
         7           Pb  tau(   7) = (   0.5000113   0.2886484   1.0439810  )
         8           Pb  tau(   8) = (   0.5000045   0.2886544   0.5219905  )
         9           Pb  tau(   9) = (   0.3333436   0.5773222   1.0439755  )
        10           Pb  tau(  10) = (   0.3333367   0.5773282   0.5219850  )
        11           Pb  tau(  11) = (   0.1666758   0.8659960   1.0439700  )
        12           Pb  tau(  12) = (   0.1666690   0.8660020   0.5219795  )
        13           Pb  tau(  13) = (   0.8333447   0.2886471   1.0439853  )
        14           Pb  tau(  14) = (   0.8333379   0.2886531   0.5219949  )
        15           Pb  tau(  15) = (   0.6666769   0.5773209   1.0439798  )
        16           Pb  tau(  16) = (   0.6666701   0.5773269   0.5219894  )
        17           Pb  tau(  17) = (   0.5000091   0.8659947   1.0439743  )
        18           Pb  tau(  18) = (   0.5000023   0.8660007   0.5219839  )
        19           I   tau(  19) = (   0.1666806   0.0962006   0.9099004  )
        20           I   tau(  20) = (   0.0000060   0.3848804   0.3879044  )
        21           I   tau(  21) = (   0.0000129   0.3848744   0.9098949  )
        22           I   tau(  22) = (  -0.1666617   0.6735542   0.3878990  )
        23           I   tau(  23) = (  -0.1666549   0.6735482   0.9098894  )
        24           I   tau(  24) = (   0.5000071   0.0962053   0.3879143  )
        25           I   tau(  25) = (   0.5000140   0.0961993   0.9099047  )
        26           I   tau(  26) = (   0.3333394   0.3848792   0.3879088  )
        27           I   tau(  27) = (   0.3333462   0.3848731   0.9098993  )
        28           I   tau(  28) = (   0.1666716   0.6735530   0.3879033  )
        29           I   tau(  29) = (   0.1666784   0.6735469   0.9098938  )
        30           I   tau(  30) = (   0.8333405   0.0962041   0.3879186  )
        31           I   tau(  31) = (   0.8333473   0.0961980   0.9099091  )
        32           I   tau(  32) = (   0.6666727   0.3848779   0.3879131  )
        33           I   tau(  33) = (   0.6666795   0.3848718   0.9099036  )
        34           I   tau(  34) = (   0.5000049   0.6735517   0.3879076  )
        35           I   tau(  35) = (   0.5000117   0.6735457   0.9098981  )
        36           I   tau(  36) = (  -0.0000023   0.1924396   0.1340740  )
        37           I   tau(  37) = (   0.0000045   0.1924336   0.6560644  )
        38           I   tau(  38) = (  -0.1666701   0.4811134   0.1340685  )
        39           I   tau(  39) = (  -0.1666632   0.4811074   0.6560589  )
        40           I   tau(  40) = (  -0.3333378   0.7697873   0.1340630  )
        41           I   tau(  41) = (  -0.3333310   0.7697812   0.6560534  )
        42           I   tau(  42) = (   0.3333311   0.1924384   0.1340783  )
        43           I   tau(  43) = (   0.3333379   0.1924323   0.6560688  )
        44           I   tau(  44) = (   0.1666633   0.4811122   0.1340728  )
        45           I   tau(  45) = (   0.1666701   0.4811061   0.6560633  )
        46           I   tau(  46) = (  -0.0000045   0.7697860   0.1340673  )
        47           I   tau(  47) = (   0.0000023   0.7697799   0.6560578  )
        48           I   tau(  48) = (   0.6666644   0.1924371   0.1340827  )
        49           I   tau(  49) = (   0.6666712   0.1924310   0.6560731  )
        50           I   tau(  50) = (   0.4999966   0.4811109   0.1340772  )
        51           I   tau(  51) = (   0.5000034   0.4811049   0.6560676  )
        52           I   tau(  52) = (   0.3333288   0.7697847   0.1340717  )
        53           I   tau(  53) = (   0.3333356   0.7697787   0.6560621  )
        54           Pb  tau(  54) = (   0.1666738   0.0962066   0.3879099  )

   Crystallographic axes

     site n.     atom                  positions (cryst. coord.)
         1           Pb  tau(   1) = (  0.3333300  0.3333039  0.9999959  )
         2           Pb  tau(   2) = (  0.3333266  0.3333109  0.4999959  )
         3           Pb  tau(   3) = (  0.3333281  0.6666357  0.9999906  )
         4           Pb  tau(   4) = (  0.3333248  0.6666427  0.4999906  )
         5           Pb  tau(   5) = (  0.3333262  0.9999675  0.9999854  )
         6           Pb  tau(   6) = (  0.3333229  0.9999745  0.4999854  )
         7           Pb  tau(   7) = (  0.6666626  0.3333025  1.0000001  )
         8           Pb  tau(   8) = (  0.6666592  0.3333094  0.5000001  )
         9           Pb  tau(   9) = (  0.6666607  0.6666343  0.9999948  )
        10           Pb  tau(  10) = (  0.6666573  0.6666412  0.4999948  )
        11           Pb  tau(  11) = (  0.6666588  0.9999661  0.9999895  )
        12           Pb  tau(  12) = (  0.6666555  0.9999730  0.4999895  )
        13           Pb  tau(  13) = (  0.9999951  0.3333010  1.0000042  )
        14           Pb  tau(  14) = (  0.9999918  0.3333079  0.5000042  )
        15           Pb  tau(  15) = (  0.9999933  0.6666328  0.9999990  )
        16           Pb  tau(  16) = (  0.9999899  0.6666397  0.4999990  )
        17           Pb  tau(  17) = (  0.9999914  0.9999646  0.9999937  )
        18           Pb  tau(  18) = (  0.9999881  0.9999715  0.4999937  )
        19           I   tau(  19) = (  0.2222221  0.1110829  0.8715680  )
        20           I   tau(  20) = (  0.2222169  0.4444217  0.3715628  )
        21           I   tau(  21) = (  0.2222202  0.4444147  0.8715628  )
        22           I   tau(  22) = (  0.2222150  0.7777534  0.3715575  )
        23           I   tau(  23) = (  0.2222183  0.7777465  0.8715575  )
        24           I   tau(  24) = (  0.5555513  0.1110884  0.3715722  )
        25           I   tau(  25) = (  0.5555547  0.1110814  0.8715722  )
        26           I   tau(  26) = (  0.5555495  0.4444202  0.3715669  )
        27           I   tau(  27) = (  0.5555528  0.4444132  0.8715669  )
        28           I   tau(  28) = (  0.5555476  0.7777520  0.3715617  )
        29           I   tau(  29) = (  0.5555509  0.7777450  0.8715617  )
        30           I   tau(  30) = (  0.8888839  0.1110869  0.3715764  )
        31           I   tau(  31) = (  0.8888873  0.1110799  0.8715764  )
[...]
     atom   37 type  2   force =    -0.00000842    0.00024887    0.00480781
     atom   38 type  2   force =     0.00052759    0.00030607    0.00571792
     atom   39 type  2   force =     0.00033236    0.00019557    0.00544428
     atom   40 type  2   force =     0.00004185   -0.00456353    0.00107094
     atom   41 type  2   force =     0.00021501   -0.00012709    0.00480747
     atom   42 type  2   force =     0.00407504    0.00235299    0.00108143
     atom   43 type  2   force =     0.00006355    0.00003158    0.00484780
     atom   44 type  2   force =    -0.00013371   -0.00014362    0.00550983
     atom   45 type  2   force =    -0.00013601    0.00203771    0.00615541
     atom   46 type  2   force =    -0.00019425   -0.00004107    0.00550803
     atom   47 type  2   force =     0.00169287   -0.00113093    0.00615577
     atom   48 type  2   force =     0.00019942   -0.00030934    0.00574480
     atom   49 type  2   force =    -0.00005317   -0.00043192    0.00538271
     atom   50 type  2   force =    -0.00017169    0.00033665    0.00574539
     atom   51 type  2   force =    -0.00038368    0.00017512    0.00537983
     atom   52 type  2   force =     0.00008585    0.00005062    0.00557841
     atom   53 type  2   force =    -0.00192533   -0.00110840    0.00613945
     atom   54 type  1   force =    -0.00000457   -0.00000232    0.00673791
     The Hubbard contrib.    to forces
     atom    1 type  1   force =     0.00000000    0.00000000    0.00000000
     atom    2 type  1   force =     0.00000000    0.00000000    0.00000000
     atom    3 type  1   force =     0.00000000    0.00000000    0.00000000
     atom    4 type  1   force =     0.00000000    0.00000000    0.00000000
     atom    5 type  1   force =     0.00000000    0.00000000    0.00000000
     atom    6 type  1   force =     0.00000000    0.00000000    0.00000000
     atom    7 type  1   force =     0.00000000    0.00000000    0.00000000
     atom    8 type  1   force =     0.00000000    0.00000000    0.00000000
     atom    9 type  1   force =     0.00000000    0.00000000    0.00000000
     atom   10 type  1   force =     0.00000000    0.00000000    0.00000000
     atom   11 type  1   force =     0.00000000    0.00000000    0.00000000
     atom   12 type  1   force =     0.00000000    0.00000000    0.00000000
     atom   13 type  1   force =     0.00000000    0.00000000    0.00000000
     atom   14 type  1   force =     0.00000000    0.00000000    0.00000000
     atom   15 type  1   force =     0.00000000    0.00000000    0.00000000
     atom   16 type  1   force =     0.00000000    0.00000000    0.00000000
     atom   17 type  1   force =     0.00000000    0.00000000    0.00000000
     atom   18 type  1   force =     0.00000000    0.00000000    0.00000000
     atom   19 type  2   force =     0.00000000    0.00000000    0.00000000
     atom   20 type  2   force =     0.00000000    0.00000000    0.00000000
     atom   21 type  2   force =     0.00000000    0.00000000    0.00000000
     atom   22 type  2   force =     0.00000000    0.00000000    0.00000000
     atom   23 type  2   force =     0.00000000    0.00000000    0.00000000
     atom   24 type  2   force =     0.00000000    0.00000000    0.00000000
     atom   25 type  2   force =     0.00000000    0.00000000    0.00000000
     atom   26 type  2   force =     0.00000000    0.00000000    0.00000000
     atom   27 type  2   force =     0.00000000    0.00000000    0.00000000
     atom   28 type  2   force =     0.00000000    0.00000000    0.00000000
     atom   29 type  2   force =     0.00000000    0.00000000    0.00000000
     atom   30 type  2   force =     0.00000000    0.00000000    0.00000000
     atom   31 type  2   force =     0.00000000    0.00000000    0.00000000
     atom   32 type  2   force =     0.00000000    0.00000000    0.00000000
     atom   33 type  2   force =     0.00000000    0.00000000    0.00000000
     atom   34 type  2   force =     0.00000000    0.00000000    0.00000000
     atom   35 type  2   force =     0.00000000    0.00000000    0.00000000
     atom   36 type  2   force =     0.00000000    0.00000000    0.00000000
     atom   37 type  2   force =     0.00000000    0.00000000    0.00000000
     atom   38 type  2   force =     0.00000000    0.00000000    0.00000000
     atom   39 type  2   force =     0.00000000    0.00000000    0.00000000
     atom   40 type  2   force =     0.00000000    0.00000000    0.00000000
     atom   41 type  2   force =     0.00000000    0.00000000    0.00000000
     atom   42 type  2   force =     0.00000000    0.00000000    0.00000000
     atom   43 type  2   force =     0.00000000    0.00000000    0.00000000
     atom   44 type  2   force =     0.00000000    0.00000000    0.00000000
     atom   45 type  2   force =     0.00000000    0.00000000    0.00000000
     atom   46 type  2   force =     0.00000000    0.00000000    0.00000000
     atom   47 type  2   force =     0.00000000    0.00000000    0.00000000
     atom   48 type  2   force =     0.00000000    0.00000000    0.00000000
     atom   49 type  2   force =     0.00000000    0.00000000    0.00000000
     atom   50 type  2   force =     0.00000000    0.00000000    0.00000000
     atom   51 type  2   force =     0.00000000    0.00000000    0.00000000
     atom   52 type  2   force =     0.00000000    0.00000000    0.00000000
     atom   53 type  2   force =     0.00000000    0.00000000    0.00000000
     atom   54 type  1   force =     0.00000000    0.00000000    0.00000000
     The SCF correction term to forces
     atom    1 type  1   force =     0.00000710   -0.00002039    0.00000060
     atom    2 type  1   force =     0.00000726   -0.00004040   -0.00001100
     atom    3 type  1   force =     0.00000946    0.00000643    0.00000041
     atom    4 type  1   force =    -0.00000092   -0.00000006   -0.00000871
     atom    5 type  1   force =    -0.00001501    0.00001516    0.00000108
     atom    6 type  1   force =    -0.00003185    0.00002578   -0.00001124
     atom    7 type  1   force =    -0.00002483   -0.00001361    0.00000644
     atom    8 type  1   force =    -0.00002055   -0.00001131   -0.00000402
     atom    9 type  1   force =    -0.00000973    0.00000123   -0.00000126
     atom   10 type  1   force =     0.00000721   -0.00000519   -0.00000525
     atom   11 type  1   force =    -0.00000442   -0.00001000   -0.00000080
     atom   12 type  1   force =    -0.00000127    0.00000819   -0.00000540
     atom   13 type  1   force =     0.00001745   -0.00001209    0.00000907
     atom   14 type  1   force =     0.00001386   -0.00001478   -0.00000949
     atom   15 type  1   force =    -0.00000235    0.00002274    0.00000920
     atom   16 type  1   force =    -0.00000632    0.00002009   -0.00000943
     atom   17 type  1   force =     0.00001966    0.00000961    0.00000316
     atom   18 type  1   force =     0.00003296    0.00001803   -0.00001346
     atom   19 type  2   force =     0.00000743    0.00000295   -0.00000129
     atom   20 type  2   force =     0.00002138   -0.00003750    0.00000443
     atom   21 type  2   force =     0.00003169   -0.00001310   -0.00000560
     atom   22 type  2   force =    -0.00002269    0.00003756    0.00000414
     atom   23 type  2   force =     0.00000293    0.00003436   -0.00000466
     atom   24 type  2   force =    -0.00003973    0.00000367    0.00001222
     atom   25 type  2   force =    -0.00003430   -0.00001345   -0.00000639
     atom   26 type  2   force =    -0.00001586   -0.00003581    0.00001257
     atom   27 type  2   force =    -0.00002777   -0.00002174   -0.00000657
     atom   28 type  2   force =     0.00000330    0.00000179    0.00000013
     atom   29 type  2   force =    -0.00000071   -0.00000091   -0.00000063
     atom   30 type  2   force =     0.00003946   -0.00000116    0.00001115
     atom   31 type  2   force =     0.00002469   -0.00001688   -0.00000689
     atom   32 type  2   force =    -0.00000581   -0.00000226    0.00001175
     atom   33 type  2   force =    -0.00000684   -0.00000212   -0.00001752
     atom   34 type  2   force =     0.00001959    0.00003421    0.00001121
     atom   35 type  2   force =    -0.00000095    0.00002876   -0.00000627
     atom   36 type  2   force =     0.00005010   -0.00002722    0.00002819
     atom   37 type  2   force =     0.00003830   -0.00002428   -0.00002746
     atom   38 type  2   force =     0.00000748    0.00000634    0.00001933
     atom   39 type  2   force =    -0.00000472   -0.00000168   -0.00001428
     atom   40 type  2   force =     0.00000212    0.00005527    0.00002715
     atom   41 type  2   force =    -0.00000197    0.00004445   -0.00002749
     atom   42 type  2   force =    -0.00004195   -0.00002494    0.00002072
     atom   43 type  2   force =    -0.00003075   -0.00001764   -0.00002626
     atom   44 type  2   force =     0.00000209   -0.00002352    0.00000564
     atom   45 type  2   force =     0.00000926   -0.00002785   -0.00000378
     atom   46 type  2   force =    -0.00002083    0.00001335    0.00000567
     atom   47 type  2   force =    -0.00002039    0.00002142   -0.00000406
     atom   48 type  2   force =    -0.00000502   -0.00000669    0.00001747
     atom   49 type  2   force =    -0.00000844   -0.00000142   -0.00001962
     atom   50 type  2   force =    -0.00000762    0.00000062    0.00001681
     atom   51 type  2   force =    -0.00000534   -0.00000569   -0.00001930
     atom   52 type  2   force =     0.00001985    0.00001042    0.00001026
     atom   53 type  2   force =     0.00002315    0.00001238   -0.00000911
     atom   54 type  1   force =     0.00000057   -0.00000074    0.00001216

     Total force =     0.003419     Total SCF correction =     0.000232

     Computing stress (Cartesian axis) and pressure

[...]

          total   stress  (Ry/bohr**3)                   (kbar)     P=      -16.81
  -0.00011446   0.00000011  -0.00000022          -16.84        0.02       -0.03
   0.00000011  -0.00011461  -0.00000014            0.02      -16.86       -0.02
  -0.00000022  -0.00000014  -0.00011373           -0.03       -0.02      -16.73

     kinetic stress (kbar)  15112.42      0.01     -0.02
                                0.01  15112.41     -0.01
                               -0.02     -0.01  15125.78

     local   stress (kbar)  -7238.67     -3.78      3.46
                               -3.78  -7234.10      2.24
                                3.46      2.24    924.23

     nonloc. stress (kbar)  -1272.61      0.01     -0.01
                                0.01  -1272.62     -0.01
                               -0.01     -0.01  -1276.95

     hartree stress (kbar)  11805.51      1.55     -1.41
                                1.55  11803.66     -0.91
                               -1.41     -0.91   8143.66

     exc-cor stress (kbar)   6886.33      0.01     -0.00
                                0.01   6886.32     -0.00
                               -0.00     -0.00   6885.12

     corecor stress (kbar) -11217.95     -0.00      0.00
                               -0.00 -11217.95      0.00
                                0.00      0.00 -11217.87

     ewald   stress (kbar) -14174.18      2.22     -2.05
                                2.22 -14176.88     -1.34
                               -2.05     -1.34 -18684.27

     hubbard stress (kbar)      0.00      0.00      0.00
                                0.00      0.00      0.00
                                0.00      0.00      0.00

     DFT-D   stress (kbar)      0.00      0.00      0.00
                                0.00      0.00      0.00
                                0.00      0.00      0.00

     XDM     stress (kbar)      0.00      0.00      0.00
                                0.00      0.00      0.00
                                0.00      0.00      0.00

     dft-nl  stress (kbar)     82.30     -0.00      0.00
                               -0.00     82.30      0.00
                                0.00      0.00     83.57

     TS-vdW  stress (kbar)      0.00      0.00      0.00
                                0.00      0.00      0.00
                                0.00      0.00      0.00

     MDB     stress (kbar)      0.00      0.00      0.00
                                0.00      0.00      0.00
                                0.00      0.00      0.00

     3D-RISM stress (kbar)      0.00      0.00      0.00
                                0.00      0.00      0.00
                                0.00      0.00      0.00

[...]

     Non-local corr. energy    =      25.59156596 Ry

 BEEFens 2000 ensemble energies
             -0.215692863022232E+02
             -0.216987948648791E+03
             -0.988204674678163E+02
              0.757941290890607E+02
             -0.165913084184245E+03
             -0.203079605426223E+03
              0.104260217289258E+03
              0.408921836835361E+00
              0.175587327907765E+03
             -0.111459081166732E+02
              0.900762281397610E+02
              0.911244386612174E+01
             -0.691888016576718E+01
             -0.562767987412383E+01
              0.112003591402366E+03
             -0.845243710389947E+02
             -0.165655084992123E+03
             -0.535245156279810E+02
              0.478462671377126E+02
             -0.110283737266263E+01
              0.244414119406968E+03
              0.203951149324445E+03
             -0.125622597126533E+03
              0.433910879370281E+02
             -0.261760225569257E+03
              0.214845844391980E+03
              0.735077159040457E+02
              0.193932639780012E+03
              0.130666880883245E+03
             -0.606280150206992E+02
              0.478566967474187E+02
             -0.854237157507401E+02
              0.357770696461565E+02
              0.130145847378679E+03
              0.140063112580724E+03
             -0.608947443225579E+02
              0.308749078907897E+03
             -0.124367282167239E+03
             -0.827545387987165E+02
              0.123502767886437E+03
              0.544670210922945E+02
              0.939011068247238E+02
             -0.181287848233713E+03
             -0.117993368702437E+02
              0.173916204261510E+03
              0.227391667784596E+03
             -0.230955043080640E+03
              0.147480578130860E+02
              0.800311675517947E+02
              0.517504769384607E+02
              0.901941525377239E+02
              0.198162300178803E+03
             -0.128728276075901E+03
             -0.124917600113942E+03
             -0.173980642597533E+03
             -0.251220486080670E+02
             -0.148454236381791E+03
              0.191335403887396E+02
             -0.213812895040041E+02
             -0.117743789247637E+03
[...]
              0.147053374437446E+03
              0.942184855892160E+02
              0.959374997602215E+02
             -0.177730070468523E+03
             -0.183584128823561E+03
             -0.413548815649667E+02
             -0.164074250163404E+03
              0.260447672117440E+03
              0.219353031972249E+03
              0.103544444831265E+03
              0.285264662357454E+03
             -0.142501688629120E+03
             -0.613973958528202E+02
             -0.885739660239155E+02
              0.246894189291268E+03

 BEEF-vdW xc energy contributions
            1 :    -2230.882786120002
            2 :     2043.813739565408
            3 :    -1725.240931107685
            4 :     1360.522823581334
            5 :    -1029.589631593232
            6 :     781.1798551140241
            7 :    -625.1676646865867
            8 :     540.2986934380879
            9 :    -490.1668281355701
           10 :     440.6471118141662
           11 :    -372.8651435706506
           12 :     287.2012746247328
           13 :    -197.7352824861173
           14 :     121.4938415429083
           15 :    -68.97366286140868
           16 :     40.24198337383223
           17 :    -26.91912394032988
           18 :     17.60783017246104
           19 :    -3.672902247577440
           20 :    -17.16825790872417
           21 :     40.83754229704255
           22 :    -60.19968043319841
           23 :     69.70068824762620
           24 :    -68.67942653150340
           25 :     61.61832350047098
           26 :    -55.49306158774061
           27 :     55.93542960820196
           28 :    -64.32019026163789
           29 :     77.19930110633550
           30 :    -88.26305605062407
           31 :    -192.5186250525212
           32 :    -138.5381473019611

     Writing all to output data dir ./PbI2.save/

     General routines

     Parallel routines

     PAW routines

   This run was terminated on:   8:15:18  23Mar2024

   JOB DONE.