     Program PWSCF v.7.1 starts on 16Mar2024 at 21:38:17

     Reading input from espresso.pwi
Warning: card &CELL ignored
Warning: card    CELL_DYNAMICS    = 'BFGS' ignored
Warning: card / ignored

     Current dimensions of program PWSCF are:
     Max number of different atomic species (ntypx) = 10
     Max number of k-points (npk) =  40000
     Max angular momentum in pseudopotentials (lmaxx) =  4
     file Pb.pbe-dn-kjpaw_psl.1.0.0.UPF: wavefunction(s)  6S 6P 5D renormalized
     file I.pbe-dn-kjpaw_psl.1.0.0.UPF: wavefunction(s)  5S 5P renormalized

     IMPORTANT: XC functional enforced from input :
     Exchange-correlation= BEEF-VDW
                           (   1   4  43  14   2   0   0)
     Any further DFT definition will be discarded
     Please, verify this is what you really want

     R & G space division:  proc/nbgrp/npool/nimage =     256
     wavefunctions fft division:  task group distribution
                                  #TG    x Z-proc =       8     32
     Subspace diagonalization in iterative solution of the eigenvalue problem:
     a serial algorithm will be used

     Using Pencil Decomposition

     bravais-lattice index     =            4
     lattice parameter (alat)  =      35.6120  a.u.
     unit-cell volume          =   45937.3577 (a.u.)^3
     number of atoms/cell      =          144
     number of atomic types    =            2
     number of electrons       =      2299.00
     number of Kohn-Sham states=         1380
     kinetic-energy cutoff     =      70.0000  Ry
     charge density cutoff     =     350.0000  Ry
     scf convergence threshold =      1.0E-07
     mixing beta               =       0.7000
     number of iterations used =            8  plain     mixing
     energy convergence thresh.=      1.0E-04
     force convergence thresh. =      1.0E-03
     Exchange-correlation= BEEF-VDW
                           (   1   4  43  14   2   0   0)
     nstep                     =           50

     celldm(1)=  35.612033  celldm(2)=   0.000000  celldm(3)=   1.174479
     celldm(4)=   0.000000  celldm(5)=   0.000000  celldm(6)=   0.000000

     crystal axes: (cart. coord. in units of alat)
               a(1) = (   1.000000   0.000000   0.000000 )
               a(2) = (  -0.500000   0.866025   0.000000 )
               a(3) = (   0.000000   0.000000   1.174479 )

     reciprocal axes: (cart. coord. in units 2 pi/alat)
               b(1) = (  1.000000  0.577350 -0.000000 )
               b(2) = (  0.000000  1.154701  0.000000 )
               b(3) = (  0.000000 -0.000000  0.851442 )

     PseudoPot. # 1 for Pb read from file:
     /trace/group/acmegroup/atimmins/packages/espresso/pseudo/psl_1.0.0/pslibrary.1.0.0/pbe/PSEUDOPOTENTIALS/Pb.pbe-dn-kjpaw_psl.1.0.0.UPF
     MD5 check sum: 39ab5b8a6bbd56b7735ad9f188aac93a
     Pseudo is Projector augmented-wave + core cor, Zval = 14.0
     Generated using 'atomic' code by A. Dal Corso  v.7.1
     Shape of augmentation charge: PSQ
     Using radial grid of 1281 points,  6 beta functions with:
                l(1) =   0
                l(2) =   0
                l(3) =   1
                l(4) =   1
                l(5) =   2
                l(6) =   2
     Q(r) pseudized with 0 coefficients

     PseudoPot. # 2 for I  read from file:
     /trace/group/acmegroup/atimmins/packages/espresso/pseudo/psl_1.0.0/pslibrary.1.0.0/pbe/PSEUDOPOTENTIALS/I.pbe-dn-kjpaw_psl.1.0.0.UPF
     MD5 check sum: bfa8781bc1224d19af3f3980e3fab11e
     Pseudo is Projector augmented-wave + core cor, Zval = 17.0
     Generated using 'atomic' code by A. Dal Corso  v.7.1
     Shape of augmentation charge: PSQ
     Using radial grid of 1247 points,  6 beta functions with:
                l(1) =   0
                l(2) =   0
                l(3) =   1
                l(4) =   1
                l(5) =   2
                l(6) =   2
     Q(r) pseudized with 0 coefficients

     atomic species   valence    mass     pseudopotential
        Pb            14.00   207.20000     Pb( 1.00)
        I             17.00   126.90447     I ( 1.00)

     No symmetry found

                                    s                        frac. trans.

      isym =  1     identity

 cryst.   s( 1) = (     1          0          0      )
                  (     0          1          0      )
                  (     0          0          1      )

 cart.    s( 1) = (  1.0000000  0.0000000  0.0000000 )
                  (  0.0000000  1.0000000  0.0000000 )
                  (  0.0000000  0.0000000  1.0000000 )

     point group C_1 (1)
     there are  1 classes
     the character table:

       E
A      1.00

     the symmetry operations in each class and the name of the first element:

     E        1
          identity

   Cartesian axes

     site n.     atom                  positions (alat units)
         1           Pb  tau(   1) = (   0.1250136   0.2164827   1.1744753  )
         2           Pb  tau(   2) = (   0.1250034   0.2164918   0.3914896  )
         3           Pb  tau(   3) = (   0.1250085   0.2164873   0.7829825  )
         4           Pb  tau(   4) = (   0.0000128   0.4329881   1.1744712  )
         5           Pb  tau(   5) = (   0.0000026   0.4329971   0.3914855  )
         6           Pb  tau(   6) = (   0.0000077   0.4329926   0.7829784  )
         7           Pb  tau(   7) = (  -0.1249881   0.6494934   1.1744671  )
         8           Pb  tau(   8) = (  -0.1249983   0.6495025   0.3914814  )
         9           Pb  tau(   9) = (  -0.1249932   0.6494980   0.7829742  )
        10           Pb  tau(  10) = (  -0.2499889   0.8659988   1.1744630  )
        11           Pb  tau(  11) = (  -0.2499991   0.8660078   0.3914773  )
        12           Pb  tau(  12) = (  -0.2499940   0.8660033   0.7829701  )
        13           Pb  tau(  13) = (   0.3750136   0.2164818   1.1744786  )
        14           Pb  tau(  14) = (   0.3750034   0.2164908   0.3914929  )
        15           Pb  tau(  15) = (   0.3750085   0.2164863   0.7829857  )
        16           Pb  tau(  16) = (   0.2500128   0.4329871   1.1744745  )
        17           Pb  tau(  17) = (   0.2500026   0.4329962   0.3914888  )
        18           Pb  tau(  18) = (   0.2500077   0.4329916   0.7829816  )
        19           Pb  tau(  19) = (   0.1250119   0.6494925   1.1744703  )
        20           Pb  tau(  20) = (   0.1250017   0.6495015   0.3914847  )
        21           Pb  tau(  21) = (   0.1250068   0.6494970   0.7829775  )
        22           Pb  tau(  22) = (   0.0000111   0.8659978   1.1744662  )
        23           Pb  tau(  23) = (   0.0000009   0.8660069   0.3914805  )
        24           Pb  tau(  24) = (   0.0000060   0.8660024   0.7829734  )
        25           Pb  tau(  25) = (   0.6250136   0.2164808   1.1744818  )
        26           Pb  tau(  26) = (   0.6250034   0.2164898   0.3914962  )
        27           Pb  tau(  27) = (   0.6250085   0.2164853   0.7829890  )
        28           Pb  tau(  28) = (   0.5000128   0.4329862   1.1744777  )
        29           Pb  tau(  29) = (   0.5000026   0.4329952   0.3914920  )
        30           Pb  tau(  30) = (   0.5000077   0.4329907   0.7829849  )
        31           Pb  tau(  31) = (   0.3750119   0.6494915   1.1744736  )
        32           Pb  tau(  32) = (   0.3750017   0.6495006   0.3914879  )
        33           Pb  tau(  33) = (   0.3750068   0.6494960   0.7829808  )
        34           Pb  tau(  34) = (   0.2500111   0.8659969   1.1744695  )
        35           Pb  tau(  35) = (   0.2500009   0.8660059   0.3914838  )
        36           Pb  tau(  36) = (   0.2500060   0.8660014   0.7829766  )
        37           Pb  tau(  37) = (   0.8750136   0.2164798   1.1744851  )
        38           Pb  tau(  38) = (   0.8750034   0.2164889   0.3914994  )
        39           Pb  tau(  39) = (   0.8750085   0.2164844   0.7829923  )
        40           Pb  tau(  40) = (   0.7500128   0.4329852   1.1744810  )
        41           Pb  tau(  41) = (   0.7500026   0.4329942   0.3914953  )
        42           Pb  tau(  42) = (   0.7500077   0.4329897   0.7829881  )
        43           Pb  tau(  43) = (   0.6250119   0.6494906   1.1744769  )
        44           Pb  tau(  44) = (   0.6250017   0.6494996   0.3914912  )
        45           Pb  tau(  45) = (   0.6250068   0.6494951   0.7829840  )
        46           Pb  tau(  46) = (   0.5000111   0.8659959   1.1744727  )
        47           Pb  tau(  47) = (   0.5000009   0.8660050   0.3914870  )
        48           Pb  tau(  48) = (   0.5000060   0.8660004   0.7829799  )
        49           I   tau(  49) = (   0.1250105   0.0721505   0.6824253  )
        50           I   tau(  50) = (   0.1250156   0.0721459   1.0739182  )
        51           I   tau(  51) = (   0.0000045   0.2886603   0.2909283  )
        52           I   tau(  52) = (   0.0000096   0.2886558   0.6824212  )
        53           I   tau(  53) = (   0.0000147   0.2886513   1.0739140  )
        54           I   tau(  54) = (  -0.1249963   0.5051657   0.2909242  )
        55           I   tau(  55) = (  -0.1249912   0.5051612   0.6824171  )
        56           I   tau(  56) = (  -0.1249861   0.5051566   1.0739099  )
        57           I   tau(  57) = (  -0.2499971   0.7216710   0.2909201  )
        58           I   tau(  58) = (  -0.2499920   0.7216665   0.6824129  )
        59           I   tau(  59) = (  -0.2499869   0.7216620   1.0739058  )
        60           I   tau(  60) = (   0.3750054   0.0721540   0.2909357  )
[...]
       130           I   tau( 130) = (   0.1250009   0.7938394   0.4920425  )
       131           I   tau( 131) = (   0.1250060   0.7938348   0.8835353  )
       132           I   tau( 132) = (   0.7499983   0.1443268   0.1005653  )
       133           I   tau( 133) = (   0.7500034   0.1443223   0.4920581  )
       134           I   tau( 134) = (   0.7500085   0.1443178   0.8835509  )
       135           I   tau( 135) = (   0.6249975   0.3608322   0.1005611  )
       136           I   tau( 136) = (   0.6250026   0.3608277   0.4920540  )
       137           I   tau( 137) = (   0.6250077   0.3608232   0.8835468  )
       138           I   tau( 138) = (   0.4999966   0.5773376   0.1005570  )
       139           I   tau( 139) = (   0.5000017   0.5773330   0.4920499  )
       140           I   tau( 140) = (   0.5000068   0.5773285   0.8835427  )
       141           I   tau( 141) = (   0.3749958   0.7938429   0.1005529  )
       142           I   tau( 142) = (   0.3750009   0.7938384   0.4920457  )
       143           I   tau( 143) = (   0.3750060   0.7938339   0.8835386  )
       144           Pb  tau( 144) = (   0.1250054   0.0721550   0.2909325  )

   Crystallographic axes

     site n.     atom                  positions (cryst. coord.)
         1           Pb  tau(   1) = (  0.2500000  0.2499727  0.9999973  )
         2           Pb  tau(   2) = (  0.2499950  0.2499832  0.3333306  )
         3           Pb  tau(   3) = (  0.2499975  0.2499780  0.6666639  )
         4           Pb  tau(   4) = (  0.2499986  0.4999716  0.9999938  )
         5           Pb  tau(   5) = (  0.2499936  0.4999820  0.3333271  )
[...]
     atom   44 type  1   force =     0.00000000    0.00000000    0.00000000
     atom   45 type  1   force =     0.00000000    0.00000000    0.00000000
     atom   46 type  1   force =     0.00000000    0.00000000    0.00000000
     atom   47 type  1   force =     0.00000000    0.00000000    0.00000000
     atom   48 type  1   force =     0.00000000    0.00000000    0.00000000
     atom   49 type  2   force =     0.00000000    0.00000000    0.00000000
     atom   50 type  2   force =     0.00000000    0.00000000    0.00000000
     atom   51 type  2   force =     0.00000000    0.00000000    0.00000000
     atom   52 type  2   force =     0.00000000    0.00000000    0.00000000
     atom   53 type  2   force =     0.00000000    0.00000000    0.00000000
     atom   54 type  2   force =     0.00000000    0.00000000    0.00000000
     atom   55 type  2   force =     0.00000000    0.00000000    0.00000000
     atom   56 type  2   force =     0.00000000    0.00000000    0.00000000
     atom   57 type  2   force =     0.00000000    0.00000000    0.00000000
     atom   58 type  2   force =     0.00000000    0.00000000    0.00000000
     atom   59 type  2   force =     0.00000000    0.00000000    0.00000000
     atom   60 type  2   force =     0.00000000    0.00000000    0.00000000
[...]
     atom  130 type  2   force =     0.00000000    0.00000000    0.00000000
     atom  131 type  2   force =     0.00000000    0.00000000    0.00000000
     atom  132 type  2   force =     0.00000000    0.00000000    0.00000000
     atom  133 type  2   force =     0.00000000    0.00000000    0.00000000
     atom  134 type  2   force =     0.00000000    0.00000000    0.00000000
     atom  135 type  2   force =     0.00000000    0.00000000    0.00000000
     atom  136 type  2   force =     0.00000000    0.00000000    0.00000000
     atom  137 type  2   force =     0.00000000    0.00000000    0.00000000
     atom  138 type  2   force =     0.00000000    0.00000000    0.00000000
     atom  139 type  2   force =     0.00000000    0.00000000    0.00000000
     atom  140 type  2   force =     0.00000000    0.00000000    0.00000000
     atom  141 type  2   force =     0.00000000    0.00000000    0.00000000
     atom  142 type  2   force =     0.00000000    0.00000000    0.00000000
     atom  143 type  2   force =     0.00000000    0.00000000    0.00000000
     atom  144 type  1   force =     0.00000000    0.00000000    0.00000000
     The SCF correction term to forces
     atom    1 type  1   force =     0.00000011   -0.00000687   -0.00000454
     atom    2 type  1   force =     0.00000007   -0.00000642   -0.00001614
     atom    3 type  1   force =    -0.00000004    0.00000181    0.00000785
     atom    4 type  1   force =    -0.00000470   -0.00001189   -0.00000449
     atom    5 type  1   force =    -0.00001147   -0.00000758   -0.00000213
     atom    6 type  1   force =     0.00000177   -0.00000990    0.00000018
     atom    7 type  1   force =    -0.00001264    0.00000190   -0.00000450
     atom    8 type  1   force =    -0.00001231   -0.00000608   -0.00000213
     atom    9 type  1   force =    -0.00000766    0.00000647    0.00000020
     atom   10 type  1   force =    -0.00000597    0.00000345   -0.00000457
     atom   11 type  1   force =    -0.00000561    0.00000316   -0.00001628
     atom   12 type  1   force =     0.00000154   -0.00000090    0.00000783
     atom   13 type  1   force =     0.00000187    0.00000108   -0.00000146
     atom   14 type  1   force =     0.00000811    0.00000473   -0.00000847
     atom   15 type  1   force =    -0.00000655   -0.00000374    0.00000060
     atom   16 type  1   force =     0.00000468   -0.00001192   -0.00000446
     atom   17 type  1   force =     0.00001148   -0.00000763   -0.00000210
     atom   18 type  1   force =    -0.00000179   -0.00000989    0.00000012
     atom   19 type  1   force =    -0.00000001   -0.00000000   -0.00001307
     atom   20 type  1   force =    -0.00000001    0.00000000    0.00001759
     atom   21 type  1   force =    -0.00000003    0.00000003   -0.00000450
     atom   22 type  1   force =    -0.00000790    0.00001003   -0.00000453
     atom   23 type  1   force =    -0.00000091    0.00001375   -0.00000211
     atom   24 type  1   force =    -0.00000944    0.00000341    0.00000020
     atom   25 type  1   force =    -0.00000003    0.00000944    0.00000094
     atom   26 type  1   force =    -0.00000002    0.00000719   -0.00001031
     atom   27 type  1   force =     0.00000003   -0.00000372    0.00000045
     atom   28 type  1   force =     0.00000816   -0.00000476    0.00000107
     atom   29 type  1   force =     0.00000619   -0.00000367   -0.00001028
     atom   30 type  1   force =    -0.00000322    0.00000184    0.00000036
     atom   31 type  1   force =     0.00001266    0.00000192   -0.00000449
     atom   32 type  1   force =     0.00001233   -0.00000609   -0.00000207
     atom   33 type  1   force =     0.00000766    0.00000650    0.00000014
     atom   34 type  1   force =     0.00000790    0.00001004   -0.00000457
     atom   35 type  1   force =     0.00000082    0.00001373   -0.00000210
     atom   36 type  1   force =     0.00000943    0.00000344    0.00000022
     atom   37 type  1   force =    -0.00000193    0.00000106   -0.00000154
     atom   38 type  1   force =    -0.00000813    0.00000467   -0.00000852
     atom   39 type  1   force =     0.00000652   -0.00000377    0.00000065
     atom   40 type  1   force =    -0.00000816   -0.00000474    0.00000098
     atom   41 type  1   force =    -0.00000626   -0.00000364   -0.00001032
     atom   42 type  1   force =     0.00000323    0.00000182    0.00000044
     atom   43 type  1   force =    -0.00000001   -0.00000213   -0.00000146
     atom   44 type  1   force =    -0.00000005   -0.00000929   -0.00000849
     atom   45 type  1   force =     0.00000001    0.00000761    0.00000055
     atom   46 type  1   force =     0.00000596    0.00000339   -0.00000466
     atom   47 type  1   force =     0.00000565    0.00000314   -0.00001615
     atom   48 type  1   force =    -0.00000156   -0.00000088    0.00000782
     atom   49 type  2   force =    -0.00000002   -0.00000003    0.00002234
     atom   50 type  2   force =     0.00000006   -0.00000002    0.00000250
     atom   51 type  2   force =    -0.00000129   -0.00001073    0.00000123
     atom   52 type  2   force =     0.00000095    0.00000115    0.00001248
     atom   53 type  2   force =     0.00000467   -0.00001050   -0.00000276
     atom   54 type  2   force =    -0.00001452   -0.00000843    0.00000121
     atom   55 type  2   force =    -0.00000098   -0.00000054   -0.00000208
     atom   56 type  2   force =    -0.00001001   -0.00000575   -0.00000822
     atom   57 type  2   force =    -0.00001022    0.00000418    0.00000143
     atom   58 type  2   force =     0.00000125    0.00000019    0.00001245
     atom   59 type  2   force =    -0.00000685    0.00000967   -0.00000252
     atom   60 type  2   force =    -0.00000856    0.00000677    0.00000132
[...]
     atom  130 type  2   force =     0.00000007    0.00001271    0.00000719
     atom  131 type  2   force =     0.00000003    0.00000997    0.00000360
     atom  132 type  2   force =    -0.00000074    0.00001337    0.00000807
     atom  133 type  2   force =     0.00000185    0.00000597   -0.00000766
     atom  134 type  2   force =     0.00000491   -0.00000214    0.00000380
     atom  135 type  2   force =    -0.00000004    0.00000000    0.00000895
     atom  136 type  2   force =    -0.00000011   -0.00000007   -0.00001106
     atom  137 type  2   force =     0.00000004   -0.00000009    0.00001469
     atom  138 type  2   force =     0.00001131   -0.00000728    0.00000811
     atom  139 type  2   force =     0.00000617   -0.00000115   -0.00000771
     atom  140 type  2   force =     0.00000070    0.00000543    0.00000366
     atom  141 type  2   force =     0.00001508    0.00000865   -0.00000021
     atom  142 type  2   force =     0.00000888    0.00000513   -0.00000576
     atom  143 type  2   force =     0.00000965    0.00000569   -0.00000501
     atom  144 type  1   force =     0.00000004    0.00000000    0.00001089

     Total force =     0.004778     Total SCF correction =     0.000147

     Computing stress (Cartesian axis) and pressure

     Non-local corr. energy    =      68.73193469 Ry

          total   stress  (Ry/bohr**3)                   (kbar)     P=       -3.42
  -0.00002352  -0.00000000  -0.00000000           -3.46       -0.00       -0.00
  -0.00000000  -0.00002353  -0.00000000           -0.00       -3.46       -0.00
  -0.00000000  -0.00000000  -0.00002262           -0.00       -0.00       -3.33

     kinetic stress (kbar)  15037.82      0.00     -0.00
                                0.00  15037.82      0.00
                               -0.00      0.00  15049.61

     local   stress (kbar)  -7399.38      0.01     -0.00
                                0.01  -7399.29      0.01
                               -0.00      0.01   1365.29

     nonloc. stress (kbar)  -1147.00     -0.00      0.00
                               -0.00  -1147.00     -0.00
                                0.00     -0.00  -1152.06

     hartree stress (kbar)  11946.27     -0.00      0.00
                               -0.00  11946.23     -0.00
                                0.00     -0.00   8000.60

     exc-cor stress (kbar)   6923.44      0.00     -0.00
                                0.00   6923.44     -0.00
                               -0.00     -0.00   6922.34

     corecor stress (kbar) -11275.52     -0.00     -0.00
                               -0.00 -11275.52      0.00
                               -0.00      0.00 -11275.46

     ewald   stress (kbar) -14171.99     -0.00      0.00
                               -0.00 -14172.05     -0.01
                                0.00     -0.01 -18997.86

     hubbard stress (kbar)      0.00      0.00      0.00
                                0.00      0.00      0.00
                                0.00      0.00      0.00

     DFT-D   stress (kbar)      0.00      0.00      0.00
                                0.00      0.00      0.00
                                0.00      0.00      0.00

     XDM     stress (kbar)      0.00      0.00      0.00
                                0.00      0.00      0.00
                                0.00      0.00      0.00

     dft-nl  stress (kbar)     82.92      0.00      0.00
                                0.00     82.92     -0.00
                                0.00     -0.00     84.22

     TS-vdW  stress (kbar)      0.00      0.00      0.00
                                0.00      0.00      0.00
                                0.00      0.00      0.00

     MDB     stress (kbar)      0.00      0.00      0.00
                                0.00      0.00      0.00
                                0.00      0.00      0.00

     3D-RISM stress (kbar)      0.00      0.00      0.00
                                0.00      0.00      0.00
                                0.00      0.00      0.00

     Energy error            =      5.4E-05 Ry
     Gradient error          =      9.1E-04 Ry/Bohr

     bfgs converged in  24 scf cycles and  23 bfgs steps
     (criteria: energy <  1.0E-04 Ry, force <  1.0E-03 Ry/Bohr)

     End of BFGS Geometry Optimization

     Final energy             =  -97467.6271702072 Ry

     File ./PbI2.bfgs deleted, as requested
Begin final coordinates

ATOMIC_POSITIONS (angstrom)
Pb            2.3558264419        4.1736056485       22.0443951356
Pb            2.3557477666        4.0577375302        7.4781233775
Pb            2.3557379899        4.0825325913       14.7713220112
Pb            0.0079065377        8.1973994097       22.1406919421
Pb           -0.0152865737        8.1605525906        7.3576278729
Pb            0.0042286751        8.1633177638       14.7552518458
Pb           -2.3189519034       12.2276711175       22.1407417797
Pb           -2.3624075500       12.2260263904        7.3576609190
Pb           -2.3504796951       12.2417805517       14.7552376406
Pb           -4.6296087067       16.2726580069       22.0440188474
Pb           -4.7299983751       16.3307786221        7.4782811669
Pb           -4.7087871620       16.3186436985       14.7713152474
Pb            7.1801170864        4.1448893589       22.1235928592
Pb            7.0816673093        4.0881260246        7.4110726783
Pb            7.0668495266        4.0796995261       14.7633357980
Pb            4.7036066066        8.1974221288       22.1406682768
Pb            4.7267658194        8.1605602101        7.3575853873
Pb            4.7072400024        8.1633130955       14.7552410158
Pb            2.3557476390       12.2399008325       22.1223981014
Pb            2.3557569931       12.2398136525        7.3485070456
Pb            2.3557365054       12.2399189185       14.7334873834
Pb            0.0289069685       16.2944072912       22.1407530724
Pb            0.0086095718       16.3328074168        7.3577338924
Pb            0.0010279890       16.3147049245       14.7552152886
Pb           11.7783311077        4.0464010077       22.1948088191
Pb           11.7783137219        4.0932217949        7.3941641482
Pb           11.7782670657        4.0778339325       14.7643442104
Pb            9.3938563342        8.1763238990       22.1946155914
Pb            9.4343413978        8.1529757717        7.3940878819
Pb            9.4209446532        8.1608327250       14.7643456646
Pb            7.0304761768       12.2276967852       22.1407006585
Pb            7.0739427452       12.2260382369        7.3576096493
Pb            7.0619422536       12.2417797036       14.7552567756
Pb            4.6826565315       16.2944146101       22.1407343880
Pb            4.7029169907       16.3328529807        7.3577251233
Pb            4.7104328306       16.3146998177       14.7552455072
Pb           16.3765702596        4.1448717452       22.1237065525
Pb           16.4749268265        4.0881187985        7.4111909125
Pb           16.4896912688        4.0796983722       14.7633939249
Pb           14.1627866236        8.1763133571       22.1946998353
Pb           14.1222500689        8.1529555901        7.3941046271
Pb           14.1355933976        8.1608362504       14.7643624261
Pb           11.7783288710       12.1090849795       22.1233686910
Pb           11.7782902509       12.2228895954        7.4109886002
Pb           11.7782699644       12.2401137655       14.7633690408
Pb            9.3412508310       16.2726505430       22.0441284891
Pb            9.4415635074       16.3308182237        7.4782224267
Pb            9.4202601478       16.3186418903       14.7713447681
I             2.3557095686        1.3597844577       12.8973675907
I             2.3557463488        1.3596874690       20.2980061050
I             0.0316504757        5.3898453332        5.5088070150
I            -0.0001235581        5.4405385719       12.8859758217
I             0.0041180867        5.4135569185       20.2733417808
I            -2.3511018917        9.5223577155        5.4809802203
I            -2.3593465829        9.5177606837       12.8799441833
I            -2.3578109751        9.5184858879       20.2626160566
I            -4.7385542738       13.6523421921        5.5087779120
I            -4.7107200231       13.5995232397       12.8859544921
I            -4.7315276084       13.6158776438       20.2731048814
I             7.0080136557        1.3572352119        5.5088562147
[...]
I             2.3557449493       14.9723937836        9.2267369812
I             2.3557014316       14.9460987601       16.6435169329
I            14.1292818945        2.7226227231        1.9089746327
I            14.1280740825        2.7142771906        9.2615472461
I            14.1353821359        2.7133826590       16.6553635194
I            11.7782620424        6.7998487648        1.8925891407
I            11.7782531735        6.7998473721        9.2774145662
I            11.7782497981        6.7998777196       16.6703579961
I             9.4228283416       10.8743412510        1.9087175557
I             9.4150101401       10.8776203586        9.2613653781
I             9.4178353609       10.8844504095       16.6553658622
I             7.0646192327       14.9585698402        1.8827748739
I             7.1533930232       15.0098028338        9.2365648764
I             7.0614260022       14.9568422986       16.6572382639
Pb            2.3559227221        1.3591438084        3.7295110476
End final coordinates

     Writing all to output data dir ./PbI2.save/

     General routines

     Parallel routines

     PAW routines

   This run was terminated on:  13:41:25  18Mar2024

   JOB DONE.