     Program PWSCF v.7.1 starts on  9Mar2024 at 10:24:40

     Reading input from espresso.pwi
Warning: card &CELL ignored
Warning: card    CELL_DYNAMICS    = 'BFGS' ignored
Warning: card / ignored

     Current dimensions of program PWSCF are:
     Max number of different atomic species (ntypx) = 10
     Max number of k-points (npk) =  40000
     Max angular momentum in pseudopotentials (lmaxx) =  4
     file Pb.pbe-dn-kjpaw_psl.1.0.0.UPF: wavefunction(s)  6S 6P 5D renormalized
     file I.pbe-dn-kjpaw_psl.1.0.0.UPF: wavefunction(s)  5S 5P renormalized

     IMPORTANT: XC functional enforced from input :
     Exchange-correlation= BEEF-VDW
                           (   1   4  43  14   2   0   0)
     Any further DFT definition will be discarded
     Please, verify this is what you really want

     R & G space division:  proc/nbgrp/npool/nimage =     256
     wavefunctions fft division:  task group distribution
                                  #TG    x Z-proc =       8     32
     Subspace diagonalization in iterative solution of the eigenvalue problem:
     a serial algorithm will be used

     Using Pencil Decomposition

     bravais-lattice index     =            4
     lattice parameter (alat)  =      35.6120  a.u.
     unit-cell volume          =   45937.3577 (a.u.)^3
     number of atoms/cell      =          144
     number of atomic types    =            2
     number of electrons       =      2300.00
     number of Kohn-Sham states=         1380
     kinetic-energy cutoff     =      70.0000  Ry
     charge density cutoff     =     350.0000  Ry
     scf convergence threshold =      1.0E-07
     mixing beta               =       0.7000
     number of iterations used =            8  plain     mixing
     energy convergence thresh.=      1.0E-04
     force convergence thresh. =      1.0E-03
     Exchange-correlation= BEEF-VDW
                           (   1   4  43  14   2   0   0)
     nstep                     =           50

     celldm(1)=  35.612033  celldm(2)=   0.000000  celldm(3)=   1.174479
     celldm(4)=   0.000000  celldm(5)=   0.000000  celldm(6)=   0.000000

     crystal axes: (cart. coord. in units of alat)
               a(1) = (   1.000000   0.000000   0.000000 )
               a(2) = (  -0.500000   0.866025   0.000000 )
               a(3) = (   0.000000   0.000000   1.174479 )

     reciprocal axes: (cart. coord. in units 2 pi/alat)
               b(1) = (  1.000000  0.577350 -0.000000 )
               b(2) = (  0.000000  1.154701  0.000000 )
               b(3) = (  0.000000 -0.000000  0.851442 )

     PseudoPot. # 1 for Pb read from file:
     /trace/group/acmegroup/atimmins/packages/espresso/pseudo/psl_1.0.0/pslibrary.1.0.0/pbe/PSEUDOPOTENTIALS/Pb.pbe-dn-kjpaw_psl.1.0.0.UPF
     MD5 check sum: 39ab5b8a6bbd56b7735ad9f188aac93a
     Pseudo is Projector augmented-wave + core cor, Zval = 14.0
     Generated using 'atomic' code by A. Dal Corso  v.7.1
     Shape of augmentation charge: PSQ
     Using radial grid of 1281 points,  6 beta functions with:
                l(1) =   0
                l(2) =   0
                l(3) =   1
                l(4) =   1
                l(5) =   2
                l(6) =   2
     Q(r) pseudized with 0 coefficients

     PseudoPot. # 2 for I  read from file:
     /trace/group/acmegroup/atimmins/packages/espresso/pseudo/psl_1.0.0/pslibrary.1.0.0/pbe/PSEUDOPOTENTIALS/I.pbe-dn-kjpaw_psl.1.0.0.UPF
     MD5 check sum: bfa8781bc1224d19af3f3980e3fab11e
     Pseudo is Projector augmented-wave + core cor, Zval = 17.0
     Generated using 'atomic' code by A. Dal Corso  v.7.1
     Shape of augmentation charge: PSQ
     Using radial grid of 1247 points,  6 beta functions with:
                l(1) =   0
                l(2) =   0
                l(3) =   1
                l(4) =   1
                l(5) =   2
                l(6) =   2
     Q(r) pseudized with 0 coefficients

     atomic species   valence    mass     pseudopotential
        Pb            14.00   207.20000     Pb( 1.00)
        I             17.00   126.90447     I ( 1.00)

     No symmetry found

                                    s                        frac. trans.

      isym =  1     identity

 cryst.   s( 1) = (     1          0          0      )
                  (     0          1          0      )
                  (     0          0          1      )

 cart.    s( 1) = (  1.0000000  0.0000000  0.0000000 )
                  (  0.0000000  1.0000000  0.0000000 )
                  (  0.0000000  0.0000000  1.0000000 )

     point group C_1 (1)
     there are  1 classes
     the character table:

       E
A      1.00

     the symmetry operations in each class and the name of the first element:

     E        1
          identity

   Cartesian axes

     site n.     atom                  positions (alat units)
         1           Pb  tau(   1) = (   0.1250136   0.2164827   1.1744753  )
         2           Pb  tau(   2) = (   0.1250034   0.2164918   0.3914896  )
         3           Pb  tau(   3) = (   0.1250085   0.2164873   0.7829825  )
         4           Pb  tau(   4) = (   0.0000128   0.4329881   1.1744712  )
         5           Pb  tau(   5) = (   0.0000026   0.4329971   0.3914855  )
         6           Pb  tau(   6) = (   0.0000077   0.4329926   0.7829784  )
         7           Pb  tau(   7) = (  -0.1249881   0.6494934   1.1744671  )
         8           Pb  tau(   8) = (  -0.1249983   0.6495025   0.3914814  )
         9           Pb  tau(   9) = (  -0.1249932   0.6494980   0.7829742  )
        10           Pb  tau(  10) = (  -0.2499889   0.8659988   1.1744630  )
        11           Pb  tau(  11) = (  -0.2499991   0.8660078   0.3914773  )
        12           Pb  tau(  12) = (  -0.2499940   0.8660033   0.7829701  )
        13           Pb  tau(  13) = (   0.3750136   0.2164818   1.1744786  )
        14           Pb  tau(  14) = (   0.3750034   0.2164908   0.3914929  )
        15           Pb  tau(  15) = (   0.3750085   0.2164863   0.7829857  )
        16           Pb  tau(  16) = (   0.2500128   0.4329871   1.1744745  )
        17           Pb  tau(  17) = (   0.2500026   0.4329962   0.3914888  )
        18           Pb  tau(  18) = (   0.2500077   0.4329916   0.7829816  )
        19           Pb  tau(  19) = (   0.1250119   0.6494925   1.1744703  )
        20           Pb  tau(  20) = (   0.1250017   0.6495015   0.3914847  )
        21           Pb  tau(  21) = (   0.1250068   0.6494970   0.7829775  )
        22           Pb  tau(  22) = (   0.0000111   0.8659978   1.1744662  )
        23           Pb  tau(  23) = (   0.0000009   0.8660069   0.3914805  )
        24           Pb  tau(  24) = (   0.0000060   0.8660024   0.7829734  )
        25           Pb  tau(  25) = (   0.6250136   0.2164808   1.1744818  )
        26           Pb  tau(  26) = (   0.6250034   0.2164898   0.3914962  )
        27           Pb  tau(  27) = (   0.6250085   0.2164853   0.7829890  )
        28           Pb  tau(  28) = (   0.5000128   0.4329862   1.1744777  )
        29           Pb  tau(  29) = (   0.5000026   0.4329952   0.3914920  )
        30           Pb  tau(  30) = (   0.5000077   0.4329907   0.7829849  )
        31           Pb  tau(  31) = (   0.3750119   0.6494915   1.1744736  )
        32           Pb  tau(  32) = (   0.3750017   0.6495006   0.3914879  )
        33           Pb  tau(  33) = (   0.3750068   0.6494960   0.7829808  )
        34           Pb  tau(  34) = (   0.2500111   0.8659969   1.1744695  )
        35           Pb  tau(  35) = (   0.2500009   0.8660059   0.3914838  )
        36           Pb  tau(  36) = (   0.2500060   0.8660014   0.7829766  )
        37           Pb  tau(  37) = (   0.8750136   0.2164798   1.1744851  )
        38           Pb  tau(  38) = (   0.8750034   0.2164889   0.3914994  )
        39           Pb  tau(  39) = (   0.8750085   0.2164844   0.7829923  )
        40           Pb  tau(  40) = (   0.7500128   0.4329852   1.1744810  )
        41           Pb  tau(  41) = (   0.7500026   0.4329942   0.3914953  )
        42           Pb  tau(  42) = (   0.7500077   0.4329897   0.7829881  )
        43           Pb  tau(  43) = (   0.6250119   0.6494906   1.1744769  )
        44           Pb  tau(  44) = (   0.6250017   0.6494996   0.3914912  )
        45           Pb  tau(  45) = (   0.6250068   0.6494951   0.7829840  )
        46           Pb  tau(  46) = (   0.5000111   0.8659959   1.1744727  )
        47           Pb  tau(  47) = (   0.5000009   0.8660050   0.3914870  )
        48           Pb  tau(  48) = (   0.5000060   0.8660004   0.7829799  )
        49           I   tau(  49) = (   0.1250105   0.0721505   0.6824253  )
        50           I   tau(  50) = (   0.1250156   0.0721459   1.0739182  )
        51           I   tau(  51) = (   0.0000045   0.2886603   0.2909283  )
        52           I   tau(  52) = (   0.0000096   0.2886558   0.6824212  )
        53           I   tau(  53) = (   0.0000147   0.2886513   1.0739140  )
        54           I   tau(  54) = (  -0.1249963   0.5051657   0.2909242  )
        55           I   tau(  55) = (  -0.1249912   0.5051612   0.6824171  )
        56           I   tau(  56) = (  -0.1249861   0.5051566   1.0739099  )
        57           I   tau(  57) = (  -0.2499971   0.7216710   0.2909201  )
        58           I   tau(  58) = (  -0.2499920   0.7216665   0.6824129  )
        59           I   tau(  59) = (  -0.2499869   0.7216620   1.0739058  )
        60           I   tau(  60) = (   0.3750054   0.0721540   0.2909357  )
[...]
       130           I   tau( 130) = (   0.1250009   0.7938394   0.4920425  )
       131           I   tau( 131) = (   0.1250060   0.7938348   0.8835353  )
       132           I   tau( 132) = (   0.7499983   0.1443268   0.1005653  )
       133           I   tau( 133) = (   0.7500034   0.1443223   0.4920581  )
       134           I   tau( 134) = (   0.7500085   0.1443178   0.8835509  )
       135           I   tau( 135) = (   0.6249975   0.3608322   0.1005611  )
       136           I   tau( 136) = (   0.6250026   0.3608277   0.4920540  )
       137           I   tau( 137) = (   0.6250077   0.3608232   0.8835468  )
       138           I   tau( 138) = (   0.4999966   0.5773376   0.1005570  )
       139           I   tau( 139) = (   0.5000017   0.5773330   0.4920499  )
       140           I   tau( 140) = (   0.5000068   0.5773285   0.8835427  )
       141           I   tau( 141) = (   0.3749958   0.7938429   0.1005529  )
       142           I   tau( 142) = (   0.3750009   0.7938384   0.4920457  )
       143           I   tau( 143) = (   0.3750060   0.7938339   0.8835386  )
       144           Pb  tau( 144) = (   0.1250054   0.0721550   0.2909325  )

   Crystallographic axes

     site n.     atom                  positions (cryst. coord.)
         1           Pb  tau(   1) = (  0.2500000  0.2499727  0.9999973  )
         2           Pb  tau(   2) = (  0.2499950  0.2499832  0.3333306  )
         3           Pb  tau(   3) = (  0.2499975  0.2499780  0.6666639  )
         4           Pb  tau(   4) = (  0.2499986  0.4999716  0.9999938  )
         5           Pb  tau(   5) = (  0.2499936  0.4999820  0.3333271  )
[...]
     atom   54 type  2   force =     0.00000000    0.00000000    0.00000000
     atom   55 type  2   force =     0.00000000    0.00000000    0.00000000
     atom   56 type  2   force =     0.00000000    0.00000000    0.00000000
     atom   57 type  2   force =     0.00000000    0.00000000    0.00000000
     atom   58 type  2   force =     0.00000000    0.00000000    0.00000000
     atom   59 type  2   force =     0.00000000    0.00000000    0.00000000
     atom   60 type  2   force =     0.00000000    0.00000000    0.00000000
[...]
     atom  130 type  2   force =     0.00000000    0.00000000    0.00000000
     atom  131 type  2   force =     0.00000000    0.00000000    0.00000000
     atom  132 type  2   force =     0.00000000    0.00000000    0.00000000
     atom  133 type  2   force =     0.00000000    0.00000000    0.00000000
     atom  134 type  2   force =     0.00000000    0.00000000    0.00000000
     atom  135 type  2   force =     0.00000000    0.00000000    0.00000000
     atom  136 type  2   force =     0.00000000    0.00000000    0.00000000
     atom  137 type  2   force =     0.00000000    0.00000000    0.00000000
     atom  138 type  2   force =     0.00000000    0.00000000    0.00000000
     atom  139 type  2   force =     0.00000000    0.00000000    0.00000000
     atom  140 type  2   force =     0.00000000    0.00000000    0.00000000
     atom  141 type  2   force =     0.00000000    0.00000000    0.00000000
     atom  142 type  2   force =     0.00000000    0.00000000    0.00000000
     atom  143 type  2   force =     0.00000000    0.00000000    0.00000000
     atom  144 type  1   force =     0.00000000    0.00000000    0.00000000
     The SCF correction term to forces
     atom    1 type  1   force =     0.00000033    0.00000855   -0.00000620
     atom    2 type  1   force =     0.00000110    0.00002325    0.00002948
     atom    3 type  1   force =     0.00000031    0.00000397   -0.00000716
     atom    4 type  1   force =     0.00000007    0.00002084   -0.00002370
     atom    5 type  1   force =     0.00001735    0.00001433    0.00000571
     atom    6 type  1   force =     0.00000304    0.00000139    0.00001185
     atom    7 type  1   force =     0.00001745   -0.00000950   -0.00002339
     atom    8 type  1   force =     0.00002033    0.00000967    0.00000593
     atom    9 type  1   force =     0.00000251    0.00000286    0.00001138
     atom   10 type  1   force =     0.00000834   -0.00000493   -0.00000596
     atom   11 type  1   force =     0.00002202   -0.00001271    0.00002952
     atom   12 type  1   force =     0.00000423   -0.00000241   -0.00000763
     atom   13 type  1   force =     0.00000947    0.00000459   -0.00002425
     atom   14 type  1   force =    -0.00001570   -0.00001029    0.00000681
     atom   15 type  1   force =    -0.00000388   -0.00000299    0.00000553
     atom   16 type  1   force =    -0.00000018    0.00002043   -0.00002368
     atom   17 type  1   force =    -0.00001756    0.00001371    0.00000553
     atom   18 type  1   force =    -0.00000340    0.00000094    0.00001203
     atom   19 type  1   force =    -0.00000052    0.00000044   -0.00001608
     atom   20 type  1   force =    -0.00000074    0.00000062    0.00000470
     atom   21 type  1   force =    -0.00000055    0.00000026    0.00001920
     atom   22 type  1   force =     0.00001707   -0.00001038   -0.00002322
     atom   23 type  1   force =     0.00000193   -0.00002254    0.00000594
     atom   24 type  1   force =    -0.00000137   -0.00000349    0.00001145
     atom   25 type  1   force =    -0.00000032    0.00000406   -0.00004036
     atom   26 type  1   force =    -0.00000065   -0.00001506   -0.00000439
     atom   27 type  1   force =    -0.00000026   -0.00000540    0.00002472
     atom   28 type  1   force =     0.00000417   -0.00000224   -0.00004058
     atom   29 type  1   force =    -0.00001248    0.00000720   -0.00000448
     atom   30 type  1   force =    -0.00000431    0.00000231    0.00002500
     atom   31 type  1   force =    -0.00001787   -0.00000998   -0.00002372
     atom   32 type  1   force =    -0.00002045    0.00000863    0.00000537
     atom   33 type  1   force =    -0.00000261    0.00000247    0.00001197
     atom   34 type  1   force =    -0.00001823   -0.00001048   -0.00002361
     atom   35 type  1   force =    -0.00000404   -0.00002264    0.00000599
     atom   36 type  1   force =     0.00000043   -0.00000326    0.00001191
     atom   37 type  1   force =    -0.00000944    0.00000543   -0.00002454
     atom   38 type  1   force =     0.00001540   -0.00000847    0.00000734
     atom   39 type  1   force =     0.00000391   -0.00000227    0.00000567
     atom   40 type  1   force =    -0.00000406   -0.00000162   -0.00004055
     atom   41 type  1   force =     0.00001281    0.00000813   -0.00000429
     atom   42 type  1   force =     0.00000465    0.00000283    0.00002481
     atom   43 type  1   force =     0.00000082   -0.00001058   -0.00002463
     atom   44 type  1   force =     0.00000071    0.00001886    0.00000676
     atom   45 type  1   force =     0.00000069    0.00000485    0.00000552
     atom   46 type  1   force =    -0.00000717   -0.00000477   -0.00000622
     atom   47 type  1   force =    -0.00001948   -0.00001297    0.00002947
     atom   48 type  1   force =    -0.00000339   -0.00000212   -0.00000725
     atom   49 type  2   force =     0.00000104   -0.00000063    0.00000017
     atom   50 type  2   force =     0.00000064   -0.00000063   -0.00001777
     atom   51 type  2   force =    -0.00000445    0.00002717    0.00001129
     atom   52 type  2   force =     0.00001397   -0.00000607    0.00000468
     atom   53 type  2   force =    -0.00000795    0.00002528   -0.00002546
     atom   54 type  2   force =     0.00002386    0.00001484    0.00001173
     atom   55 type  2   force =     0.00001134    0.00000768    0.00001629
     atom   56 type  2   force =     0.00000443    0.00000351   -0.00001773
     atom   57 type  2   force =     0.00002240   -0.00001525    0.00001370
     atom   58 type  2   force =     0.00000224    0.00001584    0.00000377
     atom   59 type  2   force =     0.00001863   -0.00001945   -0.00002483
     atom   60 type  2   force =     0.00002441   -0.00001139    0.00001320
[...]
     atom  130 type  2   force =    -0.00000172   -0.00001159   -0.00001431
     atom  131 type  2   force =    -0.00000060   -0.00000119    0.00001597
     atom  132 type  2   force =    -0.00001234   -0.00001308   -0.00001506
     atom  133 type  2   force =     0.00001291   -0.00002970    0.00000334
     atom  134 type  2   force =    -0.00000871   -0.00000463    0.00001259
     atom  135 type  2   force =    -0.00000004   -0.00000008   -0.00003640
     atom  136 type  2   force =     0.00000003    0.00000005   -0.00000068
     atom  137 type  2   force =     0.00000014    0.00000001    0.00002800
     atom  138 type  2   force =    -0.00001602   -0.00000308   -0.00001489
     atom  139 type  2   force =    -0.00001806    0.00002700    0.00000306
     atom  140 type  2   force =    -0.00000774   -0.00000481    0.00001334
     atom  141 type  2   force =    -0.00002011   -0.00001199   -0.00000361
     atom  142 type  2   force =    -0.00001298   -0.00000695   -0.00000161
     atom  143 type  2   force =    -0.00000851   -0.00000469   -0.00000114
     atom  144 type  1   force =     0.00000147   -0.00000078   -0.00000483

     Total force =     0.011510     Total SCF correction =     0.000286

     Computing stress (Cartesian axis) and pressure

[...]

          total   stress  (Ry/bohr**3)                   (kbar)     P=       -1.46
  -0.00001062  -0.00000000   0.00000000           -1.56       -0.00        0.00
  -0.00000000  -0.00001062  -0.00000000           -0.00       -1.56       -0.00
   0.00000000  -0.00000000  -0.00000861            0.00       -0.00       -1.27

     kinetic stress (kbar)  15038.55      0.00     -0.00
                                0.00  15038.55      0.00
                               -0.00      0.00  15050.51

     local   stress (kbar)  -7365.21      0.07     -0.01
                                0.07  -7365.17      0.01
                               -0.01      0.01   1364.21

     nonloc. stress (kbar)  -1146.30      0.00     -0.00
                                0.00  -1146.30      0.00
                               -0.00      0.00  -1150.84

     hartree stress (kbar)  11931.83     -0.03      0.00
                               -0.03  11931.81     -0.00
                                0.00     -0.00   7998.28

     exc-cor stress (kbar)   6922.90     -0.00      0.00
                               -0.00   6922.90     -0.00
                                0.00     -0.00   6921.88

     corecor stress (kbar) -11275.55     -0.00      0.00
                               -0.00 -11275.55      0.00
                                0.00      0.00 -11275.50

     ewald   stress (kbar) -14190.71     -0.04      0.01
                               -0.04 -14190.74     -0.01
                                0.01     -0.01 -18994.00

     hubbard stress (kbar)      0.00      0.00      0.00
                                0.00      0.00      0.00
                                0.00      0.00      0.00

     DFT-D   stress (kbar)      0.00      0.00      0.00
                                0.00      0.00      0.00
                                0.00      0.00      0.00

     XDM     stress (kbar)      0.00      0.00      0.00
                                0.00      0.00      0.00
                                0.00      0.00      0.00

     dft-nl  stress (kbar)     82.92      0.00     -0.00
                                0.00     82.92      0.00
                               -0.00      0.00     84.20

     TS-vdW  stress (kbar)      0.00      0.00      0.00
                                0.00      0.00      0.00
                                0.00      0.00      0.00

     MDB     stress (kbar)      0.00      0.00      0.00
                                0.00      0.00      0.00
                                0.00      0.00      0.00

     3D-RISM stress (kbar)      0.00      0.00      0.00
                                0.00      0.00      0.00
                                0.00      0.00      0.00

     Energy error            =      8.1E-04 Ry
     Gradient error          =      3.6E-03 Ry/Bohr

     number of scf cycles    =  17
     number of bfgs steps    =  16

     energy             old  =  -97467.2562060768 Ry
     energy             new  =  -97467.2570122693 Ry

     CASE: energy            _new < energy            _old

     new trust radius        =       0.0549859135 bohr
     new conv_thr            =       0.0000000036 Ry

ATOMIC_POSITIONS (angstrom)
Pb            2.3558583468        4.1335443048       22.0927018958
Pb            2.3556840201        3.8074391224        7.4379613394
Pb            2.3557729577        4.0867062267       14.7626338251
Pb            0.0050329882        8.1860780314       22.1380864856
Pb            0.0197624848        8.1281921110        7.3708290821
Pb            0.0025593685        8.1647403001       14.7543964490
Pb           -2.3302650608       12.2309541160       22.1380882552
Pb           -2.3729914401       12.2724982429        7.3707123034
Pb           -2.3500080976       12.2395102550       14.7543683476
Pb           -4.6644277930       16.2929453372       22.0926156872
Pb           -4.9466382385       16.4557834076        7.4382521177
Pb           -4.7050809853       16.3164540717       14.7625983087
Pb            7.1418200042        4.1228470105       22.1373100616
Pb            7.0594778977        4.0753384395        7.3770940956
Pb            7.0682283648        4.0803928617       14.7534723823
Pb            4.7064948517        8.1861046289       22.1380651908
Pb            4.6917541478        8.1282279507        7.3707621401
Pb            4.7089601086        8.1647338860       14.7543631637
Pb            2.3557544374       12.2398775984       22.1273732099
Pb            2.3557437789       12.2398280843        7.3657548562
Pb            2.3557481497       12.2398621273       14.7574710254
Pb            0.0204774096       16.3025444789       22.1380839685
Pb           -0.0369121109       16.3186941706        7.3707584004
Pb            0.0031841581       16.3153614285       14.7543375196
Pb           11.7783030066        4.0563899693       22.1732790435
Pb           11.7783182161        4.0652696909        7.3852065478
Pb           11.7782948127        4.0778848022       14.7542616931
Pb            9.4024935258        8.1714113798       22.1732205778
Pb            9.4101535540        8.1669688742        7.3851411022
Pb            9.4210867574        8.1607013469       14.7542454510
Pb            7.0417901080       12.2309503741       22.1380665372
Pb            7.0844511070       12.2725670046        7.3707674407
Pb            7.0615276780       12.2395027371       14.7544031871
Pb            4.6910623348       16.3025558770       22.1380860147
Pb            4.7485052176       16.3186270785        7.3708833501
Pb            4.7083224633       16.3153630385       14.7544085378
Pb           16.4147803504        4.1228777291       22.1373684540
Pb           16.4971109159        4.0752968069        7.3772325563
Pb           16.4883773088        4.0803960455       14.7535986986
Pb           14.1541399370        8.1714235477       22.1732839102
Pb           14.1464111322        8.1669303438        7.3852077238
Pb           14.1355156109        8.1607099309       14.7542794864
Pb           11.7783308005       12.1533960663       22.1371830054
Pb           11.7782556617       12.2484941060        7.3770337221
Pb           11.7783010178       12.2384972745       14.7535564755
Pb            9.3760251430       16.2928748927       22.0926134658
Pb            9.6583780180       16.4559999022        7.4379854852
Pb            9.4166161535       16.3164563393       14.7626642479
I             2.3557174546        1.3597389787       12.8950838538
I             2.3557442424        1.3597076641       20.2873441162
I             0.0532643043        5.3487455456        5.5129586276
I             0.0022665567        5.4428731340       12.8781645141
I             0.0156392032        5.4073909281       20.2807289153
I            -2.3600729664        9.5171733249        5.4822880775
I            -2.3566472456        9.5192561153       12.8754427902
I            -2.3557244742        9.5197569699       20.2624838099
I            -4.7632719462       13.6912865609        5.5128912296
I            -4.7074387320       13.6003305158       12.8781182720
I            -4.7312733130       13.6293210998       20.2806167108
I             6.9617688721        1.3590815244        5.5129675641
[...]
I             2.3557087069       14.9807130756        9.2079737184
I             2.3557085456       14.9608453526       16.6487343691
I            14.1312556912        2.7211577879        1.8995106037
I            14.1331920556        2.7122220150        9.2571242142
I            14.1361654347        2.7189087037       16.6479497315
I            11.7782692514        6.7998417494        1.8853553638
I            11.7782587421        6.7998318235        9.2571719524
I            11.7782657799        6.7998304636       16.6569685449
I             9.4225388908       10.8768896937        1.8993924335
I             9.4157842489       10.8830287753        9.2569912055
I             9.4230496510       10.8822942692       16.6479290823
I             7.0666643800       14.9597903892        1.8871825611
I             7.0832625910       14.9692081074        9.2185047525
I             7.0646173738       14.9586168596       16.6515670520
Pb            2.3556111385        1.3593521861        3.9836996954

     Writing config-only to output data dir ./PbI2.save/
     NEW-OLD atomic charge density approx. for the potential

     Check: negative core charge=   -0.000001

     Non-local corr. energy    =      68.72802951 Ry

     Self-consistent Calculation

     iteration #  1     ecut=    70.00 Ry     beta= 0.70
     Davidson diagonalization with overlap

     ethr =  1.00E-06,  avg # of iterations =  7.0

     Threshold (ethr) on eigenvalues was too large:
     Diagonalizing with lowered threshold

     Davidson diagonalization with overlap

     c_bands:  1 eigenvalues not converged

     max_seconds     =  154800.00
     Calculation stopped in k-point loop, point #     1
     Calculation stopped in scf loop at iteration #     0

     Writing config to output data dir ./PbI2.save/
     Message from routine punch:
     wavefunctions written to file

     General routines

     Parallel routines

     PAW routines

   This run was terminated on:   6:26:15  11Mar2024

   JOB DONE.