     Program PWSCF v.7.1 starts on 21Feb2024 at  8:37:47

     Reading input from espresso.pwi
Warning: card &CELL ignored
Warning: card    CELL_DYNAMICS    = 'BFGS' ignored
Warning: card / ignored

     Current dimensions of program PWSCF are:
     Max number of different atomic species (ntypx) = 10
     Max number of k-points (npk) =  40000
     Max angular momentum in pseudopotentials (lmaxx) =  4
     file Ga.pbe-dn-kjpaw_psl.1.0.0.UPF: wavefunction(s)  4S renormalized
     file N.pbe-n-kjpaw_psl.1.0.0.UPF: wavefunction(s)  2S renormalized

     IMPORTANT: XC functional enforced from input :
     Exchange-correlation= BEEF-VDW
                           (   1   4  43  14   2   0   0)
     Any further DFT definition will be discarded
     Please, verify this is what you really want

     K-points division:     npool     =       4
     R & G space division:  proc/nbgrp/npool/nimage =      32
     Subspace diagonalization in iterative solution of the eigenvalue problem:
     a serial algorithm will be used

     Using Slab Decomposition

     bravais-lattice index     =            4
     lattice parameter (alat)  =       6.0471  a.u.
     unit-cell volume          =     637.0658 (a.u.)^3
     number of atoms/cell      =            8
     number of atomic types    =            2
     number of electrons       =        72.00
     number of Kohn-Sham states=           43
     kinetic-energy cutoff     =      70.0000  Ry
     charge density cutoff     =     350.0000  Ry
     scf convergence threshold =      1.0E-07
     mixing beta               =       0.7000
     number of iterations used =            8  plain     mixing
     energy convergence thresh.=      1.0E-04
     force convergence thresh. =      1.0E-03
     Exchange-correlation= BEEF-VDW
                           (   1   4  43  14   2   0   0)
     nstep                     =           50

     celldm(1)=   6.047064  celldm(2)=   0.000000  celldm(3)=   3.326748
     celldm(4)=   0.000000  celldm(5)=   0.000000  celldm(6)=   0.000000

     crystal axes: (cart. coord. in units of alat)
               a(1) = (   1.000000   0.000000   0.000000 )
               a(2) = (  -0.500000   0.866025   0.000000 )
               a(3) = (   0.000000   0.000000   3.326748 )

     reciprocal axes: (cart. coord. in units 2 pi/alat)
               b(1) = (  1.000000  0.577350 -0.000000 )
               b(2) = (  0.000000  1.154701  0.000000 )
               b(3) = (  0.000000 -0.000000  0.300594 )

     PseudoPot. # 1 for Ga read from file:
     /trace/group/acmegroup/atimmins/packages/espresso/pseudo/psl_1.0.0/pslibrary.1.0.0/pbe/PSEUDOPOTENTIALS/Ga.pbe-dn-kjpaw_psl.1.0.0.UPF
     MD5 check sum: cd2a01e492f15b435d17032472d8505c
     Pseudo is Projector augmented-wave + core cor, Zval = 13.0
     Generated using 'atomic' code by A. Dal Corso  v.7.1
     Shape of augmentation charge: PSQ
     Using radial grid of 1205 points,  6 beta functions with:
                l(1) =   0
                l(2) =   0
                l(3) =   1
                l(4) =   1
                l(5) =   2
                l(6) =   2
     Q(r) pseudized with 0 coefficients

     PseudoPot. # 2 for N  read from file:
     /trace/group/acmegroup/atimmins/packages/espresso/pseudo/psl_1.0.0/pslibrary.1.0.0/pbe/PSEUDOPOTENTIALS/N.pbe-n-kjpaw_psl.1.0.0.UPF
     MD5 check sum: f77f775694dac7e2c3fe1c82443d1a16
     Pseudo is Projector augmented-wave + core cor, Zval =  5.0
     Generated using 'atomic' code by A. Dal Corso  v.7.1
     Shape of augmentation charge: PSQ
     Using radial grid of 1085 points,  4 beta functions with:
                l(1) =   0
                l(2) =   0
                l(3) =   1
                l(4) =   1
     Q(r) pseudized with 0 coefficients

     atomic species   valence    mass     pseudopotential
        Ga            13.00    69.72300     Ga( 1.00)
        N              5.00    14.00700     N ( 1.00)

     12 Sym. Ops. (no inversion) found ( 6 have fractional translation)

                                    s                        frac. trans.

      isym =  1     identity

 cryst.   s( 1) = (     1          0          0      )
                  (     0          1          0      )
                  (     0          0          1      )

 cart.    s( 1) = (  1.0000000  0.0000000  0.0000000 )
                  (  0.0000000  1.0000000  0.0000000 )
                  (  0.0000000  0.0000000  1.0000000 )

      isym =  2     180 deg rotation - cart. axis [0,0,1]

 cryst.   s( 2) = (    -1          0          0      )    f =(  0.0000000 )
                  (     0         -1          0      )       (  0.0000000 )
                  (     0          0          1      )       (  0.5000000 )

 cart.    s( 2) = ( -1.0000000  0.0000000  0.0000000 )    f =(  0.0000000 )
                  (  0.0000000 -1.0000000  0.0000000 )       (  0.0000000 )
                  (  0.0000000  0.0000000  1.0000000 )       (  1.6633740 )

      isym =  3      60 deg rotation - cryst. axis [0,0,1]

[...]

      isym =  6     120 deg rotation - cryst. axis [0,0,-1]

[...]

      isym =  7     inv. 180 deg rotation - cart. axis [0,1,0]

[...]

      isym =  8     inv. 180 deg rotation - cart. axis [1,0,0]

 cryst.   s( 8) = (    -1          0          0      )
                  (     1          1          0      )
                  (     0          0          1      )

 cart.    s( 8) = ( -1.0000000  0.0000000  0.0000000 )
                  (  0.0000000  1.0000000  0.0000000 )
                  (  0.0000000  0.0000000  1.0000000 )

      isym =  9     inv. 180 deg rotation - cryst. axis [1,-1,0]

 cryst.   s( 9) = (     0          1          0      )    f =(  0.0000000 )
                  (     1          0          0      )       (  0.0000000 )
                  (     0          0          1      )       (  0.5000000 )

 cart.    s( 9) = ( -0.5000000  0.8660254  0.0000000 )    f =(  0.0000000 )
                  (  0.8660254  0.5000000  0.0000000 )       (  0.0000000 )
                  (  0.0000000  0.0000000  1.0000000 )       (  1.6633740 )

[...]

 cryst.   s(10) = (    -1         -1          0      )    f =(  0.0000000 )
                  (     0          1          0      )       (  0.0000000 )
                  (     0          0          1      )       (  0.5000000 )

 cart.    s(10) = ( -0.5000000 -0.8660254  0.0000000 )    f =(  0.0000000 )
                  ( -0.8660254  0.5000000  0.0000000 )       (  0.0000000 )
                  (  0.0000000  0.0000000  1.0000000 )       (  1.6633740 )

[...]

 cryst.   s(11) = (     1          1          0      )
                  (     0         -1          0      )
                  (     0          0          1      )

 cart.    s(11) = (  0.5000000  0.8660254  0.0000000 )
                  (  0.8660254 -0.5000000  0.0000000 )
                  (  0.0000000  0.0000000  1.0000000 )

      isym = 12     inv. 180 deg rotation - cryst. axis [1,1,0]

 cryst.   s(12) = (     0         -1          0      )
                  (    -1          0          0      )
                  (     0          0          1      )

 cart.    s(12) = (  0.5000000 -0.8660254  0.0000000 )
                  ( -0.8660254 -0.5000000  0.0000000 )
                  (  0.0000000  0.0000000  1.0000000 )

     point group C_6v (6mm)
     there are  6 classes
     the character table:

       E     2C6   2C3   C2    3s_v  3s_d
A_1    1.00  1.00  1.00  1.00  1.00  1.00
A_2    1.00  1.00  1.00  1.00 -1.00 -1.00
B_1    1.00 -1.00  1.00 -1.00  1.00 -1.00
B_2    1.00 -1.00  1.00 -1.00 -1.00  1.00
E_1    2.00  1.00 -1.00 -2.00  0.00  0.00
E_2    2.00 -1.00 -1.00  2.00  0.00  0.00

     the symmetry operations in each class and the name of the first element:

     E        1
          identity
     2C6      3    4
           60 deg rotation - cryst. axis [0,0,1]
     2C3      5    6
          120 deg rotation - cryst. axis [0,0,1]
     C2       2
          180 deg rotation - cart. axis [0,0,1]
     3s_v     8   12   11
          inv. 180 deg rotation - cart. axis [1,0,0]
     3s_d     7    9   10
          inv. 180 deg rotation - cart. axis [0,1,0]

   Cartesian axes

     site n.     atom                  positions (alat units)
         1           Ga  tau(   1) = (   0.0000000   0.0000000   0.9452311  )
         2           Ga  tau(   2) = (  -0.0000005   0.5773505   1.7736528  )
         3           Ga  tau(   3) = (   0.5000005   0.2886748   0.1102788  )
         4           Ga  tau(   4) = (   0.0000000   0.0000000   2.6086051  )
         5           N   tau(   5) = (  -0.0000005   0.5773505   2.8254919  )
         6           N   tau(   6) = (   0.0000000   0.0000000   1.9740746  )
         7           N   tau(   7) = (   0.5000005   0.2886748   1.1621179  )
         8           N   tau(   8) = (   0.0000000   0.0000000   0.3107006  )

   Crystallographic axes

     site n.     atom                  positions (cryst. coord.)
         1           Ga  tau(   1) = (  0.0000000  0.0000000  0.2841307  )
         2           Ga  tau(   2) = (  0.3333329  0.6666669  0.5331491  )
         3           Ga  tau(   3) = (  0.6666670  0.3333329  0.0331491  )
         4           Ga  tau(   4) = (  0.0000000  0.0000000  0.7841307  )
         5           N   tau(   5) = (  0.3333329  0.6666669  0.8493255  )
         6           N   tau(   6) = (  0.0000000  0.0000000  0.5933947  )
         7           N   tau(   7) = (  0.6666670  0.3333329  0.3493255  )
         8           N   tau(   8) = (  0.0000000  0.0000000  0.0933947  )

     number of k points=    14  Gaussian smearing, width (Ry)=  0.0100
                       cart. coord. in units 2pi/alat
        k(    1) = (   0.0000000   0.0000000   0.0000000), wk =   0.0277778
        k(    2) = (   0.0000000   0.0000000  -0.1502969), wk =   0.0277778
        k(    3) = (   0.0000000   0.1924501   0.0000000), wk =   0.1666667
        k(    4) = (   0.0000000   0.1924501  -0.1502969), wk =   0.1666667
        k(    5) = (   0.0000000   0.3849002   0.0000000), wk =   0.1666667
        k(    6) = (   0.0000000   0.3849002  -0.1502969), wk =   0.1666667
        k(    7) = (   0.0000000  -0.5773503   0.0000000), wk =   0.0833333
        k(    8) = (   0.0000000  -0.5773503  -0.1502969), wk =   0.0833333
        k(    9) = (   0.1666667   0.2886751   0.0000000), wk =   0.1666667
        k(   10) = (   0.1666667   0.2886751  -0.1502969), wk =   0.1666667
        k(   11) = (   0.1666667   0.4811252   0.0000000), wk =   0.3333333
        k(   12) = (   0.1666667   0.4811252  -0.1502969), wk =   0.3333333
        k(   13) = (   0.3333333   0.5773503   0.0000000), wk =   0.0555556
        k(   14) = (   0.3333333   0.5773503  -0.1502969), wk =   0.0555556

                       cryst. coord.
        k(    1) = (   0.0000000   0.0000000   0.0000000), wk =   0.0277778
        k(    2) = (   0.0000000   0.0000000  -0.5000000), wk =   0.0277778
        k(    3) = (   0.0000000   0.1666667   0.0000000), wk =   0.1666667
        k(    4) = (   0.0000000   0.1666667  -0.5000000), wk =   0.1666667
        k(    5) = (   0.0000000   0.3333333   0.0000000), wk =   0.1666667
        k(    6) = (   0.0000000   0.3333333  -0.5000000), wk =   0.1666667
        k(    7) = (   0.0000000  -0.5000000   0.0000000), wk =   0.0833333
        k(    8) = (   0.0000000  -0.5000000  -0.5000000), wk =   0.0833333
        k(    9) = (   0.1666667   0.1666667   0.0000000), wk =   0.1666667
        k(   10) = (   0.1666667   0.1666667  -0.5000000), wk =   0.1666667
        k(   11) = (   0.1666667   0.3333333   0.0000000), wk =   0.3333333
        k(   12) = (   0.1666667   0.3333333  -0.5000000), wk =   0.3333333
        k(   13) = (   0.3333333   0.3333333   0.0000000), wk =   0.0555556
        k(   14) = (   0.3333333   0.3333333  -0.5000000), wk =   0.0555556

     Check: negative core charge=   -0.000003

     Initial potential from superposition of free atoms

     starting charge      71.9882, renormalised to      72.0000

     %%%%%%%%%%%%%%%%%%%%%%%%%%%%%%%%%%%%%%%%%%%%%%%%%%%%%%%%%%%%%%%%%%%%%%%%
     %                                                                      %
     % You are using vdW-DF, which was implemented by the Thonhauser group. %
     % Please cite the following two papers that made this development      %
     % possible and the two reviews that describe the various versions:     %
     %                                                                      %
     %   T. Thonhauser et al., PRL 115, 136402 (2015).                      %
     %   T. Thonhauser et al., PRB 76, 125112 (2007).                       %
     %   K. Berland et al., Rep. Prog. Phys. 78, 066501 (2015).             %
     %   D.C. Langreth et al., J. Phys.: Condens. Matter 21, 084203 (2009). %
     %                                                                      %
     % If you are calculating stress with vdW-DF, please also cite:         %
     %                                                                      %
     %   R. Sabatini et al., J. Phys.: Condens. Matter 24, 424209 (2012).   %
     %                                                                      %
     %%%%%%%%%%%%%%%%%%%%%%%%%%%%%%%%%%%%%%%%%%%%%%%%%%%%%%%%%%%%%%%%%%%%%%%%

     %%%%%%%%%%%%%%%%%%%%%%%%%%%%%%%%%%%%%%%%%%%%%%%%%%%%%%%%%%%%%%%%%%%%%%%%
     %                                                                      %
     %  vdW-DF NEWS:                                                        %
     %                                                                      %
     %  * vdW-DF3 is now available. DOI: 10.1021/acs.jctc.0c00471           %
     %    use with input_dft = 'vdW-DF3-opt1' or 'vdW-DF3-opt2'             %
     %                                                                      %
     %  * Unscreened and range-separated vdW-DF hybrid functionals          %
     %    DOI: 10.1063/1.4986522 and 10.1088/1361-648X/ac2ad2               %
     %    use with input_dft = 'vdW-DF-cx0' (etc) and 'vdW-DF-ahcx'         %
     %                                                                      %
     %%%%%%%%%%%%%%%%%%%%%%%%%%%%%%%%%%%%%%%%%%%%%%%%%%%%%%%%%%%%%%%%%%%%%%%%

     Carrying out vdW-DF run using the following parameters:
     Nqs    =  20  Npoints =  1024  r_max =  100.000
     q_mesh =  0.00001000  0.04494208  0.09755937  0.15916263
               0.23128650  0.31572767  0.41458969  0.53033537
               0.66584808  0.82450364  1.01025438  1.22772762
               1.48234092  1.78043706  2.12944203  2.53805004
               3.01644009  3.57652955  4.23227104  5.00000000

     Non-local corr. energy    =       2.06278011 Ry

     Starting wfcs are   52 randomized atomic wfcs
     Checking if some PAW data can be deallocated...

     Self-consistent Calculation

     iteration #  1     ecut=    70.00 Ry     beta= 0.70
     Davidson diagonalization with overlap

     ethr =  1.00E-02,  avg # of iterations =  3.5

[...]

     total energy              =   -1247.36508240 Ry
     estimated scf accuracy    <       2.66424090 Ry

[...]

     total energy              =   -1248.99523363 Ry
     estimated scf accuracy    <       0.00000011 Ry

     iteration # 13     ecut=    70.00 Ry     beta= 0.70
     Davidson diagonalization with overlap

     ethr =  1.47E-10,  avg # of iterations =  1.0

[...]

     End of self-consistent calculation

          k = 0.0000 0.0000 0.0000 (  6209 PWs)   bands (ev):

    -6.7440  -6.5554  -5.8367  -5.8087  -5.3641  -5.3641  -5.3633  -5.3633
    -5.2220  -5.2220  -5.2206  -5.2206  -5.1813  -5.0231  -4.8198  -4.8198
    -4.8188  -4.8188  -4.6238  -4.6238  -4.6218  -4.6218  -4.3111  -3.5264
     2.6861   4.9234   5.9026   8.3748   8.3749   8.3913   8.3914   9.1068
     9.1068   9.1081   9.1081   9.3934  10.1410  12.7435  13.1460  13.3210
    16.5490  16.9583  17.7611

     occupation numbers
     1.0000   1.0000   1.0000   1.0000   1.0000   1.0000   1.0000   1.0000
     1.0000   1.0000   1.0000   1.0000   1.0000   1.0000   1.0000   1.0000
     1.0000   1.0000   1.0000   1.0000   1.0000   1.0000   1.0000   1.0000
     1.0000   1.0000   1.0000   1.0000   1.0000   1.0000   1.0000   1.0000
     1.0000   1.0000   1.0000   0.9999   0.0001   0.0000   0.0000   0.0000
     0.0000   0.0000   0.0000

[...]

          k = 0.3333 0.5774-0.1503 (  6300 PWs)   bands (ev):

    -6.3674  -6.3674  -5.7115  -5.7115  -5.3276  -5.3276  -5.3050  -5.3050
    -5.2602  -5.2602  -5.1421  -5.1421  -4.7547  -4.7547  -4.7471  -4.7471
    -4.6697  -4.6697  -4.6330  -4.6330  -2.9205  -2.9205  -2.3560  -2.3560
     3.0957   3.0957   3.5601   3.5601   4.6611   4.6611   5.5578   5.5578
     6.9472   6.9472   8.4211   8.4211  12.4530  12.4530  15.7492  15.7492
    16.2708  16.2708  17.4178

     occupation numbers
     1.0000   1.0000   1.0000   1.0000   1.0000   1.0000   1.0000   1.0000
     1.0000   1.0000   1.0000   1.0000   1.0000   1.0000   1.0000   1.0000
     1.0000   1.0000   1.0000   1.0000   1.0000   1.0000   1.0000   1.0000
     1.0000   1.0000   1.0000   1.0000   1.0000   1.0000   1.0000   1.0000
     1.0000   1.0000   1.0000   1.0000   0.0000   0.0000   0.0000   0.0000
     0.0000   0.0000   0.0000

     the Fermi energy is     9.7672 ev

!    total energy              =   -1248.99523362 Ry
     total all-electron energy =    -16014.849071 Ry
     estimated scf accuracy    <       0.00000003 Ry
     smearing contrib. (-TS)   =      -0.00000008 Ry
     internal energy E=F+TS    =   -1248.99523354 Ry

     The total energy is F=E-TS. E is the sum of the following terms:
     one-electron contribution =    -360.63160589 Ry
     hartree contribution      =     256.57767638 Ry
     xc contribution           =    -181.93426278 Ry
     ewald contribution        =    -466.03335810 Ry
     one-center paw contrib.   =    -496.97368315 Ry
      -> PAW hartree energy AE =     144.88499332 Ry
      -> PAW hartree energy PS =    -143.50862425 Ry
      -> PAW xc energy AE      =    -156.96586001 Ry
      -> PAW xc energy PS      =      39.75928976 Ry
      -> total E_H with PAW    =     257.95404546 Ry
      -> total E_XC with PAW   =    -299.14083304 Ry

     convergence has been achieved in  13 iterations

[...]

     Forces acting on atoms (cartesian axes, Ry/au):

     atom    1 type  1   force =     0.00000000    0.00000000   -0.00009457
     atom    2 type  1   force =     0.00000000    0.00000000    0.00039503
     atom    3 type  1   force =    -0.00000000   -0.00000000    0.00039503
     atom    4 type  1   force =     0.00000000    0.00000000   -0.00009457
     atom    5 type  2   force =     0.00000000    0.00000000    0.00035889
     atom    6 type  2   force =    -0.00000000   -0.00000000   -0.00065935
     atom    7 type  2   force =    -0.00000000   -0.00000000    0.00035889
     atom    8 type  2   force =     0.00000000    0.00000000   -0.00065935
     The non-local contrib.  to forces
     atom    1 type  1   force =     0.00000000   -0.00000000   -0.14297573
     atom    2 type  1   force =     0.00000000   -0.00000000   -0.64613377
     atom    3 type  1   force =     0.00000000    0.00000000   -0.64613377
     atom    4 type  1   force =     0.00000000    0.00000000   -0.14297573
     atom    5 type  2   force =     0.00000000    0.00000000   -0.46942171
     atom    6 type  2   force =     0.00000000    0.00000000   -0.07275122
     atom    7 type  2   force =     0.00000000    0.00000000   -0.46942171
     atom    8 type  2   force =    -0.00000000    0.00000000   -0.07275122
     The ionic contribution  to forces
     atom    1 type  1   force =     0.00001329   -0.00000941   -1.42777094
     atom    2 type  1   force =     0.00001889   -0.00000739   -2.29479010
     atom    3 type  1   force =    -0.00001880    0.00001244   -2.29479180
     atom    4 type  1   force =    -0.00001338    0.00000462   -1.42776913
     atom    5 type  2   force =     0.00001663   -0.00000656    2.72082546
     atom    6 type  2   force =    -0.00001420    0.00000516    1.00173619
     atom    7 type  2   force =    -0.00001655    0.00001089    2.72082485
     atom    8 type  2   force =     0.00001412   -0.00000975    1.00173547
     The local contribution  to forces
     atom    1 type  1   force =    -0.00000000    0.00000000    1.56976258
     atom    2 type  1   force =     0.00054139   -0.00019827    2.93006607
     atom    3 type  1   force =    -0.00053841    0.00036974    2.93005672
     atom    4 type  1   force =    -0.00000000   -0.00000000    1.56977174
     atom    5 type  2   force =     0.00004022   -0.00001473   -2.25850359
     atom    6 type  2   force =    -0.00000000   -0.00000000   -0.93063728
     atom    7 type  2   force =    -0.00004000    0.00002747   -2.25850446
     atom    8 type  2   force =    -0.00000000    0.00000000   -0.93063805
     The core correction contribution to forces
     atom    1 type  1   force =    -0.00000000    0.00000000    0.00099858
     atom    2 type  1   force =     0.00004065   -0.00001489    0.01138893
     atom    3 type  1   force =    -0.00004042    0.00002776    0.01138825
     atom    4 type  1   force =     0.00000000   -0.00000000    0.00099926
     atom    5 type  2   force =    -0.00000117    0.00000043    0.00756547
     atom    6 type  2   force =     0.00000000   -0.00000000    0.00112728
     atom    7 type  2   force =     0.00000117   -0.00000080    0.00756549
     atom    8 type  2   force =    -0.00000000    0.00000000    0.00112730
     The Hubbard contrib.    to forces
     atom    1 type  1   force =     0.00000000    0.00000000    0.00000000
     atom    2 type  1   force =     0.00000000    0.00000000    0.00000000
     atom    3 type  1   force =     0.00000000    0.00000000    0.00000000
     atom    4 type  1   force =     0.00000000    0.00000000    0.00000000
     atom    5 type  2   force =     0.00000000    0.00000000    0.00000000
     atom    6 type  2   force =     0.00000000    0.00000000    0.00000000
     atom    7 type  2   force =     0.00000000    0.00000000    0.00000000
     atom    8 type  2   force =     0.00000000    0.00000000    0.00000000
     The SCF correction term to forces
     atom    1 type  1   force =     0.00000000   -0.00000000    0.00000593
     atom    2 type  1   force =    -0.00000000    0.00000000   -0.00000943
     atom    3 type  1   force =     0.00000000   -0.00000000   -0.00000943
     atom    4 type  1   force =    -0.00000000    0.00000000    0.00000593
     atom    5 type  2   force =     0.00000000   -0.00000000    0.00001480
     atom    6 type  2   force =    -0.00000000    0.00000000   -0.00001277
     atom    7 type  2   force =    -0.00000000    0.00000000    0.00001480
     atom    8 type  2   force =     0.00000000   -0.00000000   -0.00001277

     Total force =     0.001207     Total SCF correction =     0.000032

     Computing stress (Cartesian axis) and pressure

     Non-local corr. energy    =       2.16759304 Ry

          total   stress  (Ry/bohr**3)                   (kbar)     P=        0.21
  -0.00000327  -0.00000000   0.00000000           -0.48       -0.00        0.00
   0.00000000  -0.00000327  -0.00000000            0.00       -0.48       -0.00
   0.00000000  -0.00000000   0.00001085            0.00       -0.00        1.60

     kinetic stress (kbar)  18790.21      0.00      0.00
                                0.00  18790.21     -0.00
                                0.00     -0.00  18645.36

     local   stress (kbar)   2589.77      0.03     -0.00
                                0.03   2589.80     -0.00
                               -0.00     -0.00  13208.47

     nonloc. stress (kbar)     98.18     -0.00      0.00
                                0.00     98.18      0.00
                                0.00      0.00    278.05

     hartree stress (kbar)  21050.40     -0.00      0.00
                               -0.00  21050.40      0.00
                                0.00      0.00  17145.65

     exc-cor stress (kbar)   5349.89     -0.00     -0.00
                               -0.00   5349.89     -0.00
                               -0.00     -0.00   5318.28

     corecor stress (kbar) -14412.53      0.00     -0.00
                                0.00 -14412.53     -0.00
                               -0.00     -0.00 -14407.98

     ewald   stress (kbar) -33627.33     -0.04      0.00
                               -0.04 -33627.37      0.00
                                0.00      0.00 -40357.22

     hubbard stress (kbar)      0.00      0.00      0.00
                                0.00      0.00      0.00
                                0.00      0.00      0.00

     DFT-D   stress (kbar)      0.00      0.00      0.00
                                0.00      0.00      0.00
                                0.00      0.00      0.00

     XDM     stress (kbar)      0.00      0.00      0.00
                                0.00      0.00      0.00
                                0.00      0.00      0.00

     dft-nl  stress (kbar)    160.94      0.00      0.00
                                0.00    160.94      0.00
                                0.00      0.00    171.00

     TS-vdW  stress (kbar)      0.00      0.00      0.00
                                0.00      0.00      0.00
                                0.00      0.00      0.00

     MDB     stress (kbar)      0.00      0.00      0.00
                                0.00      0.00      0.00
                                0.00      0.00      0.00

     3D-RISM stress (kbar)      0.00      0.00      0.00
                                0.00      0.00      0.00
                                0.00      0.00      0.00

     BFGS Geometry Optimization
     Energy error            =      0.0E+00 Ry
     Gradient error          =      6.6E-04 Ry/Bohr

     bfgs converged in   1 scf cycles and   0 bfgs steps
     (criteria: energy <  1.0E-04 Ry, force <  1.0E-03 Ry/Bohr)

     End of BFGS Geometry Optimization

     Final energy             =   -1248.9952336219 Ry
Begin final coordinates

ATOMIC_POSITIONS (angstrom)
Ga            0.0000000000        0.0000000000        3.0247099672
Ga           -0.0000016000        1.8475033270        5.6756331341
Ga            1.5999858985        0.9237502778        0.3528886082
Ga            0.0000000000        0.0000000000        8.3474544931
N            -0.0000016000        1.8475033270        9.0414854539
N             0.0000000000        0.0000000000        6.3169767017
N             1.5999858985        0.9237502778        3.7187409280
N             0.0000000000        0.0000000000        0.9942321758
End final coordinates

     Writing all to output data dir ./PbI2.save/

     General routines

     Parallel routines

     PAW routines

   This run was terminated on:   8:37:54  21Feb2024

   JOB DONE.