     Program PWSCF v.7.1 starts on 21Feb2024 at  8:48: 8

     Reading input from espresso.pwi
Warning: card &CELL ignored
Warning: card    CELL_DYNAMICS    = 'BFGS' ignored
Warning: card / ignored

     Current dimensions of program PWSCF are:
     Max number of different atomic species (ntypx) = 10
     Max number of k-points (npk) =  40000
     Max angular momentum in pseudopotentials (lmaxx) =  4
     file Ga.pbe-dn-kjpaw_psl.1.0.0.UPF: wavefunction(s)  4S renormalized
     file N.pbe-n-kjpaw_psl.1.0.0.UPF: wavefunction(s)  2S renormalized

     IMPORTANT: XC functional enforced from input :
     Exchange-correlation= BEEF-VDW
                           (   1   4  43  14   2   0   0)
     Any further DFT definition will be discarded
     Please, verify this is what you really want

     K-points division:     npool     =       4
     R & G space division:  proc/nbgrp/npool/nimage =      32
     Subspace diagonalization in iterative solution of the eigenvalue problem:
     a serial algorithm will be used

     Using Slab Decomposition

     bravais-lattice index     =            4
     lattice parameter (alat)  =       6.0471  a.u.
     unit-cell volume          =     637.0658 (a.u.)^3
     number of atoms/cell      =            8
     number of atomic types    =            2
     number of electrons       =        72.00
     number of Kohn-Sham states=           43
     kinetic-energy cutoff     =      70.0000  Ry
     charge density cutoff     =     350.0000  Ry
     scf convergence threshold =      1.0E-07
     mixing beta               =       0.7000
     number of iterations used =            8  plain     mixing
     Exchange-correlation= BEEF-VDW
                           (   1   4  43  14   2   0   0)

     celldm(1)=   6.047064  celldm(2)=   0.000000  celldm(3)=   3.326748
     celldm(4)=   0.000000  celldm(5)=   0.000000  celldm(6)=   0.000000

     crystal axes: (cart. coord. in units of alat)
               a(1) = (   1.000000   0.000000   0.000000 )
               a(2) = (  -0.500000   0.866025   0.000000 )
               a(3) = (   0.000000   0.000000   3.326748 )

     reciprocal axes: (cart. coord. in units 2 pi/alat)
               b(1) = (  1.000000  0.577350 -0.000000 )
               b(2) = (  0.000000  1.154701  0.000000 )
               b(3) = (  0.000000 -0.000000  0.300594 )

     PseudoPot. # 1 for Ga read from file:
     //group///packages/espresso/pseudo/psl_1.0.0/pslibrary.1.0.0/pbe/PSEUDOPOTENTIALS/Ga.pbe-dn-kjpaw_psl.1.0.0.UPF
     MD5 check sum: cd2a01e492f15b435d17032472d8505c
     Pseudo is Projector augmented-wave + core cor, Zval = 13.0
     Generated using 'atomic' code by A. Dal Corso  v.7.1
     Shape of augmentation charge: PSQ
     Using radial grid of 1205 points,  6 beta functions with:
                l(1) =   0
                l(2) =   0
                l(3) =   1
                l(4) =   1
                l(5) =   2
                l(6) =   2
     Q(r) pseudized with 0 coefficients

     PseudoPot. # 2 for N  read from file:
     //group///packages/espresso/pseudo/psl_1.0.0/pslibrary.1.0.0/pbe/PSEUDOPOTENTIALS/N.pbe-n-kjpaw_psl.1.0.0.UPF
     MD5 check sum: f77f775694dac7e2c3fe1c82443d1a16
     Pseudo is Projector augmented-wave + core cor, Zval =  5.0
     Generated using 'atomic' code by A. Dal Corso  v.7.1
     Shape of augmentation charge: PSQ
     Using radial grid of 1085 points,  4 beta functions with:
                l(1) =   0
                l(2) =   0
                l(3) =   1
                l(4) =   1
     Q(r) pseudized with 0 coefficients

     atomic species   valence    mass     pseudopotential
        Ga            13.00    69.72300     Ga( 1.00)
        N              5.00    14.00700     N ( 1.00)

     12 Sym. Ops. (no inversion) found ( 6 have fractional translation)

                                    s                        frac. trans.

      isym =  1     identity

 cryst.   s( 1) = (     1          0          0      )
                  (     0          1          0      )
                  (     0          0          1      )

 cart.    s( 1) = (  1.0000000  0.0000000  0.0000000 )
                  (  0.0000000  1.0000000  0.0000000 )
                  (  0.0000000  0.0000000  1.0000000 )

      isym =  2     180 deg rotation - cart. axis [0,0,1]

 cryst.   s( 2) = (    -1          0          0      )    f =(  0.0000000 )
                  (     0         -1          0      )       (  0.0000000 )
                  (     0          0          1      )       (  0.5000000 )

 cart.    s( 2) = ( -1.0000000  0.0000000  0.0000000 )    f =(  0.0000000 )
                  (  0.0000000 -1.0000000  0.0000000 )       (  0.0000000 )
                  (  0.0000000  0.0000000  1.0000000 )       (  1.6633740 )

      isym =  3      60 deg rotation - cryst. axis [0,0,1]

[...]

      isym =  6     120 deg rotation - cryst. axis [0,0,-1]

[...]

      isym =  7     inv. 180 deg rotation - cart. axis [0,1,0]

[...]

      isym =  8     inv. 180 deg rotation - cart. axis [1,0,0]

 cryst.   s( 8) = (    -1          0          0      )
                  (     1          1          0      )
                  (     0          0          1      )

 cart.    s( 8) = ( -1.0000000  0.0000000  0.0000000 )
                  (  0.0000000  1.0000000  0.0000000 )
                  (  0.0000000  0.0000000  1.0000000 )

      isym =  9     inv. 180 deg rotation - cryst. axis [1,-1,0]

 cryst.   s( 9) = (     0          1          0      )    f =(  0.0000000 )
                  (     1          0          0      )       (  0.0000000 )
                  (     0          0          1      )       (  0.5000000 )

 cart.    s( 9) = ( -0.5000000  0.8660254  0.0000000 )    f =(  0.0000000 )
                  (  0.8660254  0.5000000  0.0000000 )       (  0.0000000 )
                  (  0.0000000  0.0000000  1.0000000 )       (  1.6633740 )

[...]

 cryst.   s(10) = (    -1         -1          0      )    f =(  0.0000000 )
                  (     0          1          0      )       (  0.0000000 )
                  (     0          0          1      )       (  0.5000000 )

 cart.    s(10) = ( -0.5000000 -0.8660254  0.0000000 )    f =(  0.0000000 )
                  ( -0.8660254  0.5000000  0.0000000 )       (  0.0000000 )
                  (  0.0000000  0.0000000  1.0000000 )       (  1.6633740 )

[...]

 cryst.   s(11) = (     1          1          0      )
                  (     0         -1          0      )
                  (     0          0          1      )

 cart.    s(11) = (  0.5000000  0.8660254  0.0000000 )
                  (  0.8660254 -0.5000000  0.0000000 )
                  (  0.0000000  0.0000000  1.0000000 )

      isym = 12     inv. 180 deg rotation - cryst. axis [1,1,0]

 cryst.   s(12) = (     0         -1          0      )
                  (    -1          0          0      )
                  (     0          0          1      )

 cart.    s(12) = (  0.5000000 -0.8660254  0.0000000 )
                  ( -0.8660254 -0.5000000  0.0000000 )
                  (  0.0000000  0.0000000  1.0000000 )

     point group C_6v (6mm)
     there are  6 classes
     the character table:

       E     2C6   2C3   C2    3s_v  3s_d
A_1    1.00  1.00  1.00  1.00  1.00  1.00
A_2    1.00  1.00  1.00  1.00 -1.00 -1.00
B_1    1.00 -1.00  1.00 -1.00  1.00 -1.00
B_2    1.00 -1.00  1.00 -1.00 -1.00  1.00
E_1    2.00  1.00 -1.00 -2.00  0.00  0.00
E_2    2.00 -1.00 -1.00  2.00  0.00  0.00

     the symmetry operations in each class and the name of the first element:

     E        1
          identity
     2C6      3    4
           60 deg rotation - cryst. axis [0,0,1]
     2C3      5    6
          120 deg rotation - cryst. axis [0,0,1]
     C2       2
          180 deg rotation - cart. axis [0,0,1]
     3s_v     8   12   11
          inv. 180 deg rotation - cart. axis [1,0,0]
     3s_d     7    9   10
          inv. 180 deg rotation - cart. axis [0,1,0]

   Cartesian axes

     site n.     atom                  positions (alat units)
         1           Ga  tau(   1) = (   0.0000000   0.0000000   0.9452311  )
         2           Ga  tau(   2) = (  -0.0000005   0.5773505   1.7736528  )
         3           Ga  tau(   3) = (   0.5000005   0.2886748   0.1102788  )
         4           Ga  tau(   4) = (   0.0000000   0.0000000   2.6086051  )
         5           N   tau(   5) = (  -0.0000005   0.5773505   2.8254919  )
         6           N   tau(   6) = (   0.0000000   0.0000000   1.9740746  )
         7           N   tau(   7) = (   0.5000005   0.2886748   1.1621179  )
         8           N   tau(   8) = (   0.0000000   0.0000000   0.3107006  )

   Crystallographic axes

     site n.     atom                  positions (cryst. coord.)
         1           Ga  tau(   1) = (  0.0000000  0.0000000  0.2841307  )
         2           Ga  tau(   2) = (  0.3333329  0.6666669  0.5331491  )
         3           Ga  tau(   3) = (  0.6666670  0.3333329  0.0331491  )
         4           Ga  tau(   4) = (  0.0000000  0.0000000  0.7841307  )
         5           N   tau(   5) = (  0.3333329  0.6666669  0.8493255  )
         6           N   tau(   6) = (  0.0000000  0.0000000  0.5933947  )
         7           N   tau(   7) = (  0.6666670  0.3333329  0.3493255  )
         8           N   tau(   8) = (  0.0000000  0.0000000  0.0933947  )

     number of k points=    14  Gaussian smearing, width (Ry)=  0.0100
                       cart. coord. in units 2pi/alat
        k(    1) = (   0.0000000   0.0000000   0.0000000), wk =   0.0277778
        k(    2) = (   0.0000000   0.0000000  -0.1502969), wk =   0.0277778
        k(    3) = (   0.0000000   0.1924501   0.0000000), wk =   0.1666667
        k(    4) = (   0.0000000   0.1924501  -0.1502969), wk =   0.1666667
        k(    5) = (   0.0000000   0.3849002   0.0000000), wk =   0.1666667
        k(    6) = (   0.0000000   0.3849002  -0.1502969), wk =   0.1666667
        k(    7) = (   0.0000000  -0.5773503   0.0000000), wk =   0.0833333
        k(    8) = (   0.0000000  -0.5773503  -0.1502969), wk =   0.0833333
        k(    9) = (   0.1666667   0.2886751   0.0000000), wk =   0.1666667
        k(   10) = (   0.1666667   0.2886751  -0.1502969), wk =   0.1666667
        k(   11) = (   0.1666667   0.4811252   0.0000000), wk =   0.3333333
        k(   12) = (   0.1666667   0.4811252  -0.1502969), wk =   0.3333333
        k(   13) = (   0.3333333   0.5773503   0.0000000), wk =   0.0555556
        k(   14) = (   0.3333333   0.5773503  -0.1502969), wk =   0.0555556

                       cryst. coord.
        k(    1) = (   0.0000000   0.0000000   0.0000000), wk =   0.0277778
        k(    2) = (   0.0000000   0.0000000  -0.5000000), wk =   0.0277778
        k(    3) = (   0.0000000   0.1666667   0.0000000), wk =   0.1666667
        k(    4) = (   0.0000000   0.1666667  -0.5000000), wk =   0.1666667
        k(    5) = (   0.0000000   0.3333333   0.0000000), wk =   0.1666667
        k(    6) = (   0.0000000   0.3333333  -0.5000000), wk =   0.1666667
        k(    7) = (   0.0000000  -0.5000000   0.0000000), wk =   0.0833333
        k(    8) = (   0.0000000  -0.5000000  -0.5000000), wk =   0.0833333
[...]
     %   R. Sabatini et al., J. Phys.: Condens. Matter 24, 424209 (2012).   %
     %                                                                      %
     %%%%%%%%%%%%%%%%%%%%%%%%%%%%%%%%%%%%%%%%%%%%%%%%%%%%%%%%%%%%%%%%%%%%%%%%

     %%%%%%%%%%%%%%%%%%%%%%%%%%%%%%%%%%%%%%%%%%%%%%%%%%%%%%%%%%%%%%%%%%%%%%%%
     %                                                                      %
     %  vdW-DF NEWS:                                                        %
     %                                                                      %
     %  * vdW-DF3 is now available. DOI: 10.1021/acs.jctc.0c00471           %
     %    use with input_dft = 'vdW-DF3-opt1' or 'vdW-DF3-opt2'             %
     %                                                                      %
     %  * Unscreened and range-separated vdW-DF hybrid functionals          %
     %    DOI: 10.1063/1.4986522 and 10.1088/1361-648X/ac2ad2               %
     %    use with input_dft = 'vdW-DF-cx0' (etc) and 'vdW-DF-ahcx'         %
     %                                                                      %
     %%%%%%%%%%%%%%%%%%%%%%%%%%%%%%%%%%%%%%%%%%%%%%%%%%%%%%%%%%%%%%%%%%%%%%%%

     Carrying out vdW-DF run using the following parameters:
     Nqs    =  20  Npoints =  1024  r_max =  100.000
     q_mesh =  0.00001000  0.04494208  0.09755937  0.15916263
               0.23128650  0.31572767  0.41458969  0.53033537
               0.66584808  0.82450364  1.01025438  1.22772762
               1.48234092  1.78043706  2.12944203  2.53805004
               3.01644009  3.57652955  4.23227104  5.00000000

     Non-local corr. energy    =       2.16759304 Ry

     Starting wfcs from file
     Checking if some PAW data can be deallocated...

     Self-consistent Calculation

     iteration #  1     ecut=    70.00 Ry     beta= 0.70
     Davidson diagonalization with overlap

     ethr =  1.00E-05,  avg # of iterations =  1.0

     Threshold (ethr) on eigenvalues was too large:
     Diagonalizing with lowered threshold

     Davidson diagonalization with overlap

     ethr =  1.30E-11,  avg # of iterations =  4.2

[...]

     End of self-consistent calculation

          k = 0.0000 0.0000 0.0000 (  6209 PWs)   bands (ev):

    -6.7439  -6.5552  -5.8363  -5.8084  -5.3635  -5.3635  -5.3627  -5.3627
    -5.2213  -5.2213  -5.2199  -5.2199  -5.1804  -5.0226  -4.8185  -4.8185
    -4.8174  -4.8174  -4.6224  -4.6224  -4.6204  -4.6204  -4.3101  -3.5258
     2.6861   4.9235   5.9026   8.3748   8.3749   8.3913   8.3914   9.1068
     9.1068   9.1080   9.1081   9.3934  10.1410  12.7435  13.1460  13.3210
    16.5490  16.9583  17.7611

     occupation numbers
     1.0000   1.0000   1.0000   1.0000   1.0000   1.0000   1.0000   1.0000
     1.0000   1.0000   1.0000   1.0000   1.0000   1.0000   1.0000   1.0000
     1.0000   1.0000   1.0000   1.0000   1.0000   1.0000   1.0000   1.0000
     1.0000   1.0000   1.0000   1.0000   1.0000   1.0000   1.0000   1.0000
     1.0000   1.0000   1.0000   0.9999   0.0001   0.0000   0.0000   0.0000
     0.0000   0.0000   0.0000

[...]

          k = 0.3333 0.5774-0.1503 (  6300 PWs)   bands (ev):

    -6.3670  -6.3670  -5.7107  -5.7107  -5.3269  -5.3269  -5.3043  -5.3043
    -5.2595  -5.2595  -5.1415  -5.1415  -4.7534  -4.7534  -4.7457  -4.7457
    -4.6683  -4.6683  -4.6316  -4.6316  -2.9201  -2.9201  -2.3556  -2.3555
     3.0957   3.0957   3.5601   3.5602   4.6611   4.6611   5.5578   5.5578
     6.9472   6.9472   8.4210   8.4210  12.4530  12.4530  15.7493  15.7493
    16.2708  16.2708  17.4178

     occupation numbers
     1.0000   1.0000   1.0000   1.0000   1.0000   1.0000   1.0000   1.0000
     1.0000   1.0000   1.0000   1.0000   1.0000   1.0000   1.0000   1.0000
     1.0000   1.0000   1.0000   1.0000   1.0000   1.0000   1.0000   1.0000
     1.0000   1.0000   1.0000   1.0000   1.0000   1.0000   1.0000   1.0000
     1.0000   1.0000   1.0000   1.0000   0.0000   0.0000   0.0000   0.0000
     0.0000   0.0000   0.0000

     the Fermi energy is     9.7672 ev

!    total energy              =   -1248.99523361 Ry
     total all-electron energy =    -16014.849071 Ry
     estimated scf accuracy    <       0.00000007 Ry
     smearing contrib. (-TS)   =      -0.00000008 Ry
     internal energy E=F+TS    =   -1248.99523353 Ry

     The total energy is F=E-TS. E is the sum of the following terms:
     one-electron contribution =    -360.62741011 Ry
     hartree contribution      =     256.57101456 Ry
     xc contribution           =    -181.93308635 Ry
     ewald contribution        =    -466.03335810 Ry
     one-center paw contrib.   =    -496.97239353 Ry
      -> PAW hartree energy AE =     144.88364649 Ry
      -> PAW hartree energy PS =    -143.50688788 Ry
      -> PAW xc energy AE      =    -156.96550600 Ry
      -> PAW xc energy PS      =      39.75892740 Ry
      -> total E_H with PAW    =     257.94777317 Ry
      -> total E_XC with PAW   =    -299.13966494 Ry

     convergence has been achieved in   1 iterations

[...]

     Forces acting on atoms (cartesian axes, Ry/au):

     atom    1 type  1   force =    -0.00000000   -0.00000000   -0.00013588
     atom    2 type  1   force =    -0.00000000    0.00000000    0.00041492
     atom    3 type  1   force =     0.00000000   -0.00000000    0.00041492
     atom    4 type  1   force =    -0.00000000   -0.00000000   -0.00013588
     atom    5 type  2   force =     0.00000000    0.00000000    0.00037110
     atom    6 type  2   force =     0.00000000   -0.00000000   -0.00065014
     atom    7 type  2   force =     0.00000000    0.00000000    0.00037110
     atom    8 type  2   force =    -0.00000000   -0.00000000   -0.00065014
     The non-local contrib.  to forces
     atom    1 type  1   force =     0.00000000    0.00000000   -0.14302978
     atom    2 type  1   force =    -0.00000000    0.00000000   -0.64612718
     atom    3 type  1   force =    -0.00000000   -0.00000000   -0.64612718
     atom    4 type  1   force =     0.00000000    0.00000000   -0.14302978
     atom    5 type  2   force =     0.00000000    0.00000000   -0.46941253
     atom    6 type  2   force =     0.00000000    0.00000000   -0.07275818
     atom    7 type  2   force =     0.00000000    0.00000000   -0.46941253
     atom    8 type  2   force =     0.00000000    0.00000000   -0.07275818
     The ionic contribution  to forces
     atom    1 type  1   force =     0.00001329   -0.00000941   -1.42777094
     atom    2 type  1   force =     0.00001889   -0.00000739   -2.29479010
     atom    3 type  1   force =    -0.00001880    0.00001244   -2.29479180
     atom    4 type  1   force =    -0.00001338    0.00000462   -1.42776913
     atom    5 type  2   force =     0.00001663   -0.00000656    2.72082546
     atom    6 type  2   force =    -0.00001420    0.00000516    1.00173619
     atom    7 type  2   force =    -0.00001655    0.00001089    2.72082485
     atom    8 type  2   force =     0.00001412   -0.00000975    1.00173547
     The local contribution  to forces
     atom    1 type  1   force =     0.00000000    0.00000000    1.56985629
     atom    2 type  1   force =     0.00054138   -0.00019827    2.93003273
     atom    3 type  1   force =    -0.00053840    0.00036973    2.93002338
     atom    4 type  1   force =     0.00000000   -0.00000000    1.56986545
     atom    5 type  2   force =     0.00004022   -0.00001473   -2.25844859
     atom    6 type  2   force =    -0.00000000   -0.00000000   -0.93067602
     atom    7 type  2   force =    -0.00004000    0.00002747   -2.25844945
     atom    8 type  2   force =     0.00000000    0.00000000   -0.93067679
     The core correction contribution to forces
     atom    1 type  1   force =    -0.00000000    0.00000000    0.00099921
     atom    2 type  1   force =     0.00004065   -0.00001489    0.01138915
     atom    3 type  1   force =    -0.00004042    0.00002776    0.01138847
     atom    4 type  1   force =     0.00000000   -0.00000000    0.00099989
     atom    5 type  2   force =    -0.00000117    0.00000043    0.00756537
     atom    6 type  2   force =     0.00000000   -0.00000000    0.00112736
     atom    7 type  2   force =     0.00000117   -0.00000080    0.00756539
     atom    8 type  2   force =    -0.00000000    0.00000000    0.00112738
     The Hubbard contrib.    to forces
     atom    1 type  1   force =     0.00000000    0.00000000    0.00000000
     atom    2 type  1   force =     0.00000000    0.00000000    0.00000000
     atom    3 type  1   force =     0.00000000    0.00000000    0.00000000
     atom    4 type  1   force =     0.00000000    0.00000000    0.00000000
     atom    5 type  2   force =     0.00000000    0.00000000    0.00000000
     atom    6 type  2   force =     0.00000000    0.00000000    0.00000000
     atom    7 type  2   force =     0.00000000    0.00000000    0.00000000
     atom    8 type  2   force =     0.00000000    0.00000000    0.00000000
     The SCF correction term to forces
     atom    1 type  1   force =    -0.00000000    0.00000000   -0.00008472
     atom    2 type  1   force =     0.00000001   -0.00000000    0.00002796
     atom    3 type  1   force =    -0.00000001    0.00000001    0.00002796
     atom    4 type  1   force =     0.00000000    0.00000000   -0.00008472
     atom    5 type  2   force =    -0.00000000    0.00000000   -0.00004612
     atom    6 type  2   force =    -0.00000000    0.00000000    0.00003301
     atom    7 type  2   force =     0.00000000   -0.00000000   -0.00004612
     atom    8 type  2   force =     0.00000000   -0.00000000    0.00003301

     Total force =     0.001226     Total SCF correction =     0.000149
     SCF correction compared to forces is large: reduce conv_thr to get better values

     Computing stress (Cartesian axis) and pressure

[...]

          total   stress  (Ry/bohr**3)                   (kbar)     P=        0.38
  -0.00000208  -0.00000000   0.00000000           -0.31       -0.00        0.00
   0.00000000  -0.00000208  -0.00000000            0.00       -0.31       -0.00
   0.00000000  -0.00000000   0.00001199            0.00       -0.00        1.76

     kinetic stress (kbar)  18789.10     -0.00     -0.00
                                0.00  18789.10     -0.00
                               -0.00     -0.00  18644.26

     local   stress (kbar)   2589.49      0.03     -0.00
                                0.03   2589.52     -0.00
                               -0.00     -0.00  13208.20

     nonloc. stress (kbar)    100.22     -0.00      0.00
                               -0.00    100.22      0.00
                                0.00      0.00    280.07

     hartree stress (kbar)  21049.88     -0.00      0.00
                               -0.00  21049.88      0.00
                                0.00      0.00  17145.13

     exc-cor stress (kbar)   5349.93     -0.00     -0.00
                               -0.00   5349.93     -0.00
                               -0.00     -0.00   5318.32

     corecor stress (kbar) -14412.54      0.00     -0.00
                                0.00 -14412.54     -0.00
                               -0.00     -0.00 -14407.99

     ewald   stress (kbar) -33627.33     -0.04      0.00
                               -0.04 -33627.37      0.00
                                0.00      0.00 -40357.22

     hubbard stress (kbar)      0.00      0.00      0.00
                                0.00      0.00      0.00
                                0.00      0.00      0.00

     DFT-D   stress (kbar)      0.00      0.00      0.00
                                0.00      0.00      0.00
                                0.00      0.00      0.00

     XDM     stress (kbar)      0.00      0.00      0.00
                                0.00      0.00      0.00
                                0.00      0.00      0.00

     dft-nl  stress (kbar)    160.94      0.00      0.00
                                0.00    160.94      0.00
                                0.00      0.00    170.99

     TS-vdW  stress (kbar)      0.00      0.00      0.00
                                0.00      0.00      0.00
                                0.00      0.00      0.00

     MDB     stress (kbar)      0.00      0.00      0.00
                                0.00      0.00      0.00
                                0.00      0.00      0.00

     3D-RISM stress (kbar)      0.00      0.00      0.00
                                0.00      0.00      0.00
                                0.00      0.00      0.00

[...]

     Non-local corr. energy    =       2.16754110 Ry

 BEEFens 2000 ensemble energies
             -0.175408406618040E+01
             -0.158735113969950E+02
             -0.684180623522505E+01
              0.557567389440773E+01
             -0.114156604702770E+02
             -0.146888121992989E+02
              0.754916879146916E+01
             -0.775693362284272E+00
              0.125808352701548E+02
             -0.555451354294107E+00
              0.617736846301550E+01
              0.268124250769119E+00
              0.251576860621888E+00
             -0.534619256027966E+00
              0.825524803284288E+01
             -0.597734287693654E+01
             -0.123455140737653E+02
             -0.404560724632116E+01
              0.303356033806288E+01
             -0.250854850401595E+00
              0.180322354969916E+02
              0.153467041160424E+02
             -0.879091325664493E+01
              0.318601806042209E+01
             -0.192578716751837E+02
              0.154519519079594E+02
              0.504414208770626E+01
              0.150127379257181E+02
              0.986397734623279E+01
             -0.479794019037796E+01
              0.363400843959247E+01
             -0.710215444155308E+01
              0.200031287130958E+01
              0.964903342818484E+01
              0.102231832476775E+02
             -0.372368009549417E+01
              0.227367696113607E+02
             -0.861878970773856E+01
             -0.622600549949719E+01
              0.911956322385775E+01
              0.406154261397748E+01
              0.680955799470711E+01
             -0.129947193582676E+02
             -0.361887535128830E+00
              0.127629536153964E+02
              0.165770799869287E+02
             -0.164867520787618E+02
              0.118248718839235E+01
              0.621668096908805E+01
              0.303484254546150E+01
              0.691125761011313E+01
              0.146004794978816E+02
             -0.882853300574729E+01
             -0.965288193020893E+01
             -0.125934537313123E+02
             -0.196613085211918E+01
             -0.114833802134910E+02
              0.113226651425033E+01
             -0.211896768096928E+01
             -0.892712730733165E+01
[...]
              0.111536329451076E+02
              0.619313197423208E+01
              0.782305306843452E+01
             -0.126664225702770E+02
             -0.121533420818852E+02
             -0.307026417953848E+01
             -0.118875070199939E+02
              0.190363920321321E+02
              0.163190248324896E+02
              0.779343415061975E+01
              0.211118142161655E+02
             -0.110046278678150E+02
             -0.447044569543777E+01
             -0.621549029210215E+01
              0.174729330124017E+02

 BEEF-vdW xc energy contributions
            1 :    -160.0139579870872
            2 :     144.1399375572429
            3 :    -117.5562009611314
            4 :     88.04906429856915
            5 :    -62.44615381646776
            6 :     44.02478014353790
            7 :    -32.17758881460009
            8 :     24.12697472618427
            9 :    -17.29540723420200
           10 :     10.78477792191757
           11 :    -5.274215559778213
           12 :     1.812476176025996
           13 :   -0.6276263370815514
           14 :    0.8361965333116075
           15 :    -1.109679081507210
           16 :    0.6270549241059484
           17 :    0.4732617682828959
           18 :    -1.431423090578306
           19 :     1.631337997215496
           20 :    -1.140585713902624
           21 :    0.6244083853144957
           22 :   -0.7693858803209253
           23 :     1.724936876156733
           24 :    -3.006525737849501
           25 :     3.898540369245410
           26 :    -3.999085355090955
           27 :     3.472061016855804
           28 :    -2.842653320915929
           29 :     2.544557066471782
           30 :    -2.599254936417708
           31 :    -13.71392615281752
           32 :    -9.409979089528747

     Writing all to output data dir ./PbI2.save/

     General routines

     Parallel routines

     PAW routines

   This run was terminated on:   8:48:15  21Feb2024

   JOB DONE.