     Program PWSCF v.7.1 starts on 28Mar2024 at 14:25:39

     Reading input from espresso.pwi
Warning: card &CELL ignored
Warning: card    CELL_DYNAMICS    = 'BFGS' ignored
Warning: card / ignored

     Current dimensions of program PWSCF are:
     Max number of different atomic species (ntypx) = 10
     Max number of k-points (npk) =  40000
     Max angular momentum in pseudopotentials (lmaxx) =  4
     file Pb.pbe-dn-kjpaw_psl.1.0.0.UPF: wavefunction(s)  6S 6P 5D renormalized
     file I.pbe-dn-kjpaw_psl.1.0.0.UPF: wavefunction(s)  5S 5P renormalized

     IMPORTANT: XC functional enforced from input :
     Exchange-correlation= BEEF-VDW
                           (   1   4  43  14   2   0   0)
     Any further DFT definition will be discarded
     Please, verify this is what you really want

     R & G space division:  proc/nbgrp/npool/nimage =      20
     Subspace diagonalization in iterative solution of the eigenvalue problem:
     a serial algorithm will be used

     Using Slab Decomposition

     bravais-lattice index     =            4
     lattice parameter (alat)  =      17.8060  a.u.
     unit-cell volume          =    7656.2263 (a.u.)^3
     number of atoms/cell      =           24
     number of atomic types    =            2
     number of electrons       =       380.00
     number of Kohn-Sham states=          228
     kinetic-energy cutoff     =      70.0000  Ry
     charge density cutoff     =     350.0000  Ry
     scf convergence threshold =      1.0E-07
     mixing beta               =       0.7000
     number of iterations used =            8  plain     mixing
     Exchange-correlation= BEEF-VDW
                           (   1   4  43  14   2   0   0)

     celldm(1)=  17.806016  celldm(2)=   0.000000  celldm(3)=   1.565971
     celldm(4)=   0.000000  celldm(5)=   0.000000  celldm(6)=   0.000000

     crystal axes: (cart. coord. in units of alat)
               a(1) = (   1.000000   0.000000   0.000000 )
               a(2) = (  -0.500000   0.866025   0.000000 )
               a(3) = (   0.000000   0.000000   1.565971 )

     reciprocal axes: (cart. coord. in units 2 pi/alat)
               b(1) = (  1.000000  0.577350 -0.000000 )
               b(2) = (  0.000000  1.154701  0.000000 )
               b(3) = (  0.000000 -0.000000  0.638581 )

     PseudoPot. # 1 for Pb read from file:
     /trace/group/acmegroup/atimmins/packages/espresso/pseudo/psl_1.0.0/pslibrary.1.0.0/pbe/PSEUDOPOTENTIALS/Pb.pbe-dn-kjpaw_psl.1.0.0.UPF
     MD5 check sum: 39ab5b8a6bbd56b7735ad9f188aac93a
     Pseudo is Projector augmented-wave + core cor, Zval = 14.0
     Generated using 'atomic' code by A. Dal Corso  v.7.1
     Shape of augmentation charge: PSQ
     Using radial grid of 1281 points,  6 beta functions with:
                l(1) =   0
                l(2) =   0
                l(3) =   1
                l(4) =   1
                l(5) =   2
                l(6) =   2
     Q(r) pseudized with 0 coefficients

     PseudoPot. # 2 for I  read from file:
     /trace/group/acmegroup/atimmins/packages/espresso/pseudo/psl_1.0.0/pslibrary.1.0.0/pbe/PSEUDOPOTENTIALS/I.pbe-dn-kjpaw_psl.1.0.0.UPF
     MD5 check sum: bfa8781bc1224d19af3f3980e3fab11e
     Pseudo is Projector augmented-wave + core cor, Zval = 17.0
     Generated using 'atomic' code by A. Dal Corso  v.7.1
     Shape of augmentation charge: PSQ
     Using radial grid of 1247 points,  6 beta functions with:
                l(1) =   0
                l(2) =   0
                l(3) =   1
                l(4) =   1
                l(5) =   2
                l(6) =   2
     Q(r) pseudized with 0 coefficients

     atomic species   valence    mass     pseudopotential
        Pb            14.00   207.20000     Pb( 1.00)
        I             17.00   126.90447     I ( 1.00)

     No symmetry found

                                    s                        frac. trans.

      isym =  1     identity

 cryst.   s( 1) = (     1          0          0      )
                  (     0          1          0      )
                  (     0          0          1      )

 cart.    s( 1) = (  1.0000000  0.0000000  0.0000000 )
                  (  0.0000000  1.0000000  0.0000000 )
                  (  0.0000000  0.0000000  1.0000000 )

     point group C_1 (1)
     there are  1 classes
     the character table:

       E
A      1.00

     the symmetry operations in each class and the name of the first element:

     E        1
          identity

   Cartesian axes

     site n.     atom                  positions (alat units)
         1           Pb  tau(   1) = (   0.2500170   0.4329745   1.5659650  )
         2           Pb  tau(   2) = (   0.2500068   0.4329836   0.7829793  )
         3           Pb  tau(   3) = (   0.0000153   0.8659852   1.5659567  )
         4           Pb  tau(   4) = (   0.0000051   0.8659943   0.7829710  )
         5           Pb  tau(   5) = (   0.7500170   0.4329726   1.5659715  )
         6           Pb  tau(   6) = (   0.7500068   0.4329816   0.7829858  )
         7           Pb  tau(   7) = (   0.5000153   0.8659833   1.5659633  )
         8           Pb  tau(   8) = (   0.5000051   0.8659923   0.7829776  )
         9           I   tau(   9) = (   0.2500209   0.1443009   1.3648506  )
        10           I   tau(  10) = (   0.0000091   0.5773207   0.5818567  )
        11           I   tau(  11) = (   0.0000193   0.5773116   1.3648424  )
        12           I   tau(  12) = (   0.7500107   0.1443080   0.5818714  )
        13           I   tau(  13) = (   0.7500209   0.1442990   1.3648571  )
        14           I   tau(  14) = (   0.5000091   0.5773187   0.5818632  )
        15           I   tau(  15) = (   0.5000193   0.5773097   1.3648489  )
        16           I   tau(  16) = (  -0.0000034   0.2886595   0.2011110  )
        17           I   tau(  17) = (   0.0000068   0.2886504   0.9840967  )
        18           I   tau(  18) = (  -0.2500051   0.7216702   0.2011027  )
        19           I   tau(  19) = (  -0.2499949   0.7216611   0.9840884  )
        20           I   tau(  20) = (   0.4999966   0.2886575   0.2011175  )
        21           I   tau(  21) = (   0.5000068   0.2886485   0.9841032  )
        22           I   tau(  22) = (   0.2499949   0.7216682   0.2011092  )
        23           I   tau(  23) = (   0.2500051   0.7216592   0.9840949  )
        24           Pb  tau(  24) = (   0.2500107   0.1443099   0.5818649  )

   Crystallographic axes

     site n.     atom                  positions (cryst. coord.)
         1           Pb  tau(   1) = (  0.4999949  0.4999559  0.9999959  )
         2           Pb  tau(   2) = (  0.4999900  0.4999663  0.4999959  )
         3           Pb  tau(   3) = (  0.4999921  0.9999536  0.9999906  )
         4           Pb  tau(   4) = (  0.4999871  0.9999640  0.4999906  )
         5           Pb  tau(   5) = (  0.9999938  0.4999537  1.0000001  )
         6           Pb  tau(   6) = (  0.9999888  0.4999641  0.5000001  )
         7           Pb  tau(   7) = (  0.9999910  0.9999514  0.9999948  )
         8           Pb  tau(   8) = (  0.9999860  0.9999618  0.4999948  )
         9           I   tau(   9) = (  0.3333331  0.1666243  0.8715680  )
        10           I   tau(  10) = (  0.3333253  0.6666325  0.3715628  )
        11           I   tau(  11) = (  0.3333303  0.6666220  0.8715628  )
        12           I   tau(  12) = (  0.8333270  0.1666326  0.3715722  )
        13           I   tau(  13) = (  0.8333320  0.1666221  0.8715722  )
        14           I   tau(  14) = (  0.8333242  0.6666303  0.3715669  )
        15           I   tau(  15) = (  0.8333292  0.6666198  0.8715669  )
        16           I   tau(  16) = (  0.1666542  0.3333152  0.1284257  )
        17           I   tau(  17) = (  0.1666592  0.3333048  0.6284257  )
        18           I   tau(  18) = (  0.1666514  0.8333129  0.1284204  )
        19           I   tau(  19) = (  0.1666564  0.8333025  0.6284204  )
        20           I   tau(  20) = (  0.6666531  0.3333130  0.1284299  )
        21           I   tau(  21) = (  0.6666581  0.3333026  0.6284299  )
        22           I   tau(  22) = (  0.6666503  0.8333107  0.1284246  )
        23           I   tau(  23) = (  0.6666553  0.8333003  0.6284246  )
        24           Pb  tau(  24) = (  0.3333281  0.1666348  0.3715680  )

     number of k points=     4  Gaussian smearing, width (Ry)=  0.0100
                       cart. coord. in units 2pi/alat
        k(    1) = (   0.0000000   0.0000000   0.0000000), wk =   0.5000000
        k(    2) = (   0.0000000  -0.5773503   0.0000000), wk =   0.5000000
        k(    3) = (   0.5000000  -0.2886751   0.0000000), wk =   0.5000000
        k(    4) = (  -0.5000000  -0.2886751   0.0000000), wk =   0.5000000

                       cryst. coord.
        k(    1) = (   0.0000000   0.0000000   0.0000000), wk =   0.5000000
        k(    2) = (   0.0000000  -0.5000000   0.0000000), wk =   0.5000000
        k(    3) = (   0.5000000  -0.5000000   0.0000000), wk =   0.5000000
        k(    4) = (  -0.5000000  -0.0000000   0.0000000), wk =   0.5000000

     Atomic positions and unit cell read from directory:
     ./PbI2.save/
     Atomic positions from file used, from input discarded

     Check: negative core charge=   -0.000001

     The initial density is read from file :
     ./PbI2.save/charge-density

     %%%%%%%%%%%%%%%%%%%%%%%%%%%%%%%%%%%%%%%%%%%%%%%%%%%%%%%%%%%%%%%%%%%%%%%%
     %                                                                      %
     % You are using vdW-DF, which was implemented by the Thonhauser group. %
     % Please cite the following two papers that made this development      %
     % possible and the two reviews that describe the various versions:     %
     %                                                                      %
     %   T. Thonhauser et al., PRL 115, 136402 (2015).                      %
     %   T. Thonhauser et al., PRB 76, 125112 (2007).                       %
     %   K. Berland et al., Rep. Prog. Phys. 78, 066501 (2015).             %
     %   D.C. Langreth et al., J. Phys.: Condens. Matter 21, 084203 (2009). %
     %                                                                      %
     % If you are calculating stress with vdW-DF, please also cite:         %
     %                                                                      %
     %   R. Sabatini et al., J. Phys.: Condens. Matter 24, 424209 (2012).   %
     %                                                                      %
     %%%%%%%%%%%%%%%%%%%%%%%%%%%%%%%%%%%%%%%%%%%%%%%%%%%%%%%%%%%%%%%%%%%%%%%%

     %%%%%%%%%%%%%%%%%%%%%%%%%%%%%%%%%%%%%%%%%%%%%%%%%%%%%%%%%%%%%%%%%%%%%%%%
     %                                                                      %
     %  vdW-DF NEWS:                                                        %
     %                                                                      %
     %  * vdW-DF3 is now available. DOI: 10.1021/acs.jctc.0c00471           %
     %    use with input_dft = 'vdW-DF3-opt1' or 'vdW-DF3-opt2'             %
     %                                                                      %
[...]
     atom   21 type  2   force =    -0.01535431   -0.00922611   -0.23337828
     atom   22 type  2   force =     0.00000712   -0.00002443   -0.26246089
     atom   23 type  2   force =    -0.00078155    0.00156785   -0.17695884
     atom   24 type  1   force =    -0.00097175    0.00197455    0.08318201
     The ionic contribution  to forces
     atom    1 type  1   force =    -0.00529333    0.19511623   -2.66887047
     atom    2 type  1   force =     0.01026506   -3.02731555   -1.40585099
     atom    3 type  1   force =     0.17109231   -0.09132277   -2.66001002
     atom    4 type  1   force =    -2.65904955    1.52176268   -1.41696151
     atom    5 type  1   force =     0.01181948   -0.02505137   -0.90578381
     atom    6 type  1   force =    -0.00298235    0.00494312    2.92278645
     atom    7 type  1   force =    -0.17423444   -0.08704139   -2.66402837
     atom    8 type  1   force =     2.65048484    1.50483290   -1.41145307
     atom    9 type  2   force =    -0.00150753    0.00297965  -17.47764579
     atom   10 type  2   force =     1.40701293    0.83643221   -9.15070729
     atom   11 type  2   force =     0.47248607    0.26362653  -17.98462045
     atom   12 type  2   force =    -0.00971039   -1.63476232   -9.16124168
     atom   13 type  2   force =     0.00370659   -0.53285761  -17.97424283
     atom   14 type  2   force =    -1.41295632    0.82869524   -9.14109692
     atom   15 type  2   force =    -0.47581655    0.26983773  -17.99278564
     atom   16 type  2   force =    -3.95254452    2.27227300   10.17482569
     atom   17 type  2   force =    -0.51489600    0.31187197   13.88205782
     atom   18 type  2   force =     0.00652536   -4.51621110   10.22445607
     atom   19 type  2   force =    -0.01129243   -0.59781782   13.86168249
     atom   20 type  2   force =     3.93957965    2.25724341   10.19712458
     atom   21 type  2   force =     0.50800713    0.32082704   13.87281038
     atom   22 type  2   force =    -0.00365394    0.00767887   13.80304083
     atom   23 type  2   force =     0.02507456   -0.05018446   14.37476091
     atom   24 type  1   force =     0.01788338   -0.03555618    8.70175364
     The local contribution  to forces
     atom    1 type  1   force =     0.00522727   -0.21492718    2.69199735
     atom    2 type  1   force =    -0.01012377    3.00524267    1.34419117
     atom    3 type  1   force =    -0.18829093    0.10132905    2.68317974
     atom    4 type  1   force =     2.63782955   -1.50968146    1.35369660
     atom    5 type  1   force =    -0.01145797    0.02428068    0.98401438
     atom    6 type  1   force =     0.00304584   -0.00508480   -2.87285092
     atom    7 type  1   force =     0.19136172    0.09708242    2.68718703
     atom    8 type  1   force =    -2.63008136   -1.49339108    1.34892702
     atom    9 type  2   force =     0.00150872   -0.00296845   17.22144404
     atom   10 type  2   force =    -1.37940352   -0.82035896    8.94747524
     atom   11 type  2   force =    -0.46836148   -0.26130120   17.72098602
     atom   12 type  2   force =     0.00964914    1.60295703    8.95791251
     atom   13 type  2   force =    -0.00368479    0.52833461   17.71083363
     atom   14 type  2   force =     1.38522157   -0.81261904    8.93795289
     atom   15 type  2   force =     0.47157031   -0.26741743   17.72897623
     atom   16 type  2   force =     3.85996399   -2.21900419  -10.03801247
     atom   17 type  2   force =     0.49954401   -0.30281459  -13.65380435
     atom   18 type  2   force =    -0.00640232    4.41118332  -10.08612630
     atom   19 type  2   force =     0.01113942    0.58008591  -13.63359138
     atom   20 type  2   force =    -3.84761657   -2.20447326  -10.05963872
     atom   21 type  2   force =    -0.49276474   -0.31165826  -13.64463049
     atom   22 type  2   force =     0.00364666   -0.00765442  -13.54515141
     atom   23 type  2   force =    -0.02433866    0.04870544  -14.20200110
     atom   24 type  1   force =    -0.01695261    0.03366584   -8.78223807
     The core correction contribution to forces
     atom    1 type  1   force =    -0.00000166   -0.00024782    0.00032547
     atom    2 type  1   force =     0.00000314   -0.00191627   -0.00196519
     atom    3 type  1   force =    -0.00021458    0.00012614    0.00032544
     atom    4 type  1   force =    -0.00170942    0.00098242   -0.00200804
     atom    5 type  1   force =     0.00000767   -0.00001577    0.00154526
     atom    6 type  1   force =     0.00000180   -0.00000357    0.00086257
     atom    7 type  1   force =     0.00021343    0.00012738    0.00032561
     atom    8 type  1   force =     0.00168982    0.00096745   -0.00198884
     atom    9 type  2   force =     0.00000014    0.00000125   -0.00549658
     atom   10 type  2   force =     0.00075700    0.00043870   -0.00441823
     atom   11 type  2   force =     0.00022644    0.00013324   -0.00562678
     atom   12 type  2   force =    -0.00000075   -0.00087135   -0.00442053
     atom   13 type  2   force =    -0.00000062   -0.00025578   -0.00562134
     atom   14 type  2   force =    -0.00075958    0.00043937   -0.00441583
     atom   15 type  2   force =    -0.00023088    0.00013507   -0.00563086
     atom   16 type  2   force =    -0.00217569    0.00125261    0.00304536
     atom   17 type  2   force =    -0.00039499    0.00023214    0.00516296
     atom   18 type  2   force =     0.00000283   -0.00246861    0.00310885
     atom   19 type  2   force =    -0.00000280   -0.00045888    0.00515437
     atom   20 type  2   force =     0.00216154    0.00124119    0.00307332
     atom   21 type  2   force =     0.00039331    0.00023445    0.00515919
     atom   22 type  2   force =    -0.00000103    0.00000328    0.00545241
     atom   23 type  2   force =     0.00002262   -0.00004557    0.00382674
     atom   24 type  1   force =     0.00002681   -0.00005467   -0.00310466
     The Hubbard contrib.    to forces
     atom    1 type  1   force =     0.00000000    0.00000000    0.00000000
     atom    2 type  1   force =     0.00000000    0.00000000    0.00000000
     atom    3 type  1   force =     0.00000000    0.00000000    0.00000000
     atom    4 type  1   force =     0.00000000    0.00000000    0.00000000
     atom    5 type  1   force =     0.00000000    0.00000000    0.00000000
     atom    6 type  1   force =     0.00000000    0.00000000    0.00000000
     atom    7 type  1   force =     0.00000000    0.00000000    0.00000000
     atom    8 type  1   force =     0.00000000    0.00000000    0.00000000
     atom    9 type  2   force =     0.00000000    0.00000000    0.00000000
     atom   10 type  2   force =     0.00000000    0.00000000    0.00000000
     atom   11 type  2   force =     0.00000000    0.00000000    0.00000000
     atom   12 type  2   force =     0.00000000    0.00000000    0.00000000
     atom   13 type  2   force =     0.00000000    0.00000000    0.00000000
     atom   14 type  2   force =     0.00000000    0.00000000    0.00000000
     atom   15 type  2   force =     0.00000000    0.00000000    0.00000000
     atom   16 type  2   force =     0.00000000    0.00000000    0.00000000
     atom   17 type  2   force =     0.00000000    0.00000000    0.00000000
     atom   18 type  2   force =     0.00000000    0.00000000    0.00000000
     atom   19 type  2   force =     0.00000000    0.00000000    0.00000000
     atom   20 type  2   force =     0.00000000    0.00000000    0.00000000
     atom   21 type  2   force =     0.00000000    0.00000000    0.00000000
     atom   22 type  2   force =     0.00000000    0.00000000    0.00000000
     atom   23 type  2   force =     0.00000000    0.00000000    0.00000000
     atom   24 type  1   force =     0.00000000    0.00000000    0.00000000
     The SCF correction term to forces
     atom    1 type  1   force =    -0.00000002   -0.00002630    0.00001830
     atom    2 type  1   force =    -0.00000041   -0.00002062   -0.00000411
     atom    3 type  1   force =    -0.00002258    0.00001317    0.00001831
     atom    4 type  1   force =    -0.00001802    0.00001107   -0.00000298
     atom    5 type  1   force =     0.00000001   -0.00000016    0.00004566
     atom    6 type  1   force =     0.00000026   -0.00000037   -0.00003344
     atom    7 type  1   force =     0.00002244    0.00001327    0.00001831
     atom    8 type  1   force =     0.00001765    0.00001135   -0.00000347
     atom    9 type  2   force =    -0.00000048    0.00000148    0.00002333
     atom   10 type  2   force =     0.00001087   -0.00000058    0.00003510
     atom   11 type  2   force =    -0.00004059   -0.00002511    0.00005039
     atom   12 type  2   force =     0.00000238   -0.00000738    0.00003440
     atom   13 type  2   force =     0.00000062    0.00004821    0.00005060
     atom   14 type  2   force =    -0.00000986    0.00000176    0.00003524
     atom   15 type  2   force =     0.00004064   -0.00002430    0.00005032
     atom   16 type  2   force =    -0.00006073    0.00003579   -0.00004564
     atom   17 type  2   force =     0.00004689   -0.00002409   -0.00007285
     atom   18 type  2   force =    -0.00000045   -0.00007155   -0.00004688
     atom   19 type  2   force =    -0.00000144    0.00004989   -0.00006989
     atom   20 type  2   force =     0.00006081    0.00003667   -0.00004663
     atom   21 type  2   force =    -0.00004676   -0.00002252   -0.00007190
     atom   22 type  2   force =     0.00000068   -0.00000162    0.00001946
     atom   23 type  2   force =     0.00000148   -0.00000410   -0.00008119
     atom   24 type  1   force =    -0.00000120    0.00000272    0.00007849

     Total force =     0.002956     Total SCF correction =     0.000291

     Computing stress (Cartesian axis) and pressure

[...]

          total   stress  (Ry/bohr**3)                   (kbar)     P=      -15.61
  -0.00010575   0.00000003  -0.00000004          -15.56        0.01       -0.01
   0.00000003  -0.00010562   0.00000008            0.01      -15.54        0.01
  -0.00000004   0.00000008  -0.00010693           -0.01        0.01      -15.73

     kinetic stress (kbar)  15275.18      0.04     -0.07
                                0.04  15275.34      0.13
                               -0.07      0.13  15293.01

     local   stress (kbar)  -6957.23      0.97      0.03
                                0.97  -6952.96      0.18
                                0.03      0.18    913.18

     nonloc. stress (kbar)  -1516.60      0.01     -0.03
                                0.01  -1516.54      0.07
                               -0.03      0.07  -1511.78

     hartree stress (kbar)  11559.69     -0.34     -0.12
                               -0.34  11558.19      0.14
                               -0.12      0.14   7992.19

     exc-cor stress (kbar)   6804.67     -0.00     -0.00
                               -0.00   6804.66      0.00
                               -0.00      0.00   6804.46

     corecor stress (kbar) -11103.04     -0.00      0.00
                               -0.00 -11103.04     -0.00
                                0.00     -0.00 -11103.24

     ewald   stress (kbar) -14159.33     -0.67      0.18
                               -0.67 -14162.28     -0.51
                                0.18     -0.51 -18485.57

     hubbard stress (kbar)      0.00      0.00      0.00
                                0.00      0.00      0.00
                                0.00      0.00      0.00

     DFT-D   stress (kbar)      0.00      0.00      0.00
                                0.00      0.00      0.00
                                0.00      0.00      0.00

     XDM     stress (kbar)      0.00      0.00      0.00
                                0.00      0.00      0.00
                                0.00      0.00      0.00

     dft-nl  stress (kbar)     81.09      0.00      0.00
                                0.00     81.09     -0.00
                                0.00     -0.00     82.03

     TS-vdW  stress (kbar)      0.00      0.00      0.00
                                0.00      0.00      0.00
                                0.00      0.00      0.00

     MDB     stress (kbar)      0.00      0.00      0.00
                                0.00      0.00      0.00
                                0.00      0.00      0.00

     3D-RISM stress (kbar)      0.00      0.00      0.00
                                0.00      0.00      0.00
                                0.00      0.00      0.00

[...]

     Non-local corr. energy    =      11.19619930 Ry

 BEEFens 2000 ensemble energies
             -0.948733229602499E+01
             -0.954218018177234E+02
             -0.434508069550189E+02
              0.333682230735374E+02
             -0.730316784071637E+02
             -0.893476698332748E+02
              0.459011243075990E+02
              0.100073244152043E+00
              0.772135536334105E+02
             -0.488042470771853E+01
              0.396542999770520E+02
              0.397300987324684E+01
             -0.307367394156736E+01
             -0.254269190015521E+01
              0.492100186974301E+02
             -0.372389083827877E+02
             -0.728929967865462E+02
             -0.235314269691748E+02
              0.210013289602587E+02
             -0.535062648385178E+00
              0.107520804325349E+03
              0.896858402395761E+02
             -0.552523658374415E+02
              0.190811890921543E+02
             -0.115149110067005E+03
              0.944791443673605E+02
              0.323564623384832E+02
              0.852940350685853E+02
              0.574468272913707E+02
             -0.266726521865083E+02
              0.210829971215546E+02
             -0.374732616489435E+02
              0.157079438726055E+02
              0.572229486584717E+02
              0.616974270484332E+02
             -0.267013586778356E+02
              0.135769962097020E+03
             -0.547761036306736E+02
             -0.363218439997883E+02
              0.542947362558892E+02
              0.239542278185206E+02
              0.413922394594374E+02
             -0.797773807949016E+02
             -0.519197302624127E+01
              0.765263448264662E+02
              0.100056888023490E+03
             -0.101645055197635E+03
              0.643929846866613E+01
              0.351749084167865E+02
              0.227615847769281E+02
              0.396572166908256E+02
              0.871788833175955E+02
             -0.567001058146072E+02
             -0.550554466163612E+02
             -0.765412698548769E+02
             -0.110139680937755E+02
             -0.652491238667094E+02
              0.840703651942164E+01
             -0.940104055895097E+01
             -0.518372659968360E+02
[...]
              0.647234931371961E+02
              0.414048219491057E+02
              0.422094994341334E+02
             -0.782027349811484E+02
             -0.807475329095497E+02
             -0.182127887121906E+02
             -0.721589539436017E+02
              0.114587483599384E+03
              0.964559393548237E+02
              0.455373040296354E+02
              0.125444178861095E+03
             -0.626168359860321E+02
             -0.270392339993622E+02
             -0.389933183751857E+02
              0.108609596787560E+03

 BEEF-vdW xc energy contributions
            1 :    -981.2321934776965
            2 :     898.8449495159623
            3 :    -758.5204505108350
            4 :     597.9242980329524
            5 :    -452.4345738423604
            6 :     343.6069513359278
            7 :    -275.6235889079358
            8 :     238.7834060076020
            9 :    -216.8147594273469
           10 :     194.7358462433117
           11 :    -164.4933762138239
           12 :     126.5100581010475
           13 :    -87.08624570940151
           14 :     53.65730483992002
           15 :    -30.69919626634146
           16 :     18.10020831585575
           17 :    -12.10135284836065
           18 :     7.718975990667104
           19 :    -1.266442243489564
           20 :    -8.140967668001622
           21 :     18.66187206872178
           22 :    -27.20275435178587
           23 :     31.40688621381059
           24 :    -31.03854990359901
           25 :     28.06008259089390
           26 :    -25.48473993503330
           27 :     25.73115837999831
           28 :    -29.38046530786778
           29 :     34.94908393839705
           30 :    -39.74393466588981
           31 :    -85.03162620623084
           32 :    -61.22580110305807

     Writing all to output data dir ./PbI2.save/

     General routines

     Parallel routines

     PAW routines

   This run was terminated on:  14:27:32  28Mar2024

   JOB DONE.