     Program PWSCF v.7.1 starts on 28Mar2024 at  0:35:41

     Reading input from espresso.pwi
Warning: card &CELL ignored
Warning: card    CELL_DYNAMICS    = 'BFGS' ignored
Warning: card / ignored

     Current dimensions of program PWSCF are:
     Max number of different atomic species (ntypx) = 10
     Max number of k-points (npk) =  40000
     Max angular momentum in pseudopotentials (lmaxx) =  4
     file Pb.pbe-dn-kjpaw_psl.1.0.0.UPF: wavefunction(s)  6S 6P 5D renormalized
     file I.pbe-dn-kjpaw_psl.1.0.0.UPF: wavefunction(s)  5S 5P renormalized

     IMPORTANT: XC functional enforced from input :
     Exchange-correlation= BEEF-VDW
                           (   1   4  43  14   2   0   0)
     Any further DFT definition will be discarded
     Please, verify this is what you really want

     R & G space division:  proc/nbgrp/npool/nimage =      20
     Subspace diagonalization in iterative solution of the eigenvalue problem:
     a serial algorithm will be used

     Using Slab Decomposition

     bravais-lattice index     =            4
     lattice parameter (alat)  =      17.8060  a.u.
     unit-cell volume          =    7656.2263 (a.u.)^3
     number of atoms/cell      =           24
     number of atomic types    =            2
     number of electrons       =       380.00
     number of Kohn-Sham states=          228
     kinetic-energy cutoff     =      70.0000  Ry
     charge density cutoff     =     350.0000  Ry
     scf convergence threshold =      1.0E-07
     mixing beta               =       0.7000
     number of iterations used =            8  plain     mixing
     energy convergence thresh.=      1.0E-04
     force convergence thresh. =      1.0E-03
     Exchange-correlation= BEEF-VDW
                           (   1   4  43  14   2   0   0)
     nstep                     =           50

     celldm(1)=  17.806016  celldm(2)=   0.000000  celldm(3)=   1.565971
     celldm(4)=   0.000000  celldm(5)=   0.000000  celldm(6)=   0.000000

     crystal axes: (cart. coord. in units of alat)
               a(1) = (   1.000000   0.000000   0.000000 )
               a(2) = (  -0.500000   0.866025   0.000000 )
               a(3) = (   0.000000   0.000000   1.565971 )

     reciprocal axes: (cart. coord. in units 2 pi/alat)
               b(1) = (  1.000000  0.577350 -0.000000 )
               b(2) = (  0.000000  1.154701  0.000000 )
               b(3) = (  0.000000 -0.000000  0.638581 )

     PseudoPot. # 1 for Pb read from file:
     /trace/group/acmegroup/atimmins/packages/espresso/pseudo/psl_1.0.0/pslibrary.1.0.0/pbe/PSEUDOPOTENTIALS/Pb.pbe-dn-kjpaw_psl.1.0.0.UPF
     MD5 check sum: 39ab5b8a6bbd56b7735ad9f188aac93a
     Pseudo is Projector augmented-wave + core cor, Zval = 14.0
     Generated using 'atomic' code by A. Dal Corso  v.7.1
     Shape of augmentation charge: PSQ
     Using radial grid of 1281 points,  6 beta functions with:
                l(1) =   0
                l(2) =   0
                l(3) =   1
                l(4) =   1
                l(5) =   2
                l(6) =   2
     Q(r) pseudized with 0 coefficients

     PseudoPot. # 2 for I  read from file:
     /trace/group/acmegroup/atimmins/packages/espresso/pseudo/psl_1.0.0/pslibrary.1.0.0/pbe/PSEUDOPOTENTIALS/I.pbe-dn-kjpaw_psl.1.0.0.UPF
     MD5 check sum: bfa8781bc1224d19af3f3980e3fab11e
     Pseudo is Projector augmented-wave + core cor, Zval = 17.0
     Generated using 'atomic' code by A. Dal Corso  v.7.1
     Shape of augmentation charge: PSQ
     Using radial grid of 1247 points,  6 beta functions with:
                l(1) =   0
                l(2) =   0
                l(3) =   1
                l(4) =   1
                l(5) =   2
                l(6) =   2
     Q(r) pseudized with 0 coefficients

     atomic species   valence    mass     pseudopotential
        Pb            14.00   207.20000     Pb( 1.00)
        I             17.00   126.90447     I ( 1.00)

     No symmetry found

                                    s                        frac. trans.

      isym =  1     identity

 cryst.   s( 1) = (     1          0          0      )
                  (     0          1          0      )
                  (     0          0          1      )

 cart.    s( 1) = (  1.0000000  0.0000000  0.0000000 )
                  (  0.0000000  1.0000000  0.0000000 )
                  (  0.0000000  0.0000000  1.0000000 )

     point group C_1 (1)
     there are  1 classes
     the character table:

       E
A      1.00

     the symmetry operations in each class and the name of the first element:

     E        1
          identity

   Cartesian axes

     site n.     atom                  positions (alat units)
         1           Pb  tau(   1) = (   0.2500170   0.4329745   1.5659650  )
         2           Pb  tau(   2) = (   0.2500068   0.4329836   0.7829793  )
         3           Pb  tau(   3) = (   0.0000153   0.8659852   1.5659567  )
         4           Pb  tau(   4) = (   0.0000051   0.8659943   0.7829710  )
         5           Pb  tau(   5) = (   0.7500170   0.4329726   1.5659715  )
         6           Pb  tau(   6) = (   0.7500068   0.4329816   0.7829858  )
         7           Pb  tau(   7) = (   0.5000153   0.8659833   1.5659633  )
         8           Pb  tau(   8) = (   0.5000051   0.8659923   0.7829776  )
         9           I   tau(   9) = (   0.2500209   0.1443009   1.3648506  )
        10           I   tau(  10) = (   0.0000091   0.5773207   0.5818567  )
        11           I   tau(  11) = (   0.0000193   0.5773116   1.3648424  )
        12           I   tau(  12) = (   0.7500107   0.1443080   0.5818714  )
        13           I   tau(  13) = (   0.7500209   0.1442990   1.3648571  )
        14           I   tau(  14) = (   0.5000091   0.5773187   0.5818632  )
        15           I   tau(  15) = (   0.5000193   0.5773097   1.3648489  )
        16           I   tau(  16) = (  -0.0000034   0.2886595   0.2011110  )
        17           I   tau(  17) = (   0.0000068   0.2886504   0.9840967  )
        18           I   tau(  18) = (  -0.2500051   0.7216702   0.2011027  )
        19           I   tau(  19) = (  -0.2499949   0.7216611   0.9840884  )
        20           I   tau(  20) = (   0.4999966   0.2886575   0.2011175  )
        21           I   tau(  21) = (   0.5000068   0.2886485   0.9841032  )
        22           I   tau(  22) = (   0.2499949   0.7216682   0.2011092  )
        23           I   tau(  23) = (   0.2500051   0.7216592   0.9840949  )
        24           Pb  tau(  24) = (   0.2500107   0.1443099   0.5818649  )

   Crystallographic axes

     site n.     atom                  positions (cryst. coord.)
         1           Pb  tau(   1) = (  0.4999949  0.4999559  0.9999959  )
         2           Pb  tau(   2) = (  0.4999900  0.4999663  0.4999959  )
         3           Pb  tau(   3) = (  0.4999921  0.9999536  0.9999906  )
         4           Pb  tau(   4) = (  0.4999871  0.9999640  0.4999906  )
         5           Pb  tau(   5) = (  0.9999938  0.4999537  1.0000001  )
         6           Pb  tau(   6) = (  0.9999888  0.4999641  0.5000001  )
         7           Pb  tau(   7) = (  0.9999910  0.9999514  0.9999948  )
         8           Pb  tau(   8) = (  0.9999860  0.9999618  0.4999948  )
         9           I   tau(   9) = (  0.3333331  0.1666243  0.8715680  )
        10           I   tau(  10) = (  0.3333253  0.6666325  0.3715628  )
        11           I   tau(  11) = (  0.3333303  0.6666220  0.8715628  )
        12           I   tau(  12) = (  0.8333270  0.1666326  0.3715722  )
        13           I   tau(  13) = (  0.8333320  0.1666221  0.8715722  )
        14           I   tau(  14) = (  0.8333242  0.6666303  0.3715669  )
        15           I   tau(  15) = (  0.8333292  0.6666198  0.8715669  )
        16           I   tau(  16) = (  0.1666542  0.3333152  0.1284257  )
        17           I   tau(  17) = (  0.1666592  0.3333048  0.6284257  )
        18           I   tau(  18) = (  0.1666514  0.8333129  0.1284204  )
        19           I   tau(  19) = (  0.1666564  0.8333025  0.6284204  )
        20           I   tau(  20) = (  0.6666531  0.3333130  0.1284299  )
        21           I   tau(  21) = (  0.6666581  0.3333026  0.6284299  )
        22           I   tau(  22) = (  0.6666503  0.8333107  0.1284246  )
        23           I   tau(  23) = (  0.6666553  0.8333003  0.6284246  )
        24           Pb  tau(  24) = (  0.3333281  0.1666348  0.3715680  )

     number of k points=     4  Gaussian smearing, width (Ry)=  0.0100
                       cart. coord. in units 2pi/alat
        k(    1) = (   0.0000000   0.0000000   0.0000000), wk =   0.5000000
        k(    2) = (   0.0000000  -0.5773503   0.0000000), wk =   0.5000000
        k(    3) = (   0.5000000  -0.2886751   0.0000000), wk =   0.5000000
        k(    4) = (  -0.5000000  -0.2886751   0.0000000), wk =   0.5000000

                       cryst. coord.
        k(    1) = (   0.0000000   0.0000000   0.0000000), wk =   0.5000000
        k(    2) = (   0.0000000  -0.5000000   0.0000000), wk =   0.5000000
        k(    3) = (   0.5000000  -0.5000000   0.0000000), wk =   0.5000000
        k(    4) = (  -0.5000000  -0.0000000   0.0000000), wk =   0.5000000

     Check: negative core charge=   -0.000001

     Initial potential from superposition of free atoms

     starting charge     380.9777, renormalised to     380.0000

     %%%%%%%%%%%%%%%%%%%%%%%%%%%%%%%%%%%%%%%%%%%%%%%%%%%%%%%%%%%%%%%%%%%%%%%%
     %                                                                      %
     % You are using vdW-DF, which was implemented by the Thonhauser group. %
     % Please cite the following two papers that made this development      %
     % possible and the two reviews that describe the various versions:     %
     %                                                                      %
     %   T. Thonhauser et al., PRL 115, 136402 (2015).                      %
     %   T. Thonhauser et al., PRB 76, 125112 (2007).                       %
     %   K. Berland et al., Rep. Prog. Phys. 78, 066501 (2015).             %
     %   D.C. Langreth et al., J. Phys.: Condens. Matter 21, 084203 (2009). %
     %                                                                      %
     % If you are calculating stress with vdW-DF, please also cite:         %
     %                                                                      %
     %   R. Sabatini et al., J. Phys.: Condens. Matter 24, 424209 (2012).   %
     %                                                                      %
     %%%%%%%%%%%%%%%%%%%%%%%%%%%%%%%%%%%%%%%%%%%%%%%%%%%%%%%%%%%%%%%%%%%%%%%%

     %%%%%%%%%%%%%%%%%%%%%%%%%%%%%%%%%%%%%%%%%%%%%%%%%%%%%%%%%%%%%%%%%%%%%%%%
     %                                                                      %
     %  vdW-DF NEWS:                                                        %
     %                                                                      %
     %  * vdW-DF3 is now available. DOI: 10.1021/acs.jctc.0c00471           %
     %    use with input_dft = 'vdW-DF3-opt1' or 'vdW-DF3-opt2'             %
     %                                                                      %
[...]
     atom   19 type  2   force =    -0.00001085   -0.00031129   -0.00012946
     atom   20 type  2   force =     0.00046448    0.00027886   -0.00047574
     atom   21 type  2   force =     0.00025964    0.00016722   -0.00012910
     atom   22 type  2   force =    -0.00000116    0.00000278    0.00082944
     atom   23 type  2   force =    -0.00002232    0.00004123   -0.00047685
     atom   24 type  1   force =    -0.00001578    0.00003267   -0.00038120
     The non-local contrib.  to forces
     atom    1 type  1   force =     0.00006952    0.01927572   -0.02331398
     atom    2 type  1   force =    -0.00015319    0.02437913    0.06416089
     atom    3 type  1   force =     0.01672913   -0.00974154   -0.02334845
     atom    4 type  1   force =     0.02341363   -0.01332632    0.06594754
     atom    5 type  1   force =    -0.00037908    0.00080309   -0.07983565
     atom    6 type  1   force =    -0.00007205    0.00015583   -0.05000068
     atom    7 type  1   force =    -0.01665848   -0.00978075   -0.02334103
     atom    8 type  1   force =    -0.02251874   -0.01262833    0.06513163
     atom    9 type  2   force =     0.00000068   -0.00001432    0.26240768
     atom   10 type  2   force =    -0.02857180   -0.01662214    0.20713643
     atom   11 type  2   force =    -0.00431312   -0.00244332    0.26933904
     atom   12 type  2   force =     0.00006110    0.03290609    0.20723963
     atom   13 type  2   force =    -0.00001580    0.00473415    0.26912013
     atom   14 type  2   force =     0.02870095   -0.01662767    0.20705216
     atom   15 type  2   force =     0.00444736   -0.00253872    0.26951194
     atom   16 type  2   force =     0.09435257   -0.05428433   -0.14022843
     atom   17 type  2   force =     0.01544843   -0.00911385   -0.23343861
     atom   18 type  2   force =    -0.00013062    0.10699762   -0.14183752
     atom   19 type  2   force =     0.00014652    0.01783965   -0.23326353
     atom   20 type  2   force =    -0.09370980   -0.05376285   -0.14093974
     atom   21 type  2   force =    -0.01533856   -0.00921833   -0.23335521
     atom   22 type  2   force =     0.00000691   -0.00002385   -0.26246850
     atom   23 type  2   force =    -0.00078184    0.00156934   -0.17693236
     atom   24 type  1   force =    -0.00097194    0.00197506    0.08318989
     The ionic contribution  to forces
     atom    1 type  1   force =    -0.00529333    0.19511623   -2.66887047
     atom    2 type  1   force =     0.01026506   -3.02731555   -1.40585099
     atom    3 type  1   force =     0.17109231   -0.09132277   -2.66001002
     atom    4 type  1   force =    -2.65904955    1.52176268   -1.41696151
     atom    5 type  1   force =     0.01181948   -0.02505137   -0.90578381
     atom    6 type  1   force =    -0.00298235    0.00494312    2.92278645
     atom    7 type  1   force =    -0.17423444   -0.08704139   -2.66402837
     atom    8 type  1   force =     2.65048484    1.50483290   -1.41145307
     atom    9 type  2   force =    -0.00150753    0.00297965  -17.47764579
     atom   10 type  2   force =     1.40701293    0.83643221   -9.15070729
     atom   11 type  2   force =     0.47248607    0.26362653  -17.98462045
     atom   12 type  2   force =    -0.00971039   -1.63476232   -9.16124168
     atom   13 type  2   force =     0.00370659   -0.53285761  -17.97424283
     atom   14 type  2   force =    -1.41295632    0.82869524   -9.14109692
     atom   15 type  2   force =    -0.47581655    0.26983773  -17.99278564
     atom   16 type  2   force =    -3.95254452    2.27227300   10.17482569
     atom   17 type  2   force =    -0.51489600    0.31187197   13.88205782
     atom   18 type  2   force =     0.00652536   -4.51621110   10.22445607
     atom   19 type  2   force =    -0.01129243   -0.59781782   13.86168249
     atom   20 type  2   force =     3.93957965    2.25724341   10.19712458
     atom   21 type  2   force =     0.50800713    0.32082704   13.87281038
     atom   22 type  2   force =    -0.00365394    0.00767887   13.80304083
     atom   23 type  2   force =     0.02507456   -0.05018446   14.37476091
     atom   24 type  1   force =     0.01788338   -0.03555618    8.70175364
     The local contribution  to forces
     atom    1 type  1   force =     0.00522720   -0.21496436    2.69202023
     atom    2 type  1   force =    -0.01012427    3.00521419    1.34418717
     atom    3 type  1   force =    -0.18832278    0.10134763    2.68320266
     atom    4 type  1   force =     2.63780455   -1.50966620    1.35369403
     atom    5 type  1   force =    -0.01145792    0.02428042    0.98407358
     atom    6 type  1   force =     0.00304618   -0.00508525   -2.87289498
     atom    7 type  1   force =     0.19139338    0.09710122    2.68720996
     atom    8 type  1   force =    -2.63005689   -1.49337549    1.34892383
     atom    9 type  2   force =     0.00150816   -0.00296666   17.22147168
     atom   10 type  2   force =    -1.37939008   -0.82035939    8.94751692
     atom   11 type  2   force =    -0.46840983   -0.26133111   17.72104287
     atom   12 type  2   force =     0.00965201    1.60294762    8.95795347
     atom   13 type  2   force =    -0.00368402    0.52839205   17.71089070
     atom   14 type  2   force =     1.38520970   -0.81261682    8.93799462
     atom   15 type  2   force =     0.47161875   -0.26744632   17.72903299
     atom   16 type  2   force =     3.85989285   -2.21896239  -10.03806782
     atom   17 type  2   force =     0.49960053   -0.30284376  -13.65388929
     atom   18 type  2   force =    -0.00640279    4.41109949  -10.08618316
     atom   19 type  2   force =     0.01113776    0.58014609  -13.63367288
     atom   20 type  2   force =    -3.84754531   -2.20443036  -10.05969539
     atom   21 type  2   force =    -0.49282106   -0.31168564  -13.64471440
     atom   22 type  2   force =     0.00364747   -0.00765637  -13.54512742
     atom   23 type  2   force =    -0.02433695    0.04870063  -14.20209566
     atom   24 type  1   force =    -0.01695408    0.03366914   -8.78213036
     The core correction contribution to forces
     atom    1 type  1   force =    -0.00000167   -0.00024878    0.00032583
     atom    2 type  1   force =     0.00000313   -0.00191694   -0.00196519
     atom    3 type  1   force =    -0.00021539    0.00012661    0.00032581
     atom    4 type  1   force =    -0.00171003    0.00098278   -0.00200802
     atom    5 type  1   force =     0.00000767   -0.00001578    0.00154640
     atom    6 type  1   force =     0.00000181   -0.00000358    0.00086169
     atom    7 type  1   force =     0.00021424    0.00012787    0.00032598
     atom    8 type  1   force =     0.00169042    0.00096781   -0.00198883
     atom    9 type  2   force =     0.00000013    0.00000127   -0.00549637
     atom   10 type  2   force =     0.00075723    0.00043875   -0.00441787
     atom   11 type  2   force =     0.00022612    0.00013304   -0.00562672
     atom   12 type  2   force =    -0.00000072   -0.00087158   -0.00442014
     atom   13 type  2   force =    -0.00000061   -0.00025541   -0.00562128
     atom   14 type  2   force =    -0.00075973    0.00043943   -0.00441548
     atom   15 type  2   force =    -0.00023056    0.00013489   -0.00563080
     atom   16 type  2   force =    -0.00217608    0.00125284    0.00304499
     atom   17 type  2   force =    -0.00039451    0.00023189    0.00516239
     atom   18 type  2   force =     0.00000283   -0.00246909    0.00310845
     atom   19 type  2   force =    -0.00000281   -0.00045838    0.00515382
     atom   20 type  2   force =     0.00216195    0.00124143    0.00307293
     atom   21 type  2   force =     0.00039285    0.00023420    0.00515862
     atom   22 type  2   force =    -0.00000102    0.00000326    0.00545274
     atom   23 type  2   force =     0.00002263   -0.00004562    0.00382604
     atom   24 type  1   force =     0.00002679   -0.00005463   -0.00310208
     The Hubbard contrib.    to forces
     atom    1 type  1   force =     0.00000000    0.00000000    0.00000000
     atom    2 type  1   force =     0.00000000    0.00000000    0.00000000
     atom    3 type  1   force =     0.00000000    0.00000000    0.00000000
     atom    4 type  1   force =     0.00000000    0.00000000    0.00000000
     atom    5 type  1   force =     0.00000000    0.00000000    0.00000000
     atom    6 type  1   force =     0.00000000    0.00000000    0.00000000
     atom    7 type  1   force =     0.00000000    0.00000000    0.00000000
     atom    8 type  1   force =     0.00000000    0.00000000    0.00000000
     atom    9 type  2   force =     0.00000000    0.00000000    0.00000000
     atom   10 type  2   force =     0.00000000    0.00000000    0.00000000
     atom   11 type  2   force =     0.00000000    0.00000000    0.00000000
     atom   12 type  2   force =     0.00000000    0.00000000    0.00000000
     atom   13 type  2   force =     0.00000000    0.00000000    0.00000000
     atom   14 type  2   force =     0.00000000    0.00000000    0.00000000
     atom   15 type  2   force =     0.00000000    0.00000000    0.00000000
     atom   16 type  2   force =     0.00000000    0.00000000    0.00000000
     atom   17 type  2   force =     0.00000000    0.00000000    0.00000000
     atom   18 type  2   force =     0.00000000    0.00000000    0.00000000
     atom   19 type  2   force =     0.00000000    0.00000000    0.00000000
     atom   20 type  2   force =     0.00000000    0.00000000    0.00000000
     atom   21 type  2   force =     0.00000000    0.00000000    0.00000000
     atom   22 type  2   force =     0.00000000    0.00000000    0.00000000
     atom   23 type  2   force =     0.00000000    0.00000000    0.00000000
     atom   24 type  1   force =     0.00000000    0.00000000    0.00000000
     The SCF correction term to forces
     atom    1 type  1   force =     0.00000007    0.00001304   -0.00000514
     atom    2 type  1   force =     0.00000014    0.00001047    0.00000063
     atom    3 type  1   force =     0.00001121   -0.00000652   -0.00000524
     atom    4 type  1   force =     0.00000901   -0.00000541    0.00000014
     atom    5 type  1   force =    -0.00000005    0.00000014   -0.00001509
     atom    6 type  1   force =    -0.00000012    0.00000009    0.00001324
     atom    7 type  1   force =    -0.00001109   -0.00000660   -0.00000516
     atom    8 type  1   force =    -0.00000892   -0.00000557    0.00000035
     atom    9 type  2   force =     0.00000021   -0.00000079   -0.00000809
     atom   10 type  2   force =    -0.00000355    0.00000063   -0.00001515
     atom   11 type  2   force =     0.00001526    0.00000951   -0.00001360
     atom   12 type  2   force =    -0.00000092    0.00000217   -0.00001508
     atom   13 type  2   force =    -0.00000038   -0.00001807   -0.00001368
     atom   14 type  2   force =     0.00000270   -0.00000018   -0.00001498
     atom   15 type  2   force =    -0.00001545    0.00000907   -0.00001364
     atom   16 type  2   force =     0.00002155   -0.00001243    0.00001749
     atom   17 type  2   force =    -0.00001938    0.00001026    0.00002758
     atom   18 type  2   force =     0.00000014    0.00002553    0.00001801
     atom   19 type  2   force =     0.00000041   -0.00002098    0.00002674
     atom   20 type  2   force =    -0.00002170   -0.00001293    0.00001799
     atom   21 type  2   force =     0.00001959    0.00000980    0.00002760
     atom   22 type  2   force =    -0.00000026    0.00000071   -0.00001211
     atom   23 type  2   force =    -0.00000042    0.00000118    0.00002031
     atom   24 type  1   force =     0.00000038   -0.00000087   -0.00003618

     Total force =     0.002919     Total SCF correction =     0.000110

     Computing stress (Cartesian axis) and pressure

     Non-local corr. energy    =      11.19619768 Ry

          total   stress  (Ry/bohr**3)                   (kbar)     P=      -15.60
  -0.00010569   0.00000003  -0.00000004          -15.55        0.01       -0.01
   0.00000003  -0.00010556   0.00000008            0.01      -15.53        0.01
  -0.00000004   0.00000008  -0.00010685           -0.01        0.01      -15.72

     kinetic stress (kbar)  15275.18      0.04     -0.07
                                0.04  15275.33      0.13
                               -0.07      0.13  15293.01

     local   stress (kbar)  -6957.23      0.97      0.03
                                0.97  -6952.97      0.18
                                0.03      0.18    913.19

     nonloc. stress (kbar)  -1516.59      0.01     -0.03
                                0.01  -1516.53      0.07
                               -0.03      0.07  -1511.77

     hartree stress (kbar)  11559.70     -0.34     -0.12
                               -0.34  11558.19      0.14
                               -0.12      0.14   7992.18

     exc-cor stress (kbar)   6804.67     -0.00     -0.00
                               -0.00   6804.67      0.00
                               -0.00      0.00   6804.46

     corecor stress (kbar) -11103.04     -0.00      0.00
                               -0.00 -11103.04     -0.00
                                0.00     -0.00 -11103.24

     ewald   stress (kbar) -14159.33     -0.67      0.18
                               -0.67 -14162.28     -0.51
                                0.18     -0.51 -18485.57

     hubbard stress (kbar)      0.00      0.00      0.00
                                0.00      0.00      0.00
                                0.00      0.00      0.00

     DFT-D   stress (kbar)      0.00      0.00      0.00
                                0.00      0.00      0.00
                                0.00      0.00      0.00

     XDM     stress (kbar)      0.00      0.00      0.00
                                0.00      0.00      0.00
                                0.00      0.00      0.00

     dft-nl  stress (kbar)     81.09      0.00      0.00
                                0.00     81.09     -0.00
                                0.00     -0.00     82.03

     TS-vdW  stress (kbar)      0.00      0.00      0.00
                                0.00      0.00      0.00
                                0.00      0.00      0.00

     MDB     stress (kbar)      0.00      0.00      0.00
                                0.00      0.00      0.00
                                0.00      0.00      0.00

     3D-RISM stress (kbar)      0.00      0.00      0.00
                                0.00      0.00      0.00
                                0.00      0.00      0.00

     Energy error            =      1.8E-05 Ry
     Gradient error          =      8.3E-04 Ry/Bohr

     bfgs converged in  37 scf cycles and  36 bfgs steps
     (criteria: energy <  1.0E-04 Ry, force <  1.0E-03 Ry/Bohr)

     End of BFGS Geometry Optimization

     Final energy             =  -16521.9385309925 Ry

     File ./PbI2.bfgs deleted, as requested
Begin final coordinates

ATOMIC_POSITIONS (angstrom)
Pb            2.3558108084        4.0971925543       14.8178093303
Pb            2.3553458367        3.9095632679        7.3866598238
Pb            0.0151281841        8.1510456908       14.8176295931
Pb           -0.1426658594        8.2427923566        7.3912619224
Pb            7.0667005057        4.0803654922       14.7814655954
Pb            7.0667730858        4.0802401694        7.3564549389
Pb            4.6963851469        8.1509803948       14.8176844786
Pb            4.8559182065        8.2442739710        7.3891791695
I             2.3556195988        1.3599306803       12.9772633220
I            -0.0178482656        5.4299912440        5.5244407265
I            -0.0175327379        5.4295691407       12.9797392679
I             7.0667952852        1.3803881764        5.5244285072
I             7.0669894288        1.3796989066       12.9796825306
I             4.7290742428        5.4298898890        5.5243616571
I             4.7291840631        5.4294457232       12.9797489780
I             0.0204413371        2.7081179261        2.0921542728
I             0.0386459394        2.6978218699        9.2995641811
I            -2.3556084266        6.8211622216        2.0899663211
I            -2.3556849595        6.8441586728        9.2999384928
I             4.6917272256        2.7086114177        2.0911821875
I             4.6727310580        2.6979545013        9.2997017756
I             2.3557267325        6.7998514818        1.9434906552
I             2.3551923013        6.8010484965        9.0930009024
Pb            2.3549470392        1.3611831981        4.1177237221
End final coordinates

     Writing all to output data dir ./PbI2.save/

     General routines

     Parallel routines

     PAW routines

   This run was terminated on:   4:51:37  28Mar2024

   JOB DONE.