     Program PWSCF v.7.1 starts on 27Mar2024 at 22:17:53

     Reading input from espresso.pwi
Warning: card &CELL ignored
Warning: card    CELL_DYNAMICS    = 'BFGS' ignored
Warning: card / ignored

     Current dimensions of program PWSCF are:
     Max number of different atomic species (ntypx) = 10
     Max number of k-points (npk) =  40000
     Max angular momentum in pseudopotentials (lmaxx) =  4
     file Ga.pbe-dn-kjpaw_psl.1.0.0.UPF: wavefunction(s)  4S renormalized
     file N.pbe-n-kjpaw_psl.1.0.0.UPF: wavefunction(s)  2S renormalized

     IMPORTANT: XC functional enforced from input :
     Exchange-correlation= BEEF-VDW
                           (   1   4  43  14   2   0   0)
     Any further DFT definition will be discarded
     Please, verify this is what you really want

     R & G space division:  proc/nbgrp/npool/nimage =      27
     Subspace diagonalization in iterative solution of the eigenvalue problem:
     a serial algorithm will be used

     Using Slab Decomposition

     bravais-lattice index     =            4
     lattice parameter (alat)  =      12.2626  a.u.
     unit-cell volume          =    2602.7676 (a.u.)^3
     number of atoms/cell      =           32
     number of atomic types    =            2
     number of electrons       =       293.00
     number of Kohn-Sham states=          176
     kinetic-energy cutoff     =      70.0000  Ry
     charge density cutoff     =     350.0000  Ry
     scf convergence threshold =      1.0E-07
     mixing beta               =       0.7000
     number of iterations used =            8  plain     mixing
     energy convergence thresh.=      1.0E-04
     force convergence thresh. =      1.0E-03
     Exchange-correlation= BEEF-VDW
                           (   1   4  43  14   2   0   0)
     nstep                     =           50

     celldm(1)=  12.262616  celldm(2)=   0.000000  celldm(3)=   1.629879
     celldm(4)=   0.000000  celldm(5)=   0.000000  celldm(6)=   0.000000

     crystal axes: (cart. coord. in units of alat)
               a(1) = (   1.000000   0.000000   0.000000 )
               a(2) = (  -0.500000   0.866025   0.000000 )
               a(3) = (   0.000000   0.000000   1.629879 )

     reciprocal axes: (cart. coord. in units 2 pi/alat)
               b(1) = (  1.000000  0.577350 -0.000000 )
               b(2) = (  0.000000  1.154701  0.000000 )
               b(3) = (  0.000000 -0.000000  0.613542 )

     PseudoPot. # 1 for Ga read from file:
     /trace/group/acmegroup/atimmins/packages/espresso/pseudo/psl_1.0.0/pslibrary.1.0.0/pbe/PSEUDOPOTENTIALS/Ga.pbe-dn-kjpaw_psl.1.0.0.UPF
     MD5 check sum: cd2a01e492f15b435d17032472d8505c
     Pseudo is Projector augmented-wave + core cor, Zval = 13.0
     Generated using 'atomic' code by A. Dal Corso  v.7.1
     Shape of augmentation charge: PSQ
     Using radial grid of 1205 points,  6 beta functions with:
                l(1) =   0
                l(2) =   0
                l(3) =   1
                l(4) =   1
                l(5) =   2
                l(6) =   2
     Q(r) pseudized with 0 coefficients

     PseudoPot. # 2 for N  read from file:
     /trace/group/acmegroup/atimmins/packages/espresso/pseudo/psl_1.0.0/pslibrary.1.0.0/pbe/PSEUDOPOTENTIALS/N.pbe-n-kjpaw_psl.1.0.0.UPF
     MD5 check sum: f77f775694dac7e2c3fe1c82443d1a16
     Pseudo is Projector augmented-wave + core cor, Zval =  5.0
     Generated using 'atomic' code by A. Dal Corso  v.7.1
     Shape of augmentation charge: PSQ
     Using radial grid of 1085 points,  4 beta functions with:
                l(1) =   0
                l(2) =   0
                l(3) =   1
                l(4) =   1
     Q(r) pseudized with 0 coefficients

     atomic species   valence    mass     pseudopotential
        Ga            13.00    69.72300     Ga( 1.00)
        N              5.00    14.00700     N ( 1.00)

      6 Sym. Ops. (no inversion) found ( 4 have fractional translation)

                                    s                        frac. trans.

      isym =  1     identity

 cryst.   s( 1) = (     1          0          0      )
                  (     0          1          0      )
                  (     0          0          1      )

 cart.    s( 1) = (  1.0000000  0.0000000  0.0000000 )
                  (  0.0000000  1.0000000  0.0000000 )
                  (  0.0000000  0.0000000  1.0000000 )

      isym =  2     120 deg rotation - cryst. axis [0,0,1]

 cryst.   s( 2) = (     0          1          0      )    f =(  0.4999999 )
                  (    -1         -1          0      )       (  0.0000004 )
                  (     0          0          1      )       (  0.0000000 )

 cart.    s( 2) = ( -0.5000000 -0.8660254  0.0000000 )    f =(  0.4999998 )
                  (  0.8660254 -0.5000000  0.0000000 )       (  0.0000003 )
                  (  0.0000000  0.0000000  1.0000000 )       (  0.0000000 )

      isym =  3     120 deg rotation - cryst. axis [0,0,-1]

[...]

      isym =  4     inv. 180 deg rotation - cart. axis [1,0,0]

[...]

      isym =  5     inv. 180 deg rotation - cryst. axis [0,1,0]

 cryst.   s( 5) = (     1          1          0      )
                  (     0         -1          0      )
                  (     0          0          1      )

 cart.    s( 5) = (  0.5000000  0.8660254  0.0000000 )
                  (  0.8660254 -0.5000000  0.0000000 )
                  (  0.0000000  0.0000000  1.0000000 )

      isym =  6     inv. 180 deg rotation - cryst. axis [1,1,0]

 cryst.   s( 6) = (     0         -1          0      )    f =(  0.4999999 )
                  (    -1          0          0      )       (  0.4999999 )
                  (     0          0          1      )       (  0.0000000 )

 cart.    s( 6) = (  0.5000000 -0.8660254  0.0000000 )    f =(  0.2500000 )
                  ( -0.8660254 -0.5000000  0.0000000 )       (  0.4330127 )
                  (  0.0000000  0.0000000  1.0000000 )       (  0.0000000 )

     point group C_3v (3m)
     there are  3 classes
     the character table:

       E     2C3   3s_v
A_1    1.00  1.00  1.00
A_2    1.00  1.00 -1.00
E      2.00 -1.00  0.00

     the symmetry operations in each class and the name of the first element:

     E        1
          identity
     2C3      2    3
          120 deg rotation - cryst. axis [0,0,1]
     3s_v     4    5    6
          inv. 180 deg rotation - cart. axis [1,0,0]

   Cartesian axes

     site n.     atom                  positions (alat units)
         1           Ga  tau(   1) = (   0.2500002   0.1443375   0.4067871  )
         2           Ga  tau(   2) = (   0.2500002   0.1443375   1.2217266  )
         3           Ga  tau(   3) = (   0.0000002   0.5773502   0.4067871  )
         4           Ga  tau(   4) = (   0.0000002   0.5773502   1.2217266  )
         5           Ga  tau(   5) = (   0.7500002   0.1443375   0.4067871  )
         6           Ga  tau(   6) = (   0.7500002   0.1443375   1.2217266  )
         7           Ga  tau(   7) = (   0.5000002   0.5773502   0.4067871  )
         8           Ga  tau(   8) = (   0.5000002   0.5773502   1.2217266  )
         9           Ga  tau(   9) = (  -0.0000003   0.2886754   0.8142568  )
        10           Ga  tau(  10) = (  -0.0000003   0.2886754   1.6291964  )
        11           Ga  tau(  11) = (  -0.2500003   0.7216881   0.8142568  )
        12           Ga  tau(  12) = (  -0.2500003   0.7216881   1.6291964  )
        13           Ga  tau(  13) = (   0.4999997   0.2886754   0.8142568  )
        14           Ga  tau(  14) = (   0.4999997   0.2886754   1.6291964  )
        15           Ga  tau(  15) = (   0.2499997   0.7216881   0.8142568  )
        16           Ga  tau(  16) = (   0.2499997   0.7216881   1.6291964  )
        17           N   tau(  17) = (   0.2500002   0.1443375   1.5286943  )
        18           N   tau(  18) = (   0.0000002   0.5773502   0.7137548  )
        19           N   tau(  19) = (   0.0000002   0.5773502   1.5286943  )
        20           N   tau(  20) = (   0.7500002   0.1443375   0.7137548  )
        21           N   tau(  21) = (   0.7500002   0.1443375   1.5286943  )
        22           N   tau(  22) = (   0.5000002   0.5773502   0.7137548  )
        23           N   tau(  23) = (   0.5000002   0.5773502   1.5286943  )
        24           N   tau(  24) = (  -0.0000003   0.2886754   0.3062850  )
        25           N   tau(  25) = (  -0.0000003   0.2886754   1.1212245  )
        26           N   tau(  26) = (  -0.2500003   0.7216881   0.3062850  )
        27           N   tau(  27) = (  -0.2500003   0.7216881   1.1212245  )
        28           N   tau(  28) = (   0.4999997   0.2886754   0.3062850  )
        29           N   tau(  29) = (   0.4999997   0.2886754   1.1212245  )
        30           N   tau(  30) = (   0.2499997   0.7216881   0.3062850  )
        31           N   tau(  31) = (   0.2499997   0.7216881   1.1212245  )
        32           Ga  tau(  32) = (   0.2500002   0.1443375   0.7137548  )

   Crystallographic axes

     site n.     atom                  positions (cryst. coord.)
         1           Ga  tau(   1) = (  0.3333335  0.1666666  0.2495811  )
         2           Ga  tau(   2) = (  0.3333335  0.1666666  0.7495811  )
         3           Ga  tau(   3) = (  0.3333335  0.6666666  0.2495811  )
         4           Ga  tau(   4) = (  0.3333335  0.6666666  0.7495811  )
         5           Ga  tau(   5) = (  0.8333335  0.1666666  0.2495811  )
         6           Ga  tau(   6) = (  0.8333335  0.1666666  0.7495811  )
         7           Ga  tau(   7) = (  0.8333335  0.6666666  0.2495811  )
         8           Ga  tau(   8) = (  0.8333335  0.6666666  0.7495811  )
         9           Ga  tau(   9) = (  0.1666665  0.3333336  0.4995811  )
        10           Ga  tau(  10) = (  0.1666665  0.3333336  0.9995811  )
        11           Ga  tau(  11) = (  0.1666665  0.8333336  0.4995811  )
        12           Ga  tau(  12) = (  0.1666665  0.8333336  0.9995811  )
        13           Ga  tau(  13) = (  0.6666665  0.3333336  0.4995811  )
        14           Ga  tau(  14) = (  0.6666665  0.3333336  0.9995811  )
        15           Ga  tau(  15) = (  0.6666665  0.8333336  0.4995811  )
        16           Ga  tau(  16) = (  0.6666665  0.8333336  0.9995811  )
        17           N   tau(  17) = (  0.3333335  0.1666666  0.9379189  )
        18           N   tau(  18) = (  0.3333335  0.6666666  0.4379189  )
        19           N   tau(  19) = (  0.3333335  0.6666666  0.9379189  )
        20           N   tau(  20) = (  0.8333335  0.1666666  0.4379189  )
        21           N   tau(  21) = (  0.8333335  0.1666666  0.9379189  )
        22           N   tau(  22) = (  0.8333335  0.6666666  0.4379189  )
        23           N   tau(  23) = (  0.8333335  0.6666666  0.9379189  )
        24           N   tau(  24) = (  0.1666665  0.3333336  0.1879189  )
        25           N   tau(  25) = (  0.1666665  0.3333336  0.6879189  )
        26           N   tau(  26) = (  0.1666665  0.8333336  0.1879189  )
        27           N   tau(  27) = (  0.1666665  0.8333336  0.6879189  )
        28           N   tau(  28) = (  0.6666665  0.3333336  0.1879189  )
[...]
     atom   18 type  2   force =     1.24451173    0.71853994   -1.62825517
     atom   19 type  2   force =     1.09807989    0.63401121   -0.12887528
     atom   20 type  2   force =    -0.00001680   -1.43704568   -1.62825435
     atom   21 type  2   force =    -0.00002806   -1.26796770   -0.12887507
     atom   22 type  2   force =    -1.24457418    0.71855671   -1.62826604
     atom   23 type  2   force =    -1.09814628    0.63401724   -0.12887496
     atom   24 type  2   force =    -1.45818919    0.84188379    2.42691747
     atom   25 type  2   force =     0.97333314   -0.56195653   -0.02409136
     atom   26 type  2   force =     0.00002784   -1.68383792    2.42694782
     atom   27 type  2   force =     0.00003179    1.12385670   -0.02409234
     atom   28 type  2   force =     1.45825858    0.84189179    2.42694623
     atom   29 type  2   force =    -0.97327364   -0.56195882   -0.02409251
     atom   30 type  2   force =     0.00003308   -0.00002060    0.91125395
     atom   31 type  2   force =     0.00002953   -0.00001834   -1.02267476
     atom   32 type  1   force =    -0.00003640    0.00002236    1.18468001
     The local contribution  to forces
     atom    1 type  1   force =    -0.00007716    0.00018860   -4.46910392
     atom    2 type  1   force =    -0.00007713    0.00024438    2.37665231
     atom    3 type  1   force =     0.31534894    0.18225919   -3.16437641
     atom    4 type  1   force =    -0.47402397   -0.27337874    1.62778592
     atom    5 type  1   force =    -0.00010015   -0.36393252   -3.16437667
     atom    6 type  1   force =    -0.00007031    0.54750398    1.62778545
     atom    7 type  1   force =    -0.31547065    0.18236595   -3.16437623
     atom    8 type  1   force =     0.47386839   -0.27338033    1.62778573
     atom    9 type  1   force =    -4.00664346    2.31332517    1.12798309
     atom   10 type  1   force =     1.19358481   -0.68899832    0.75984432
     atom   11 type  1   force =     0.00111820   -4.62831632    1.12798028
     atom   12 type  1   force =     0.00109321    1.37647157    0.75987301
     atom   13 type  1   force =     4.00884552    2.31340506    1.12798057
     atom   14 type  1   force =    -1.19141047   -0.68898636    0.75987962
     atom   15 type  1   force =     0.00109578   -0.00050152    1.84168572
     atom   16 type  1   force =     0.00109249   -0.00049803   -0.96672840
     atom   17 type  2   force =    -0.00001264    0.00002242    2.91338491
     atom   18 type  2   force =    -1.11941071   -0.64623768    1.44852846
     atom   19 type  2   force =    -0.96703349   -0.55828703    0.11692286
     atom   20 type  2   force =    -0.00000173    1.29258047    1.44852672
     atom   21 type  2   force =    -0.00001013    1.11664266    0.11691983
     atom   22 type  2   force =     1.11938716   -0.64626483    1.44852984
     atom   23 type  2   force =     0.96701065   -0.55828748    0.11692582
     atom   24 type  2   force =     1.29324803   -0.74664736   -2.34618895
     atom   25 type  2   force =    -0.98797283    0.57041678    0.19534388
     atom   26 type  2   force =     0.00008091    1.49318062   -2.34619626
     atom   27 type  2   force =     0.00008328   -1.14094893    0.19535231
     atom   28 type  2   force =    -1.29309010   -0.74664030   -2.34621263
     atom   29 type  2   force =     0.98814344    0.57041755    0.19535412
     atom   30 type  2   force =     0.00008062   -0.00003671   -0.93388424
     atom   31 type  2   force =     0.00008613   -0.00003788    1.00791815
     atom   32 type  1   force =    -0.00007269    0.00018871   -0.67258892
     The core correction contribution to forces
     atom    1 type  1   force =    -0.00000592    0.00001277    0.01122448
     atom    2 type  1   force =    -0.00000630    0.00001823   -0.00391558
     atom    3 type  1   force =     0.00147456    0.00086298   -0.00068263
     atom    4 type  1   force =     0.00102187    0.00061242    0.00056026
     atom    5 type  1   force =    -0.00000885   -0.00168713   -0.00068258
     atom    6 type  1   force =    -0.00000564   -0.00116959    0.00056025
     atom    7 type  1   force =    -0.00148363    0.00087411   -0.00068262
     atom    8 type  1   force =    -0.00103455    0.00061212    0.00056024
     atom    9 type  1   force =     0.00388895   -0.00223989   -0.00203761
     atom   10 type  1   force =    -0.00214529    0.00124691   -0.00099576
     atom   11 type  1   force =     0.00008335    0.00435555   -0.00203804
     atom   12 type  1   force =     0.00008099   -0.00260851   -0.00099547
     atom   13 type  1   force =    -0.00372940   -0.00223378   -0.00203792
     atom   14 type  1   force =     0.00230634    0.00124828   -0.00099539
     atom   15 type  1   force =     0.00007991   -0.00003709    0.00229910
     atom   16 type  1   force =     0.00008046   -0.00003704    0.00047414
     atom   17 type  2   force =     0.00000015   -0.00000033   -0.00247419
     atom   18 type  2   force =     0.00207761    0.00119894   -0.00296267
     atom   19 type  2   force =     0.00208972    0.00120604   -0.00019139
     atom   20 type  2   force =     0.00000018   -0.00239904   -0.00296264
     atom   21 type  2   force =     0.00000025   -0.00241301   -0.00019140
     atom   22 type  2   force =    -0.00207715    0.00119913   -0.00296270
     atom   23 type  2   force =    -0.00208925    0.00120604   -0.00019133
     atom   24 type  2   force =    -0.00268746    0.00155142    0.00131292
     atom   25 type  2   force =    -0.00024994    0.00014427    0.00279313
     atom   26 type  2   force =    -0.00000261   -0.00309962    0.00131328
     atom   27 type  2   force =    -0.00000245   -0.00028460    0.00279308
     atom   28 type  2   force =     0.00268286    0.00155218    0.00131304
     atom   29 type  2   force =     0.00024520    0.00014437    0.00279307
     atom   30 type  2   force =    -0.00000237    0.00000147   -0.00036021
     atom   31 type  2   force =    -0.00000234    0.00000131   -0.00024073
     atom   32 type  1   force =    -0.00000570    0.00001307    0.01493777
     The Hubbard contrib.    to forces
     atom    1 type  1   force =     0.00000000    0.00000000    0.00000000
     atom    2 type  1   force =     0.00000000    0.00000000    0.00000000
     atom    3 type  1   force =     0.00000000    0.00000000    0.00000000
     atom    4 type  1   force =     0.00000000    0.00000000    0.00000000
     atom    5 type  1   force =     0.00000000    0.00000000    0.00000000
     atom    6 type  1   force =     0.00000000    0.00000000    0.00000000
     atom    7 type  1   force =     0.00000000    0.00000000    0.00000000
     atom    8 type  1   force =     0.00000000    0.00000000    0.00000000
     atom    9 type  1   force =     0.00000000    0.00000000    0.00000000
     atom   10 type  1   force =     0.00000000    0.00000000    0.00000000
     atom   11 type  1   force =     0.00000000    0.00000000    0.00000000
     atom   12 type  1   force =     0.00000000    0.00000000    0.00000000
     atom   13 type  1   force =     0.00000000    0.00000000    0.00000000
     atom   14 type  1   force =     0.00000000    0.00000000    0.00000000
     atom   15 type  1   force =     0.00000000    0.00000000    0.00000000
     atom   16 type  1   force =     0.00000000    0.00000000    0.00000000
     atom   17 type  2   force =     0.00000000    0.00000000    0.00000000
     atom   18 type  2   force =     0.00000000    0.00000000    0.00000000
     atom   19 type  2   force =     0.00000000    0.00000000    0.00000000
     atom   20 type  2   force =     0.00000000    0.00000000    0.00000000
     atom   21 type  2   force =     0.00000000    0.00000000    0.00000000
     atom   22 type  2   force =     0.00000000    0.00000000    0.00000000
     atom   23 type  2   force =     0.00000000    0.00000000    0.00000000
     atom   24 type  2   force =     0.00000000    0.00000000    0.00000000
     atom   25 type  2   force =     0.00000000    0.00000000    0.00000000
     atom   26 type  2   force =     0.00000000    0.00000000    0.00000000
     atom   27 type  2   force =     0.00000000    0.00000000    0.00000000
     atom   28 type  2   force =     0.00000000    0.00000000    0.00000000
     atom   29 type  2   force =     0.00000000    0.00000000    0.00000000
     atom   30 type  2   force =     0.00000000    0.00000000    0.00000000
     atom   31 type  2   force =     0.00000000    0.00000000    0.00000000
     atom   32 type  1   force =     0.00000000    0.00000000    0.00000000
     The SCF correction term to forces
     atom    1 type  1   force =     0.00000000   -0.00000000    0.00009039
     atom    2 type  1   force =     0.00000000   -0.00000000    0.00003123
     atom    3 type  1   force =    -0.00001894   -0.00001094   -0.00004637
     atom    4 type  1   force =     0.00004081    0.00002356    0.00002445
     atom    5 type  1   force =    -0.00000000    0.00002187   -0.00004637
     atom    6 type  1   force =    -0.00000000   -0.00004712    0.00002445
     atom    7 type  1   force =     0.00001894   -0.00001094   -0.00004637
     atom    8 type  1   force =    -0.00004081    0.00002356    0.00002445
     atom    9 type  1   force =     0.00001690   -0.00000976    0.00003366
     atom   10 type  1   force =    -0.00000098    0.00000057   -0.00003231
     atom   11 type  1   force =     0.00000000    0.00001952    0.00003366
     atom   12 type  1   force =     0.00000000   -0.00000114   -0.00003231
     atom   13 type  1   force =    -0.00001690   -0.00000976    0.00003366
     atom   14 type  1   force =     0.00000098    0.00000057   -0.00003231
     atom   15 type  1   force =    -0.00000000    0.00000000   -0.00003256
     atom   16 type  1   force =     0.00000000   -0.00000000    0.00005539
     atom   17 type  2   force =    -0.00000000    0.00000000   -0.00000441
     atom   18 type  2   force =    -0.00000177   -0.00000102    0.00000868
     atom   19 type  2   force =     0.00000190    0.00000110   -0.00000547
     atom   20 type  2   force =    -0.00000000    0.00000204    0.00000868
     atom   21 type  2   force =     0.00000000   -0.00000219   -0.00000547
     atom   22 type  2   force =     0.00000177   -0.00000102    0.00000868
     atom   23 type  2   force =    -0.00000190    0.00000110   -0.00000547
     atom   24 type  2   force =    -0.00000049    0.00000028   -0.00000414
     atom   25 type  2   force =    -0.00000305    0.00000176   -0.00000188
     atom   26 type  2   force =    -0.00000000   -0.00000056   -0.00000414
     atom   27 type  2   force =     0.00000000   -0.00000352   -0.00000188
     atom   28 type  2   force =     0.00000049    0.00000028   -0.00000414
     atom   29 type  2   force =     0.00000305    0.00000176   -0.00000188
     atom   30 type  2   force =    -0.00000000    0.00000000   -0.00000933
     atom   31 type  2   force =     0.00000000   -0.00000000    0.00000672
     atom   32 type  1   force =    -0.00000000    0.00000000    0.00007723

     Total force =     0.001232     Total SCF correction =     0.000209
     SCF correction compared to forces is large: reduce conv_thr to get better values

     Computing stress (Cartesian axis) and pressure

     Non-local corr. energy    =       9.10012517 Ry

          total   stress  (Ry/bohr**3)                   (kbar)     P=     -113.19
  -0.00075748   0.00000000   0.00000000         -111.43        0.00        0.00
   0.00000000  -0.00075748   0.00000000            0.00     -111.43        0.00
   0.00000000   0.00000000  -0.00079339            0.00        0.00     -116.71

     kinetic stress (kbar)  18429.12      0.00      0.00
                                0.00  18429.12     -0.00
                                0.00      0.00  18398.37

     local   stress (kbar)   6698.20     -0.08     -0.00
                               -0.08   6698.10      0.00
                               -0.00      0.00   3490.95

     nonloc. stress (kbar)    277.84     -0.00      0.00
                                0.00    277.84     -0.00
                                0.00      0.00    279.64

     hartree stress (kbar)  20369.49     -0.00      0.00
                               -0.00  20369.49     -0.00
                                0.00     -0.00  21701.65

     exc-cor stress (kbar)   5712.13      0.00     -0.00
                                0.00   5712.13      0.00
                               -0.00      0.00   5714.20

     corecor stress (kbar) -14912.40     -0.00     -0.00
                               -0.00 -14912.40     -0.00
                               -0.00     -0.00 -14911.85

     ewald   stress (kbar) -36855.62      0.10      0.00
                                0.10 -36855.49     -0.00
                                0.00     -0.00 -34957.93

     hubbard stress (kbar)      0.00      0.00      0.00
                                0.00      0.00      0.00
                                0.00      0.00      0.00

     DFT-D   stress (kbar)      0.00      0.00      0.00
                                0.00      0.00      0.00
                                0.00      0.00      0.00

     XDM     stress (kbar)      0.00      0.00      0.00
                                0.00      0.00      0.00
                                0.00      0.00      0.00

     dft-nl  stress (kbar)    169.81     -0.00      0.00
                               -0.00    169.81     -0.00
                                0.00     -0.00    168.26

     TS-vdW  stress (kbar)      0.00      0.00      0.00
                                0.00      0.00      0.00
                                0.00      0.00      0.00

     MDB     stress (kbar)      0.00      0.00      0.00
                                0.00      0.00      0.00
                                0.00      0.00      0.00

     3D-RISM stress (kbar)      0.00      0.00      0.00
                                0.00      0.00      0.00
                                0.00      0.00      0.00

     Energy error            =      5.5E-06 Ry
     Gradient error          =      7.2E-04 Ry/Bohr

     bfgs converged in  21 scf cycles and  20 bfgs steps
     (criteria: energy <  1.0E-04 Ry, force <  1.0E-03 Ry/Bohr)

     End of BFGS Geometry Optimization

     Final energy             =   -5252.8968699066 Ry

     File ./GaN.bfgs deleted, as requested
Begin final coordinates

ATOMIC_POSITIONS (angstrom)
Ga            1.6222756606        0.9366198184        1.6942305664
Ga            1.6222756606        0.9366198184        7.9828497743
Ga            0.0154551575        3.7554033725        2.6607423799
Ga            0.0366398394        3.7676343543        7.9858127668
Ga            4.8668240777        0.9187754165        2.6607423799
Ga            4.8668240777        0.8943134529        7.9858127668
Ga            3.2290961637        3.7554033725        2.6607423799
Ga            3.2079114818        3.7676343543        7.9858127668
Ga           -0.1757201545        1.9746933906        5.4578611509
Ga           -0.0860119224        1.9229003187       10.5047964968
Ga           -1.6222761733        4.4802019114        5.4578611509
Ga           -1.6222761733        4.5837880552       10.5047964968
Ga            3.4202646420        1.9746933906        5.4578611509
Ga            3.3305564099        1.9229003187       10.5047964968
Ga            1.6222722437        4.6831037996        5.3533185560
Ga            1.6222722437        4.6831037996       10.6425258363
N             1.6222756606        0.9366198184       10.0665985802
N             0.0097528477        3.7521111424        4.6639530892
N             0.0265131370        3.7617876999        9.9425792884
N             4.8668240777        0.9253598766        4.6639530892
N             4.8668240777        0.9060067615        9.9425792884
N             3.2347984735        3.7521111424        4.6639530892
N             3.2180381842        3.7617876999        9.9425792884
N            -0.0349434318        1.8934159119        1.9990025271
N            -0.0045204523        1.8758511965        7.3697621909
N            -1.6222761733        4.6427568688        1.9990025271
N            -1.6222761733        4.6778862997        7.3697621909
N             3.2794879193        1.8934159119        1.9990025271
N             3.2490649398        1.8758511965        7.3697621909
N             1.6222722437        4.6831037996        2.0433014896
N             1.6222722437        4.6831037996        7.3036188718
Ga            1.6222756606        0.9366198184        4.1124470434
End final coordinates

     Writing all to output data dir ./GaN.save/

     General routines

     Parallel routines

     PAW routines

   This run was terminated on:  23:29: 3  27Mar2024

   JOB DONE.