     Program PWSCF v.7.1 starts on  3Mar2024 at  8:13: 8

     Reading input from espresso.pwi
Warning: card &CELL ignored
Warning: card    CELL_DYNAMICS    = 'BFGS' ignored
Warning: card / ignored

     Current dimensions of program PWSCF are:
     Max number of different atomic species (ntypx) = 10
     Max number of k-points (npk) =  40000
     Max angular momentum in pseudopotentials (lmaxx) =  4
     file Ga.pbe-dn-kjpaw_psl.1.0.0.UPF: wavefunction(s)  4S renormalized
     file N.pbe-n-kjpaw_psl.1.0.0.UPF: wavefunction(s)  2S renormalized

     IMPORTANT: XC functional enforced from input :
     Exchange-correlation= BEEF-VDW
                           (   1   4  43  14   2   0   0)
     Any further DFT definition will be discarded
     Please, verify this is what you really want

     K-points division:     npool     =       4
     R & G space division:  proc/nbgrp/npool/nimage =      64
     Subspace diagonalization in iterative solution of the eigenvalue problem:
     a serial algorithm will be used

     Using Slab Decomposition

     bravais-lattice index     =            4
     lattice parameter (alat)  =      24.5252  a.u.
     unit-cell volume          =   15616.6055 (a.u.)^3
     number of atoms/cell      =          192
     number of atomic types    =            2
     number of electrons       =      1721.00
     number of Kohn-Sham states=         1033
     kinetic-energy cutoff     =      70.0000  Ry
     charge density cutoff     =     350.0000  Ry
     scf convergence threshold =      1.0E-07
     mixing beta               =       0.7000
     number of iterations used =            8  plain     mixing
     energy convergence thresh.=      1.0E-04
     force convergence thresh. =      1.0E-03
     Exchange-correlation= BEEF-VDW
                           (   1   4  43  14   2   0   0)
     nstep                     =           50

     celldm(1)=  24.525232  celldm(2)=   0.000000  celldm(3)=   1.222409
     celldm(4)=   0.000000  celldm(5)=   0.000000  celldm(6)=   0.000000

     crystal axes: (cart. coord. in units of alat)
               a(1) = (   1.000000   0.000000   0.000000 )
               a(2) = (  -0.500000   0.866025   0.000000 )
               a(3) = (   0.000000   0.000000   1.222409 )

     reciprocal axes: (cart. coord. in units 2 pi/alat)
               b(1) = (  1.000000  0.577350 -0.000000 )
               b(2) = (  0.000000  1.154701  0.000000 )
               b(3) = (  0.000000 -0.000000  0.818057 )

     PseudoPot. # 1 for Ga read from file:
     /trace/group/acmegroup/atimmins/packages/espresso/pseudo/psl_1.0.0/pslibrary.1.0.0/pbe/PSEUDOPOTENTIALS/Ga.pbe-dn-kjpaw_psl.1.0.0.UPF
     MD5 check sum: cd2a01e492f15b435d17032472d8505c
     Pseudo is Projector augmented-wave + core cor, Zval = 13.0
     Generated using 'atomic' code by A. Dal Corso  v.7.1
     Shape of augmentation charge: PSQ
     Using radial grid of 1205 points,  6 beta functions with:
                l(1) =   0
                l(2) =   0
                l(3) =   1
                l(4) =   1
                l(5) =   2
                l(6) =   2
     Q(r) pseudized with 0 coefficients

     PseudoPot. # 2 for N  read from file:
     /trace/group/acmegroup/atimmins/packages/espresso/pseudo/psl_1.0.0/pslibrary.1.0.0/pbe/PSEUDOPOTENTIALS/N.pbe-n-kjpaw_psl.1.0.0.UPF
     MD5 check sum: f77f775694dac7e2c3fe1c82443d1a16
     Pseudo is Projector augmented-wave + core cor, Zval =  5.0
     Generated using 'atomic' code by A. Dal Corso  v.7.1
     Shape of augmentation charge: PSQ
     Using radial grid of 1085 points,  4 beta functions with:
                l(1) =   0
                l(2) =   0
                l(3) =   1
                l(4) =   1
     Q(r) pseudized with 0 coefficients

     atomic species   valence    mass     pseudopotential
        Ga            13.00    69.72300     Ga( 1.00)
        N              5.00    14.00700     N ( 1.00)

      6 Sym. Ops. (no inversion) found ( 4 have fractional translation)

                                    s                        frac. trans.

      isym =  1     identity

 cryst.   s( 1) = (     1          0          0      )
                  (     0          1          0      )
                  (     0          0          1      )

 cart.    s( 1) = (  1.0000000  0.0000000  0.0000000 )
                  (  0.0000000  1.0000000  0.0000000 )
                  (  0.0000000  0.0000000  1.0000000 )

      isym =  2     120 deg rotation - cryst. axis [0,0,1]

 cryst.   s( 2) = (     0          1          0      )    f =( -0.2500000 )
                  (    -1         -1          0      )       (  0.0000002 )
                  (     0          0          1      )       (  0.0000000 )

 cart.    s( 2) = ( -0.5000000 -0.8660254  0.0000000 )    f =( -0.2500001 )
                  (  0.8660254 -0.5000000  0.0000000 )       (  0.0000002 )
                  (  0.0000000  0.0000000  1.0000000 )       (  0.0000000 )

      isym =  3     120 deg rotation - cryst. axis [0,0,-1]

[...]

      isym =  4     inv. 180 deg rotation - cart. axis [1,0,0]

[...]

      isym =  5     inv. 180 deg rotation - cryst. axis [0,1,0]

 cryst.   s( 5) = (     1          1          0      )
                  (     0         -1          0      )
                  (     0          0          1      )

 cart.    s( 5) = (  0.5000000  0.8660254  0.0000000 )
                  (  0.8660254 -0.5000000  0.0000000 )
                  (  0.0000000  0.0000000  1.0000000 )

      isym =  6     inv. 180 deg rotation - cryst. axis [1,1,0]

 cryst.   s( 6) = (     0         -1          0      )    f =( -0.2500000 )
                  (    -1          0          0      )       ( -0.2500000 )
                  (     0          0          1      )       (  0.0000000 )

 cart.    s( 6) = (  0.5000000 -0.8660254  0.0000000 )    f =( -0.1250000 )
                  ( -0.8660254 -0.5000000  0.0000000 )       ( -0.2165064 )
                  (  0.0000000  0.0000000  1.0000000 )       (  0.0000000 )

     point group C_3v (3m)
     there are  3 classes
     the character table:

       E     2C3   3s_v
A_1    1.00  1.00  1.00
A_2    1.00  1.00 -1.00
E      2.00 -1.00  0.00

     the symmetry operations in each class and the name of the first element:

     E        1
          identity
     2C3      2    3
          120 deg rotation - cryst. axis [0,0,1]
     3s_v     4    5    6
          inv. 180 deg rotation - cart. axis [1,0,0]

   Cartesian axes

     site n.     atom                  positions (alat units)
         1           Ga  tau(   1) = (   0.1250001   0.0721687   0.6108633  )
         2           Ga  tau(   2) = (   0.1250001   0.0721687   1.0183331  )
         3           Ga  tau(   3) = (   0.0000001   0.2886751   0.2033935  )
         4           Ga  tau(   4) = (   0.0000001   0.2886751   0.6108633  )
         5           Ga  tau(   5) = (   0.0000001   0.2886751   1.0183331  )
         6           Ga  tau(   6) = (  -0.1249999   0.5051814   0.2033935  )
         7           Ga  tau(   7) = (  -0.1249999   0.5051814   0.6108633  )
         8           Ga  tau(   8) = (  -0.1249999   0.5051814   1.0183331  )
         9           Ga  tau(   9) = (  -0.2499999   0.7216878   0.2033935  )
        10           Ga  tau(  10) = (  -0.2499999   0.7216878   0.6108633  )
        11           Ga  tau(  11) = (  -0.2499999   0.7216878   1.0183331  )
        12           Ga  tau(  12) = (   0.3750001   0.0721687   0.2033935  )
        13           Ga  tau(  13) = (   0.3750001   0.0721687   0.6108633  )
        14           Ga  tau(  14) = (   0.3750001   0.0721687   1.0183331  )
        15           Ga  tau(  15) = (   0.2500001   0.2886751   0.2033935  )
        16           Ga  tau(  16) = (   0.2500001   0.2886751   0.6108633  )
        17           Ga  tau(  17) = (   0.2500001   0.2886751   1.0183331  )
        18           Ga  tau(  18) = (   0.1250001   0.5051814   0.2033935  )
        19           Ga  tau(  19) = (   0.1250001   0.5051814   0.6108633  )
        20           Ga  tau(  20) = (   0.1250001   0.5051814   1.0183331  )
        21           Ga  tau(  21) = (   0.0000001   0.7216878   0.2033935  )
        22           Ga  tau(  22) = (   0.0000001   0.7216878   0.6108633  )
        23           Ga  tau(  23) = (   0.0000001   0.7216878   1.0183331  )
        24           Ga  tau(  24) = (   0.6250001   0.0721687   0.2033935  )
        25           Ga  tau(  25) = (   0.6250001   0.0721687   0.6108633  )
        26           Ga  tau(  26) = (   0.6250001   0.0721687   1.0183331  )
        27           Ga  tau(  27) = (   0.5000001   0.2886751   0.2033935  )
        28           Ga  tau(  28) = (   0.5000001   0.2886751   0.6108633  )
        29           Ga  tau(  29) = (   0.5000001   0.2886751   1.0183331  )
        30           Ga  tau(  30) = (   0.3750001   0.5051814   0.2033935  )
        31           Ga  tau(  31) = (   0.3750001   0.5051814   0.6108633  )
        32           Ga  tau(  32) = (   0.3750001   0.5051814   1.0183331  )
        33           Ga  tau(  33) = (   0.2500001   0.7216878   0.2033935  )
        34           Ga  tau(  34) = (   0.2500001   0.7216878   0.6108633  )
        35           Ga  tau(  35) = (   0.2500001   0.7216878   1.0183331  )
        36           Ga  tau(  36) = (   0.8750001   0.0721687   0.2033935  )
        37           Ga  tau(  37) = (   0.8750001   0.0721687   0.6108633  )
        38           Ga  tau(  38) = (   0.8750001   0.0721687   1.0183331  )
        39           Ga  tau(  39) = (   0.7500001   0.2886751   0.2033935  )
        40           Ga  tau(  40) = (   0.7500001   0.2886751   0.6108633  )
        41           Ga  tau(  41) = (   0.7500001   0.2886751   1.0183331  )
        42           Ga  tau(  42) = (   0.6250001   0.5051814   0.2033935  )
        43           Ga  tau(  43) = (   0.6250001   0.5051814   0.6108633  )
        44           Ga  tau(  44) = (   0.6250001   0.5051814   1.0183331  )
        45           Ga  tau(  45) = (   0.5000001   0.7216878   0.2033935  )
        46           Ga  tau(  46) = (   0.5000001   0.7216878   0.6108633  )
        47           Ga  tau(  47) = (   0.5000001   0.7216878   1.0183331  )
        48           Ga  tau(  48) = (  -0.0000002   0.1443377   0.4071284  )
        49           Ga  tau(  49) = (  -0.0000002   0.1443377   0.8145982  )
        50           Ga  tau(  50) = (  -0.0000002   0.1443377   1.2220680  )
        51           Ga  tau(  51) = (  -0.1250002   0.3608440   0.4071284  )
        52           Ga  tau(  52) = (  -0.1250002   0.3608440   0.8145982  )
        53           Ga  tau(  53) = (  -0.1250002   0.3608440   1.2220680  )
        54           Ga  tau(  54) = (  -0.2500002   0.5773504   0.4071284  )
        55           Ga  tau(  55) = (  -0.2500002   0.5773504   0.8145982  )
        56           Ga  tau(  56) = (  -0.2500002   0.5773504   1.2220680  )
        57           Ga  tau(  57) = (  -0.3750001   0.7938567   0.4071284  )
        58           Ga  tau(  58) = (  -0.3750001   0.7938567   0.8145982  )
        59           Ga  tau(  59) = (  -0.3750001   0.7938567   1.2220680  )
[...]
     atom   44 type  1   force =     0.00000000    0.00000000    0.00000000
     atom   45 type  1   force =     0.00000000    0.00000000    0.00000000
     atom   46 type  1   force =     0.00000000    0.00000000    0.00000000
     atom   47 type  1   force =     0.00000000    0.00000000    0.00000000
     atom   48 type  1   force =     0.00000000    0.00000000    0.00000000
     atom   49 type  1   force =     0.00000000    0.00000000    0.00000000
     atom   50 type  1   force =     0.00000000    0.00000000    0.00000000
     atom   51 type  1   force =     0.00000000    0.00000000    0.00000000
     atom   52 type  1   force =     0.00000000    0.00000000    0.00000000
     atom   53 type  1   force =     0.00000000    0.00000000    0.00000000
     atom   54 type  1   force =     0.00000000    0.00000000    0.00000000
     atom   55 type  1   force =     0.00000000    0.00000000    0.00000000
     atom   56 type  1   force =     0.00000000    0.00000000    0.00000000
     atom   57 type  1   force =     0.00000000    0.00000000    0.00000000
     atom   58 type  1   force =     0.00000000    0.00000000    0.00000000
     atom   59 type  1   force =     0.00000000    0.00000000    0.00000000
     atom   60 type  1   force =     0.00000000    0.00000000    0.00000000
[...]
     atom  178 type  2   force =     0.00000000    0.00000000    0.00000000
     atom  179 type  2   force =     0.00000000    0.00000000    0.00000000
     atom  180 type  2   force =     0.00000000    0.00000000    0.00000000
     atom  181 type  2   force =     0.00000000    0.00000000    0.00000000
     atom  182 type  2   force =     0.00000000    0.00000000    0.00000000
     atom  183 type  2   force =     0.00000000    0.00000000    0.00000000
     atom  184 type  2   force =     0.00000000    0.00000000    0.00000000
     atom  185 type  2   force =     0.00000000    0.00000000    0.00000000
     atom  186 type  2   force =     0.00000000    0.00000000    0.00000000
     atom  187 type  2   force =     0.00000000    0.00000000    0.00000000
     atom  188 type  2   force =     0.00000000    0.00000000    0.00000000
     atom  189 type  2   force =     0.00000000    0.00000000    0.00000000
     atom  190 type  2   force =     0.00000000    0.00000000    0.00000000
     atom  191 type  2   force =     0.00000000    0.00000000    0.00000000
     atom  192 type  2   force =     0.00000000    0.00000000    0.00000000
     The SCF correction term to forces
     atom    1 type  1   force =     0.00000000   -0.00000000   -0.00000357
     atom    2 type  1   force =    -0.00000000    0.00000000    0.00000713
     atom    3 type  1   force =    -0.00000177    0.00000151   -0.00000154
     atom    4 type  1   force =    -0.00000241    0.00000341   -0.00000135
     atom    5 type  1   force =     0.00000245   -0.00000379    0.00000188
     atom    6 type  1   force =    -0.00000071   -0.00000041    0.00000104
     atom    7 type  1   force =     0.00000011    0.00000006   -0.00000332
     atom    8 type  1   force =     0.00000049    0.00000028    0.00000156
     atom    9 type  1   force =     0.00000042   -0.00000228   -0.00000154
     atom   10 type  1   force =     0.00000174   -0.00000379   -0.00000135
     atom   11 type  1   force =    -0.00000206    0.00000402    0.00000188
     atom   12 type  1   force =     0.00000219    0.00000078   -0.00000154
     atom   13 type  1   force =     0.00000415    0.00000038   -0.00000135
     atom   14 type  1   force =    -0.00000451   -0.00000023    0.00000188
     atom   15 type  1   force =     0.00000177    0.00000151   -0.00000154
     atom   16 type  1   force =     0.00000241    0.00000341   -0.00000135
     atom   17 type  1   force =    -0.00000245   -0.00000379    0.00000188
     atom   18 type  1   force =     0.00000000   -0.00000215    0.00000050
     atom   19 type  1   force =     0.00000000    0.00000163   -0.00000204
     atom   20 type  1   force =    -0.00000000   -0.00000135    0.00000032
     atom   21 type  1   force =    -0.00000186    0.00000107    0.00000050
     atom   22 type  1   force =     0.00000141   -0.00000081   -0.00000204
     atom   23 type  1   force =    -0.00000117    0.00000068    0.00000032
     atom   24 type  1   force =    -0.00000000    0.00000082    0.00000104
     atom   25 type  1   force =     0.00000000   -0.00000013   -0.00000332
     atom   26 type  1   force =     0.00000000   -0.00000057    0.00000156
     atom   27 type  1   force =     0.00000216    0.00000125    0.00000031
     atom   28 type  1   force =     0.00000096    0.00000055   -0.00000454
     atom   29 type  1   force =    -0.00000227   -0.00000131    0.00000181
     atom   30 type  1   force =     0.00000071   -0.00000041    0.00000104
     atom   31 type  1   force =    -0.00000011    0.00000006   -0.00000332
     atom   32 type  1   force =    -0.00000049    0.00000028    0.00000156
     atom   33 type  1   force =     0.00000186    0.00000107    0.00000050
     atom   34 type  1   force =    -0.00000141   -0.00000081   -0.00000204
     atom   35 type  1   force =     0.00000117    0.00000068    0.00000032
     atom   36 type  1   force =    -0.00000219    0.00000078   -0.00000154
     atom   37 type  1   force =    -0.00000415    0.00000038   -0.00000135
     atom   38 type  1   force =     0.00000451   -0.00000023    0.00000188
     atom   39 type  1   force =    -0.00000216    0.00000125    0.00000031
     atom   40 type  1   force =    -0.00000096    0.00000055   -0.00000454
     atom   41 type  1   force =     0.00000227   -0.00000131    0.00000181
     atom   42 type  1   force =     0.00000000   -0.00000250    0.00000031
     atom   43 type  1   force =     0.00000000   -0.00000110   -0.00000454
     atom   44 type  1   force =    -0.00000000    0.00000262    0.00000181
     atom   45 type  1   force =    -0.00000042   -0.00000228   -0.00000154
     atom   46 type  1   force =    -0.00000174   -0.00000379   -0.00000135
     atom   47 type  1   force =     0.00000206    0.00000402    0.00000188
     atom   48 type  1   force =    -0.00000487    0.00000281   -0.00000404
     atom   49 type  1   force =     0.00000065   -0.00000037    0.00000771
     atom   50 type  1   force =     0.00000169   -0.00000098   -0.00000416
     atom   51 type  1   force =    -0.00000156    0.00000114   -0.00000437
     atom   52 type  1   force =     0.00000196    0.00000015    0.00000160
     atom   53 type  1   force =    -0.00000107   -0.00000068    0.00000187
     atom   54 type  1   force =     0.00000020   -0.00000192   -0.00000437
     atom   55 type  1   force =     0.00000111    0.00000162    0.00000160
     atom   56 type  1   force =    -0.00000112   -0.00000059    0.00000187
     atom   57 type  1   force =    -0.00000000   -0.00000563   -0.00000404
     atom   58 type  1   force =     0.00000000    0.00000075    0.00000771
     atom   59 type  1   force =    -0.00000000    0.00000195   -0.00000416
     atom   60 type  1   force =     0.00000487    0.00000281   -0.00000404
[...]
     atom  178 type  2   force =     0.00000000   -0.00000026   -0.00000046
     atom  179 type  2   force =    -0.00000000   -0.00000030   -0.00000008
     atom  180 type  2   force =    -0.00000031    0.00000005    0.00000031
     atom  181 type  2   force =    -0.00000046    0.00000028   -0.00000126
     atom  182 type  2   force =     0.00000120   -0.00000025    0.00000068
     atom  183 type  2   force =     0.00000000   -0.00000000    0.00000070
     atom  184 type  2   force =     0.00000000   -0.00000000   -0.00000103
     atom  185 type  2   force =    -0.00000000    0.00000000    0.00000046
     atom  186 type  2   force =    -0.00000012   -0.00000029    0.00000031
     atom  187 type  2   force =     0.00000001   -0.00000054   -0.00000126
     atom  188 type  2   force =     0.00000038    0.00000116    0.00000068
     atom  189 type  2   force =    -0.00000008   -0.00000004   -0.00000009
     atom  190 type  2   force =    -0.00000094   -0.00000054   -0.00000058
     atom  191 type  2   force =     0.00000125    0.00000072    0.00000055
     atom  192 type  2   force =     0.00000000   -0.00000000   -0.00000127

     Total force =     0.002897     Total SCF correction =     0.000041

     Computing stress (Cartesian axis) and pressure

     Non-local corr. energy    =      51.89599922 Ry

          total   stress  (Ry/bohr**3)                   (kbar)     P=       11.14
   0.00003917   0.00000000   0.00000000            5.76        0.00        0.00
   0.00000000   0.00003917   0.00000000            0.00        5.76        0.00
   0.00000000   0.00000000   0.00014882            0.00        0.00       21.89

     kinetic stress (kbar)  18375.14      0.00      0.00
                                0.00  18375.14      0.00
                                0.00      0.00  18426.32

     local   stress (kbar)   5042.33     -0.07     -0.00
                               -0.07   5042.23     -0.00
                               -0.00     -0.00   3889.50

     nonloc. stress (kbar)     90.04     -0.00      0.00
                               -0.00     90.04      0.00
                                0.00      0.00     93.98

     hartree stress (kbar)  19548.78     -0.00     -0.00
                               -0.00  19548.78      0.00
                               -0.00      0.00  20094.97

     exc-cor stress (kbar)   5142.68      0.00     -0.00
                                0.00   5142.68      0.00
                               -0.00      0.00   5142.07

     corecor stress (kbar) -13976.46     -0.00     -0.00
                               -0.00 -13976.46      0.00
                               -0.00      0.00 -13976.80

     ewald   stress (kbar) -34377.34      0.09      0.00
                                0.09 -34377.22     -0.00
                                0.00     -0.00 -33808.23

     hubbard stress (kbar)      0.00      0.00      0.00
                                0.00      0.00      0.00
                                0.00      0.00      0.00

     DFT-D   stress (kbar)      0.00      0.00      0.00
                                0.00      0.00      0.00
                                0.00      0.00      0.00

     XDM     stress (kbar)      0.00      0.00      0.00
                                0.00      0.00      0.00
                                0.00      0.00      0.00

     dft-nl  stress (kbar)    160.58     -0.00     -0.00
                               -0.00    160.58     -0.00
                               -0.00     -0.00    160.09

     TS-vdW  stress (kbar)      0.00      0.00      0.00
                                0.00      0.00      0.00
                                0.00      0.00      0.00

     MDB     stress (kbar)      0.00      0.00      0.00
                                0.00      0.00      0.00
                                0.00      0.00      0.00

     3D-RISM stress (kbar)      0.00      0.00      0.00
                                0.00      0.00      0.00
                                0.00      0.00      0.00

     Energy error            =      2.2E-05 Ry
     Gradient error          =      7.6E-04 Ry/Bohr

     bfgs converged in   8 scf cycles and   7 bfgs steps
     (criteria: energy <  1.0E-04 Ry, force <  1.0E-03 Ry/Bohr)

     End of BFGS Geometry Optimization

     Final energy             =  -29724.0916369515 Ry

     File ./GaN.bfgs deleted, as requested
Begin final coordinates

ATOMIC_POSITIONS (angstrom)
Ga            1.6222756606        0.9366198184        7.8340985788
Ga            1.6222756606        0.9366198184       13.1251067560
Ga            0.0675336651        3.6786163073        2.6555334218
Ga           -0.0092972851        3.7568763322        7.9498870638
Ga           -0.0014363815        3.7437701964       13.2002537348
Ga           -1.6216424962        6.5567064055        2.6373225805
Ga           -1.6243170222        6.5551622673        7.9233472021
Ga           -1.6232578954        6.5557737544       13.2271812181
Ga           -3.2695535549        9.4586209218        2.6555334218
Ga           -3.2401938604        9.3529533546        7.9498870638
Ga           -3.2476136551        9.3663141647       13.2002537348
Ga            4.7742852747        0.9120676385        2.6555334218
Ga            4.8804759195        0.9394751807        7.9498870638
Ga            4.8651952212        0.9392205064       13.2002537348
Ga            3.1770176561        3.6786163073        2.6555334218
Ga            3.2538486063        3.7568763322        7.9498870638
Ga            3.2459877027        3.7437701964       13.2002537348
Ga            1.6222756606        6.5512417314        2.6470972918
Ga            1.6222756606        6.5563031781        7.9279275252
Ga            1.6222756606        6.5577435781       13.2173695437
Ga           -0.0044159644        9.3687542742        2.6470972918
Ga           -0.0000326229        9.3662235508        7.9279275252
Ga            0.0012148000        9.3655033509       13.2173695437
Ga            8.1113724947        0.9358920565        2.6373225805
Ga            8.1113724947        0.9389803331        7.9233472021
Ga            8.1113724947        0.9377573588       13.2271812181
Ga            6.4759477286        3.7388886935        2.6440930822
Ga            6.4875477701        3.7455859806        7.9201901441
Ga            6.4914534304        3.7478409146       13.2210988168
Ga            4.8661938174        6.5567064055        2.6373225805
Ga            4.8688683434        6.5551622673        7.9233472021
Ga            4.8678092166        6.5557737544       13.2271812181
Ga            3.2489672856        9.3687542742        2.6470972918
Ga            3.2445839441        9.3662235508        7.9279275252
Ga            3.2433365212        9.3655033509       13.2173695437
Ga           11.4484597148        0.9120676385        2.6555334218
Ga           11.3422690700        0.9394751807        7.9498870638
Ga           11.3575497683        0.9392205064       13.2002537348
Ga            9.7467972609        3.7388886935        2.6440930822
Ga            9.7351972194        3.7455859806        7.9201901441
Ga            9.7312915591        3.7478409146       13.2210988168
Ga            8.1113724947        6.5715274806        2.6440930822
Ga            8.1113724947        6.5581329064        7.9201901441
Ga            8.1113724947        6.5536230383       13.2210988168
Ga            6.5141048761        9.4586209218        2.6555334218
Ga            6.4847451816        9.3529533546        7.9498870638
Ga            6.4921649763        9.3663141647       13.2002537348
Ga            0.0170286207        1.8634098334        5.3351000155
Ga            0.0025014302        1.8717971107       10.5365219376
Ga            0.0450370490        1.8472391598       15.7951392176
Ga           -1.6164253176        4.6782827807        5.2756988171
Ga           -1.6263662247        4.6864211278       10.5774065899
Ga           -1.6150549629        4.6717865931       15.8647614588
Ga           -3.2458000789        7.5004426518        5.2756988171
Ga           -3.2437225171        7.4877644002       10.5774065899
Ga           -3.2507407651        7.5048775076       15.8647614588
Ga           -4.8668245904       10.3224917320        5.3351000155
Ga           -4.8668245904       10.3057171772       10.5365219376
Ga           -4.8668245904       10.3548330791       15.7951392176
Ga            3.2275158668        1.8634098334        5.3351000155
[...]
N             1.6222722437       10.3026044831        7.2739806792
N             1.6222722437       10.3048271932       12.5677347409
N             9.7909185071        1.8616495944        1.9930055251
N             9.7273198132        1.8716691026        7.2684087905
N             9.7290705445        1.8754655454       12.5702002681
N             8.1113690779        4.6831037996        1.9945549991
N             8.1113690779        4.6831037996        7.2723152408
N             8.1113690779        4.6831037996       12.5633392420
N             6.5076927752        7.5483633749        1.9930055251
N             6.4845705769        7.4882755362        7.2684087905
N             6.4887337585        7.4878934926       12.5702002681
N             4.8711989579       10.3053543167        1.9780674428
N             4.8672277977       10.3030615663        7.2843655800
N             4.8638241378       10.3010964624       12.5682518023
N             1.6222756606        0.9366198184        2.4035461838
End final coordinates

     Writing all to output data dir ./GaN.save/

     General routines

     Parallel routines

     PAW routines

   This run was terminated on:  16:12:28   3Mar2024

   JOB DONE.