     Program PWSCF v.7.1 starts on  4Mar2024 at 15:23:43

     Reading input from espresso.pwi
Warning: card &CELL ignored
Warning: card    CELL_DYNAMICS    = 'BFGS' ignored
Warning: card / ignored

     Current dimensions of program PWSCF are:
     Max number of different atomic species (ntypx) = 10
     Max number of k-points (npk) =  40000
     Max angular momentum in pseudopotentials (lmaxx) =  4
     file Ga.pbe-dn-kjpaw_psl.1.0.0.UPF: wavefunction(s)  4S renormalized
     file N.pbe-n-kjpaw_psl.1.0.0.UPF: wavefunction(s)  2S renormalized

     IMPORTANT: XC functional enforced from input :
     Exchange-correlation= BEEF-VDW
                           (   1   4  43  14   2   0   0)
     Any further DFT definition will be discarded
     Please, verify this is what you really want

     K-points division:     npool     =       4
     R & G space division:  proc/nbgrp/npool/nimage =      64
     Subspace diagonalization in iterative solution of the eigenvalue problem:
     a serial algorithm will be used

     Using Slab Decomposition

     bravais-lattice index     =            4
     lattice parameter (alat)  =      24.5252  a.u.
     unit-cell volume          =   15616.6055 (a.u.)^3
     number of atoms/cell      =          192
     number of atomic types    =            2
     number of electrons       =      1721.00
     number of Kohn-Sham states=         1033
     kinetic-energy cutoff     =      70.0000  Ry
     charge density cutoff     =     350.0000  Ry
     scf convergence threshold =      1.0E-07
     mixing beta               =       0.7000
     number of iterations used =            8  plain     mixing
     Exchange-correlation= BEEF-VDW
                           (   1   4  43  14   2   0   0)

     celldm(1)=  24.525232  celldm(2)=   0.000000  celldm(3)=   1.222409
     celldm(4)=   0.000000  celldm(5)=   0.000000  celldm(6)=   0.000000

     crystal axes: (cart. coord. in units of alat)
               a(1) = (   1.000000   0.000000   0.000000 )
               a(2) = (  -0.500000   0.866025   0.000000 )
               a(3) = (   0.000000   0.000000   1.222409 )

     reciprocal axes: (cart. coord. in units 2 pi/alat)
               b(1) = (  1.000000  0.577350 -0.000000 )
               b(2) = (  0.000000  1.154701  0.000000 )
               b(3) = (  0.000000 -0.000000  0.818057 )

     PseudoPot. # 1 for Ga read from file:
     /trace/group/acmegroup/atimmins/packages/espresso/pseudo/psl_1.0.0/pslibrary.1.0.0/pbe/PSEUDOPOTENTIALS/Ga.pbe-dn-kjpaw_psl.1.0.0.UPF
     MD5 check sum: cd2a01e492f15b435d17032472d8505c
     Pseudo is Projector augmented-wave + core cor, Zval = 13.0
     Generated using 'atomic' code by A. Dal Corso  v.7.1
     Shape of augmentation charge: PSQ
     Using radial grid of 1205 points,  6 beta functions with:
                l(1) =   0
                l(2) =   0
                l(3) =   1
                l(4) =   1
                l(5) =   2
                l(6) =   2
     Q(r) pseudized with 0 coefficients

     PseudoPot. # 2 for N  read from file:
     /trace/group/acmegroup/atimmins/packages/espresso/pseudo/psl_1.0.0/pslibrary.1.0.0/pbe/PSEUDOPOTENTIALS/N.pbe-n-kjpaw_psl.1.0.0.UPF
     MD5 check sum: f77f775694dac7e2c3fe1c82443d1a16
     Pseudo is Projector augmented-wave + core cor, Zval =  5.0
     Generated using 'atomic' code by A. Dal Corso  v.7.1
     Shape of augmentation charge: PSQ
     Using radial grid of 1085 points,  4 beta functions with:
                l(1) =   0
                l(2) =   0
                l(3) =   1
                l(4) =   1
     Q(r) pseudized with 0 coefficients

     atomic species   valence    mass     pseudopotential
        Ga            13.00    69.72300     Ga( 1.00)
        N              5.00    14.00700     N ( 1.00)

      6 Sym. Ops. (no inversion) found ( 4 have fractional translation)

                                    s                        frac. trans.

      isym =  1     identity

 cryst.   s( 1) = (     1          0          0      )
                  (     0          1          0      )
                  (     0          0          1      )

 cart.    s( 1) = (  1.0000000  0.0000000  0.0000000 )
                  (  0.0000000  1.0000000  0.0000000 )
                  (  0.0000000  0.0000000  1.0000000 )

      isym =  2     120 deg rotation - cryst. axis [0,0,1]

 cryst.   s( 2) = (     0          1          0      )    f =( -0.2500000 )
                  (    -1         -1          0      )       (  0.0000002 )
                  (     0          0          1      )       (  0.0000000 )

 cart.    s( 2) = ( -0.5000000 -0.8660254  0.0000000 )    f =( -0.2500001 )
                  (  0.8660254 -0.5000000  0.0000000 )       (  0.0000002 )
                  (  0.0000000  0.0000000  1.0000000 )       (  0.0000000 )

      isym =  3     120 deg rotation - cryst. axis [0,0,-1]

[...]

      isym =  4     inv. 180 deg rotation - cart. axis [1,0,0]

[...]

      isym =  5     inv. 180 deg rotation - cryst. axis [0,1,0]

 cryst.   s( 5) = (     1          1          0      )
                  (     0         -1          0      )
                  (     0          0          1      )

 cart.    s( 5) = (  0.5000000  0.8660254  0.0000000 )
                  (  0.8660254 -0.5000000  0.0000000 )
                  (  0.0000000  0.0000000  1.0000000 )

      isym =  6     inv. 180 deg rotation - cryst. axis [1,1,0]

 cryst.   s( 6) = (     0         -1          0      )    f =( -0.2500000 )
                  (    -1          0          0      )       ( -0.2500000 )
                  (     0          0          1      )       (  0.0000000 )

 cart.    s( 6) = (  0.5000000 -0.8660254  0.0000000 )    f =( -0.1250000 )
                  ( -0.8660254 -0.5000000  0.0000000 )       ( -0.2165064 )
                  (  0.0000000  0.0000000  1.0000000 )       (  0.0000000 )

     point group C_3v (3m)
     there are  3 classes
     the character table:

       E     2C3   3s_v
A_1    1.00  1.00  1.00
A_2    1.00  1.00 -1.00
E      2.00 -1.00  0.00

     the symmetry operations in each class and the name of the first element:

     E        1
          identity
     2C3      2    3
          120 deg rotation - cryst. axis [0,0,1]
     3s_v     4    5    6
          inv. 180 deg rotation - cart. axis [1,0,0]

   Cartesian axes

     site n.     atom                  positions (alat units)
         1           Ga  tau(   1) = (   0.1250001   0.0721687   0.6108633  )
         2           Ga  tau(   2) = (   0.1250001   0.0721687   1.0183331  )
         3           Ga  tau(   3) = (   0.0000001   0.2886751   0.2033935  )
         4           Ga  tau(   4) = (   0.0000001   0.2886751   0.6108633  )
         5           Ga  tau(   5) = (   0.0000001   0.2886751   1.0183331  )
         6           Ga  tau(   6) = (  -0.1249999   0.5051814   0.2033935  )
         7           Ga  tau(   7) = (  -0.1249999   0.5051814   0.6108633  )
         8           Ga  tau(   8) = (  -0.1249999   0.5051814   1.0183331  )
         9           Ga  tau(   9) = (  -0.2499999   0.7216878   0.2033935  )
        10           Ga  tau(  10) = (  -0.2499999   0.7216878   0.6108633  )
        11           Ga  tau(  11) = (  -0.2499999   0.7216878   1.0183331  )
        12           Ga  tau(  12) = (   0.3750001   0.0721687   0.2033935  )
        13           Ga  tau(  13) = (   0.3750001   0.0721687   0.6108633  )
        14           Ga  tau(  14) = (   0.3750001   0.0721687   1.0183331  )
        15           Ga  tau(  15) = (   0.2500001   0.2886751   0.2033935  )
        16           Ga  tau(  16) = (   0.2500001   0.2886751   0.6108633  )
        17           Ga  tau(  17) = (   0.2500001   0.2886751   1.0183331  )
        18           Ga  tau(  18) = (   0.1250001   0.5051814   0.2033935  )
        19           Ga  tau(  19) = (   0.1250001   0.5051814   0.6108633  )
        20           Ga  tau(  20) = (   0.1250001   0.5051814   1.0183331  )
        21           Ga  tau(  21) = (   0.0000001   0.7216878   0.2033935  )
        22           Ga  tau(  22) = (   0.0000001   0.7216878   0.6108633  )
        23           Ga  tau(  23) = (   0.0000001   0.7216878   1.0183331  )
        24           Ga  tau(  24) = (   0.6250001   0.0721687   0.2033935  )
        25           Ga  tau(  25) = (   0.6250001   0.0721687   0.6108633  )
        26           Ga  tau(  26) = (   0.6250001   0.0721687   1.0183331  )
        27           Ga  tau(  27) = (   0.5000001   0.2886751   0.2033935  )
        28           Ga  tau(  28) = (   0.5000001   0.2886751   0.6108633  )
        29           Ga  tau(  29) = (   0.5000001   0.2886751   1.0183331  )
        30           Ga  tau(  30) = (   0.3750001   0.5051814   0.2033935  )
        31           Ga  tau(  31) = (   0.3750001   0.5051814   0.6108633  )
        32           Ga  tau(  32) = (   0.3750001   0.5051814   1.0183331  )
        33           Ga  tau(  33) = (   0.2500001   0.7216878   0.2033935  )
        34           Ga  tau(  34) = (   0.2500001   0.7216878   0.6108633  )
        35           Ga  tau(  35) = (   0.2500001   0.7216878   1.0183331  )
        36           Ga  tau(  36) = (   0.8750001   0.0721687   0.2033935  )
        37           Ga  tau(  37) = (   0.8750001   0.0721687   0.6108633  )
        38           Ga  tau(  38) = (   0.8750001   0.0721687   1.0183331  )
        39           Ga  tau(  39) = (   0.7500001   0.2886751   0.2033935  )
        40           Ga  tau(  40) = (   0.7500001   0.2886751   0.6108633  )
        41           Ga  tau(  41) = (   0.7500001   0.2886751   1.0183331  )
        42           Ga  tau(  42) = (   0.6250001   0.5051814   0.2033935  )
        43           Ga  tau(  43) = (   0.6250001   0.5051814   0.6108633  )
        44           Ga  tau(  44) = (   0.6250001   0.5051814   1.0183331  )
        45           Ga  tau(  45) = (   0.5000001   0.7216878   0.2033935  )
        46           Ga  tau(  46) = (   0.5000001   0.7216878   0.6108633  )
        47           Ga  tau(  47) = (   0.5000001   0.7216878   1.0183331  )
        48           Ga  tau(  48) = (  -0.0000002   0.1443377   0.4071284  )
        49           Ga  tau(  49) = (  -0.0000002   0.1443377   0.8145982  )
        50           Ga  tau(  50) = (  -0.0000002   0.1443377   1.2220680  )
        51           Ga  tau(  51) = (  -0.1250002   0.3608440   0.4071284  )
        52           Ga  tau(  52) = (  -0.1250002   0.3608440   0.8145982  )
        53           Ga  tau(  53) = (  -0.1250002   0.3608440   1.2220680  )
        54           Ga  tau(  54) = (  -0.2500002   0.5773504   0.4071284  )
        55           Ga  tau(  55) = (  -0.2500002   0.5773504   0.8145982  )
        56           Ga  tau(  56) = (  -0.2500002   0.5773504   1.2220680  )
        57           Ga  tau(  57) = (  -0.3750001   0.7938567   0.4071284  )
        58           Ga  tau(  58) = (  -0.3750001   0.7938567   0.8145982  )
        59           Ga  tau(  59) = (  -0.3750001   0.7938567   1.2220680  )
        60           Ga  tau(  60) = (   0.2499998   0.1443377   0.4071284  )
[...]
       178           N   tau( 178) = (   0.1249998   0.7938567   0.5606123  )
[...]
     atom   25 type  1   force =     0.00000000    0.00000000    0.00000000
     atom   26 type  1   force =     0.00000000    0.00000000    0.00000000
     atom   27 type  1   force =     0.00000000    0.00000000    0.00000000
     atom   28 type  1   force =     0.00000000    0.00000000    0.00000000
     atom   29 type  1   force =     0.00000000    0.00000000    0.00000000
     atom   30 type  1   force =     0.00000000    0.00000000    0.00000000
     atom   31 type  1   force =     0.00000000    0.00000000    0.00000000
     atom   32 type  1   force =     0.00000000    0.00000000    0.00000000
     atom   33 type  1   force =     0.00000000    0.00000000    0.00000000
     atom   34 type  1   force =     0.00000000    0.00000000    0.00000000
     atom   35 type  1   force =     0.00000000    0.00000000    0.00000000
     atom   36 type  1   force =     0.00000000    0.00000000    0.00000000
     atom   37 type  1   force =     0.00000000    0.00000000    0.00000000
     atom   38 type  1   force =     0.00000000    0.00000000    0.00000000
     atom   39 type  1   force =     0.00000000    0.00000000    0.00000000
     atom   40 type  1   force =     0.00000000    0.00000000    0.00000000
     atom   41 type  1   force =     0.00000000    0.00000000    0.00000000
     atom   42 type  1   force =     0.00000000    0.00000000    0.00000000
     atom   43 type  1   force =     0.00000000    0.00000000    0.00000000
     atom   44 type  1   force =     0.00000000    0.00000000    0.00000000
     atom   45 type  1   force =     0.00000000    0.00000000    0.00000000
     atom   46 type  1   force =     0.00000000    0.00000000    0.00000000
     atom   47 type  1   force =     0.00000000    0.00000000    0.00000000
     atom   48 type  1   force =     0.00000000    0.00000000    0.00000000
     atom   49 type  1   force =     0.00000000    0.00000000    0.00000000
     atom   50 type  1   force =     0.00000000    0.00000000    0.00000000
     atom   51 type  1   force =     0.00000000    0.00000000    0.00000000
     atom   52 type  1   force =     0.00000000    0.00000000    0.00000000
     atom   53 type  1   force =     0.00000000    0.00000000    0.00000000
     atom   54 type  1   force =     0.00000000    0.00000000    0.00000000
     atom   55 type  1   force =     0.00000000    0.00000000    0.00000000
     atom   56 type  1   force =     0.00000000    0.00000000    0.00000000
     atom   57 type  1   force =     0.00000000    0.00000000    0.00000000
     atom   58 type  1   force =     0.00000000    0.00000000    0.00000000
     atom   59 type  1   force =     0.00000000    0.00000000    0.00000000
     atom   60 type  1   force =     0.00000000    0.00000000    0.00000000
[...]
     atom  178 type  2   force =     0.00000000    0.00000000    0.00000000
     atom  179 type  2   force =     0.00000000    0.00000000    0.00000000
     atom  180 type  2   force =     0.00000000    0.00000000    0.00000000
     atom  181 type  2   force =     0.00000000    0.00000000    0.00000000
     atom  182 type  2   force =     0.00000000    0.00000000    0.00000000
     atom  183 type  2   force =     0.00000000    0.00000000    0.00000000
     atom  184 type  2   force =     0.00000000    0.00000000    0.00000000
     atom  185 type  2   force =     0.00000000    0.00000000    0.00000000
     atom  186 type  2   force =     0.00000000    0.00000000    0.00000000
     atom  187 type  2   force =     0.00000000    0.00000000    0.00000000
     atom  188 type  2   force =     0.00000000    0.00000000    0.00000000
     atom  189 type  2   force =     0.00000000    0.00000000    0.00000000
     atom  190 type  2   force =     0.00000000    0.00000000    0.00000000
     atom  191 type  2   force =     0.00000000    0.00000000    0.00000000
     atom  192 type  2   force =     0.00000000    0.00000000    0.00000000
     The SCF correction term to forces
     atom    1 type  1   force =    -0.00000000    0.00000000   -0.00000129
     atom    2 type  1   force =     0.00000000   -0.00000000   -0.00002169
     atom    3 type  1   force =     0.00000674   -0.00000817    0.00000759
     atom    4 type  1   force =     0.00000802   -0.00001113    0.00000524
     atom    5 type  1   force =    -0.00000832    0.00001227   -0.00000910
     atom    6 type  1   force =     0.00000458    0.00000264   -0.00000193
     atom    7 type  1   force =     0.00000046    0.00000026    0.00001228
     atom    8 type  1   force =    -0.00000123   -0.00000071   -0.00001002
     atom    9 type  1   force =    -0.00000371    0.00000992    0.00000759
     atom   10 type  1   force =    -0.00000563    0.00001251    0.00000524
     atom   11 type  1   force =     0.00000647   -0.00001334   -0.00000910
     atom   12 type  1   force =    -0.00001045   -0.00000175    0.00000759
     atom   13 type  1   force =    -0.00001365   -0.00000138    0.00000524
     atom   14 type  1   force =     0.00001479    0.00000107   -0.00000910
     atom   15 type  1   force =    -0.00000674   -0.00000817    0.00000759
     atom   16 type  1   force =    -0.00000802   -0.00001113    0.00000524
     atom   17 type  1   force =     0.00000832    0.00001227   -0.00000910
     atom   18 type  1   force =    -0.00000000    0.00000285   -0.00000065
     atom   19 type  1   force =    -0.00000000   -0.00000566    0.00000769
     atom   20 type  1   force =     0.00000000    0.00000607   -0.00000492
     atom   21 type  1   force =     0.00000247   -0.00000143   -0.00000065
     atom   22 type  1   force =    -0.00000490    0.00000283    0.00000769
     atom   23 type  1   force =     0.00000526   -0.00000304   -0.00000492
     atom   24 type  1   force =     0.00000000   -0.00000529   -0.00000193
     atom   25 type  1   force =     0.00000000   -0.00000053    0.00001228
     atom   26 type  1   force =    -0.00000000    0.00000142   -0.00001002
     atom   27 type  1   force =    -0.00000798   -0.00000461    0.00000046
     atom   28 type  1   force =    -0.00000374   -0.00000216    0.00001660
     atom   29 type  1   force =     0.00000728    0.00000420   -0.00001292
     atom   30 type  1   force =    -0.00000458    0.00000264   -0.00000193
     atom   31 type  1   force =    -0.00000046    0.00000026    0.00001228
     atom   32 type  1   force =     0.00000123   -0.00000071   -0.00001002
     atom   33 type  1   force =    -0.00000247   -0.00000143   -0.00000065
     atom   34 type  1   force =     0.00000490    0.00000283    0.00000769
     atom   35 type  1   force =    -0.00000526   -0.00000304   -0.00000492
     atom   36 type  1   force =     0.00001045   -0.00000175    0.00000759
     atom   37 type  1   force =     0.00001365   -0.00000138    0.00000524
     atom   38 type  1   force =    -0.00001479    0.00000107   -0.00000910
     atom   39 type  1   force =     0.00000798   -0.00000461    0.00000046
     atom   40 type  1   force =     0.00000374   -0.00000216    0.00001660
     atom   41 type  1   force =    -0.00000728    0.00000420   -0.00001292
     atom   42 type  1   force =    -0.00000000    0.00000922    0.00000046
     atom   43 type  1   force =    -0.00000000    0.00000431    0.00001660
     atom   44 type  1   force =     0.00000000   -0.00000840   -0.00001292
     atom   45 type  1   force =     0.00000371    0.00000992    0.00000759
     atom   46 type  1   force =     0.00000563    0.00001251    0.00000524
     atom   47 type  1   force =    -0.00000647   -0.00001334   -0.00000910
     atom   48 type  1   force =     0.00001850   -0.00001068    0.00001811
     atom   49 type  1   force =    -0.00000075    0.00000044   -0.00002772
     atom   50 type  1   force =    -0.00000699    0.00000403    0.00001004
     atom   51 type  1   force =     0.00000735   -0.00000641    0.00001627
     atom   52 type  1   force =    -0.00000654    0.00000018   -0.00000850
     atom   53 type  1   force =     0.00000376    0.00000238   -0.00000938
     atom   54 type  1   force =    -0.00000187    0.00000957    0.00001627
     atom   55 type  1   force =    -0.00000312   -0.00000576   -0.00000850
     atom   56 type  1   force =     0.00000394    0.00000206   -0.00000938
     atom   57 type  1   force =     0.00000000    0.00002136    0.00001811
     atom   58 type  1   force =     0.00000000   -0.00000087   -0.00002772
     atom   59 type  1   force =    -0.00000000   -0.00000807    0.00001004
     atom   60 type  1   force =    -0.00001850   -0.00001068    0.00001811
[...]
     atom  178 type  2   force =    -0.00000000    0.00000056    0.00000374
     atom  179 type  2   force =     0.00000000    0.00000009   -0.00000209
     atom  180 type  2   force =     0.00000161   -0.00000140   -0.00000067
     atom  181 type  2   force =     0.00000304   -0.00000103    0.00000584
     atom  182 type  2   force =    -0.00000373    0.00000135   -0.00000466
     atom  183 type  2   force =    -0.00000000    0.00000000   -0.00000222
     atom  184 type  2   force =    -0.00000000    0.00000000    0.00000695
     atom  185 type  2   force =     0.00000000   -0.00000000   -0.00000469
     atom  186 type  2   force =    -0.00000040    0.00000210   -0.00000067
     atom  187 type  2   force =     0.00000063    0.00000315    0.00000584
     atom  188 type  2   force =    -0.00000070   -0.00000390   -0.00000466
     atom  189 type  2   force =     0.00000077    0.00000044    0.00000121
     atom  190 type  2   force =     0.00000462    0.00000266    0.00000343
     atom  191 type  2   force =    -0.00000420   -0.00000243   -0.00000436
     atom  192 type  2   force =    -0.00000000    0.00000000    0.00000697

     Total force =     0.002890     Total SCF correction =     0.000155

     Computing stress (Cartesian axis) and pressure

[...]

          total   stress  (Ry/bohr**3)                   (kbar)     P=       11.14
   0.00003917  -0.00000000   0.00000000            5.76       -0.00        0.00
   0.00000000   0.00003917   0.00000000            0.00        5.76        0.00
   0.00000000  -0.00000000   0.00014882            0.00       -0.00       21.89

     kinetic stress (kbar)  18375.14      0.00      0.00
                                0.00  18375.14      0.00
                                0.00      0.00  18426.32

     local   stress (kbar)   5042.33     -0.07     -0.00
                               -0.07   5042.23     -0.00
                               -0.00     -0.00   3889.50

     nonloc. stress (kbar)     90.04      0.00      0.00
                                0.00     90.04      0.00
                                0.00      0.00     93.98

     hartree stress (kbar)  19548.78     -0.00     -0.00
                               -0.00  19548.78      0.00
                               -0.00      0.00  20094.97

     exc-cor stress (kbar)   5142.68      0.00     -0.00
                                0.00   5142.68      0.00
                               -0.00      0.00   5142.07

     corecor stress (kbar) -13976.46     -0.00     -0.00
                               -0.00 -13976.46      0.00
                               -0.00      0.00 -13976.80

     ewald   stress (kbar) -34377.34      0.09      0.00
                                0.09 -34377.22     -0.00
                                0.00     -0.00 -33808.23

     hubbard stress (kbar)      0.00      0.00      0.00
                                0.00      0.00      0.00
                                0.00      0.00      0.00

     DFT-D   stress (kbar)      0.00      0.00      0.00
                                0.00      0.00      0.00
                                0.00      0.00      0.00

     XDM     stress (kbar)      0.00      0.00      0.00
                                0.00      0.00      0.00
                                0.00      0.00      0.00

     dft-nl  stress (kbar)    160.58     -0.00     -0.00
                               -0.00    160.58     -0.00
                               -0.00     -0.00    160.09

     TS-vdW  stress (kbar)      0.00      0.00      0.00
                                0.00      0.00      0.00
                                0.00      0.00      0.00

     MDB     stress (kbar)      0.00      0.00      0.00
                                0.00      0.00      0.00
                                0.00      0.00      0.00

     3D-RISM stress (kbar)      0.00      0.00      0.00
                                0.00      0.00      0.00
                                0.00      0.00      0.00

[...]

     Non-local corr. energy    =      51.89599860 Ry

 BEEFens 2000 ensemble energies
             -0.420704473559185E+02
             -0.378293672190235E+03
             -0.162593577659633E+03
              0.133178130924422E+03
             -0.271874276768725E+03
             -0.349749055646668E+03
              0.179815578326988E+03
             -0.190226840968969E+02
              0.299594472260011E+03
             -0.129076573758614E+02
              0.146839778961131E+03
              0.609714077711806E+01
              0.609328869670605E+01
             -0.128830967217152E+02
              0.196080957950037E+03
             -0.142807370221504E+03
             -0.294439254920960E+03
             -0.961582492959751E+02
              0.718546997074675E+02
             -0.641026672117687E+01
              0.429420865602836E+03
              0.365586404087052E+03
             -0.209144301020752E+03
              0.758593372463338E+02
             -0.458806616033484E+03
              0.367882196171683E+03
              0.120184010616716E+03
              0.357784644981948E+03
              0.235063579740667E+03
             -0.114537231186870E+03
              0.866088891525876E+02
             -0.169125150563777E+03
              0.471447193923599E+02
              0.229816953660293E+03
              0.243864528643101E+03
             -0.879775874892848E+02
              0.541668514793349E+03
             -0.205510265444653E+03
             -0.147954137289295E+03
              0.217048774760076E+03
              0.970392800944992E+02
              0.162525565290069E+03
             -0.309679705423166E+03
             -0.871209193376262E+01
              0.304066484721536E+03
              0.394862854939142E+03
             -0.393003685826028E+03
              0.280098229815251E+02
              0.148218544408287E+03
              0.720110598473630E+02
              0.164407444770274E+03
              0.348217896925174E+03
             -0.210544712052723E+03
             -0.230776460628611E+03
             -0.300032488346393E+03
             -0.465442700092126E+02
             -0.273610702880604E+03
              0.267478268195505E+02
             -0.507427713163111E+02
             -0.213373325773513E+03
[...]
              0.266313038461638E+03
              0.146954233861177E+03
              0.186947211882095E+03
             -0.301964235840662E+03
             -0.288861081240151E+03
             -0.732032933573355E+02
             -0.283258392755473E+03
              0.453669873609963E+03
              0.388818902248960E+03
              0.185753667373615E+03
              0.502989111183208E+03
             -0.261796031863055E+03
             -0.106761091893584E+03
             -0.148383084786012E+03
              0.415965651330205E+03

 BEEF-vdW xc energy contributions
            1 :    -3813.277161256681
            2 :     3434.463047691935
            3 :    -2799.715993161335
            4 :     2094.714544009810
            5 :    -1482.955869031664
            6 :     1043.607915274667
            7 :    -762.5858761779773
            8 :     572.7738401129877
            9 :    -410.9864368744093
           10 :     254.6434148869685
           11 :    -120.5608037907914
           12 :     36.01937137569121
           13 :    -8.746199293053905
           14 :     18.04416936198959
           15 :    -30.07373461702991
           16 :     21.94451230902450
           17 :     5.095511768609867
           18 :    -32.15283596881090
           19 :     41.49068033640924
           20 :    -31.67587723933320
           21 :     17.72855997006445
           22 :    -17.79557182747158
           23 :     38.22340914682627
           24 :    -69.00696620614872
           25 :     92.34970182632151
           26 :    -96.55197558737200
           27 :     83.96688753511307
           28 :    -67.41350076755862
           29 :     58.98208552656934
           30 :    -60.76801135740698
           31 :    -327.1929831536982
           32 :    -224.2263855685524

     Writing all to output data dir ./GaN.save/

     General routines

     Parallel routines

     PAW routines

   This run was terminated on:  15:35:47   4Mar2024

   JOB DONE.