     Program PWSCF v.7.1 starts on 25Feb2024 at 14:50:27

     Reading input from espresso.pwi
Warning: card &CELL ignored
Warning: card    CELL_DYNAMICS    = 'BFGS' ignored
Warning: card / ignored

     Current dimensions of program PWSCF are:
     Max number of different atomic species (ntypx) = 10
     Max number of k-points (npk) =  40000
     Max angular momentum in pseudopotentials (lmaxx) =  4
     file C.pbe-n-kjpaw_psl.1.0.0.UPF: wavefunction(s)  2S 2P renormalized

     IMPORTANT: XC functional enforced from input :
     Exchange-correlation= BEEF-VDW
                           (   1   4  43  14   2   0   0)
     Any further DFT definition will be discarded
     Please, verify this is what you really want

     R & G space division:  proc/nbgrp/npool/nimage =     256
     wavefunctions fft division:  task group distribution
                                  #TG    x Z-proc =       8     32
     Subspace diagonalization in iterative solution of the eigenvalue problem:
     a serial algorithm will be used

     Using Pencil Decomposition

     bravais-lattice index     =            1
     lattice parameter (alat)  =      33.7534  a.u.
     unit-cell volume          =   38454.8879 (a.u.)^3
     number of atoms/cell      =          999
     number of atomic types    =            1
     number of electrons       =      3995.00
     number of Kohn-Sham states=         2398
     kinetic-energy cutoff     =      70.0000  Ry
     charge density cutoff     =     350.0000  Ry
     scf convergence threshold =      1.0E-07
     mixing beta               =       0.7000
     number of iterations used =            8  plain     mixing
     energy convergence thresh.=      1.0E-04
     force convergence thresh. =      1.0E-03
     Exchange-correlation= BEEF-VDW
                           (   1   4  43  14   2   0   0)
     nstep                     =           50

     celldm(1)=  33.753373  celldm(2)=   0.000000  celldm(3)=   0.000000
     celldm(4)=   0.000000  celldm(5)=   0.000000  celldm(6)=   0.000000

     crystal axes: (cart. coord. in units of alat)
               a(1) = (   1.000000   0.000000   0.000000 )
               a(2) = (   0.000000   1.000000   0.000000 )
               a(3) = (   0.000000   0.000000   1.000000 )

     reciprocal axes: (cart. coord. in units 2 pi/alat)
               b(1) = (  1.000000  0.000000  0.000000 )
               b(2) = (  0.000000  1.000000  0.000000 )
               b(3) = (  0.000000  0.000000  1.000000 )

     PseudoPot. # 1 for C  read from file:
     /trace/group/acmegroup/atimmins/packages/espresso/pseudo/psl_1.0.0/pslibrary.1.0.0/pbe/PSEUDOPOTENTIALS/C.pbe-n-kjpaw_psl.1.0.0.UPF
     MD5 check sum: 5459cf7f2c8c37df2f7cde8914797f4d
     Pseudo is Projector augmented-wave + core cor, Zval =  4.0
     Generated using 'atomic' code by A. Dal Corso  v.7.1
     Shape of augmentation charge: PSQ
     Using radial grid of 1073 points,  4 beta functions with:
                l(1) =   0
                l(2) =   0
                l(3) =   1
                l(4) =   1
     Q(r) pseudized with 0 coefficients

     atomic species   valence    mass     pseudopotential
        C              4.00    12.01100     C ( 1.00)

      2 Sym. Ops. (no inversion) found

                                    s                        frac. trans.

      isym =  1     identity

 cryst.   s( 1) = (     1          0          0      )
                  (     0          1          0      )
                  (     0          0          1      )

 cart.    s( 1) = (  1.0000000  0.0000000  0.0000000 )
                  (  0.0000000  1.0000000  0.0000000 )
                  (  0.0000000  0.0000000  1.0000000 )

      isym =  2     inv. 180 deg rotation - cart. axis [-1,0,1]

 cryst.   s( 2) = (     0          0          1      )
                  (     0          1          0      )
                  (     1          0          0      )

 cart.    s( 2) = (  0.0000000  0.0000000  1.0000000 )
                  (  0.0000000  1.0000000  0.0000000 )
                  (  1.0000000  0.0000000  0.0000000 )

     point group C_s (m)
     there are  2 classes
     the character table:

       E     s
A'     1.00  1.00
A''    1.00 -1.00

     the symmetry operations in each class and the name of the first element:

     E        1
          identity
     s        2
          inv. 180 deg rotation - cart. axis [-1,0,1]

   Cartesian axes

     site n.     atom                  positions (alat units)
         1           C   tau(   1) = (   0.0500012   0.1499988   0.2500012  )
         2           C   tau(   2) = (   0.0500012   0.1499988   0.4500012  )
         3           C   tau(   3) = (   0.0500012   0.1499988   0.6500012  )
         4           C   tau(   4) = (   0.0500012   0.1499988   0.8500012  )
         5           C   tau(   5) = (   0.0500012   0.3499988   0.0500012  )
         6           C   tau(   6) = (   0.0500012   0.3499988   0.2500012  )
         7           C   tau(   7) = (   0.0500012   0.3499988   0.4500012  )
         8           C   tau(   8) = (   0.0500012   0.3499988   0.6500012  )
         9           C   tau(   9) = (   0.0500012   0.3499988   0.8500012  )
        10           C   tau(  10) = (   0.0500012   0.5499988   0.0500012  )
        11           C   tau(  11) = (   0.0500012   0.5499988   0.2500012  )
        12           C   tau(  12) = (   0.0500012   0.5499988   0.4500012  )
        13           C   tau(  13) = (   0.0500012   0.5499988   0.6500012  )
        14           C   tau(  14) = (   0.0500012   0.5499988   0.8500012  )
        15           C   tau(  15) = (   0.0500012   0.7499988   0.0500012  )
        16           C   tau(  16) = (   0.0500012   0.7499988   0.2500012  )
        17           C   tau(  17) = (   0.0500012   0.7499988   0.4500012  )
        18           C   tau(  18) = (   0.0500012   0.7499988   0.6500012  )
        19           C   tau(  19) = (   0.0500012   0.7499988   0.8500012  )
        20           C   tau(  20) = (   0.0500012   0.9499988   0.0500012  )
        21           C   tau(  21) = (   0.0500012   0.9499988   0.2500012  )
        22           C   tau(  22) = (   0.0500012   0.9499988   0.4500012  )
        23           C   tau(  23) = (   0.0500012   0.9499988   0.6500012  )
        24           C   tau(  24) = (   0.0500012   0.9499988   0.8500012  )
        25           C   tau(  25) = (   0.2500012   0.1499988   0.0500012  )
        26           C   tau(  26) = (   0.2500012   0.1499988   0.2500012  )
        27           C   tau(  27) = (   0.2500012   0.1499988   0.4500012  )
        28           C   tau(  28) = (   0.2500012   0.1499988   0.6500012  )
        29           C   tau(  29) = (   0.2500012   0.1499988   0.8500012  )
        30           C   tau(  30) = (   0.2500012   0.3499988   0.0500012  )
        31           C   tau(  31) = (   0.2500012   0.3499988   0.2500012  )
        32           C   tau(  32) = (   0.2500012   0.3499988   0.4500012  )
        33           C   tau(  33) = (   0.2500012   0.3499988   0.6500012  )
        34           C   tau(  34) = (   0.2500012   0.3499988   0.8500012  )
        35           C   tau(  35) = (   0.2500012   0.5499988   0.0500012  )
        36           C   tau(  36) = (   0.2500012   0.5499988   0.2500012  )
        37           C   tau(  37) = (   0.2500012   0.5499988   0.4500012  )
        38           C   tau(  38) = (   0.2500012   0.5499988   0.6500012  )
        39           C   tau(  39) = (   0.2500012   0.5499988   0.8500012  )
        40           C   tau(  40) = (   0.2500012   0.7499988   0.0500012  )
        41           C   tau(  41) = (   0.2500012   0.7499988   0.2500012  )
        42           C   tau(  42) = (   0.2500012   0.7499988   0.4500012  )
        43           C   tau(  43) = (   0.2500012   0.7499988   0.6500012  )
        44           C   tau(  44) = (   0.2500012   0.7499988   0.8500012  )
        45           C   tau(  45) = (   0.2500012   0.9499988   0.0500012  )
        46           C   tau(  46) = (   0.2500012   0.9499988   0.2500012  )
        47           C   tau(  47) = (   0.2500012   0.9499988   0.4500012  )
        48           C   tau(  48) = (   0.2500012   0.9499988   0.6500012  )
        49           C   tau(  49) = (   0.2500012   0.9499988   0.8500012  )
        50           C   tau(  50) = (   0.4500012   0.1499988   0.0500012  )
        51           C   tau(  51) = (   0.4500012   0.1499988   0.2500012  )
        52           C   tau(  52) = (   0.4500012   0.1499988   0.4500012  )
        53           C   tau(  53) = (   0.4500012   0.1499988   0.6500012  )
        54           C   tau(  54) = (   0.4500012   0.1499988   0.8500012  )
        55           C   tau(  55) = (   0.4500012   0.3499988   0.0500012  )
        56           C   tau(  56) = (   0.4500012   0.3499988   0.2500012  )
        57           C   tau(  57) = (   0.4500012   0.3499988   0.4500012  )
        58           C   tau(  58) = (   0.4500012   0.3499988   0.6500012  )
        59           C   tau(  59) = (   0.4500012   0.3499988   0.8500012  )
        60           C   tau(  60) = (   0.4500012   0.5499988   0.0500012  )
[...]
       985           C   tau( 985) = (   0.9000000   0.5000000   0.1000000  )
       986           C   tau( 986) = (   0.9000000   0.5000000   0.3000000  )
       987           C   tau( 987) = (   0.9000000   0.5000000   0.5000000  )
       988           C   tau( 988) = (   0.9000000   0.5000000   0.7000000  )
       989           C   tau( 989) = (   0.9000000   0.5000000   0.9000000  )
       990           C   tau( 990) = (   0.9000000   0.7000000   0.1000000  )
       991           C   tau( 991) = (   0.9000000   0.7000000   0.3000000  )
       992           C   tau( 992) = (   0.9000000   0.7000000   0.5000000  )
       993           C   tau( 993) = (   0.9000000   0.7000000   0.7000000  )
       994           C   tau( 994) = (   0.9000000   0.7000000   0.9000000  )
       995           C   tau( 995) = (   0.9000000   0.9000000   0.1000000  )
       996           C   tau( 996) = (   0.9000000   0.9000000   0.3000000  )
       997           C   tau( 997) = (   0.9000000   0.9000000   0.5000000  )
       998           C   tau( 998) = (   0.9000000   0.9000000   0.7000000  )
       999           C   tau( 999) = (   0.9000000   0.9000000   0.9000000  )

   Crystallographic axes

     site n.     atom                  positions (cryst. coord.)
         1           C   tau(   1) = (  0.0500012  0.1499988  0.2500012  )
         2           C   tau(   2) = (  0.0500012  0.1499988  0.4500012  )
         3           C   tau(   3) = (  0.0500012  0.1499988  0.6500012  )
         4           C   tau(   4) = (  0.0500012  0.1499988  0.8500012  )
         5           C   tau(   5) = (  0.0500012  0.3499988  0.0500012  )
         6           C   tau(   6) = (  0.0500012  0.3499988  0.2500012  )
         7           C   tau(   7) = (  0.0500012  0.3499988  0.4500012  )
         8           C   tau(   8) = (  0.0500012  0.3499988  0.6500012  )
         9           C   tau(   9) = (  0.0500012  0.3499988  0.8500012  )
        10           C   tau(  10) = (  0.0500012  0.5499988  0.0500012  )
[...]
     atom   45 type  1   force =     0.00000000    0.00000000    0.00000000
     atom   46 type  1   force =     0.00000000    0.00000000    0.00000000
     atom   47 type  1   force =     0.00000000    0.00000000    0.00000000
     atom   48 type  1   force =     0.00000000    0.00000000    0.00000000
     atom   49 type  1   force =     0.00000000    0.00000000    0.00000000
     atom   50 type  1   force =     0.00000000    0.00000000    0.00000000
     atom   51 type  1   force =     0.00000000    0.00000000    0.00000000
     atom   52 type  1   force =     0.00000000    0.00000000    0.00000000
     atom   53 type  1   force =     0.00000000    0.00000000    0.00000000
     atom   54 type  1   force =     0.00000000    0.00000000    0.00000000
     atom   55 type  1   force =     0.00000000    0.00000000    0.00000000
     atom   56 type  1   force =     0.00000000    0.00000000    0.00000000
     atom   57 type  1   force =     0.00000000    0.00000000    0.00000000
     atom   58 type  1   force =     0.00000000    0.00000000    0.00000000
     atom   59 type  1   force =     0.00000000    0.00000000    0.00000000
     atom   60 type  1   force =     0.00000000    0.00000000    0.00000000
[...]
     atom  985 type  1   force =     0.00000000    0.00000000    0.00000000
     atom  986 type  1   force =     0.00000000    0.00000000    0.00000000
     atom  987 type  1   force =     0.00000000    0.00000000    0.00000000
     atom  988 type  1   force =     0.00000000    0.00000000    0.00000000
     atom  989 type  1   force =     0.00000000    0.00000000    0.00000000
     atom  990 type  1   force =     0.00000000    0.00000000    0.00000000
     atom  991 type  1   force =     0.00000000    0.00000000    0.00000000
     atom  992 type  1   force =     0.00000000    0.00000000    0.00000000
     atom  993 type  1   force =     0.00000000    0.00000000    0.00000000
     atom  994 type  1   force =     0.00000000    0.00000000    0.00000000
     atom  995 type  1   force =     0.00000000    0.00000000    0.00000000
     atom  996 type  1   force =     0.00000000    0.00000000    0.00000000
     atom  997 type  1   force =     0.00000000    0.00000000    0.00000000
     atom  998 type  1   force =     0.00000000    0.00000000    0.00000000
     atom  999 type  1   force =     0.00000000    0.00000000    0.00000000
     The SCF correction term to forces
     atom    1 type  1   force =    -0.00002335    0.00000296   -0.00001318
     atom    2 type  1   force =    -0.00001593    0.00000150    0.00003344
     atom    3 type  1   force =    -0.00002065   -0.00000096    0.00000465
     atom    4 type  1   force =    -0.00002019    0.00000411   -0.00000056
     atom    5 type  1   force =    -0.00002165   -0.00001173   -0.00002165
     atom    6 type  1   force =    -0.00000848   -0.00000064   -0.00001271
     atom    7 type  1   force =    -0.00001540   -0.00001390    0.00002346
     atom    8 type  1   force =    -0.00001234   -0.00002160    0.00000545
     atom    9 type  1   force =    -0.00002694   -0.00001017    0.00000448
     atom   10 type  1   force =    -0.00001666    0.00001978   -0.00001666
     atom   11 type  1   force =    -0.00001670    0.00001346   -0.00002263
     atom   12 type  1   force =    -0.00001217   -0.00000868   -0.00000060
     atom   13 type  1   force =    -0.00001353   -0.00000891    0.00001988
     atom   14 type  1   force =    -0.00001247    0.00001101    0.00001987
     atom   15 type  1   force =    -0.00001927   -0.00000939   -0.00001927
     atom   16 type  1   force =    -0.00001431   -0.00000894   -0.00002986
     atom   17 type  1   force =    -0.00001688    0.00000691   -0.00000017
     atom   18 type  1   force =    -0.00001697    0.00001442    0.00002691
     atom   19 type  1   force =    -0.00002324    0.00000101    0.00002222
     atom   20 type  1   force =    -0.00002069   -0.00001652   -0.00002069
     atom   21 type  1   force =    -0.00002703   -0.00000716   -0.00001348
     atom   22 type  1   force =    -0.00001606    0.00001358    0.00002323
     atom   23 type  1   force =    -0.00002473    0.00001655    0.00001313
     atom   24 type  1   force =    -0.00001897   -0.00000511   -0.00000173
     atom   25 type  1   force =    -0.00001318    0.00000296   -0.00002335
     atom   26 type  1   force =    -0.00000626    0.00001306   -0.00000626
     atom   27 type  1   force =    -0.00002409    0.00000404    0.00002428
     atom   28 type  1   force =    -0.00002886    0.00000566    0.00000361
     atom   29 type  1   force =    -0.00001976   -0.00000837    0.00000275
     atom   30 type  1   force =    -0.00001271   -0.00000064   -0.00000848
     atom   31 type  1   force =    -0.00000465    0.00000560   -0.00000465
     atom   32 type  1   force =     0.00000305    0.00001281    0.00003019
     atom   33 type  1   force =    -0.00000330    0.00000549    0.00000813
     atom   34 type  1   force =     0.00001444    0.00002676   -0.00002797
     atom   35 type  1   force =    -0.00002263    0.00001346   -0.00001670
     atom   36 type  1   force =     0.00000334    0.00001844    0.00000334
     atom   37 type  1   force =     0.00003463    0.00000059    0.00001215
     atom   38 type  1   force =     0.00003089    0.00000213    0.00000553
     atom   39 type  1   force =    -0.00000249    0.00000320   -0.00000382
     atom   40 type  1   force =    -0.00002986   -0.00000894   -0.00001431
     atom   41 type  1   force =    -0.00000828   -0.00000841   -0.00000828
     atom   42 type  1   force =     0.00002599   -0.00001225    0.00001433
     atom   43 type  1   force =     0.00002958   -0.00000560    0.00001134
     atom   44 type  1   force =    -0.00000502   -0.00001653   -0.00000487
     atom   45 type  1   force =    -0.00001348   -0.00000716   -0.00002703
     atom   46 type  1   force =     0.00001180   -0.00002995    0.00001180
     atom   47 type  1   force =    -0.00000846   -0.00000431    0.00001570
     atom   48 type  1   force =    -0.00000668   -0.00000902   -0.00000025
     atom   49 type  1   force =    -0.00001792   -0.00000225    0.00000270
     atom   50 type  1   force =     0.00003344    0.00000150   -0.00001593
     atom   51 type  1   force =     0.00002428    0.00000404   -0.00002409
     atom   52 type  1   force =     0.00000027    0.00000888    0.00000027
     atom   53 type  1   force =    -0.00000134    0.00000441    0.00002193
     atom   54 type  1   force =     0.00002385    0.00000341    0.00001806
     atom   55 type  1   force =     0.00002346   -0.00001390   -0.00001540
     atom   56 type  1   force =     0.00003019    0.00001281    0.00000305
     atom   57 type  1   force =     0.00001213    0.00004559    0.00001213
     atom   58 type  1   force =     0.00001132    0.00004039    0.00000544
     atom   59 type  1   force =     0.00001233    0.00000640   -0.00000440
     atom   60 type  1   force =    -0.00000060   -0.00000868   -0.00001217
[...]
     atom  985 type  1   force =     0.00000624    0.00001617   -0.00001664
     atom  986 type  1   force =    -0.00001663    0.00000489   -0.00000323
     atom  987 type  1   force =    -0.00003473   -0.00000257    0.00001185
     atom  988 type  1   force =    -0.00003132    0.00000487    0.00000492
     atom  989 type  1   force =     0.00000344    0.00001635    0.00000344
     atom  990 type  1   force =     0.00001675    0.00000378   -0.00002274
     atom  991 type  1   force =    -0.00001786   -0.00000371   -0.00000855
     atom  992 type  1   force =    -0.00004706    0.00000332    0.00000884
     atom  993 type  1   force =    -0.00003445    0.00000698    0.00001903
     atom  994 type  1   force =     0.00000270    0.00001126    0.00000270
     atom  995 type  1   force =    -0.00000356   -0.00000956   -0.00003110
     atom  996 type  1   force =    -0.00000336   -0.00001186   -0.00000141
     atom  997 type  1   force =    -0.00001766    0.00000191    0.00002310
     atom  998 type  1   force =    -0.00001364    0.00000568    0.00002070
     atom  999 type  1   force =    -0.00002114   -0.00003488   -0.00002114

     Total force =     0.005626     Total SCF correction =     0.000952
     SCF correction compared to forces is large: reduce conv_thr to get better values

     Computing stress (Cartesian axis) and pressure

     Non-local corr. energy    =      34.15951440 Ry

          total   stress  (Ry/bohr**3)                   (kbar)     P=       -4.80
  -0.00003254   0.00000003  -0.00000003           -4.79        0.00       -0.00
   0.00000003  -0.00003280   0.00000003            0.00       -4.82        0.00
  -0.00000003   0.00000003  -0.00003254           -0.00        0.00       -4.79

     kinetic stress (kbar)  18970.75      0.01     -0.00
                                0.01  18970.72      0.01
                               -0.00      0.01  18970.75

     local   stress (kbar)  -3509.82     -0.01     -0.03
                               -0.01  -3509.90     -0.01
                               -0.03     -0.01  -3509.82

     nonloc. stress (kbar)   4319.95     -0.00     -0.00
                               -0.00   4319.95     -0.00
                               -0.00     -0.00   4319.95

     hartree stress (kbar)   1277.25      0.00      0.02
                                0.00   1277.30      0.00
                                0.02      0.00   1277.25

     exc-cor stress (kbar)   -412.27     -0.00     -0.00
                               -0.00   -412.27     -0.00
                               -0.00     -0.00   -412.27

     corecor stress (kbar)  -4430.47     -0.00      0.00
                               -0.00  -4430.48     -0.00
                                0.00     -0.00  -4430.47

     ewald   stress (kbar) -16244.98      0.01      0.01
                                0.01 -16244.94      0.01
                                0.01      0.01 -16244.98

     hubbard stress (kbar)      0.00      0.00      0.00
                                0.00      0.00      0.00
                                0.00      0.00      0.00

     DFT-D   stress (kbar)      0.00      0.00      0.00
                                0.00      0.00      0.00
                                0.00      0.00      0.00

     XDM     stress (kbar)      0.00      0.00      0.00
                                0.00      0.00      0.00
                                0.00      0.00      0.00

     dft-nl  stress (kbar)     24.80     -0.00      0.00
                               -0.00     24.80     -0.00
                                0.00     -0.00     24.80

     TS-vdW  stress (kbar)      0.00      0.00      0.00
                                0.00      0.00      0.00
                                0.00      0.00      0.00

     MDB     stress (kbar)      0.00      0.00      0.00
                                0.00      0.00      0.00
                                0.00      0.00      0.00

     3D-RISM stress (kbar)      0.00      0.00      0.00
                                0.00      0.00      0.00
                                0.00      0.00      0.00

     Energy error            =      6.9E-05 Ry
     Gradient error          =      8.9E-04 Ry/Bohr

     bfgs converged in   4 scf cycles and   3 bfgs steps
     (criteria: energy <  1.0E-04 Ry, force <  1.0E-03 Ry/Bohr)

     End of BFGS Geometry Optimization

     Final energy             =  -18974.3702799936 Ry

     File ./diamond.bfgs deleted, as requested
Begin final coordinates

ATOMIC_POSITIONS (angstrom)
C             0.8928041385        2.6793790351        4.4642202087
C             0.8927785844        2.6793769013        8.0378306043
C             0.8929259771        2.6793906647       11.6102439579
C             0.8930783855        2.6792642948       15.1834141866
C             0.8929760920        6.2496125277        0.8929760920
C             0.8942341553        6.2521080831        4.4662033064
C             0.8929111940        6.2512180356        8.0378954957
C             0.8927917927        6.2512839796       11.6101870895
C             0.8913547173        6.2519914369       15.1815050835
C             0.8927076288        9.8233461778        0.8927076288
C             0.8928009407        9.8234080527        4.4651374615
C             0.8928228325        9.8236033345        8.0380823696
C             0.8926685021        9.8236537451       11.6101371910
C             0.8926489810        9.8234970182       15.1822353842
C             0.8926793376       13.3961811021        0.8926793376
C             0.8925740986       13.3962118057        4.4652589775
C             0.8925652159       13.3961790196        8.0381304089
C             0.8927553378       13.3961198498       11.6100987982
C             0.8927832627       13.3961745738       15.1821519630
C             0.8928964054       16.9705131700        0.8928964054
C             0.8910843232       16.9679430519        4.4664058312
C             0.8925747691       16.9688924457        8.0379757920
C             0.8929106219       16.9688269740       11.6101339785
C             0.8943379457       16.9679154154       15.1813032265
C             4.4642202087        2.6793790351        0.8928041385
C             4.4664011957        2.6809470443        4.4664011957
C             4.4652206657        2.6795815946        8.0380343856
C             4.4652510242        2.6793330567       11.6102142148
C             4.4663304479        2.6779447483       15.1812111383
C             4.4662033064        6.2521080831        0.8942341553
C             4.4644622125        6.2504946432        4.4644622125
C             4.4654002822        6.2513275555        8.0379315204
C             4.4653913457        6.2513378508       11.6099944862
C             4.4653219849        6.2512869462       15.1820823801
C             4.4651374615        9.8234080527        0.8928009407
C             4.4653417105        9.8233467582        4.4653417105
C             4.4654921679        9.8233999592        8.0379799474
C             4.4653536041        9.8234277286       11.6101983164
C             4.4653146798        9.8236339344       15.1820501680
C             4.4652589775       13.3962118057        0.8925740986
C             4.4653675318       13.3959626628        4.4653675318
C             4.4652993482       13.3961755568        8.0379974503
C             4.4653757047       13.3962237564       11.6102365966
C             4.4653478348       13.3962993168       15.1820726816
C             4.4664058312       16.9679430519        0.8910843232
C             4.4653541457       16.9688170955        4.4653541457
C             4.4652575697       16.9688263130        8.0382447345
C             4.4652922163       16.9688732849       11.6103235544
C             4.4645272150       16.9697379192       15.1828874496
C             8.0378306043        2.6793769013        0.8927785844
C             8.0380343856        2.6795815946        4.4652206657
C             8.0380293072        2.6795922172        8.0380293072
C             8.0378854807        2.6793159831       11.6100534121
C             8.0377532896        2.6792657819       15.1822070057
C             8.0378954957        6.2512180356        0.8929111940
C             8.0379315204        6.2513275555        4.4654002822
C             8.0378776691        6.2514296345        8.0378776691
C             8.0377786416        6.2513423050       11.6101334710
C             8.0379941982        6.2513875756       15.1820814240
C             8.0380823696        9.8236033345        0.8928228325
[...]
C            16.0756314582        8.9308795245        1.7859314278
C            16.0752462566        8.9312962621        5.3584004935
C            16.0754762817        8.9308186270        8.9308630200
C            16.0755990417        8.9306087253       12.5036611658
C            16.0757494241        8.9304789011       16.0757494241
C            16.0756126531       12.5032688202        1.7859407651
C            16.0756040183       12.5034642517        5.3580684388
C            16.0755426579       12.5035317073        8.9307378534
C            16.0754052706       12.5032345593       12.5032794636
C            16.0755124953       12.5031110734       16.0755124953
C            16.0765250815       16.0761928030        1.7856051868
C            16.0757541715       16.0761958267        5.3576357019
C            16.0755766926       16.0756874814        8.9306504648
C            16.0751781425       16.0751526728       12.5025885970
C            16.0737581968       16.0728494689       16.0737581968
End final coordinates

     Writing all to output data dir ./diamond.save/

     General routines

     Parallel routines

     PAW routines

   This run was terminated on:   1:36:35  26Feb2024

   JOB DONE.