     Program PWSCF v.7.1 starts on 27Mar2024 at 21:51:36

     Reading input from espresso.pwi
Warning: card &CELL ignored
Warning: card    CELL_DYNAMICS    = 'BFGS' ignored
Warning: card / ignored

     Current dimensions of program PWSCF are:
     Max number of different atomic species (ntypx) = 10
     Max number of k-points (npk) =  40000
     Max angular momentum in pseudopotentials (lmaxx) =  4
     file Pb.pbe-dn-kjpaw_psl.1.0.0.UPF: wavefunction(s)  6S 6P 5D renormalized
     file I.pbe-dn-kjpaw_psl.1.0.0.UPF: wavefunction(s)  5S 5P renormalized

     IMPORTANT: XC functional enforced from input :
     Exchange-correlation= BEEF-VDW
                           (   1   4  43  14   2   0   0)
     Any further DFT definition will be discarded
     Please, verify this is what you really want

     R & G space division:  proc/nbgrp/npool/nimage =      20
     Subspace diagonalization in iterative solution of the eigenvalue problem:
     a serial algorithm will be used

     Using Slab Decomposition

     bravais-lattice index     =            4
     lattice parameter (alat)  =      17.8060  a.u.
     unit-cell volume          =    7656.2263 (a.u.)^3
     number of atoms/cell      =           23
     number of atomic types    =            2
     number of electrons       =       367.00
     number of Kohn-Sham states=          221
     kinetic-energy cutoff     =      70.0000  Ry
     charge density cutoff     =     350.0000  Ry
     scf convergence threshold =      1.0E-07
     mixing beta               =       0.7000
     number of iterations used =            8  plain     mixing
     energy convergence thresh.=      1.0E-04
     force convergence thresh. =      1.0E-03
     Exchange-correlation= BEEF-VDW
                           (   1   4  43  14   2   0   0)
     nstep                     =           50

     celldm(1)=  17.806016  celldm(2)=   0.000000  celldm(3)=   1.565971
     celldm(4)=   0.000000  celldm(5)=   0.000000  celldm(6)=   0.000000

     crystal axes: (cart. coord. in units of alat)
               a(1) = (   1.000000   0.000000   0.000000 )
               a(2) = (  -0.500000   0.866025   0.000000 )
               a(3) = (   0.000000   0.000000   1.565971 )

     reciprocal axes: (cart. coord. in units 2 pi/alat)
               b(1) = (  1.000000  0.577350 -0.000000 )
               b(2) = (  0.000000  1.154701  0.000000 )
               b(3) = (  0.000000 -0.000000  0.638581 )

     PseudoPot. # 1 for Pb read from file:
     /trace/group/acmegroup/atimmins/packages/espresso/pseudo/psl_1.0.0/pslibrary.1.0.0/pbe/PSEUDOPOTENTIALS/Pb.pbe-dn-kjpaw_psl.1.0.0.UPF
     MD5 check sum: 39ab5b8a6bbd56b7735ad9f188aac93a
     Pseudo is Projector augmented-wave + core cor, Zval = 14.0
     Generated using 'atomic' code by A. Dal Corso  v.7.1
     Shape of augmentation charge: PSQ
     Using radial grid of 1281 points,  6 beta functions with:
                l(1) =   0
                l(2) =   0
                l(3) =   1
                l(4) =   1
                l(5) =   2
                l(6) =   2
     Q(r) pseudized with 0 coefficients

     PseudoPot. # 2 for I  read from file:
     /trace/group/acmegroup/atimmins/packages/espresso/pseudo/psl_1.0.0/pslibrary.1.0.0/pbe/PSEUDOPOTENTIALS/I.pbe-dn-kjpaw_psl.1.0.0.UPF
     MD5 check sum: bfa8781bc1224d19af3f3980e3fab11e
     Pseudo is Projector augmented-wave + core cor, Zval = 17.0
     Generated using 'atomic' code by A. Dal Corso  v.7.1
     Shape of augmentation charge: PSQ
     Using radial grid of 1247 points,  6 beta functions with:
                l(1) =   0
                l(2) =   0
                l(3) =   1
                l(4) =   1
                l(5) =   2
                l(6) =   2
     Q(r) pseudized with 0 coefficients

     atomic species   valence    mass     pseudopotential
        Pb            14.00   207.20000     Pb( 1.00)
        I             17.00   126.90447     I ( 1.00)

     No symmetry found

                                    s                        frac. trans.

      isym =  1     identity

 cryst.   s( 1) = (     1          0          0      )
                  (     0          1          0      )
                  (     0          0          1      )

 cart.    s( 1) = (  1.0000000  0.0000000  0.0000000 )
                  (  0.0000000  1.0000000  0.0000000 )
                  (  0.0000000  0.0000000  1.0000000 )

     point group C_1 (1)
     there are  1 classes
     the character table:

       E
A      1.00

     the symmetry operations in each class and the name of the first element:

     E        1
          identity

   Cartesian axes

     site n.     atom                  positions (alat units)
         1           Pb  tau(   1) = (   0.2500170   0.4329745   1.5659650  )
         2           Pb  tau(   2) = (   0.2500068   0.4329836   0.7829793  )
         3           Pb  tau(   3) = (   0.0000153   0.8659852   1.5659567  )
         4           Pb  tau(   4) = (   0.0000051   0.8659943   0.7829710  )
         5           Pb  tau(   5) = (   0.7500170   0.4329726   1.5659715  )
         6           Pb  tau(   6) = (   0.7500068   0.4329816   0.7829858  )
         7           Pb  tau(   7) = (   0.5000153   0.8659833   1.5659633  )
         8           Pb  tau(   8) = (   0.5000051   0.8659923   0.7829776  )
         9           I   tau(   9) = (   0.2500209   0.1443009   1.3648506  )
        10           I   tau(  10) = (   0.0000091   0.5773207   0.5818567  )
        11           I   tau(  11) = (   0.0000193   0.5773116   1.3648424  )
        12           I   tau(  12) = (   0.7500107   0.1443080   0.5818714  )
        13           I   tau(  13) = (   0.7500209   0.1442990   1.3648571  )
        14           I   tau(  14) = (   0.5000091   0.5773187   0.5818632  )
        15           I   tau(  15) = (   0.5000193   0.5773097   1.3648489  )
        16           I   tau(  16) = (  -0.0000034   0.2886595   0.2011110  )
        17           I   tau(  17) = (   0.0000068   0.2886504   0.9840967  )
        18           I   tau(  18) = (  -0.2500051   0.7216702   0.2011027  )
        19           I   tau(  19) = (  -0.2499949   0.7216611   0.9840884  )
        20           I   tau(  20) = (   0.4999966   0.2886575   0.2011175  )
        21           I   tau(  21) = (   0.5000068   0.2886485   0.9841032  )
        22           I   tau(  22) = (   0.2499949   0.7216682   0.2011092  )
        23           I   tau(  23) = (   0.2500051   0.7216592   0.9840949  )

   Crystallographic axes

     site n.     atom                  positions (cryst. coord.)
         1           Pb  tau(   1) = (  0.4999949  0.4999559  0.9999959  )
         2           Pb  tau(   2) = (  0.4999900  0.4999663  0.4999959  )
         3           Pb  tau(   3) = (  0.4999921  0.9999536  0.9999906  )
         4           Pb  tau(   4) = (  0.4999871  0.9999640  0.4999906  )
         5           Pb  tau(   5) = (  0.9999938  0.4999537  1.0000001  )
         6           Pb  tau(   6) = (  0.9999888  0.4999641  0.5000001  )
         7           Pb  tau(   7) = (  0.9999910  0.9999514  0.9999948  )
         8           Pb  tau(   8) = (  0.9999860  0.9999618  0.4999948  )
         9           I   tau(   9) = (  0.3333331  0.1666243  0.8715680  )
        10           I   tau(  10) = (  0.3333253  0.6666325  0.3715628  )
        11           I   tau(  11) = (  0.3333303  0.6666220  0.8715628  )
        12           I   tau(  12) = (  0.8333270  0.1666326  0.3715722  )
        13           I   tau(  13) = (  0.8333320  0.1666221  0.8715722  )
        14           I   tau(  14) = (  0.8333242  0.6666303  0.3715669  )
        15           I   tau(  15) = (  0.8333292  0.6666198  0.8715669  )
        16           I   tau(  16) = (  0.1666542  0.3333152  0.1284257  )
        17           I   tau(  17) = (  0.1666592  0.3333048  0.6284257  )
        18           I   tau(  18) = (  0.1666514  0.8333129  0.1284204  )
        19           I   tau(  19) = (  0.1666564  0.8333025  0.6284204  )
        20           I   tau(  20) = (  0.6666531  0.3333130  0.1284299  )
        21           I   tau(  21) = (  0.6666581  0.3333026  0.6284299  )
        22           I   tau(  22) = (  0.6666503  0.8333107  0.1284246  )
        23           I   tau(  23) = (  0.6666553  0.8333003  0.6284246  )

     number of k points=     4  Gaussian smearing, width (Ry)=  0.0100
                       cart. coord. in units 2pi/alat
        k(    1) = (   0.0000000   0.0000000   0.0000000), wk =   0.5000000
        k(    2) = (   0.0000000  -0.5773503   0.0000000), wk =   0.5000000
        k(    3) = (   0.5000000  -0.2886751   0.0000000), wk =   0.5000000
        k(    4) = (  -0.5000000  -0.2886751   0.0000000), wk =   0.5000000

                       cryst. coord.
        k(    1) = (   0.0000000   0.0000000   0.0000000), wk =   0.5000000
        k(    2) = (   0.0000000  -0.5000000   0.0000000), wk =   0.5000000
        k(    3) = (   0.5000000  -0.5000000   0.0000000), wk =   0.5000000
        k(    4) = (  -0.5000000  -0.0000000   0.0000000), wk =   0.5000000

     Check: negative core charge=   -0.000001

     Initial potential from superposition of free atoms

     starting charge     366.9801, renormalised to     367.0000

     %%%%%%%%%%%%%%%%%%%%%%%%%%%%%%%%%%%%%%%%%%%%%%%%%%%%%%%%%%%%%%%%%%%%%%%%
     %                                                                      %
     % You are using vdW-DF, which was implemented by the Thonhauser group. %
     % Please cite the following two papers that made this development      %
     % possible and the two reviews that describe the various versions:     %
     %                                                                      %
     %   T. Thonhauser et al., PRL 115, 136402 (2015).                      %
     %   T. Thonhauser et al., PRB 76, 125112 (2007).                       %
     %   K. Berland et al., Rep. Prog. Phys. 78, 066501 (2015).             %
     %   D.C. Langreth et al., J. Phys.: Condens. Matter 21, 084203 (2009). %
     %                                                                      %
     % If you are calculating stress with vdW-DF, please also cite:         %
     %                                                                      %
     %   R. Sabatini et al., J. Phys.: Condens. Matter 24, 424209 (2012).   %
     %                                                                      %
     %%%%%%%%%%%%%%%%%%%%%%%%%%%%%%%%%%%%%%%%%%%%%%%%%%%%%%%%%%%%%%%%%%%%%%%%

     %%%%%%%%%%%%%%%%%%%%%%%%%%%%%%%%%%%%%%%%%%%%%%%%%%%%%%%%%%%%%%%%%%%%%%%%
     %                                                                      %
     %  vdW-DF NEWS:                                                        %
     %                                                                      %
     %  * vdW-DF3 is now available. DOI: 10.1021/acs.jctc.0c00471           %
     %    use with input_dft = 'vdW-DF3-opt1' or 'vdW-DF3-opt2'             %
     %                                                                      %
     %  * Unscreened and range-separated vdW-DF hybrid functionals          %
     %    DOI: 10.1063/1.4986522 and 10.1088/1361-648X/ac2ad2               %
[...]
     atom   11 type  2   force =     0.00012890    0.00007574    0.00016611
     atom   12 type  2   force =     0.00000306    0.00045010   -0.00001986
     atom   13 type  2   force =    -0.00000091   -0.00014992    0.00017052
     atom   14 type  2   force =     0.00038727   -0.00022092   -0.00002531
     atom   15 type  2   force =    -0.00012847    0.00007398    0.00016724
     atom   16 type  2   force =     0.00002054   -0.00001186   -0.00016799
     atom   17 type  2   force =     0.00024908   -0.00014438   -0.00050107
     atom   18 type  2   force =    -0.00000152    0.00002732   -0.00016776
     atom   19 type  2   force =     0.00000276    0.00029285   -0.00050642
     atom   20 type  2   force =    -0.00002317   -0.00001240   -0.00016938
     atom   21 type  2   force =    -0.00025142   -0.00014980   -0.00050748
     atom   22 type  2   force =    -0.00000183    0.00000318   -0.00010331
     atom   23 type  2   force =     0.00000396   -0.00001282   -0.00020026
     The non-local contrib.  to forces
     atom    1 type  1   force =    -0.00000441   -0.00172440    0.00261874
     atom    2 type  1   force =     0.00001268    0.06032942    0.07001981
     atom    3 type  1   force =    -0.00144999    0.00081461    0.00263178
     atom    4 type  1   force =     0.05234310   -0.03024814    0.06996802
     atom    5 type  1   force =     0.00000537   -0.00000071   -0.01295363
     atom    6 type  1   force =    -0.00000997   -0.00000150   -0.05173416
     atom    7 type  1   force =     0.00145985    0.00082511    0.00259496
     atom    8 type  1   force =    -0.05230666   -0.03023577    0.07001477
     atom    9 type  2   force =    -0.00001343    0.00001422    0.25056940
     atom   10 type  2   force =    -0.02861592   -0.01648802    0.23256440
     atom   11 type  2   force =    -0.00093545   -0.00053301    0.24678313
     atom   12 type  2   force =    -0.00000267    0.03302525    0.23258143
     atom   13 type  2   force =     0.00000863    0.00108055    0.24678866
     atom   14 type  2   force =     0.02860822   -0.01648524    0.23257357
     atom   15 type  2   force =     0.00093342   -0.00052204    0.24678529
     atom   16 type  2   force =     0.00557712   -0.00320455   -0.24132895
     atom   17 type  2   force =     0.01749761   -0.01006781   -0.24012173
     atom   18 type  2   force =     0.00000950    0.00644113   -0.24133315
     atom   19 type  2   force =    -0.00000333    0.02019430   -0.24011951
     atom   20 type  2   force =    -0.00557834   -0.00321681   -0.24133361
     atom   21 type  2   force =    -0.01750263   -0.01006863   -0.24012842
     atom   22 type  2   force =    -0.00001511    0.00001716   -0.24686953
     atom   23 type  2   force =    -0.00000004    0.00001862   -0.14552748
     The ionic contribution  to forces
     atom    1 type  1   force =     0.00011695   -0.19531359    2.40073730
     atom    2 type  1   force =    -0.00096370   -6.47994578   -8.16869134
     atom    3 type  1   force =    -0.17014722    0.09873185    2.40066982
     atom    4 type  1   force =    -5.61503758    3.24174302   -8.16780347
     atom    5 type  1   force =    -0.00009906   -0.00020607    2.54971969
     atom    6 type  1   force =     0.00108352   -0.00002241   -2.17088657
     atom    7 type  1   force =     0.16989168    0.09845237    2.40106313
     atom    8 type  1   force =     5.61400773    3.24208980   -8.17013421
     atom    9 type  2   force =     0.00072261   -0.00083514  -14.19353477
     atom   10 type  2   force =     1.01098351    0.58234053  -14.30892273
     atom   11 type  2   force =     0.59278630    0.34236191  -14.77229945
     atom   12 type  2   force =     0.00058996   -1.16690071  -14.30837531
     atom   13 type  2   force =    -0.00043718   -0.68448086  -14.77112957
     atom   14 type  2   force =    -1.01135304    0.58312732  -14.30913275
     atom   15 type  2   force =    -0.59279412    0.34187781  -14.77129840
     atom   16 type  2   force =     2.04592037   -1.18156866   20.92418172
     atom   17 type  2   force =     0.55810873   -0.32191302    8.75222361
     atom   18 type  2   force =    -0.00035354    2.36289541   20.92356338
     atom   19 type  2   force =     0.00125618    0.64496747    8.75249165
     atom   20 type  2   force =    -2.04618417   -1.18137321   20.92310415
     atom   21 type  2   force =    -0.55810100   -0.32344491    8.75252914
     atom   22 type  2   force =     0.00034710   -0.00039256   18.73774559
     atom   23 type  2   force =    -0.00034403   -0.00219056   10.59417937
     The local contribution  to forces
     atom    1 type  1   force =    -0.00011234    0.19723552   -2.40264567
     atom    2 type  1   force =     0.00095066    6.42209040    8.10010065
     atom    3 type  1   force =     0.17176555   -0.09964158   -2.40259400
     atom    4 type  1   force =     5.56483186   -3.21273176    8.09927568
     atom    5 type  1   force =     0.00009350    0.00020740   -2.53609086
     atom    6 type  1   force =    -0.00107327    0.00003124    2.22212127
     atom    7 type  1   force =    -0.17152065   -0.09937345   -2.40294716
     atom    8 type  1   force =    -5.56383944   -3.21309004    8.10155720
     atom    9 type  2   force =    -0.00070655    0.00081701   13.94856479
     atom   10 type  2   force =    -0.98347763   -0.56648335   14.08133915
     atom   11 type  2   force =    -0.59183905   -0.34181972   14.53107400
     atom   12 type  2   force =    -0.00058958    1.13514888   14.08078092
     atom   13 type  2   force =     0.00042733    0.68338424   14.52990159
     atom   14 type  2   force =     0.98385376   -0.56727388   14.08153719
     atom   15 type  2   force =     0.59185013   -0.34134879   14.53007322
     atom   16 type  2   force =    -2.05125371    1.18463196  -20.68825171
     atom   17 type  2   force =    -0.57480210    0.33150923   -8.51784359
     atom   18 type  2   force =     0.00034389   -2.36904803  -20.68762748
     atom   19 type  2   force =    -0.00124537   -0.66421622   -8.51812694
     atom   20 type  2   force =     2.05151578    1.18444666  -20.68717015
     atom   21 type  2   force =     0.57479647    0.33303038   -8.51815170
     atom   22 type  2   force =    -0.00033490    0.00037904  -18.49608686
     atom   23 type  2   force =     0.00034197    0.00217197  -10.45189668
     The core correction contribution to forces
     atom    1 type  1   force =     0.00000002    0.00000117   -0.00010225
     atom    2 type  1   force =    -0.00000000   -0.00252429   -0.00150225
     atom    3 type  1   force =     0.00000056   -0.00000013   -0.00010220
     atom    4 type  1   force =    -0.00218682    0.00126317   -0.00150210
     atom    5 type  1   force =    -0.00000007   -0.00000003    0.00018450
     atom    6 type  1   force =     0.00000010   -0.00000066    0.00091625
     atom    7 type  1   force =    -0.00000067   -0.00000019   -0.00010197
     atom    8 type  1   force =     0.00218659    0.00126293   -0.00150295
     atom    9 type  2   force =    -0.00000056    0.00000228   -0.00538558
     atom   10 type  2   force =     0.00072010    0.00041736   -0.00489344
     atom   11 type  2   force =     0.00010525    0.00006359   -0.00524042
     atom   12 type  2   force =     0.00000002   -0.00082983   -0.00489278
     atom   13 type  2   force =    -0.00000100   -0.00012049   -0.00524066
     atom   14 type  2   force =    -0.00072104    0.00041817   -0.00489350
     atom   15 type  2   force =    -0.00010652    0.00006316   -0.00524081
     atom   16 type  2   force =    -0.00024340    0.00014175    0.00535583
     atom   17 type  2   force =    -0.00054521    0.00031596    0.00539752
     atom   18 type  2   force =    -0.00000086   -0.00028169    0.00535656
     atom   19 type  2   force =     0.00000012   -0.00062829    0.00539814
     atom   20 type  2   force =     0.00024313    0.00014258    0.00535602
     atom   21 type  2   force =     0.00054486    0.00031543    0.00539720
     atom   22 type  2   force =    -0.00000068    0.00000238    0.00524497
     atom   23 type  2   force =    -0.00000031   -0.00000018    0.00320499
     The Hubbard contrib.    to forces
     atom    1 type  1   force =     0.00000000    0.00000000    0.00000000
     atom    2 type  1   force =     0.00000000    0.00000000    0.00000000
     atom    3 type  1   force =     0.00000000    0.00000000    0.00000000
     atom    4 type  1   force =     0.00000000    0.00000000    0.00000000
     atom    5 type  1   force =     0.00000000    0.00000000    0.00000000
     atom    6 type  1   force =     0.00000000    0.00000000    0.00000000
     atom    7 type  1   force =     0.00000000    0.00000000    0.00000000
     atom    8 type  1   force =     0.00000000    0.00000000    0.00000000
     atom    9 type  2   force =     0.00000000    0.00000000    0.00000000
     atom   10 type  2   force =     0.00000000    0.00000000    0.00000000
     atom   11 type  2   force =     0.00000000    0.00000000    0.00000000
     atom   12 type  2   force =     0.00000000    0.00000000    0.00000000
     atom   13 type  2   force =     0.00000000    0.00000000    0.00000000
     atom   14 type  2   force =     0.00000000    0.00000000    0.00000000
     atom   15 type  2   force =     0.00000000    0.00000000    0.00000000
     atom   16 type  2   force =     0.00000000    0.00000000    0.00000000
     atom   17 type  2   force =     0.00000000    0.00000000    0.00000000
     atom   18 type  2   force =     0.00000000    0.00000000    0.00000000
     atom   19 type  2   force =     0.00000000    0.00000000    0.00000000
     atom   20 type  2   force =     0.00000000    0.00000000    0.00000000
     atom   21 type  2   force =     0.00000000    0.00000000    0.00000000
     atom   22 type  2   force =     0.00000000    0.00000000    0.00000000
     atom   23 type  2   force =     0.00000000    0.00000000    0.00000000
     The SCF correction term to forces
     atom    1 type  1   force =     0.00000028   -0.00000669    0.00000236
     atom    2 type  1   force =    -0.00000079   -0.00000317   -0.00000334
     atom    3 type  1   force =    -0.00000576    0.00000356    0.00000288
     atom    4 type  1   force =    -0.00000425    0.00000355   -0.00000587
     atom    5 type  1   force =    -0.00000020   -0.00000023    0.00000191
     atom    6 type  1   force =     0.00000044   -0.00000087    0.00001345
     atom    7 type  1   force =     0.00000577    0.00000326    0.00000274
     atom    8 type  1   force =     0.00000296    0.00000363   -0.00000485
     atom    9 type  2   force =    -0.00000094    0.00000176    0.00000027
     atom   10 type  2   force =     0.00000136   -0.00001143    0.00002429
     atom   11 type  2   force =     0.00001156    0.00000466   -0.00001426
     atom   12 type  2   force =     0.00000505    0.00000819    0.00002276
     atom   13 type  2   force =     0.00000103   -0.00001168   -0.00001262
     atom   14 type  2   force =    -0.00000091   -0.00000561    0.00002706
     atom   15 type  2   force =    -0.00001167    0.00000552   -0.00001518
     atom   16 type  2   force =     0.00001988   -0.00001068    0.00001201
     atom   17 type  2   force =    -0.00001024    0.00001295   -0.00001999
     atom   18 type  2   force =    -0.00000080    0.00002219    0.00000982
     atom   19 type  2   force =    -0.00000513   -0.00002273   -0.00001287
     atom   20 type  2   force =    -0.00001985   -0.00000994    0.00001109
     atom   21 type  2   force =     0.00001060    0.00001960   -0.00001681
     atom   22 type  2   force =     0.00000147   -0.00000115   -0.00000060
     atom   23 type  2   force =     0.00000608   -0.00001100   -0.00002358

     Total force =     0.001858     Total SCF correction =     0.000091

     Computing stress (Cartesian axis) and pressure

     Non-local corr. energy    =      10.94584167 Ry

          total   stress  (Ry/bohr**3)                   (kbar)     P=       -0.58
  -0.00000707   0.00000000  -0.00000000           -1.04        0.00       -0.00
   0.00000000  -0.00000707   0.00000000            0.00       -1.04        0.00
  -0.00000000   0.00000000   0.00000232           -0.00        0.00        0.34

     kinetic stress (kbar)  14461.88      0.00     -0.00
                                0.00  14461.89      0.00
                               -0.00      0.00  14477.23

     local   stress (kbar)  -8828.31      0.02     -0.01
                                0.02  -8828.32      0.02
                               -0.01      0.02   2054.44

     nonloc. stress (kbar)  -1174.27      0.00     -0.00
                                0.00  -1174.27      0.00
                               -0.00      0.00  -1176.49

     hartree stress (kbar)  12217.07     -0.01      0.01
                               -0.01  12217.09     -0.00
                                0.01     -0.00   7279.47

     exc-cor stress (kbar)   6609.09      0.00     -0.00
                                0.00   6609.09     -0.00
                               -0.00     -0.00   6607.59

     corecor stress (kbar) -10769.86      0.00      0.00
                                0.00 -10769.86     -0.00
                                0.00     -0.00 -10769.87

     ewald   stress (kbar) -12595.69     -0.01      0.00
                               -0.01 -12595.71     -0.02
                                0.00     -0.02 -18552.70

     hubbard stress (kbar)      0.00      0.00      0.00
                                0.00      0.00      0.00
                                0.00      0.00      0.00

     DFT-D   stress (kbar)      0.00      0.00      0.00
                                0.00      0.00      0.00
                                0.00      0.00      0.00

     XDM     stress (kbar)      0.00      0.00      0.00
                                0.00      0.00      0.00
                                0.00      0.00      0.00

     dft-nl  stress (kbar)     79.05     -0.00      0.00
                               -0.00     79.05      0.00
                                0.00      0.00     80.67

     TS-vdW  stress (kbar)      0.00      0.00      0.00
                                0.00      0.00      0.00
                                0.00      0.00      0.00

     MDB     stress (kbar)      0.00      0.00      0.00
                                0.00      0.00      0.00
                                0.00      0.00      0.00

     3D-RISM stress (kbar)      0.00      0.00      0.00
                                0.00      0.00      0.00
                                0.00      0.00      0.00

     Energy error            =      2.8E-05 Ry
     Gradient error          =      7.2E-04 Ry/Bohr

     bfgs converged in  19 scf cycles and  18 bfgs steps
     (criteria: energy <  1.0E-04 Ry, force <  1.0E-03 Ry/Bohr)

     End of BFGS Geometry Optimization

     Final energy             =  -15625.3141045087 Ry

     File ./PbI2.bfgs deleted, as requested
Begin final coordinates

ATOMIC_POSITIONS (angstrom)
Pb            2.3557368879        4.0728326184       14.7609914586
Pb            2.3557465521        3.9240560686        7.3763294370
Pb           -0.0058276210        8.1632243604       14.7610421408
Pb           -0.1347771429        8.2377667688        7.3761827600
Pb            7.0670153023        4.0797250241       14.7748770470
Pb            7.0669793963        4.0797204879        7.3174105736
Pb            4.7173284214        8.1632427123       14.7609483979
Pb            4.8461816579        8.2376876402        7.3760871057
I             2.3557200677        1.3597554767       12.8737504652
I            -0.0089118650        5.4347211513        5.5183294658
I            -0.0103479374        5.4337816088       12.8795825297
I             7.0668935941        1.3701554803        5.5181361213
I             7.0670036830        1.3717692223       12.8795474712
I             4.7203283599        5.4345887174        5.5182702594
I             4.7217984657        5.4337986477       12.8795622685
I             0.0188249048        2.7089493690        1.9129616826
I             0.0142921078        2.7115669679        9.2930197690
I            -2.3555235939        6.8213161223        1.9129514634
I            -2.3556628924        6.8161832231        9.2930234967
I             4.6926888126        2.7089638065        1.9129693630
I             4.6971603409        2.7117434665        9.2931406035
I             2.3557561947        6.7998126515        1.8794150183
I             2.3556564845        6.8001498525        9.0233590919
End final coordinates

     Writing all to output data dir ./PbI2.save/

     General routines

     Parallel routines

     PAW routines

   This run was terminated on:  23:45:32  27Mar2024

   JOB DONE.