     Program PWSCF v.7.1 starts on 14Feb2024 at  8:17:26

     Reading input from espresso.pwi
Warning: card &CELL ignored
Warning: card    CELL_DYNAMICS    = 'BFGS' ignored
Warning: card / ignored

     Current dimensions of program PWSCF are:
     Max number of different atomic species (ntypx) = 10
     Max number of k-points (npk) =  40000
     Max angular momentum in pseudopotentials (lmaxx) =  4
     file Pb.pbe-dn-kjpaw_psl.1.0.0.UPF: wavefunction(s)  6S 6P 5D renormalized
     file I.pbe-dn-kjpaw_psl.1.0.0.UPF: wavefunction(s)  5S 5P renormalized

     IMPORTANT: XC functional enforced from input :
     Exchange-correlation= BEEF-VDW
                           (   1   4  43  14   2   0   0)
     Any further DFT definition will be discarded
     Please, verify this is what you really want

     K-points division:     npool     =       2
     R & G space division:  proc/nbgrp/npool/nimage =      64
     Subspace diagonalization in iterative solution of the eigenvalue problem:
     a serial algorithm will be used

     Using Slab Decomposition

     bravais-lattice index     =            4
     lattice parameter (alat)  =      26.7090  a.u.
     unit-cell volume          =   17226.5091 (a.u.)^3
     number of atoms/cell      =           53
     number of atomic types    =            2
     number of electrons       =       850.00
     number of Kohn-Sham states=          510
     kinetic-energy cutoff     =      70.0000  Ry
     charge density cutoff     =     350.0000  Ry
     scf convergence threshold =      1.0E-07
     mixing beta               =       0.7000
     number of iterations used =            8  plain     mixing
     Exchange-correlation= BEEF-VDW
                           (   1   4  43  14   2   0   0)

     celldm(1)=  26.709025  celldm(2)=   0.000000  celldm(3)=   1.043981
     celldm(4)=   0.000000  celldm(5)=   0.000000  celldm(6)=   0.000000

     crystal axes: (cart. coord. in units of alat)
               a(1) = (   1.000000   0.000000   0.000000 )
               a(2) = (  -0.500000   0.866025   0.000000 )
               a(3) = (   0.000000   0.000000   1.043981 )

     reciprocal axes: (cart. coord. in units 2 pi/alat)
               b(1) = (  1.000000  0.577350 -0.000000 )
               b(2) = (  0.000000  1.154701  0.000000 )
               b(3) = (  0.000000 -0.000000  0.957872 )

     PseudoPot. # 1 for Pb read from file:
     /trace/group/acmegroup/atimmins/packages/espresso/pseudo/psl_1.0.0/pslibrary.1.0.0/pbe/PSEUDOPOTENTIALS/Pb.pbe-dn-kjpaw_psl.1.0.0.UPF
     MD5 check sum: 39ab5b8a6bbd56b7735ad9f188aac93a
     Pseudo is Projector augmented-wave + core cor, Zval = 14.0
     Generated using 'atomic' code by A. Dal Corso  v.7.1
     Shape of augmentation charge: PSQ
     Using radial grid of 1281 points,  6 beta functions with:
                l(1) =   0
                l(2) =   0
                l(3) =   1
                l(4) =   1
                l(5) =   2
                l(6) =   2
     Q(r) pseudized with 0 coefficients

     PseudoPot. # 2 for I  read from file:
     /trace/group/acmegroup/atimmins/packages/espresso/pseudo/psl_1.0.0/pslibrary.1.0.0/pbe/PSEUDOPOTENTIALS/I.pbe-dn-kjpaw_psl.1.0.0.UPF
     MD5 check sum: bfa8781bc1224d19af3f3980e3fab11e
     Pseudo is Projector augmented-wave + core cor, Zval = 17.0
     Generated using 'atomic' code by A. Dal Corso  v.7.1
     Shape of augmentation charge: PSQ
     Using radial grid of 1247 points,  6 beta functions with:
                l(1) =   0
                l(2) =   0
                l(3) =   1
                l(4) =   1
                l(5) =   2
                l(6) =   2
     Q(r) pseudized with 0 coefficients

     atomic species   valence    mass     pseudopotential
        Pb            14.00   207.20000     Pb( 1.00)
        I             17.00   126.90447     I ( 1.00)

     No symmetry found

                                    s                        frac. trans.

      isym =  1     identity

 cryst.   s( 1) = (     1          0          0      )
                  (     0          1          0      )
                  (     0          0          1      )

 cart.    s( 1) = (  1.0000000  0.0000000  0.0000000 )
                  (  0.0000000  1.0000000  0.0000000 )
                  (  0.0000000  0.0000000  1.0000000 )

     point group C_1 (1)
     there are  1 classes
     the character table:

       E
A      1.00

     the symmetry operations in each class and the name of the first element:

     E        1
          identity

   Cartesian axes

     site n.     atom                  positions (alat units)
         1           Pb  tau(   1) = (   0.1666712   0.2886557   0.5219862  )
         2           Pb  tau(   2) = (   0.0000102   0.5773235   1.0439712  )
         3           Pb  tau(   3) = (   0.0000034   0.5773295   0.5219807  )
         4           Pb  tau(   4) = (  -0.1666576   0.8659973   1.0439657  )
         5           Pb  tau(   5) = (  -0.1666644   0.8660033   0.5219752  )
         6           Pb  tau(   6) = (   0.5000113   0.2886484   1.0439810  )
         7           Pb  tau(   7) = (   0.5000045   0.2886544   0.5219905  )
         8           Pb  tau(   8) = (   0.3333436   0.5773222   1.0439755  )
         9           Pb  tau(   9) = (   0.3333367   0.5773282   0.5219850  )
        10           Pb  tau(  10) = (   0.1666758   0.8659960   1.0439700  )
        11           Pb  tau(  11) = (   0.1666690   0.8660020   0.5219795  )
        12           Pb  tau(  12) = (   0.8333447   0.2886471   1.0439853  )
        13           Pb  tau(  13) = (   0.8333379   0.2886531   0.5219949  )
        14           Pb  tau(  14) = (   0.6666769   0.5773209   1.0439798  )
        15           Pb  tau(  15) = (   0.6666701   0.5773269   0.5219894  )
        16           Pb  tau(  16) = (   0.5000091   0.8659947   1.0439743  )
        17           Pb  tau(  17) = (   0.5000023   0.8660007   0.5219839  )
        18           I   tau(  18) = (   0.1666738   0.0962066   0.3879099  )
        19           I   tau(  19) = (   0.1666806   0.0962006   0.9099004  )
        20           I   tau(  20) = (   0.0000060   0.3848804   0.3879044  )
        21           I   tau(  21) = (   0.0000129   0.3848744   0.9098949  )
        22           I   tau(  22) = (  -0.1666617   0.6735542   0.3878990  )
        23           I   tau(  23) = (  -0.1666549   0.6735482   0.9098894  )
        24           I   tau(  24) = (   0.5000071   0.0962053   0.3879143  )
        25           I   tau(  25) = (   0.5000140   0.0961993   0.9099047  )
        26           I   tau(  26) = (   0.3333394   0.3848792   0.3879088  )
        27           I   tau(  27) = (   0.3333462   0.3848731   0.9098993  )
        28           I   tau(  28) = (   0.1666716   0.6735530   0.3879033  )
        29           I   tau(  29) = (   0.1666784   0.6735469   0.9098938  )
        30           I   tau(  30) = (   0.8333405   0.0962041   0.3879186  )
        31           I   tau(  31) = (   0.8333473   0.0961980   0.9099091  )
        32           I   tau(  32) = (   0.6666727   0.3848779   0.3879131  )
        33           I   tau(  33) = (   0.6666795   0.3848718   0.9099036  )
        34           I   tau(  34) = (   0.5000049   0.6735517   0.3879076  )
        35           I   tau(  35) = (   0.5000117   0.6735457   0.9098981  )
        36           I   tau(  36) = (  -0.0000023   0.1924396   0.1340740  )
        37           I   tau(  37) = (   0.0000045   0.1924336   0.6560644  )
        38           I   tau(  38) = (  -0.1666701   0.4811134   0.1340685  )
        39           I   tau(  39) = (  -0.1666632   0.4811074   0.6560589  )
        40           I   tau(  40) = (  -0.3333378   0.7697873   0.1340630  )
        41           I   tau(  41) = (  -0.3333310   0.7697812   0.6560534  )
        42           I   tau(  42) = (   0.3333311   0.1924384   0.1340783  )
        43           I   tau(  43) = (   0.3333379   0.1924323   0.6560688  )
        44           I   tau(  44) = (   0.1666633   0.4811122   0.1340728  )
        45           I   tau(  45) = (   0.1666701   0.4811061   0.6560633  )
        46           I   tau(  46) = (  -0.0000045   0.7697860   0.1340673  )
        47           I   tau(  47) = (   0.0000023   0.7697799   0.6560578  )
        48           I   tau(  48) = (   0.6666644   0.1924371   0.1340827  )
        49           I   tau(  49) = (   0.6666712   0.1924310   0.6560731  )
        50           I   tau(  50) = (   0.4999966   0.4811109   0.1340772  )
        51           I   tau(  51) = (   0.5000034   0.4811049   0.6560676  )
        52           I   tau(  52) = (   0.3333288   0.7697847   0.1340717  )
        53           I   tau(  53) = (   0.3333356   0.7697787   0.6560621  )

   Crystallographic axes

     site n.     atom                  positions (cryst. coord.)
         1           Pb  tau(   1) = (  0.3333266  0.3333109  0.4999959  )
         2           Pb  tau(   2) = (  0.3333281  0.6666357  0.9999906  )
         3           Pb  tau(   3) = (  0.3333248  0.6666427  0.4999906  )
         4           Pb  tau(   4) = (  0.3333262  0.9999675  0.9999854  )
         5           Pb  tau(   5) = (  0.3333229  0.9999745  0.4999854  )
         6           Pb  tau(   6) = (  0.6666626  0.3333025  1.0000001  )
         7           Pb  tau(   7) = (  0.6666592  0.3333094  0.5000001  )
         8           Pb  tau(   8) = (  0.6666607  0.6666343  0.9999948  )
         9           Pb  tau(   9) = (  0.6666573  0.6666412  0.4999948  )
        10           Pb  tau(  10) = (  0.6666588  0.9999661  0.9999895  )
        11           Pb  tau(  11) = (  0.6666555  0.9999730  0.4999895  )
        12           Pb  tau(  12) = (  0.9999951  0.3333010  1.0000042  )
        13           Pb  tau(  13) = (  0.9999918  0.3333079  0.5000042  )
        14           Pb  tau(  14) = (  0.9999933  0.6666328  0.9999990  )
        15           Pb  tau(  15) = (  0.9999899  0.6666397  0.4999990  )
        16           Pb  tau(  16) = (  0.9999914  0.9999646  0.9999937  )
        17           Pb  tau(  17) = (  0.9999881  0.9999715  0.4999937  )
        18           I   tau(  18) = (  0.2222187  0.1110899  0.3715680  )
        19           I   tau(  19) = (  0.2222221  0.1110829  0.8715680  )
        20           I   tau(  20) = (  0.2222169  0.4444217  0.3715628  )
        21           I   tau(  21) = (  0.2222202  0.4444147  0.8715628  )
        22           I   tau(  22) = (  0.2222150  0.7777534  0.3715575  )
        23           I   tau(  23) = (  0.2222183  0.7777465  0.8715575  )
        24           I   tau(  24) = (  0.5555513  0.1110884  0.3715722  )
        25           I   tau(  25) = (  0.5555547  0.1110814  0.8715722  )
        26           I   tau(  26) = (  0.5555495  0.4444202  0.3715669  )
        27           I   tau(  27) = (  0.5555528  0.4444132  0.8715669  )
        28           I   tau(  28) = (  0.5555476  0.7777520  0.3715617  )
        29           I   tau(  29) = (  0.5555509  0.7777450  0.8715617  )
        30           I   tau(  30) = (  0.8888839  0.1110869  0.3715764  )
        31           I   tau(  31) = (  0.8888873  0.1110799  0.8715764  )
[...]
     atom   34 type  2   force =     0.00001648   -0.00017797   -0.00521646
     atom   35 type  2   force =    -0.00059546    0.00013394   -0.00456428
     atom   36 type  2   force =     0.00246568    0.00133353    0.00407491
     atom   37 type  2   force =     0.00000152    0.00019545    0.00536528
     atom   38 type  2   force =    -0.00026933    0.00029165    0.00520477
     atom   39 type  2   force =     0.00019857    0.00002615    0.00535180
     atom   40 type  2   force =     0.00009524   -0.00038001    0.00518561
     atom   41 type  2   force =     0.00016412   -0.00001600    0.00535179
     atom   42 type  2   force =    -0.00265914    0.00130684    0.00406215
     atom   43 type  2   force =    -0.00004274    0.00001640    0.00536918
     atom   44 type  2   force =    -0.00010981   -0.00315989    0.00407221
     atom   45 type  2   force =    -0.00012987    0.00007579    0.00537792
     atom   46 type  2   force =    -0.00061511   -0.00048103    0.00456358
     atom   47 type  2   force =     0.00002679   -0.00013913    0.00521021
     atom   48 type  2   force =    -0.00004586    0.00050716    0.00457598
     atom   49 type  2   force =     0.00004080    0.00000116    0.00522669
     atom   50 type  2   force =     0.00017313    0.00020565    0.00518786
     atom   51 type  2   force =    -0.00003268   -0.00001731    0.00536779
     atom   52 type  2   force =     0.00041192   -0.00044694    0.00456399
     atom   53 type  2   force =    -0.00016115   -0.00007318    0.00521501
     The Hubbard contrib.    to forces
     atom    1 type  1   force =     0.00000000    0.00000000    0.00000000
     atom    2 type  1   force =     0.00000000    0.00000000    0.00000000
     atom    3 type  1   force =     0.00000000    0.00000000    0.00000000
     atom    4 type  1   force =     0.00000000    0.00000000    0.00000000
     atom    5 type  1   force =     0.00000000    0.00000000    0.00000000
     atom    6 type  1   force =     0.00000000    0.00000000    0.00000000
     atom    7 type  1   force =     0.00000000    0.00000000    0.00000000
     atom    8 type  1   force =     0.00000000    0.00000000    0.00000000
     atom    9 type  1   force =     0.00000000    0.00000000    0.00000000
     atom   10 type  1   force =     0.00000000    0.00000000    0.00000000
     atom   11 type  1   force =     0.00000000    0.00000000    0.00000000
     atom   12 type  1   force =     0.00000000    0.00000000    0.00000000
     atom   13 type  1   force =     0.00000000    0.00000000    0.00000000
     atom   14 type  1   force =     0.00000000    0.00000000    0.00000000
     atom   15 type  1   force =     0.00000000    0.00000000    0.00000000
     atom   16 type  1   force =     0.00000000    0.00000000    0.00000000
     atom   17 type  1   force =     0.00000000    0.00000000    0.00000000
     atom   18 type  2   force =     0.00000000    0.00000000    0.00000000
     atom   19 type  2   force =     0.00000000    0.00000000    0.00000000
     atom   20 type  2   force =     0.00000000    0.00000000    0.00000000
     atom   21 type  2   force =     0.00000000    0.00000000    0.00000000
     atom   22 type  2   force =     0.00000000    0.00000000    0.00000000
     atom   23 type  2   force =     0.00000000    0.00000000    0.00000000
     atom   24 type  2   force =     0.00000000    0.00000000    0.00000000
     atom   25 type  2   force =     0.00000000    0.00000000    0.00000000
     atom   26 type  2   force =     0.00000000    0.00000000    0.00000000
     atom   27 type  2   force =     0.00000000    0.00000000    0.00000000
     atom   28 type  2   force =     0.00000000    0.00000000    0.00000000
     atom   29 type  2   force =     0.00000000    0.00000000    0.00000000
     atom   30 type  2   force =     0.00000000    0.00000000    0.00000000
     atom   31 type  2   force =     0.00000000    0.00000000    0.00000000
     atom   32 type  2   force =     0.00000000    0.00000000    0.00000000
     atom   33 type  2   force =     0.00000000    0.00000000    0.00000000
     atom   34 type  2   force =     0.00000000    0.00000000    0.00000000
     atom   35 type  2   force =     0.00000000    0.00000000    0.00000000
     atom   36 type  2   force =     0.00000000    0.00000000    0.00000000
     atom   37 type  2   force =     0.00000000    0.00000000    0.00000000
     atom   38 type  2   force =     0.00000000    0.00000000    0.00000000
     atom   39 type  2   force =     0.00000000    0.00000000    0.00000000
     atom   40 type  2   force =     0.00000000    0.00000000    0.00000000
     atom   41 type  2   force =     0.00000000    0.00000000    0.00000000
     atom   42 type  2   force =     0.00000000    0.00000000    0.00000000
     atom   43 type  2   force =     0.00000000    0.00000000    0.00000000
     atom   44 type  2   force =     0.00000000    0.00000000    0.00000000
     atom   45 type  2   force =     0.00000000    0.00000000    0.00000000
     atom   46 type  2   force =     0.00000000    0.00000000    0.00000000
     atom   47 type  2   force =     0.00000000    0.00000000    0.00000000
     atom   48 type  2   force =     0.00000000    0.00000000    0.00000000
     atom   49 type  2   force =     0.00000000    0.00000000    0.00000000
     atom   50 type  2   force =     0.00000000    0.00000000    0.00000000
     atom   51 type  2   force =     0.00000000    0.00000000    0.00000000
     atom   52 type  2   force =     0.00000000    0.00000000    0.00000000
     atom   53 type  2   force =     0.00000000    0.00000000    0.00000000
     The SCF correction term to forces
     atom    1 type  1   force =    -0.00000334    0.00000608   -0.00000244
     atom    2 type  1   force =     0.00001369   -0.00002600   -0.00000010
     atom    3 type  1   force =     0.00000479   -0.00000760   -0.00000075
     atom    4 type  1   force =     0.00000214    0.00000338    0.00000661
     atom    5 type  1   force =    -0.00000008    0.00000220   -0.00000369
     atom    6 type  1   force =    -0.00000985    0.00000454    0.00000420
     atom    7 type  1   force =    -0.00000420    0.00000144   -0.00000379
     atom    8 type  1   force =    -0.00002260   -0.00001491    0.00000643
     atom    9 type  1   force =    -0.00000714   -0.00000485   -0.00000333
     atom   10 type  1   force =     0.00000098   -0.00000657    0.00000268
     atom   11 type  1   force =     0.00000084   -0.00000271    0.00000117
     atom   12 type  1   force =     0.00002377    0.00001109   -0.00000345
     atom   13 type  1   force =     0.00000755    0.00000258   -0.00000065
     atom   14 type  1   force =     0.00000777   -0.00000742    0.00000358
     atom   15 type  1   force =     0.00000224   -0.00000267   -0.00000625
     atom   16 type  1   force =    -0.00000357    0.00001433    0.00000561
     atom   17 type  1   force =    -0.00000086    0.00000520   -0.00000309
     atom   18 type  2   force =    -0.00000208    0.00001166   -0.00000212
     atom   19 type  2   force =    -0.00000728    0.00002355    0.00000052
     atom   20 type  2   force =     0.00000891    0.00000098   -0.00000705
     atom   21 type  2   force =     0.00000996    0.00000435    0.00000866
     atom   22 type  2   force =     0.00000571   -0.00000532   -0.00000183
     atom   23 type  2   force =     0.00001754   -0.00001575   -0.00000022
     atom   24 type  2   force =    -0.00000321    0.00000238    0.00000029
     atom   25 type  2   force =    -0.00000023    0.00000172   -0.00000296
     atom   26 type  2   force =    -0.00001206    0.00000140   -0.00000596
     atom   27 type  2   force =    -0.00002373    0.00000457    0.00000550
     atom   28 type  2   force =    -0.00000162   -0.00001373   -0.00000417
     atom   29 type  2   force =    -0.00000668   -0.00002355    0.00000363
     atom   30 type  2   force =     0.00000547    0.00000536    0.00000002
     atom   31 type  2   force =     0.00000738    0.00001340   -0.00000165
     atom   32 type  2   force =     0.00000309   -0.00000021   -0.00000189
     atom   33 type  2   force =     0.00001354   -0.00000370   -0.00000046
     atom   34 type  2   force =    -0.00000407   -0.00000255   -0.00000091
     atom   35 type  2   force =    -0.00001080   -0.00000386   -0.00000226
     atom   36 type  2   force =     0.00000652    0.00002220   -0.00000167
     atom   37 type  2   force =     0.00000235    0.00001467    0.00000182
     atom   38 type  2   force =     0.00002330   -0.00000852   -0.00000251
     atom   39 type  2   force =     0.00001588   -0.00000716    0.00000265
     atom   40 type  2   force =     0.00000133    0.00000424    0.00001067
     atom   41 type  2   force =     0.00000076    0.00000311   -0.00000795
     atom   42 type  2   force =    -0.00001250    0.00001549    0.00000585
     atom   43 type  2   force =    -0.00000719    0.00000903   -0.00000457
     atom   44 type  2   force =    -0.00000893   -0.00000878   -0.00000668
     atom   45 type  2   force =    -0.00000744   -0.00000658    0.00000532
     atom   46 type  2   force =     0.00000449   -0.00001631    0.00000383
     atom   47 type  2   force =     0.00000435   -0.00000838   -0.00000189
     atom   48 type  2   force =     0.00000596    0.00000535    0.00000528
     atom   49 type  2   force =     0.00000486    0.00000107   -0.00000281
     atom   50 type  2   force =    -0.00001415   -0.00000496    0.00000713
     atom   51 type  2   force =    -0.00000821   -0.00000375   -0.00000513
     atom   52 type  2   force =    -0.00000588   -0.00000841    0.00000542
     atom   53 type  2   force =    -0.00000512   -0.00000219   -0.00000291

     Total force =     0.003763     Total SCF correction =     0.000106

     Computing stress (Cartesian axis) and pressure

[...]

          total   stress  (Ry/bohr**3)                   (kbar)     P=        0.21
  -0.00000255   0.00000003  -0.00000017           -0.37        0.00       -0.02
   0.00000003  -0.00000252   0.00000009            0.00       -0.37        0.01
  -0.00000017   0.00000009   0.00000931           -0.02        0.01        1.37

     kinetic stress (kbar)  14624.27     -0.01     -0.02
                               -0.01  14624.26      0.01
                               -0.02      0.01  14637.28

     local   stress (kbar)  -7489.15     -4.94      2.22
                               -4.94  -7494.73     -1.24
                                2.22     -1.24    828.76

     nonloc. stress (kbar)   -926.21      0.00     -0.01
                                0.00   -926.21      0.01
                               -0.01      0.01   -929.71

     hartree stress (kbar)  11930.62      2.11     -0.87
                                2.11  11933.01      0.49
                               -0.87      0.49   8181.13

     exc-cor stress (kbar)   6861.70      0.01     -0.00
                                0.01   6861.71      0.00
                               -0.00      0.00   6860.68

     corecor stress (kbar) -11161.79     -0.00      0.00
                               -0.00 -11161.80     -0.00
                                0.00     -0.00 -11161.77

     ewald   stress (kbar) -13922.33      2.84     -1.34
                                2.84 -13919.13      0.75
                               -1.34      0.75 -18498.72

     hubbard stress (kbar)      0.00      0.00      0.00
                                0.00      0.00      0.00
                                0.00      0.00      0.00

     DFT-D   stress (kbar)      0.00      0.00      0.00
                                0.00      0.00      0.00
                                0.00      0.00      0.00

     XDM     stress (kbar)      0.00      0.00      0.00
                                0.00      0.00      0.00
                                0.00      0.00      0.00

     dft-nl  stress (kbar)     82.51     -0.00      0.00
                               -0.00     82.51     -0.00
                                0.00     -0.00     83.72

     TS-vdW  stress (kbar)      0.00      0.00      0.00
                                0.00      0.00      0.00
                                0.00      0.00      0.00

     MDB     stress (kbar)      0.00      0.00      0.00
                                0.00      0.00      0.00
                                0.00      0.00      0.00

     3D-RISM stress (kbar)      0.00      0.00      0.00
                                0.00      0.00      0.00
                                0.00      0.00      0.00

[...]

     Non-local corr. energy    =      25.64624093 Ry

 BEEFens 2000 ensemble energies
             -0.214823490474798E+02
             -0.216102100318735E+03
             -0.983315495827722E+02
              0.754489933211845E+02
             -0.165123554239977E+03
             -0.202227373235477E+03
              0.103802948603261E+03
              0.487534870191439E+00
              0.174905238470141E+03
             -0.111033097391565E+02
              0.895745678043826E+02
              0.916977049832889E+01
             -0.685898880581999E+01
             -0.553959012410758E+01
              0.111675011793293E+03
             -0.840294753379951E+02
             -0.165024634114941E+03
             -0.532811219171257E+02
              0.477559895072171E+02
             -0.968741246149875E+00
              0.243333393931111E+03
              0.203119006685983E+03
             -0.125112041763557E+03
              0.432510632429995E+02
             -0.260672627467580E+03
              0.213989358031292E+03
              0.731578599534825E+02
              0.193213200157900E+03
              0.130216287313568E+03
             -0.604689532688521E+02
              0.476317288989137E+02
             -0.852621230193859E+02
              0.355927274568380E+02
              0.129556996386095E+03
              0.139336826820540E+03
             -0.606545059099542E+02
              0.307542986513743E+03
             -0.123712799299795E+03
             -0.824932091553366E+02
              0.123020747267682E+03
              0.542142290343614E+02
              0.934184586446110E+02
             -0.180477383350735E+03
             -0.117323786949387E+02
              0.173179757159330E+03
              0.226352930960355E+03
             -0.229788717193364E+03
              0.147697840783906E+02
              0.797135404169077E+02
              0.514727856700554E+02
              0.898756406302812E+02
              0.197318953668073E+03
             -0.128144960019435E+03
             -0.124332598766969E+03
             -0.173303148551577E+03
             -0.251737009853709E+02
             -0.147882785850746E+03
              0.190849045772129E+02
             -0.213147854566444E+02
             -0.117242845015101E+03
[...]
              0.146422081309029E+03
              0.938277944440470E+02
              0.956213143747514E+02
             -0.176976282003891E+03
             -0.182781592206410E+03
             -0.412081250561238E+02
             -0.163396728688432E+03
              0.259394396651705E+03
              0.218524806236520E+03
              0.103051740956555E+03
              0.284112707613599E+03
             -0.142018323304343E+03
             -0.611193917965510E+02
             -0.881118549000912E+02
              0.245759489355372E+03

 BEEF-vdW xc energy contributions
            1 :    -2221.510349033417
            2 :     2035.552784665917
            3 :    -1718.596362439539
            4 :     1355.165548090291
            5 :    -1024.648895863399
            6 :     775.8602238600881
            7 :    -619.2798120916923
            8 :     534.3546812350851
            9 :    -484.9987072533331
           10 :     436.8433018037049
           11 :    -370.4275926911996
           12 :     285.6251131412737
           13 :    -196.3808752251589
           14 :     119.9489925742128
           15 :    -67.20364016253097
           16 :     38.53054077206707
           17 :    -25.70028313373859
           18 :     17.26672833830253
           19 :    -4.380299129576088
           20 :    -15.50747167795816
           21 :     38.48803307553680
           22 :    -57.42970473727610
           23 :     66.67483193626686
           24 :    -65.46228250215245
           25 :     58.23706549176131
           26 :    -51.98781136584694
           27 :     52.37423197204316
           28 :    -60.78481182312771
           29 :     73.74217705441515
           30 :    -84.84392659320793
           31 :    -190.8359893280667
           32 :    -137.2139760823711

     Writing all to output data dir ./PbI2.save/

     General routines

     Parallel routines

     PAW routines

   This run was terminated on:   8:21: 6  14Feb2024

   JOB DONE.