     Program PWSCF v.7.1 starts on 30Jan2024 at 14:20:50

     Reading input from espresso.pwi
Warning: card &CELL ignored
Warning: card    CELL_DYNAMICS    = 'BFGS' ignored
Warning: card / ignored

     Current dimensions of program PWSCF are:
     Max number of different atomic species (ntypx) = 10
     Max number of k-points (npk) =  40000
     Max angular momentum in pseudopotentials (lmaxx) =  4
     file Ga.pbe-dn-kjpaw_psl.1.0.0.UPF: wavefunction(s)  4S renormalized
     file N.pbe-n-kjpaw_psl.1.0.0.UPF: wavefunction(s)  2S renormalized

     IMPORTANT: XC functional enforced from input :
     Exchange-correlation= BEEF-VDW
                           (   1   4  43  14   2   0   0)
     Any further DFT definition will be discarded
     Please, verify this is what you really want

     K-points division:     npool     =       4
     R & G space division:  proc/nbgrp/npool/nimage =      32
     Subspace diagonalization in iterative solution of the eigenvalue problem:
     a serial algorithm will be used

     Using Slab Decomposition

     bravais-lattice index     =            4
     lattice parameter (alat)  =      18.3939  a.u.
     unit-cell volume          =    5856.2271 (a.u.)^3
     number of atoms/cell      =           71
     number of atomic types    =            2
     number of electrons       =       637.00
     number of Kohn-Sham states=          383
     kinetic-energy cutoff     =      70.0000  Ry
     charge density cutoff     =     350.0000  Ry
     scf convergence threshold =      1.0E-09
     mixing beta               =       0.7000
     number of iterations used =            8  plain     mixing
     Exchange-correlation= BEEF-VDW
                           (   1   4  43  14   2   0   0)

     celldm(1)=  18.393924  celldm(2)=   0.000000  celldm(3)=   1.086586
     celldm(4)=   0.000000  celldm(5)=   0.000000  celldm(6)=   0.000000

     crystal axes: (cart. coord. in units of alat)
               a(1) = (   1.000000   0.000000   0.000000 )
               a(2) = (  -0.500000   0.866025   0.000000 )
               a(3) = (   0.000000   0.000000   1.086586 )

     reciprocal axes: (cart. coord. in units 2 pi/alat)
               b(1) = (  1.000000  0.577350 -0.000000 )
               b(2) = (  0.000000  1.154701  0.000000 )
               b(3) = (  0.000000 -0.000000  0.920314 )

     PseudoPot. # 1 for Ga read from file:
     /trace/group/acmegroup/atimmins/packages/espresso/pseudo/psl_1.0.0/pslibrary.1.0.0/pbe/PSEUDOPOTENTIALS/Ga.pbe-dn-kjpaw_psl.1.0.0.UPF
     MD5 check sum: cd2a01e492f15b435d17032472d8505c
     Pseudo is Projector augmented-wave + core cor, Zval = 13.0
     Generated using 'atomic' code by A. Dal Corso  v.7.1
     Shape of augmentation charge: PSQ
     Using radial grid of 1205 points,  6 beta functions with:
                l(1) =   0
                l(2) =   0
                l(3) =   1
                l(4) =   1
                l(5) =   2
                l(6) =   2
     Q(r) pseudized with 0 coefficients

     PseudoPot. # 2 for N  read from file:
     /trace/group/acmegroup/atimmins/packages/espresso/pseudo/psl_1.0.0/pslibrary.1.0.0/pbe/PSEUDOPOTENTIALS/N.pbe-n-kjpaw_psl.1.0.0.UPF
     MD5 check sum: f77f775694dac7e2c3fe1c82443d1a16
     Pseudo is Projector augmented-wave + core cor, Zval =  5.0
     Generated using 'atomic' code by A. Dal Corso  v.7.1
     Shape of augmentation charge: PSQ
     Using radial grid of 1085 points,  4 beta functions with:
                l(1) =   0
                l(2) =   0
                l(3) =   1
                l(4) =   1
     Q(r) pseudized with 0 coefficients

     atomic species   valence    mass     pseudopotential
        Ga            13.00    69.72300     Ga( 1.00)
        N              5.00    14.00700     N ( 1.00)

      6 Sym. Ops. (no inversion) found ( 4 have fractional translation)

                                    s                        frac. trans.

      isym =  1     identity

 cryst.   s( 1) = (     1          0          0      )
                  (     0          1          0      )
                  (     0          0          1      )

 cart.    s( 1) = (  1.0000000  0.0000000  0.0000000 )
                  (  0.0000000  1.0000000  0.0000000 )
                  (  0.0000000  0.0000000  1.0000000 )

      isym =  2     120 deg rotation - cryst. axis [0,0,1]

 cryst.   s( 2) = (     0          1          0      )    f =( -0.3333334 )
                  (    -1         -1          0      )       (  0.0000003 )
                  (     0          0          1      )       (  0.0000000 )

 cart.    s( 2) = ( -0.5000000 -0.8660254  0.0000000 )    f =( -0.3333335 )
                  (  0.8660254 -0.5000000  0.0000000 )       (  0.0000002 )
                  (  0.0000000  0.0000000  1.0000000 )       (  0.0000000 )

      isym =  3     120 deg rotation - cryst. axis [0,0,-1]

[...]

      isym =  4     inv. 180 deg rotation - cart. axis [1,0,0]

[...]

      isym =  5     inv. 180 deg rotation - cryst. axis [0,1,0]

 cryst.   s( 5) = (     1          1          0      )
                  (     0         -1          0      )
                  (     0          0          1      )

 cart.    s( 5) = (  0.5000000  0.8660254  0.0000000 )
                  (  0.8660254 -0.5000000  0.0000000 )
                  (  0.0000000  0.0000000  1.0000000 )

      isym =  6     inv. 180 deg rotation - cryst. axis [1,1,0]

 cryst.   s( 6) = (     0         -1          0      )    f =( -0.3333334 )
                  (    -1          0          0      )       ( -0.3333334 )
                  (     0          0          1      )       (  0.0000000 )

 cart.    s( 6) = (  0.5000000 -0.8660254  0.0000000 )    f =( -0.1666667 )
                  ( -0.8660254 -0.5000000  0.0000000 )       ( -0.2886752 )
                  (  0.0000000  0.0000000  1.0000000 )       (  0.0000000 )

     point group C_3v (3m)
     there are  3 classes
     the character table:

       E     2C3   3s_v
A_1    1.00  1.00  1.00
A_2    1.00  1.00 -1.00
E      2.00 -1.00  0.00

     the symmetry operations in each class and the name of the first element:

     E        1
          identity
     2C3      2    3
          120 deg rotation - cryst. axis [0,0,1]
     3s_v     4    5    6
          inv. 180 deg rotation - cart. axis [1,0,0]

   Cartesian axes

     site n.     atom                  positions (alat units)
         1           Ga  tau(   1) = (   0.1666668   0.0962250   0.8144844  )
         2           Ga  tau(   2) = (   0.0000001   0.3849001   0.2711914  )
         3           Ga  tau(   3) = (   0.0000001   0.3849001   0.8144844  )
         4           Ga  tau(   4) = (  -0.1666665   0.6735752   0.2711914  )
         5           Ga  tau(   5) = (  -0.1666665   0.6735752   0.8144844  )
         6           Ga  tau(   6) = (   0.5000001   0.0962250   0.2711914  )
         7           Ga  tau(   7) = (   0.5000001   0.0962250   0.8144844  )
         8           Ga  tau(   8) = (   0.3333335   0.3849001   0.2711914  )
         9           Ga  tau(   9) = (   0.3333335   0.3849001   0.8144844  )
        10           Ga  tau(  10) = (   0.1666668   0.6735752   0.2711914  )
        11           Ga  tau(  11) = (   0.1666668   0.6735752   0.8144844  )
        12           Ga  tau(  12) = (   0.8333335   0.0962250   0.2711914  )
        13           Ga  tau(  13) = (   0.8333335   0.0962250   0.8144844  )
        14           Ga  tau(  14) = (   0.6666668   0.3849001   0.2711914  )
        15           Ga  tau(  15) = (   0.6666668   0.3849001   0.8144844  )
        16           Ga  tau(  16) = (   0.5000001   0.6735752   0.2711914  )
        17           Ga  tau(  17) = (   0.5000001   0.6735752   0.8144844  )
        18           Ga  tau(  18) = (  -0.0000002   0.1924502   0.5428379  )
        19           Ga  tau(  19) = (  -0.0000002   0.1924502   1.0861309  )
        20           Ga  tau(  20) = (  -0.1666669   0.4811254   0.5428379  )
        21           Ga  tau(  21) = (  -0.1666669   0.4811254   1.0861309  )
        22           Ga  tau(  22) = (  -0.3333335   0.7698005   0.5428379  )
        23           Ga  tau(  23) = (  -0.3333335   0.7698005   1.0861309  )
        24           Ga  tau(  24) = (   0.3333331   0.1924502   0.5428379  )
        25           Ga  tau(  25) = (   0.3333331   0.1924502   1.0861309  )
        26           Ga  tau(  26) = (   0.1666665   0.4811254   0.5428379  )
        27           Ga  tau(  27) = (   0.1666665   0.4811254   1.0861309  )
        28           Ga  tau(  28) = (  -0.0000002   0.7698005   0.5428379  )
        29           Ga  tau(  29) = (  -0.0000002   0.7698005   1.0861309  )
        30           Ga  tau(  30) = (   0.6666665   0.1924502   0.5428379  )
        31           Ga  tau(  31) = (   0.6666665   0.1924502   1.0861309  )
        32           Ga  tau(  32) = (   0.4999998   0.4811254   0.5428379  )
        33           Ga  tau(  33) = (   0.4999998   0.4811254   1.0861309  )
        34           Ga  tau(  34) = (   0.3333331   0.7698005   0.5428379  )
        35           Ga  tau(  35) = (   0.3333331   0.7698005   1.0861309  )
        36           N   tau(  36) = (   0.1666668   0.0962250   0.4758365  )
        37           N   tau(  37) = (   0.1666668   0.0962250   1.0191295  )
        38           N   tau(  38) = (   0.0000001   0.3849001   0.4758365  )
        39           N   tau(  39) = (   0.0000001   0.3849001   1.0191295  )
        40           N   tau(  40) = (  -0.1666665   0.6735752   0.4758365  )
        41           N   tau(  41) = (  -0.1666665   0.6735752   1.0191295  )
        42           N   tau(  42) = (   0.5000001   0.0962250   0.4758365  )
        43           N   tau(  43) = (   0.5000001   0.0962250   1.0191295  )
        44           N   tau(  44) = (   0.3333335   0.3849001   0.4758365  )
        45           N   tau(  45) = (   0.3333335   0.3849001   1.0191295  )
        46           N   tau(  46) = (   0.1666668   0.6735752   0.4758365  )
        47           N   tau(  47) = (   0.1666668   0.6735752   1.0191295  )
        48           N   tau(  48) = (   0.8333335   0.0962250   0.4758365  )
        49           N   tau(  49) = (   0.8333335   0.0962250   1.0191295  )
        50           N   tau(  50) = (   0.6666668   0.3849001   0.4758365  )
        51           N   tau(  51) = (   0.6666668   0.3849001   1.0191295  )
        52           N   tau(  52) = (   0.5000001   0.6735752   0.4758365  )
        53           N   tau(  53) = (   0.5000001   0.6735752   1.0191295  )
        54           N   tau(  54) = (  -0.0000002   0.1924502   0.2041900  )
        55           N   tau(  55) = (  -0.0000002   0.1924502   0.7474830  )
        56           N   tau(  56) = (  -0.1666669   0.4811254   0.2041900  )
        57           N   tau(  57) = (  -0.1666669   0.4811254   0.7474830  )
        58           N   tau(  58) = (  -0.3333335   0.7698005   0.2041900  )
        59           N   tau(  59) = (  -0.3333335   0.7698005   0.7474830  )
        60           N   tau(  60) = (   0.3333331   0.1924502   0.2041900  )
        61           N   tau(  61) = (   0.3333331   0.1924502   0.7474830  )
[...]
     atom   16 type  1   force =     0.00000000    0.00000000    0.00000000
     atom   17 type  1   force =     0.00000000    0.00000000    0.00000000
     atom   18 type  1   force =     0.00000000    0.00000000    0.00000000
     atom   19 type  1   force =     0.00000000    0.00000000    0.00000000
     atom   20 type  1   force =     0.00000000    0.00000000    0.00000000
     atom   21 type  1   force =     0.00000000    0.00000000    0.00000000
     atom   22 type  1   force =     0.00000000    0.00000000    0.00000000
     atom   23 type  1   force =     0.00000000    0.00000000    0.00000000
     atom   24 type  1   force =     0.00000000    0.00000000    0.00000000
     atom   25 type  1   force =     0.00000000    0.00000000    0.00000000
     atom   26 type  1   force =     0.00000000    0.00000000    0.00000000
     atom   27 type  1   force =     0.00000000    0.00000000    0.00000000
     atom   28 type  1   force =     0.00000000    0.00000000    0.00000000
     atom   29 type  1   force =     0.00000000    0.00000000    0.00000000
     atom   30 type  1   force =     0.00000000    0.00000000    0.00000000
     atom   31 type  1   force =     0.00000000    0.00000000    0.00000000
     atom   32 type  1   force =     0.00000000    0.00000000    0.00000000
     atom   33 type  1   force =     0.00000000    0.00000000    0.00000000
     atom   34 type  1   force =     0.00000000    0.00000000    0.00000000
     atom   35 type  1   force =     0.00000000    0.00000000    0.00000000
     atom   36 type  2   force =     0.00000000    0.00000000    0.00000000
     atom   37 type  2   force =     0.00000000    0.00000000    0.00000000
     atom   38 type  2   force =     0.00000000    0.00000000    0.00000000
     atom   39 type  2   force =     0.00000000    0.00000000    0.00000000
     atom   40 type  2   force =     0.00000000    0.00000000    0.00000000
     atom   41 type  2   force =     0.00000000    0.00000000    0.00000000
     atom   42 type  2   force =     0.00000000    0.00000000    0.00000000
     atom   43 type  2   force =     0.00000000    0.00000000    0.00000000
     atom   44 type  2   force =     0.00000000    0.00000000    0.00000000
     atom   45 type  2   force =     0.00000000    0.00000000    0.00000000
     atom   46 type  2   force =     0.00000000    0.00000000    0.00000000
     atom   47 type  2   force =     0.00000000    0.00000000    0.00000000
     atom   48 type  2   force =     0.00000000    0.00000000    0.00000000
     atom   49 type  2   force =     0.00000000    0.00000000    0.00000000
     atom   50 type  2   force =     0.00000000    0.00000000    0.00000000
     atom   51 type  2   force =     0.00000000    0.00000000    0.00000000
     atom   52 type  2   force =     0.00000000    0.00000000    0.00000000
     atom   53 type  2   force =     0.00000000    0.00000000    0.00000000
     atom   54 type  2   force =     0.00000000    0.00000000    0.00000000
     atom   55 type  2   force =     0.00000000    0.00000000    0.00000000
     atom   56 type  2   force =     0.00000000    0.00000000    0.00000000
     atom   57 type  2   force =     0.00000000    0.00000000    0.00000000
     atom   58 type  2   force =     0.00000000    0.00000000    0.00000000
     atom   59 type  2   force =     0.00000000    0.00000000    0.00000000
     atom   60 type  2   force =     0.00000000    0.00000000    0.00000000
     atom   61 type  2   force =     0.00000000    0.00000000    0.00000000
     atom   62 type  2   force =     0.00000000    0.00000000    0.00000000
     atom   63 type  2   force =     0.00000000    0.00000000    0.00000000
     atom   64 type  2   force =     0.00000000    0.00000000    0.00000000
     atom   65 type  2   force =     0.00000000    0.00000000    0.00000000
     atom   66 type  2   force =     0.00000000    0.00000000    0.00000000
     atom   67 type  2   force =     0.00000000    0.00000000    0.00000000
     atom   68 type  2   force =     0.00000000    0.00000000    0.00000000
     atom   69 type  2   force =     0.00000000    0.00000000    0.00000000
     atom   70 type  2   force =     0.00000000    0.00000000    0.00000000
     atom   71 type  2   force =     0.00000000    0.00000000    0.00000000
     The SCF correction term to forces
     atom    1 type  1   force =     0.00000000   -0.00000000    0.00002065
     atom    2 type  1   force =    -0.00000359   -0.00000648   -0.00001288
     atom    3 type  1   force =    -0.00000326    0.00000084    0.00000719
     atom    4 type  1   force =    -0.00000741    0.00000013   -0.00001288
     atom    5 type  1   force =    -0.00000090   -0.00000324    0.00000719
     atom    6 type  1   force =    -0.00000382    0.00000635   -0.00001288
     atom    7 type  1   force =     0.00000236    0.00000240    0.00000719
     atom    8 type  1   force =     0.00000359   -0.00000648   -0.00001288
     atom    9 type  1   force =     0.00000326    0.00000084    0.00000719
     atom   10 type  1   force =     0.00000000   -0.00000000   -0.00000476
     atom   11 type  1   force =     0.00000000   -0.00000000    0.00000370
     atom   12 type  1   force =     0.00000382    0.00000635   -0.00001288
     atom   13 type  1   force =    -0.00000236    0.00000240    0.00000719
     atom   14 type  1   force =    -0.00000000    0.00000000   -0.00000684
     atom   15 type  1   force =     0.00000000    0.00000000    0.00000366
     atom   16 type  1   force =     0.00000741    0.00000013   -0.00001288
     atom   17 type  1   force =     0.00000090   -0.00000324    0.00000719
     atom   18 type  1   force =    -0.00002622    0.00001514    0.00000754
     atom   19 type  1   force =     0.00000151   -0.00000087    0.00000493
     atom   20 type  1   force =    -0.00000282   -0.00000163    0.00000544
     atom   21 type  1   force =    -0.00000250   -0.00000144   -0.00000313
     atom   22 type  1   force =    -0.00000000   -0.00003028    0.00000754
     atom   23 type  1   force =     0.00000000    0.00000174    0.00000493
     atom   24 type  1   force =     0.00002622    0.00001514    0.00000754
     atom   25 type  1   force =    -0.00000151   -0.00000087    0.00000493
     atom   26 type  1   force =     0.00000000    0.00000485    0.00000561
     atom   27 type  1   force =     0.00000000   -0.00000515   -0.00000318
     atom   28 type  1   force =     0.00000420   -0.00000242    0.00000561
     atom   29 type  1   force =    -0.00000446    0.00000258   -0.00000318
     atom   30 type  1   force =     0.00000000    0.00000325    0.00000544
     atom   31 type  1   force =    -0.00000000    0.00000289   -0.00000313
     atom   32 type  1   force =     0.00000282   -0.00000163    0.00000544
     atom   33 type  1   force =     0.00000250   -0.00000144   -0.00000313
     atom   34 type  1   force =    -0.00000420   -0.00000242    0.00000561
     atom   35 type  1   force =     0.00000446    0.00000258   -0.00000318
     atom   36 type  2   force =     0.00000000   -0.00000000    0.00000164
     atom   37 type  2   force =    -0.00000000    0.00000000    0.00000173
     atom   38 type  2   force =    -0.00000264    0.00000264    0.00000056
     atom   39 type  2   force =    -0.00000050   -0.00000163   -0.00000068
     atom   40 type  2   force =     0.00000097   -0.00000361    0.00000056
     atom   41 type  2   force =    -0.00000166    0.00000038   -0.00000068
     atom   42 type  2   force =     0.00000361    0.00000096    0.00000056
     atom   43 type  2   force =    -0.00000116    0.00000124   -0.00000068
     atom   44 type  2   force =     0.00000264    0.00000264    0.00000056
     atom   45 type  2   force =     0.00000050   -0.00000163   -0.00000068
     atom   46 type  2   force =     0.00000000   -0.00000000    0.00000163
     atom   47 type  2   force =     0.00000000   -0.00000000   -0.00000179
     atom   48 type  2   force =    -0.00000361    0.00000096    0.00000056
     atom   49 type  2   force =     0.00000116    0.00000124   -0.00000068
     atom   50 type  2   force =     0.00000000    0.00000000    0.00000171
     atom   51 type  2   force =    -0.00000000    0.00000000   -0.00000155
     atom   52 type  2   force =    -0.00000097   -0.00000361    0.00000056
     atom   53 type  2   force =     0.00000166    0.00000038   -0.00000068
     atom   54 type  2   force =     0.00000063   -0.00000037   -0.00000518
     atom   55 type  2   force =    -0.00000335    0.00000193    0.00000665
     atom   56 type  2   force =    -0.00000108   -0.00000062   -0.00000253
     atom   57 type  2   force =    -0.00000126   -0.00000073    0.00000248
     atom   58 type  2   force =     0.00000000    0.00000073   -0.00000518
     atom   59 type  2   force =     0.00000000   -0.00000387    0.00000665
     atom   60 type  2   force =    -0.00000063   -0.00000037   -0.00000518
     atom   61 type  2   force =     0.00000335    0.00000193    0.00000665
     atom   62 type  2   force =    -0.00000000   -0.00000188   -0.00000279
     atom   63 type  2   force =     0.00000000    0.00000048    0.00000294
     atom   64 type  2   force =    -0.00000162    0.00000094   -0.00000279
     atom   65 type  2   force =     0.00000042   -0.00000024    0.00000294
     atom   66 type  2   force =    -0.00000000    0.00000124   -0.00000253
     atom   67 type  2   force =     0.00000000    0.00000146    0.00000248
     atom   68 type  2   force =     0.00000108   -0.00000062   -0.00000253
     atom   69 type  2   force =     0.00000126   -0.00000073    0.00000248
     atom   70 type  2   force =     0.00000162    0.00000094   -0.00000279
     atom   71 type  2   force =    -0.00000042   -0.00000024    0.00000294

     Total force =     0.003753     Total SCF correction =     0.000079

     Computing stress (Cartesian axis) and pressure

[...]

          total   stress  (Ry/bohr**3)                   (kbar)     P=       54.60
   0.00036502   0.00000000   0.00000000           53.70        0.00        0.00
   0.00000000   0.00036502   0.00000000            0.00       53.70        0.00
   0.00000000   0.00000000   0.00038346            0.00        0.00       56.41

     kinetic stress (kbar)  18228.00      0.00      0.00
                                0.00  18228.00      0.00
                                0.00      0.00  18236.66

     local   stress (kbar)   4178.42     -0.07     -0.00
                               -0.07   4178.33      0.00
                               -0.00      0.00   2698.57

     nonloc. stress (kbar)      2.97     -0.00      0.00
                                0.00      2.97      0.00
                                0.00      0.00     10.01

     hartree stress (kbar)  19579.34     -0.00     -0.00
                               -0.00  19579.34      0.00
                               -0.00      0.00  20251.42

     exc-cor stress (kbar)   5033.31      0.00      0.00
                                0.00   5033.31      0.00
                                0.00      0.00   5033.80

     corecor stress (kbar) -13736.36     -0.00      0.00
                               -0.00 -13736.36      0.00
                                0.00      0.00 -13736.10

     ewald   stress (kbar) -33390.33      0.09      0.00
                                0.09 -33390.21     -0.00
                                0.00     -0.00 -32595.45

     hubbard stress (kbar)      0.00      0.00      0.00
                                0.00      0.00      0.00
                                0.00      0.00      0.00

     DFT-D   stress (kbar)      0.00      0.00      0.00
                                0.00      0.00      0.00
                                0.00      0.00      0.00

     XDM     stress (kbar)      0.00      0.00      0.00
                                0.00      0.00      0.00
                                0.00      0.00      0.00

     dft-nl  stress (kbar)    158.33     -0.00     -0.00
                               -0.00    158.33     -0.00
                               -0.00     -0.00    157.49

     TS-vdW  stress (kbar)      0.00      0.00      0.00
                                0.00      0.00      0.00
                                0.00      0.00      0.00

     MDB     stress (kbar)      0.00      0.00      0.00
                                0.00      0.00      0.00
                                0.00      0.00      0.00

     3D-RISM stress (kbar)      0.00      0.00      0.00
                                0.00      0.00      0.00
                                0.00      0.00      0.00

[...]

     Non-local corr. energy    =      19.17570892 Ry

 BEEFens 2000 ensemble energies
             -0.155542551396934E+02
             -0.139654441648380E+03
             -0.599782499412832E+02
              0.491831661056194E+02
             -0.100316573903032E+03
             -0.129086303185254E+03
              0.663825939925380E+02
             -0.703448215173955E+01
              0.110568182941975E+03
             -0.475300513506158E+01
              0.541398636721174E+02
              0.225437818679669E+01
              0.227162025926566E+01
             -0.476725646713055E+01
              0.723495443389647E+02
             -0.527299939939154E+02
             -0.108732708687319E+03
             -0.354720716704730E+02
              0.265272986400193E+02
             -0.236017679787551E+01
              0.158447352970397E+03
              0.134938462363839E+03
             -0.771538309938312E+02
              0.280310359565390E+02
             -0.169342635364623E+03
              0.135787374212030E+03
              0.443725001294251E+02
              0.132088506001167E+03
              0.867838255721801E+02
             -0.423184669531990E+02
              0.319666178594053E+02
             -0.624834116708274E+02
              0.173460006936575E+02
              0.847927347064949E+02
              0.900071749760749E+02
             -0.324529930564624E+02
              0.199945594413558E+03
             -0.758366533985245E+02
             -0.546107391048479E+02
              0.800994543222787E+02
              0.358069098191681E+02
              0.599906193309207E+02
             -0.114289829535832E+03
             -0.323365863680056E+01
              0.112254887406667E+03
              0.145748662428168E+03
             -0.145039282568004E+03
              0.103444415324012E+02
              0.547141640992174E+02
              0.265356856676422E+02
              0.606705328433134E+02
              0.128544841160070E+03
             -0.777303665673895E+02
             -0.851888180359708E+02
             -0.110753882185721E+03
             -0.172166635797342E+02
             -0.100997689373057E+03
              0.984475105829154E+01
             -0.187649754013067E+02
             -0.788033242178268E+02
[...]
              0.983674777123853E+02
              0.542154751140026E+02
              0.690531680339573E+02
             -0.111467967606915E+03
             -0.106545889957446E+03
             -0.270327155705555E+02
             -0.104533662685487E+03
              0.167479488250322E+03
              0.143540887392202E+03
              0.685708745281359E+02
              0.185632925219351E+03
             -0.966193729392463E+02
             -0.394353261007186E+02
             -0.547496751993328E+02
              0.153484933537237E+03

 BEEF-vdW xc energy contributions
            1 :    -1407.594676420604
            2 :     1267.745148692229
            3 :    -1033.371097869241
            4 :     772.9698564588440
            5 :    -546.8875897141938
            6 :     384.4133630095673
            7 :    -280.4687315480455
            8 :     210.3770507194381
            9 :    -150.8041666582626
           10 :     93.28640889229496
           11 :    -43.88096779477974
           12 :     12.61804060151758
           13 :    -2.466202282302220
           14 :     5.963302062106095
           15 :    -10.69570598130440
           16 :     8.106199029269646
           17 :     1.563921624034265
           18 :    -11.49769961667653
           19 :     15.11694555195709
           20 :    -11.70163634112396
           21 :     6.601226129846054
           22 :    -6.467437439737978
           23 :     13.77025118883330
           24 :    -25.00542214555253
           25 :     33.70339206376207
           26 :    -35.49053253952388
           27 :     31.09148629213814
           28 :    -25.13553152140594
           29 :     22.10156818345558
           30 :    -22.85449969253295
           31 :    -120.8841001505175
           32 :    -82.84020514337021

     Writing all to output data dir ./GaN.save/

     General routines

     Parallel routines

     PAW routines

   This run was terminated on:  14:22: 2  30Jan2024

   JOB DONE.