     Program PWSCF v.7.1 starts on 29Jan2024 at 11: 5:30

     Reading input from espresso.pwi
Warning: card &CELL ignored
Warning: card    CELL_DYNAMICS    = 'BFGS' ignored
Warning: card / ignored

     Current dimensions of program PWSCF are:
     Max number of different atomic species (ntypx) = 10
     Max number of k-points (npk) =  40000
     Max angular momentum in pseudopotentials (lmaxx) =  4
     file Ga.pbe-dn-kjpaw_psl.1.0.0.UPF: wavefunction(s)  4S renormalized
     file N.pbe-n-kjpaw_psl.1.0.0.UPF: wavefunction(s)  2S renormalized

     IMPORTANT: XC functional enforced from input :
     Exchange-correlation= BEEF-VDW
                           (   1   4  43  14   2   0   0)
     Any further DFT definition will be discarded
     Please, verify this is what you really want

     K-points division:     npool     =       4
     R & G space division:  proc/nbgrp/npool/nimage =      32
     Subspace diagonalization in iterative solution of the eigenvalue problem:
     a serial algorithm will be used

     Using Slab Decomposition

     bravais-lattice index     =            4
     lattice parameter (alat)  =      18.3939  a.u.
     unit-cell volume          =    5856.2271 (a.u.)^3
     number of atoms/cell      =           71
     number of atomic types    =            2
     number of electrons       =       637.00
     number of Kohn-Sham states=          383
     kinetic-energy cutoff     =      70.0000  Ry
     charge density cutoff     =     350.0000  Ry
     scf convergence threshold =      1.0E-09
     mixing beta               =       0.7000
     number of iterations used =            8  plain     mixing
     energy convergence thresh.=      1.0E-04
     force convergence thresh. =      1.0E-03
     Exchange-correlation= BEEF-VDW
                           (   1   4  43  14   2   0   0)
     nstep                     =           50

     celldm(1)=  18.393924  celldm(2)=   0.000000  celldm(3)=   1.086586
     celldm(4)=   0.000000  celldm(5)=   0.000000  celldm(6)=   0.000000

     crystal axes: (cart. coord. in units of alat)
               a(1) = (   1.000000   0.000000   0.000000 )
               a(2) = (  -0.500000   0.866025   0.000000 )
               a(3) = (   0.000000   0.000000   1.086586 )

     reciprocal axes: (cart. coord. in units 2 pi/alat)
               b(1) = (  1.000000  0.577350 -0.000000 )
               b(2) = (  0.000000  1.154701  0.000000 )
               b(3) = (  0.000000 -0.000000  0.920314 )

     PseudoPot. # 1 for Ga read from file:
     /trace/group/acmegroup/atimmins/packages/espresso/pseudo/psl_1.0.0/pslibrary.1.0.0/pbe/PSEUDOPOTENTIALS/Ga.pbe-dn-kjpaw_psl.1.0.0.UPF
     MD5 check sum: cd2a01e492f15b435d17032472d8505c
     Pseudo is Projector augmented-wave + core cor, Zval = 13.0
     Generated using 'atomic' code by A. Dal Corso  v.7.1
     Shape of augmentation charge: PSQ
     Using radial grid of 1205 points,  6 beta functions with:
                l(1) =   0
                l(2) =   0
                l(3) =   1
                l(4) =   1
                l(5) =   2
                l(6) =   2
     Q(r) pseudized with 0 coefficients

     PseudoPot. # 2 for N  read from file:
     /trace/group/acmegroup/atimmins/packages/espresso/pseudo/psl_1.0.0/pslibrary.1.0.0/pbe/PSEUDOPOTENTIALS/N.pbe-n-kjpaw_psl.1.0.0.UPF
     MD5 check sum: f77f775694dac7e2c3fe1c82443d1a16
     Pseudo is Projector augmented-wave + core cor, Zval =  5.0
     Generated using 'atomic' code by A. Dal Corso  v.7.1
     Shape of augmentation charge: PSQ
     Using radial grid of 1085 points,  4 beta functions with:
                l(1) =   0
                l(2) =   0
                l(3) =   1
                l(4) =   1
     Q(r) pseudized with 0 coefficients

     atomic species   valence    mass     pseudopotential
        Ga            13.00    69.72300     Ga( 1.00)
        N              5.00    14.00700     N ( 1.00)

      6 Sym. Ops. (no inversion) found ( 4 have fractional translation)

                                    s                        frac. trans.

      isym =  1     identity

 cryst.   s( 1) = (     1          0          0      )
                  (     0          1          0      )
                  (     0          0          1      )

 cart.    s( 1) = (  1.0000000  0.0000000  0.0000000 )
                  (  0.0000000  1.0000000  0.0000000 )
                  (  0.0000000  0.0000000  1.0000000 )

      isym =  2     120 deg rotation - cryst. axis [0,0,1]

 cryst.   s( 2) = (     0          1          0      )    f =( -0.3333334 )
                  (    -1         -1          0      )       (  0.0000003 )
                  (     0          0          1      )       (  0.0000000 )

 cart.    s( 2) = ( -0.5000000 -0.8660254  0.0000000 )    f =( -0.3333335 )
                  (  0.8660254 -0.5000000  0.0000000 )       (  0.0000002 )
                  (  0.0000000  0.0000000  1.0000000 )       (  0.0000000 )

      isym =  3     120 deg rotation - cryst. axis [0,0,-1]

[...]

      isym =  4     inv. 180 deg rotation - cart. axis [1,0,0]

[...]

      isym =  5     inv. 180 deg rotation - cryst. axis [0,1,0]

 cryst.   s( 5) = (     1          1          0      )
                  (     0         -1          0      )
                  (     0          0          1      )

 cart.    s( 5) = (  0.5000000  0.8660254  0.0000000 )
                  (  0.8660254 -0.5000000  0.0000000 )
                  (  0.0000000  0.0000000  1.0000000 )

      isym =  6     inv. 180 deg rotation - cryst. axis [1,1,0]

 cryst.   s( 6) = (     0         -1          0      )    f =( -0.3333334 )
                  (    -1          0          0      )       ( -0.3333334 )
                  (     0          0          1      )       (  0.0000000 )

 cart.    s( 6) = (  0.5000000 -0.8660254  0.0000000 )    f =( -0.1666667 )
                  ( -0.8660254 -0.5000000  0.0000000 )       ( -0.2886752 )
                  (  0.0000000  0.0000000  1.0000000 )       (  0.0000000 )

     point group C_3v (3m)
     there are  3 classes
     the character table:

       E     2C3   3s_v
A_1    1.00  1.00  1.00
A_2    1.00  1.00 -1.00
E      2.00 -1.00  0.00

     the symmetry operations in each class and the name of the first element:

     E        1
          identity
     2C3      2    3
          120 deg rotation - cryst. axis [0,0,1]
     3s_v     4    5    6
          inv. 180 deg rotation - cart. axis [1,0,0]

   Cartesian axes

     site n.     atom                  positions (alat units)
         1           Ga  tau(   1) = (   0.1666668   0.0962250   0.8144844  )
         2           Ga  tau(   2) = (   0.0000001   0.3849001   0.2711914  )
         3           Ga  tau(   3) = (   0.0000001   0.3849001   0.8144844  )
         4           Ga  tau(   4) = (  -0.1666665   0.6735752   0.2711914  )
         5           Ga  tau(   5) = (  -0.1666665   0.6735752   0.8144844  )
         6           Ga  tau(   6) = (   0.5000001   0.0962250   0.2711914  )
         7           Ga  tau(   7) = (   0.5000001   0.0962250   0.8144844  )
         8           Ga  tau(   8) = (   0.3333335   0.3849001   0.2711914  )
         9           Ga  tau(   9) = (   0.3333335   0.3849001   0.8144844  )
        10           Ga  tau(  10) = (   0.1666668   0.6735752   0.2711914  )
        11           Ga  tau(  11) = (   0.1666668   0.6735752   0.8144844  )
        12           Ga  tau(  12) = (   0.8333335   0.0962250   0.2711914  )
        13           Ga  tau(  13) = (   0.8333335   0.0962250   0.8144844  )
        14           Ga  tau(  14) = (   0.6666668   0.3849001   0.2711914  )
        15           Ga  tau(  15) = (   0.6666668   0.3849001   0.8144844  )
        16           Ga  tau(  16) = (   0.5000001   0.6735752   0.2711914  )
        17           Ga  tau(  17) = (   0.5000001   0.6735752   0.8144844  )
        18           Ga  tau(  18) = (  -0.0000002   0.1924502   0.5428379  )
        19           Ga  tau(  19) = (  -0.0000002   0.1924502   1.0861309  )
        20           Ga  tau(  20) = (  -0.1666669   0.4811254   0.5428379  )
        21           Ga  tau(  21) = (  -0.1666669   0.4811254   1.0861309  )
        22           Ga  tau(  22) = (  -0.3333335   0.7698005   0.5428379  )
        23           Ga  tau(  23) = (  -0.3333335   0.7698005   1.0861309  )
        24           Ga  tau(  24) = (   0.3333331   0.1924502   0.5428379  )
        25           Ga  tau(  25) = (   0.3333331   0.1924502   1.0861309  )
        26           Ga  tau(  26) = (   0.1666665   0.4811254   0.5428379  )
        27           Ga  tau(  27) = (   0.1666665   0.4811254   1.0861309  )
        28           Ga  tau(  28) = (  -0.0000002   0.7698005   0.5428379  )
        29           Ga  tau(  29) = (  -0.0000002   0.7698005   1.0861309  )
        30           Ga  tau(  30) = (   0.6666665   0.1924502   0.5428379  )
        31           Ga  tau(  31) = (   0.6666665   0.1924502   1.0861309  )
        32           Ga  tau(  32) = (   0.4999998   0.4811254   0.5428379  )
        33           Ga  tau(  33) = (   0.4999998   0.4811254   1.0861309  )
        34           Ga  tau(  34) = (   0.3333331   0.7698005   0.5428379  )
        35           Ga  tau(  35) = (   0.3333331   0.7698005   1.0861309  )
        36           N   tau(  36) = (   0.1666668   0.0962250   0.4758365  )
        37           N   tau(  37) = (   0.1666668   0.0962250   1.0191295  )
        38           N   tau(  38) = (   0.0000001   0.3849001   0.4758365  )
        39           N   tau(  39) = (   0.0000001   0.3849001   1.0191295  )
        40           N   tau(  40) = (  -0.1666665   0.6735752   0.4758365  )
        41           N   tau(  41) = (  -0.1666665   0.6735752   1.0191295  )
        42           N   tau(  42) = (   0.5000001   0.0962250   0.4758365  )
        43           N   tau(  43) = (   0.5000001   0.0962250   1.0191295  )
        44           N   tau(  44) = (   0.3333335   0.3849001   0.4758365  )
        45           N   tau(  45) = (   0.3333335   0.3849001   1.0191295  )
        46           N   tau(  46) = (   0.1666668   0.6735752   0.4758365  )
        47           N   tau(  47) = (   0.1666668   0.6735752   1.0191295  )
        48           N   tau(  48) = (   0.8333335   0.0962250   0.4758365  )
        49           N   tau(  49) = (   0.8333335   0.0962250   1.0191295  )
        50           N   tau(  50) = (   0.6666668   0.3849001   0.4758365  )
        51           N   tau(  51) = (   0.6666668   0.3849001   1.0191295  )
        52           N   tau(  52) = (   0.5000001   0.6735752   0.4758365  )
        53           N   tau(  53) = (   0.5000001   0.6735752   1.0191295  )
        54           N   tau(  54) = (  -0.0000002   0.1924502   0.2041900  )
        55           N   tau(  55) = (  -0.0000002   0.1924502   0.7474830  )
        56           N   tau(  56) = (  -0.1666669   0.4811254   0.2041900  )
        57           N   tau(  57) = (  -0.1666669   0.4811254   0.7474830  )
        58           N   tau(  58) = (  -0.3333335   0.7698005   0.2041900  )
        59           N   tau(  59) = (  -0.3333335   0.7698005   0.7474830  )
[...]
     atom   32 type  1   force =     0.00000000    0.00000000    0.00000000
     atom   33 type  1   force =     0.00000000    0.00000000    0.00000000
     atom   34 type  1   force =     0.00000000    0.00000000    0.00000000
     atom   35 type  1   force =     0.00000000    0.00000000    0.00000000
     atom   36 type  2   force =     0.00000000    0.00000000    0.00000000
     atom   37 type  2   force =     0.00000000    0.00000000    0.00000000
     atom   38 type  2   force =     0.00000000    0.00000000    0.00000000
     atom   39 type  2   force =     0.00000000    0.00000000    0.00000000
     atom   40 type  2   force =     0.00000000    0.00000000    0.00000000
     atom   41 type  2   force =     0.00000000    0.00000000    0.00000000
     atom   42 type  2   force =     0.00000000    0.00000000    0.00000000
     atom   43 type  2   force =     0.00000000    0.00000000    0.00000000
     atom   44 type  2   force =     0.00000000    0.00000000    0.00000000
     atom   45 type  2   force =     0.00000000    0.00000000    0.00000000
     atom   46 type  2   force =     0.00000000    0.00000000    0.00000000
     atom   47 type  2   force =     0.00000000    0.00000000    0.00000000
     atom   48 type  2   force =     0.00000000    0.00000000    0.00000000
     atom   49 type  2   force =     0.00000000    0.00000000    0.00000000
     atom   50 type  2   force =     0.00000000    0.00000000    0.00000000
     atom   51 type  2   force =     0.00000000    0.00000000    0.00000000
     atom   52 type  2   force =     0.00000000    0.00000000    0.00000000
     atom   53 type  2   force =     0.00000000    0.00000000    0.00000000
     atom   54 type  2   force =     0.00000000    0.00000000    0.00000000
     atom   55 type  2   force =     0.00000000    0.00000000    0.00000000
     atom   56 type  2   force =     0.00000000    0.00000000    0.00000000
     atom   57 type  2   force =     0.00000000    0.00000000    0.00000000
     atom   58 type  2   force =     0.00000000    0.00000000    0.00000000
     atom   59 type  2   force =     0.00000000    0.00000000    0.00000000
     atom   60 type  2   force =     0.00000000    0.00000000    0.00000000
     atom   61 type  2   force =     0.00000000    0.00000000    0.00000000
     atom   62 type  2   force =     0.00000000    0.00000000    0.00000000
     atom   63 type  2   force =     0.00000000    0.00000000    0.00000000
     atom   64 type  2   force =     0.00000000    0.00000000    0.00000000
     atom   65 type  2   force =     0.00000000    0.00000000    0.00000000
     atom   66 type  2   force =     0.00000000    0.00000000    0.00000000
     atom   67 type  2   force =     0.00000000    0.00000000    0.00000000
     atom   68 type  2   force =     0.00000000    0.00000000    0.00000000
     atom   69 type  2   force =     0.00000000    0.00000000    0.00000000
     atom   70 type  2   force =     0.00000000    0.00000000    0.00000000
     atom   71 type  2   force =     0.00000000    0.00000000    0.00000000
     The SCF correction term to forces
     atom    1 type  1   force =    -0.00000000    0.00000000   -0.00000207
     atom    2 type  1   force =     0.00000002    0.00000102    0.00000117
     atom    3 type  1   force =     0.00000065    0.00000053   -0.00000057
     atom    4 type  1   force =     0.00000089   -0.00000049    0.00000117
     atom    5 type  1   force =     0.00000079    0.00000030   -0.00000057
     atom    6 type  1   force =     0.00000087   -0.00000053    0.00000117
     atom    7 type  1   force =     0.00000013   -0.00000083   -0.00000057
     atom    8 type  1   force =    -0.00000002    0.00000102    0.00000117
     atom    9 type  1   force =    -0.00000065    0.00000053   -0.00000057
     atom   10 type  1   force =    -0.00000000    0.00000000    0.00000020
     atom   11 type  1   force =     0.00000000   -0.00000000   -0.00000048
     atom   12 type  1   force =    -0.00000087   -0.00000053    0.00000117
     atom   13 type  1   force =    -0.00000013   -0.00000083   -0.00000057
     atom   14 type  1   force =     0.00000000   -0.00000000    0.00000042
     atom   15 type  1   force =    -0.00000000   -0.00000000   -0.00000008
     atom   16 type  1   force =    -0.00000089   -0.00000049    0.00000117
     atom   17 type  1   force =    -0.00000079    0.00000030   -0.00000057
     atom   18 type  1   force =     0.00000240   -0.00000138   -0.00000287
     atom   19 type  1   force =    -0.00000024    0.00000014    0.00000157
     atom   20 type  1   force =     0.00000068    0.00000039   -0.00000282
     atom   21 type  1   force =     0.00000068    0.00000039    0.00000250
     atom   22 type  1   force =    -0.00000000    0.00000277   -0.00000287
     atom   23 type  1   force =    -0.00000000   -0.00000027    0.00000157
     atom   24 type  1   force =    -0.00000240   -0.00000138   -0.00000287
     atom   25 type  1   force =     0.00000024    0.00000014    0.00000157
     atom   26 type  1   force =     0.00000000   -0.00000039   -0.00000236
     atom   27 type  1   force =     0.00000000    0.00000098    0.00000215
     atom   28 type  1   force =    -0.00000034    0.00000020   -0.00000236
     atom   29 type  1   force =     0.00000085   -0.00000049    0.00000215
     atom   30 type  1   force =    -0.00000000   -0.00000079   -0.00000282
     atom   31 type  1   force =    -0.00000000   -0.00000078    0.00000250
     atom   32 type  1   force =    -0.00000068    0.00000039   -0.00000282
     atom   33 type  1   force =    -0.00000068    0.00000039    0.00000250
     atom   34 type  1   force =     0.00000034    0.00000020   -0.00000236
     atom   35 type  1   force =    -0.00000085   -0.00000049    0.00000215
     atom   36 type  2   force =    -0.00000000    0.00000000   -0.00000048
     atom   37 type  2   force =    -0.00000000   -0.00000000    0.00000047
     atom   38 type  2   force =     0.00000033   -0.00000033   -0.00000072
     atom   39 type  2   force =     0.00000004    0.00000035    0.00000091
     atom   40 type  2   force =    -0.00000012    0.00000045   -0.00000072
     atom   41 type  2   force =     0.00000032   -0.00000014    0.00000091
     atom   42 type  2   force =    -0.00000045   -0.00000012   -0.00000072
     atom   43 type  2   force =     0.00000028   -0.00000021    0.00000091
     atom   44 type  2   force =    -0.00000033   -0.00000033   -0.00000072
     atom   45 type  2   force =    -0.00000004    0.00000035    0.00000091
     atom   46 type  2   force =    -0.00000000    0.00000000   -0.00000062
     atom   47 type  2   force =    -0.00000000    0.00000000    0.00000083
     atom   48 type  2   force =     0.00000045   -0.00000012   -0.00000072
     atom   49 type  2   force =    -0.00000028   -0.00000021    0.00000091
     atom   50 type  2   force =    -0.00000000   -0.00000000   -0.00000097
     atom   51 type  2   force =    -0.00000000    0.00000000    0.00000095
     atom   52 type  2   force =     0.00000012    0.00000045   -0.00000072
     atom   53 type  2   force =    -0.00000032   -0.00000014    0.00000091
     atom   54 type  2   force =    -0.00000030    0.00000017    0.00000073
     atom   55 type  2   force =     0.00000050   -0.00000029   -0.00000111
     atom   56 type  2   force =     0.00000030    0.00000017    0.00000040
     atom   57 type  2   force =     0.00000036    0.00000021   -0.00000043
     atom   58 type  2   force =    -0.00000000   -0.00000035    0.00000073
     atom   59 type  2   force =    -0.00000000    0.00000057   -0.00000111
     atom   60 type  2   force =     0.00000030    0.00000017    0.00000073
     atom   61 type  2   force =    -0.00000050   -0.00000029   -0.00000111
     atom   62 type  2   force =     0.00000000    0.00000030    0.00000037
     atom   63 type  2   force =    -0.00000000    0.00000030   -0.00000055
     atom   64 type  2   force =     0.00000026   -0.00000015    0.00000037
     atom   65 type  2   force =     0.00000026   -0.00000015   -0.00000055
     atom   66 type  2   force =     0.00000000   -0.00000035    0.00000040
     atom   67 type  2   force =    -0.00000000   -0.00000041   -0.00000043
     atom   68 type  2   force =    -0.00000030    0.00000017    0.00000040
     atom   69 type  2   force =    -0.00000036    0.00000021   -0.00000043
     atom   70 type  2   force =    -0.00000026   -0.00000015    0.00000037
     atom   71 type  2   force =    -0.00000026   -0.00000015   -0.00000055

     Total force =     0.003751     Total SCF correction =     0.000014

     Computing stress (Cartesian axis) and pressure

     Non-local corr. energy    =      19.17570889 Ry

          total   stress  (Ry/bohr**3)                   (kbar)     P=       54.60
   0.00036502   0.00000000   0.00000000           53.70        0.00        0.00
   0.00000000   0.00036502   0.00000000            0.00       53.70        0.00
   0.00000000  -0.00000000   0.00038345            0.00       -0.00       56.41

     kinetic stress (kbar)  18228.00     -0.00      0.00
                               -0.00  18228.00     -0.00
                                0.00     -0.00  18236.66

     local   stress (kbar)   4178.42     -0.07     -0.00
                               -0.07   4178.33      0.00
                               -0.00      0.00   2698.56

     nonloc. stress (kbar)      2.97      0.00      0.00
                                0.00      2.97      0.00
                                0.00      0.00     10.01

     hartree stress (kbar)  19579.34     -0.00     -0.00
                               -0.00  19579.34      0.00
                               -0.00      0.00  20251.42

     exc-cor stress (kbar)   5033.31      0.00      0.00
                                0.00   5033.31      0.00
                                0.00      0.00   5033.80

     corecor stress (kbar) -13736.36     -0.00      0.00
                               -0.00 -13736.36      0.00
                                0.00      0.00 -13736.10

     ewald   stress (kbar) -33390.33      0.09      0.00
                                0.09 -33390.21     -0.00
                                0.00     -0.00 -32595.45

     hubbard stress (kbar)      0.00      0.00      0.00
                                0.00      0.00      0.00
                                0.00      0.00      0.00

     DFT-D   stress (kbar)      0.00      0.00      0.00
                                0.00      0.00      0.00
                                0.00      0.00      0.00

     XDM     stress (kbar)      0.00      0.00      0.00
                                0.00      0.00      0.00
                                0.00      0.00      0.00

     dft-nl  stress (kbar)    158.33     -0.00     -0.00
                               -0.00    158.33     -0.00
                               -0.00     -0.00    157.49

     TS-vdW  stress (kbar)      0.00      0.00      0.00
                                0.00      0.00      0.00
                                0.00      0.00      0.00

     MDB     stress (kbar)      0.00      0.00      0.00
                                0.00      0.00      0.00
                                0.00      0.00      0.00

     3D-RISM stress (kbar)      0.00      0.00      0.00
                                0.00      0.00      0.00
                                0.00      0.00      0.00

     Energy error            =      3.2E-05 Ry
     Gradient error          =      8.5E-04 Ry/Bohr

     bfgs converged in  11 scf cycles and  10 bfgs steps
     (criteria: energy <  1.0E-04 Ry, force <  1.0E-03 Ry/Bohr)

     End of BFGS Geometry Optimization

     Final energy             =  -10957.3088995283 Ry

     File ./GaN.bfgs deleted, as requested
Begin final coordinates

ATOMIC_POSITIONS (angstrom)
Ga            1.6222756606        0.9366198184        7.8973408013
Ga            0.0155995631        3.7087911626        2.6356364474
Ga           -0.0030552637        3.7421257673        7.9325796865
Ga           -1.6471142062        6.5886958894        2.6356364474
Ga           -1.6275730051        6.5558730332        7.9325796865
Ga            4.8263845170        0.9419564625        2.6356364474
Ga            4.8645805449        0.9414447140        7.9325796865
Ga            3.2289517581        3.7087911626        2.6356364474
Ga            3.2476065849        3.7421257673        7.9325796865
Ga            1.6222756606        6.5563425246        2.6365636216
Ga            1.6222756606        6.5563425246        7.9276781995
Ga            8.1518120554        0.9419564625        2.6356364474
Ga            8.1136160275        0.9414447140        7.9325796865
Ga            6.4890982862        3.7464811715        2.6196501054
Ga            6.4890982862        3.7464811715        7.9319930493
Ga            4.8916655274        6.5886958894        2.6356364474
Ga            4.8721243263        6.5558730332        7.9325796865
Ga            0.0348520135        1.8531194927        5.2523671016
Ga            0.0126416136        1.8659426731       10.6108750897
Ga           -1.6192533545        4.6848490249        5.2703188424
Ga           -1.6154453703        4.6870475656       10.5977361432
Ga           -3.2445503819        7.5332110603        5.2523671016
Ga           -3.2445503819        7.5075646995       10.6108750897
Ga            3.2096924740        1.8531194927        5.2523671016
Ga            3.2319028739        1.8659426731       10.6108750897
Ga            1.6222722437        4.6755656831        5.2762169105
Ga            1.6222722437        4.6786156353       10.5775048151
Ga           -0.0065301652        7.4967342110        5.2762169105
Ga           -0.0038888291        7.4952092349       10.5775048151
Ga            6.4890948693        1.8697519960        5.2703188424
Ga            6.4890948693        1.8653549146       10.5977361432
Ga            4.8637978420        4.6848490249        5.2703188424
Ga            4.8599898578        4.6870475656       10.5977361432
Ga            3.2510746527        7.4967342110        5.2762169105
Ga            3.2484333166        7.4952092349       10.5775048151
N             1.6222756606        0.9366198184        4.7799231812
N             1.6222756606        0.9366198184        9.8984028860
N            -0.0005380368        3.7501810328        4.6345635347
N             0.0021320839        3.7545866012        9.9122285966
N            -1.6193383271        6.5540253829        4.6345635347
N            -1.6141879326        6.5541349910        9.9122285966
N             4.8702979960        0.9352370988        4.6345635347
N             4.8727782698        0.9307219223        9.9122285966
N             3.2450893580        3.7501810328        4.6345635347
N             3.2424192373        3.7545866012        9.9122285966
N             1.6222756606        6.5563425246        4.6334540906
N             1.6222756606        6.5563425246        9.9194051285
N             8.1078985764        0.9352370988        4.6345635347
N             8.1054183026        0.9307219223        9.9122285966
N             6.4890982862        3.7464811715        4.6246030390
N             6.4890982862        3.7464811715        9.9278955353
N             4.8638896483        6.5540253829        4.6345635347
N             4.8587392538        6.5541349910        9.9122285966
N            -0.1275096391        1.9468590366        1.9338141554
N            -0.0172123660        1.8831788763        7.2855131886
N            -1.6113424836        4.6894163683        2.0028589447
N            -1.6233163487        4.6825032540        7.2701413705
N            -3.2445503819        7.3457319725        1.9338141554
N            -3.2445503819        7.4730922932        7.2855131886
N             3.3720541266        1.9468590366        1.9338141554
N             3.2617568535        1.8831788763        7.2855131886
N             1.6222722437        4.6900601546        1.9895227147
N             1.6222722437        4.6839133901        7.2718993490
N             0.0060224153        7.4894869752        1.9895227147
N             0.0006991611        7.4925603575        7.2718993490
N             6.4890948693        1.8606173092        2.0028589447
N             6.4890948693        1.8744435376        7.2701413705
N             4.8558869711        4.6894163683        2.0028589447
N             4.8678608362        4.6825032540        7.2701413705
N             3.2385220722        7.4894869752        1.9895227147
N             3.2438453264        7.4925603575        7.2718993490
End final coordinates

     Writing all to output data dir ./GaN.save/

     General routines

     Parallel routines

     PAW routines

   This run was terminated on:  12:10:53  29Jan2024

   JOB DONE.