     Program PWSCF v.7.1 starts on 27Apr2024 at  7:17:36

     Reading input from espresso.pwi
Warning: card &CELL ignored
Warning: card    CELL_DYNAMICS    = 'BFGS' ignored
Warning: card / ignored

     Current dimensions of program PWSCF are:
     Max number of different atomic species (ntypx) = 10
     Max number of k-points (npk) =  40000
     Max angular momentum in pseudopotentials (lmaxx) =  4
     file Ga.pbe-dn-kjpaw_psl.1.0.0.UPF: wavefunction(s)  4S renormalized
     file N.pbe-n-kjpaw_psl.1.0.0.UPF: wavefunction(s)  2S renormalized

     IMPORTANT: XC functional enforced from input :
     Exchange-correlation= BEEF-VDW
                           (   1   4  43  14   2   0   0)
     Any further DFT definition will be discarded
     Please, verify this is what you really want

     K-points division:     npool     =       2
     R & G space division:  proc/nbgrp/npool/nimage =      64
     Subspace diagonalization in iterative solution of the eigenvalue problem:
     a serial algorithm will be used

     Using Slab Decomposition

     bravais-lattice index     =            4
     lattice parameter (alat)  =      30.6565  a.u.
     unit-cell volume          =   24400.9461 (a.u.)^3
     number of atoms/cell      =          299
     number of atomic types    =            2
     number of electrons       =      2690.00
     number of Kohn-Sham states=         1614
     kinetic-energy cutoff     =      70.0000  Ry
     charge density cutoff     =     350.0000  Ry
     scf convergence threshold =      1.0E-07
     mixing beta               =       0.7000
     number of iterations used =            8  plain     mixing
     energy convergence thresh.=      1.0E-04
     force convergence thresh. =      1.0E-03
     Exchange-correlation= BEEF-VDW
                           (   1   4  43  14   2   0   0)
     nstep                     =           50

     celldm(1)=  30.656540  celldm(2)=   0.000000  celldm(3)=   0.977927
     celldm(4)=   0.000000  celldm(5)=   0.000000  celldm(6)=   0.000000

     crystal axes: (cart. coord. in units of alat)
               a(1) = (   1.000000   0.000000   0.000000 )
               a(2) = (  -0.500000   0.866025   0.000000 )
               a(3) = (   0.000000   0.000000   0.977927 )

     reciprocal axes: (cart. coord. in units 2 pi/alat)
               b(1) = (  1.000000  0.577350 -0.000000 )
               b(2) = (  0.000000  1.154701  0.000000 )
               b(3) = (  0.000000 -0.000000  1.022571 )

     PseudoPot. # 1 for Ga read from file:
     //group///packages/espresso/pseudo/psl_1.0.0/pslibrary.1.0.0/pbe/PSEUDOPOTENTIALS/Ga.pbe-dn-kjpaw_psl.1.0.0.UPF
     MD5 check sum: cd2a01e492f15b435d17032472d8505c
     Pseudo is Projector augmented-wave + core cor, Zval = 13.0
     Generated using 'atomic' code by A. Dal Corso  v.7.1
     Shape of augmentation charge: PSQ
     Using radial grid of 1205 points,  6 beta functions with:
                l(1) =   0
                l(2) =   0
                l(3) =   1
                l(4) =   1
                l(5) =   2
                l(6) =   2
     Q(r) pseudized with 0 coefficients

     PseudoPot. # 2 for N  read from file:
     //group///packages/espresso/pseudo/psl_1.0.0/pslibrary.1.0.0/pbe/PSEUDOPOTENTIALS/N.pbe-n-kjpaw_psl.1.0.0.UPF
     MD5 check sum: f77f775694dac7e2c3fe1c82443d1a16
     Pseudo is Projector augmented-wave + core cor, Zval =  5.0
     Generated using 'atomic' code by A. Dal Corso  v.7.1
     Shape of augmentation charge: PSQ
     Using radial grid of 1085 points,  4 beta functions with:
                l(1) =   0
                l(2) =   0
                l(3) =   1
                l(4) =   1
     Q(r) pseudized with 0 coefficients

     atomic species   valence    mass     pseudopotential
        Ga            13.00    69.72300     Ga( 1.00)
        N              5.00    14.00700     N ( 1.00)

      2 Sym. Ops. (no inversion) found

                                    s                        frac. trans.

      isym =  1     identity

 cryst.   s( 1) = (     1          0          0      )
                  (     0          1          0      )
                  (     0          0          1      )

 cart.    s( 1) = (  1.0000000  0.0000000  0.0000000 )
                  (  0.0000000  1.0000000  0.0000000 )
                  (  0.0000000  0.0000000  1.0000000 )

      isym =  2     inv. 180 deg rotation - cryst. axis [0,1,0]

 cryst.   s( 2) = (     1          1          0      )
                  (     0         -1          0      )
                  (     0          0          1      )

 cart.    s( 2) = (  0.5000000  0.8660254  0.0000000 )
                  (  0.8660254 -0.5000000  0.0000000 )
                  (  0.0000000  0.0000000  1.0000000 )

     point group C_s (m)
     there are  2 classes
     the character table:

       E     s
A'     1.00  1.00
A''    1.00 -1.00

     the symmetry operations in each class and the name of the first element:

     E        1
          identity
     s        2
          inv. 180 deg rotation - cryst. axis [0,1,0]

   Cartesian axes

     site n.     atom                  positions (alat units)
         1           Ga  tau(   1) = (   0.1000001   0.0577350   0.4886906  )
         2           Ga  tau(   2) = (   0.1000001   0.0577350   0.8146665  )
         3           Ga  tau(   3) = (   0.0000001   0.2309401   0.1627148  )
         4           Ga  tau(   4) = (   0.0000001   0.2309401   0.4886906  )
         5           Ga  tau(   5) = (   0.0000001   0.2309401   0.8146665  )
         6           Ga  tau(   6) = (  -0.0999999   0.4041451   0.1627148  )
         7           Ga  tau(   7) = (  -0.0999999   0.4041451   0.4886906  )
         8           Ga  tau(   8) = (  -0.0999999   0.4041451   0.8146665  )
         9           Ga  tau(   9) = (  -0.1999999   0.5773502   0.1627148  )
        10           Ga  tau(  10) = (  -0.1999999   0.5773502   0.4886906  )
        11           Ga  tau(  11) = (  -0.1999999   0.5773502   0.8146665  )
        12           Ga  tau(  12) = (  -0.2999999   0.7505553   0.1627148  )
        13           Ga  tau(  13) = (  -0.2999999   0.7505553   0.4886906  )
        14           Ga  tau(  14) = (  -0.2999999   0.7505553   0.8146665  )
        15           Ga  tau(  15) = (   0.3000001   0.0577350   0.1627148  )
        16           Ga  tau(  16) = (   0.3000001   0.0577350   0.4886906  )
        17           Ga  tau(  17) = (   0.3000001   0.0577350   0.8146665  )
        18           Ga  tau(  18) = (   0.2000001   0.2309401   0.1627148  )
        19           Ga  tau(  19) = (   0.2000001   0.2309401   0.4886906  )
        20           Ga  tau(  20) = (   0.2000001   0.2309401   0.8146665  )
        21           Ga  tau(  21) = (   0.1000001   0.4041451   0.1627148  )
        22           Ga  tau(  22) = (   0.1000001   0.4041451   0.4886906  )
        23           Ga  tau(  23) = (   0.1000001   0.4041451   0.8146665  )
        24           Ga  tau(  24) = (   0.0000001   0.5773502   0.1627148  )
        25           Ga  tau(  25) = (   0.0000001   0.5773502   0.4886906  )
        26           Ga  tau(  26) = (   0.0000001   0.5773502   0.8146665  )
        27           Ga  tau(  27) = (  -0.0999999   0.7505553   0.1627148  )
        28           Ga  tau(  28) = (  -0.0999999   0.7505553   0.4886906  )
        29           Ga  tau(  29) = (  -0.0999999   0.7505553   0.8146665  )
        30           Ga  tau(  30) = (   0.5000001   0.0577350   0.1627148  )
        31           Ga  tau(  31) = (   0.5000001   0.0577350   0.4886906  )
        32           Ga  tau(  32) = (   0.5000001   0.0577350   0.8146665  )
        33           Ga  tau(  33) = (   0.4000001   0.2309401   0.1627148  )
        34           Ga  tau(  34) = (   0.4000001   0.2309401   0.4886906  )
        35           Ga  tau(  35) = (   0.4000001   0.2309401   0.8146665  )
        36           Ga  tau(  36) = (   0.3000001   0.4041451   0.1627148  )
        37           Ga  tau(  37) = (   0.3000001   0.4041451   0.4886906  )
        38           Ga  tau(  38) = (   0.3000001   0.4041451   0.8146665  )
        39           Ga  tau(  39) = (   0.2000001   0.5773502   0.1627148  )
        40           Ga  tau(  40) = (   0.2000001   0.5773502   0.4886906  )
        41           Ga  tau(  41) = (   0.2000001   0.5773502   0.8146665  )
        42           Ga  tau(  42) = (   0.1000001   0.7505553   0.1627148  )
        43           Ga  tau(  43) = (   0.1000001   0.7505553   0.4886906  )
        44           Ga  tau(  44) = (   0.1000001   0.7505553   0.8146665  )
        45           Ga  tau(  45) = (   0.7000001   0.0577350   0.1627148  )
        46           Ga  tau(  46) = (   0.7000001   0.0577350   0.4886906  )
        47           Ga  tau(  47) = (   0.7000001   0.0577350   0.8146665  )
        48           Ga  tau(  48) = (   0.6000001   0.2309401   0.1627148  )
        49           Ga  tau(  49) = (   0.6000001   0.2309401   0.4886906  )
        50           Ga  tau(  50) = (   0.6000001   0.2309401   0.8146665  )
        51           Ga  tau(  51) = (   0.5000001   0.4041451   0.1627148  )
        52           Ga  tau(  52) = (   0.5000001   0.4041451   0.4886906  )
        53           Ga  tau(  53) = (   0.5000001   0.4041451   0.8146665  )
        54           Ga  tau(  54) = (   0.4000001   0.5773502   0.1627148  )
        55           Ga  tau(  55) = (   0.4000001   0.5773502   0.4886906  )
        56           Ga  tau(  56) = (   0.4000001   0.5773502   0.8146665  )
        57           Ga  tau(  57) = (   0.3000001   0.7505553   0.1627148  )
        58           Ga  tau(  58) = (   0.3000001   0.7505553   0.4886906  )
        59           Ga  tau(  59) = (   0.3000001   0.7505553   0.8146665  )
        60           Ga  tau(  60) = (   0.9000001   0.0577350   0.1627148  )
[...]
       285           N   tau( 285) = (   0.7999999   0.1154701   0.1225140  )
       286           N   tau( 286) = (   0.7999999   0.1154701   0.4484898  )
       287           N   tau( 287) = (   0.7999999   0.1154701   0.7744656  )
       288           N   tau( 288) = (   0.6999999   0.2886752   0.1225140  )
       289           N   tau( 289) = (   0.6999999   0.2886752   0.4484898  )
       290           N   tau( 290) = (   0.6999999   0.2886752   0.7744656  )
       291           N   tau( 291) = (   0.5999999   0.4618803   0.1225140  )
       292           N   tau( 292) = (   0.5999999   0.4618803   0.4484898  )
       293           N   tau( 293) = (   0.5999999   0.4618803   0.7744656  )
       294           N   tau( 294) = (   0.4999999   0.6350854   0.1225140  )
       295           N   tau( 295) = (   0.4999999   0.6350854   0.4484898  )
       296           N   tau( 296) = (   0.4999999   0.6350854   0.7744656  )
       297           N   tau( 297) = (   0.3999999   0.8082905   0.1225140  )
       298           N   tau( 298) = (   0.3999999   0.8082905   0.4484898  )
       299           N   tau( 299) = (   0.3999999   0.8082905   0.7744656  )

   Crystallographic axes

     site n.     atom                  positions (cryst. coord.)
         1           Ga  tau(   1) = (  0.1333334  0.0666666  0.4997208  )
[...]
     atom   48 type  1   force =     0.00000000    0.00000000    0.00000000
     atom   49 type  1   force =     0.00000000    0.00000000    0.00000000
     atom   50 type  1   force =     0.00000000    0.00000000    0.00000000
     atom   51 type  1   force =     0.00000000    0.00000000    0.00000000
     atom   52 type  1   force =     0.00000000    0.00000000    0.00000000
     atom   53 type  1   force =     0.00000000    0.00000000    0.00000000
     atom   54 type  1   force =     0.00000000    0.00000000    0.00000000
     atom   55 type  1   force =     0.00000000    0.00000000    0.00000000
     atom   56 type  1   force =     0.00000000    0.00000000    0.00000000
     atom   57 type  1   force =     0.00000000    0.00000000    0.00000000
     atom   58 type  1   force =     0.00000000    0.00000000    0.00000000
     atom   59 type  1   force =     0.00000000    0.00000000    0.00000000
     atom   60 type  1   force =     0.00000000    0.00000000    0.00000000
[...]
     atom  285 type  2   force =     0.00000000    0.00000000    0.00000000
     atom  286 type  2   force =     0.00000000    0.00000000    0.00000000
     atom  287 type  2   force =     0.00000000    0.00000000    0.00000000
     atom  288 type  2   force =     0.00000000    0.00000000    0.00000000
     atom  289 type  2   force =     0.00000000    0.00000000    0.00000000
     atom  290 type  2   force =     0.00000000    0.00000000    0.00000000
     atom  291 type  2   force =     0.00000000    0.00000000    0.00000000
     atom  292 type  2   force =     0.00000000    0.00000000    0.00000000
     atom  293 type  2   force =     0.00000000    0.00000000    0.00000000
     atom  294 type  2   force =     0.00000000    0.00000000    0.00000000
     atom  295 type  2   force =     0.00000000    0.00000000    0.00000000
     atom  296 type  2   force =     0.00000000    0.00000000    0.00000000
     atom  297 type  2   force =     0.00000000    0.00000000    0.00000000
     atom  298 type  2   force =     0.00000000    0.00000000    0.00000000
     atom  299 type  2   force =     0.00000000    0.00000000    0.00000000
     The SCF correction term to forces
     atom    1 type  1   force =    -0.00000033   -0.00000019    0.00000104
     atom    2 type  1   force =    -0.00000044   -0.00000025    0.00000519
     atom    3 type  1   force =     0.00000016    0.00000098   -0.00000542
     atom    4 type  1   force =    -0.00000193    0.00000108    0.00000275
     atom    5 type  1   force =    -0.00000130    0.00000033    0.00000352
     atom    6 type  1   force =     0.00000174   -0.00000027   -0.00000558
     atom    7 type  1   force =     0.00000212   -0.00000134    0.00000540
     atom    8 type  1   force =    -0.00000039    0.00000088    0.00000014
     atom    9 type  1   force =     0.00000063    0.00000164   -0.00000558
     atom   10 type  1   force =    -0.00000010    0.00000250    0.00000540
     atom   11 type  1   force =     0.00000057   -0.00000078    0.00000014
     atom   12 type  1   force =     0.00000093   -0.00000035   -0.00000542
     atom   13 type  1   force =    -0.00000003   -0.00000221    0.00000275
     atom   14 type  1   force =    -0.00000037   -0.00000129    0.00000352
     atom   15 type  1   force =     0.00000044   -0.00000108   -0.00000530
     atom   16 type  1   force =     0.00000147    0.00000059    0.00000275
     atom   17 type  1   force =     0.00000062    0.00000039    0.00000361
     atom   18 type  1   force =    -0.00000071    0.00000092   -0.00000530
     atom   19 type  1   force =     0.00000125    0.00000098    0.00000275
     atom   20 type  1   force =     0.00000065    0.00000034    0.00000361
     atom   21 type  1   force =    -0.00000037   -0.00000530   -0.00000534
     atom   22 type  1   force =    -0.00000040    0.00000062    0.00000441
     atom   23 type  1   force =    -0.00000039    0.00000101    0.00000086
     atom   24 type  1   force =    -0.00000370   -0.00000214   -0.00000488
     atom   25 type  1   force =     0.00000047    0.00000027    0.00000594
     atom   26 type  1   force =    -0.00000132   -0.00000076   -0.00000322
     atom   27 type  1   force =    -0.00000477    0.00000232   -0.00000534
     atom   28 type  1   force =     0.00000034   -0.00000066    0.00000441
     atom   29 type  1   force =     0.00000068   -0.00000085    0.00000086
     atom   30 type  1   force =    -0.00000094   -0.00000120   -0.00000543
     atom   31 type  1   force =    -0.00000194   -0.00000112    0.00000528
     atom   32 type  1   force =     0.00000103   -0.00000023    0.00000011
     atom   33 type  1   force =    -0.00000296   -0.00000171   -0.00000385
     atom   34 type  1   force =    -0.00000231   -0.00000133    0.00000438
     atom   35 type  1   force =    -0.00000034   -0.00000019    0.00000136
     atom   36 type  1   force =    -0.00000151   -0.00000022   -0.00000543
     atom   37 type  1   force =    -0.00000194   -0.00000113    0.00000528
     atom   38 type  1   force =     0.00000032    0.00000100    0.00000011
     atom   39 type  1   force =     0.00000335   -0.00000215   -0.00000492
     atom   40 type  1   force =    -0.00000074    0.00000049    0.00000600
     atom   41 type  1   force =     0.00000096   -0.00000056   -0.00000330
     atom   42 type  1   force =    -0.00000019    0.00000398   -0.00000492
     atom   43 type  1   force =     0.00000005   -0.00000088    0.00000600
     atom   44 type  1   force =    -0.00000001    0.00000111   -0.00000330
     atom   45 type  1   force =     0.00000143   -0.00000090   -0.00000574
     atom   46 type  1   force =     0.00000256   -0.00000103    0.00000522
     atom   47 type  1   force =    -0.00000054   -0.00000003    0.00000008
     atom   48 type  1   force =     0.00000019   -0.00000177   -0.00000505
     atom   49 type  1   force =     0.00000018   -0.00000097    0.00000665
     atom   50 type  1   force =     0.00000036   -0.00000140    0.00000028
     atom   51 type  1   force =    -0.00000143    0.00000105   -0.00000505
     atom   52 type  1   force =    -0.00000075    0.00000065    0.00000665
     atom   53 type  1   force =    -0.00000103    0.00000101    0.00000028
     atom   54 type  1   force =    -0.00000006    0.00000169   -0.00000574
     atom   55 type  1   force =     0.00000039    0.00000273    0.00000522
     atom   56 type  1   force =    -0.00000029   -0.00000046    0.00000008
     atom   57 type  1   force =     0.00000501    0.00000289   -0.00000536
     atom   58 type  1   force =    -0.00000011   -0.00000006    0.00000443
     atom   59 type  1   force =    -0.00000053   -0.00000031    0.00000070
     atom   60 type  1   force =    -0.00000076   -0.00000090   -0.00000542
[...]
     atom  285 type  2   force =     0.00000174   -0.00000072   -0.00000252
     atom  286 type  2   force =     0.00000097   -0.00000020    0.00000170
     atom  287 type  2   force =    -0.00000035   -0.00000004    0.00000113
     atom  288 type  2   force =     0.00000066   -0.00000037   -0.00000243
     atom  289 type  2   force =     0.00000089   -0.00000051    0.00000234
     atom  290 type  2   force =     0.00000022   -0.00000001    0.00000083
     atom  291 type  2   force =     0.00000001    0.00000075   -0.00000243
     atom  292 type  2   force =     0.00000001    0.00000102    0.00000234
     atom  293 type  2   force =     0.00000010    0.00000019    0.00000083
     atom  294 type  2   force =     0.00000025    0.00000187   -0.00000252
     atom  295 type  2   force =     0.00000031    0.00000094    0.00000170
     atom  296 type  2   force =    -0.00000021   -0.00000028    0.00000113
     atom  297 type  2   force =     0.00000006    0.00000004   -0.00000272
     atom  298 type  2   force =     0.00000003    0.00000002    0.00000097
     atom  299 type  2   force =    -0.00000032   -0.00000019    0.00000130

     Total force =     0.003879     Total SCF correction =     0.000072

     Computing stress (Cartesian axis) and pressure

[...]

          total   stress  (Ry/bohr**3)                   (kbar)     P=       21.31
   0.00014224   0.00000001  -0.00000002           20.92        0.00       -0.00
   0.00000001   0.00014223  -0.00000001            0.00       20.92       -0.00
  -0.00000002  -0.00000001   0.00015016           -0.00       -0.00       22.09

     kinetic stress (kbar)  18410.08      0.01     -0.00
                                0.01  18410.07     -0.00
                               -0.00     -0.00  18404.16

     local   stress (kbar)   5139.05      0.33      0.49
                                0.33   5138.50      0.28
                                0.49      0.28   3488.92

     nonloc. stress (kbar)     39.74      0.00      0.01
                                0.00     39.74      0.00
                                0.01      0.00     51.49

     hartree stress (kbar)  19596.07     -0.16     -0.20
                               -0.16  19596.26     -0.11
                               -0.20     -0.11  20351.66

     exc-cor stress (kbar)   5171.90      0.00     -0.00
                                0.00   5171.90     -0.00
                               -0.00     -0.00   5172.16

     corecor stress (kbar) -14020.66     -0.00     -0.00
                               -0.00 -14020.66     -0.00
                               -0.00     -0.00 -14020.10

     ewald   stress (kbar) -34476.49     -0.16     -0.30
                               -0.16 -34476.07     -0.17
                               -0.30     -0.17 -33586.56

     hubbard stress (kbar)      0.00      0.00      0.00
                                0.00      0.00      0.00
                                0.00      0.00      0.00

     DFT-D   stress (kbar)      0.00      0.00      0.00
                                0.00      0.00      0.00
                                0.00      0.00      0.00

     XDM     stress (kbar)      0.00      0.00      0.00
                                0.00      0.00      0.00
                                0.00      0.00      0.00

     dft-nl  stress (kbar)    161.20      0.00      0.00
                                0.00    161.20      0.00
                                0.00      0.00    160.35

     TS-vdW  stress (kbar)      0.00      0.00      0.00
                                0.00      0.00      0.00
                                0.00      0.00      0.00

     MDB     stress (kbar)      0.00      0.00      0.00
                                0.00      0.00      0.00
                                0.00      0.00      0.00

     3D-RISM stress (kbar)      0.00      0.00      0.00
                                0.00      0.00      0.00
                                0.00      0.00      0.00

     Energy error            =      2.3E-05 Ry
     Gradient error          =      1.2E-03 Ry/Bohr

     number of scf cycles    =   9
     number of bfgs steps    =   8

     energy             old  =  -46557.6379272095 Ry
     energy             new  =  -46557.6379506809 Ry

     CASE: energy            _new < energy            _old

     new trust radius        =       0.0039099234 bohr
     new conv_thr            =       0.0000000010 Ry

ATOMIC_POSITIONS (angstrom)
Ga            1.6217378229        0.9363092977        7.8595513955
Ga            1.6216974404        0.9362859828       13.2378660628
Ga            0.0142377175        3.6906167893        2.6254467938
Ga           -0.0024078518        3.7407523458        7.9228585020
Ga            0.0032449661        3.7406163828       13.2211118773
Ga           -1.6238214137        6.5570241513        2.6411155366
Ga           -1.6230308549        6.5536426855        7.9240627316
Ga           -1.6220331342        6.5512625329       13.2259057130
Ga           -3.2447309875        9.3645218878        2.6411155366
Ga           -3.2472641434        9.3668972647        7.9240627316
Ga           -3.2488265557        9.3689513924       13.2259057130
Ga           -4.9080830150       12.2163263893        2.6254467938
Ga           -4.8729871340       12.1768431252        7.9228585020
Ga           -4.8702784725       12.1818065906       13.2211118773
Ga            4.8112530350        0.9528219339        2.6254195095
Ga            4.8633010607        0.9417713094        7.9223270011
Ga            4.8600605737        0.9361728482       13.2210685115
Ga            3.2307957914        3.6902541791        2.6254195095
Ga            3.2472496827        3.7408544038        7.9223270011
Ga            3.2407810295        3.7408472903       13.2210685115
Ga            1.6217545299        6.5397402102        2.6370078463
Ga            1.6223753247        6.5497294782        7.9225002305
Ga            1.6223323324        6.5499495719       13.2236534343
Ga            0.0003016025        9.3663771695        2.6393793472
Ga           -0.0011667930        9.3655293909        7.9267897766
Ga           -0.0022082088        9.3649281293       13.2213297671
Ga           -1.6369113479       12.1839150754        2.6370078463
Ga           -1.6279499906       12.1794580655        7.9225002305
Ga           -1.6277808800       12.1793107862       13.2236534343
Ga            8.1122820338        0.9366842022        2.6409694396
Ga            8.1095849062        0.9383569228        7.9239552423
Ga            8.1071939623        0.9387776104       13.2255557587
Ga            6.4715214531        3.7363331822        2.6263816824
Ga            6.4871280983        3.7453436830        7.9201354086
Ga            6.4846526903        3.7439145055       13.2290331216
Ga            4.8673346052        6.5570980167        2.6409694396
Ga            4.8674346600        6.5539258753        7.9239552423
Ga            4.8666035142        6.5516449134       13.2255557587
Ga            3.2443650796        9.3662121025        2.6395351948
Ga            3.2460611899        9.3655214028        7.9269972006
Ga            3.2469370750        9.3649330696       13.2214189176
Ga            1.6221903888       12.1759010859        2.6395351948
Ga            1.6224402805       12.1777153103        7.9269972006
Ga            1.6223687115       12.1787680156       13.2214189176
Ga           11.3534219464        0.9364332813        2.6410085589
Ga           11.3576486911        0.9381184143        7.9239517549
Ga           11.3603015113        0.9384750880       13.2255374800
Ga            9.7331259607        3.7445426959        2.6349158988
Ga            9.7334179161        3.7476563231        7.9244976859
Ga            9.7333897859        3.7463890309       13.2231900620
Ga            8.1094333543        6.5568607861        2.6349158988
Ga            8.1122758122        6.5555568133        7.9244976859
Ga            8.1111642399        6.5561660979       13.2231900620
Ga            6.4876872576        9.3641329786        2.6410085589
Ga            6.4912599980        9.3669508805        7.9239517549
Ga            6.4928952966        9.3690699532       13.2255374800
Ga            4.8811554976       12.1843394799        2.6370711965
Ga            4.8726718779       12.1794414597        7.9228106161
Ga            4.8722929063       12.1792226603       13.2234344602
Ga           14.6551626726        0.9525217387        2.6254539732
[...]
N            12.9443290508        1.8640249983        1.9964933676
N            12.9706236531        1.8740491181        7.2735602585
N            12.9759778480        1.8755066013       12.5611618746
N            11.3551586776        4.6833293476        1.9912706138
N            11.3545615343        4.6840012212        7.2730006155
N            11.3567037159        4.6827609006       12.5665787838
N             9.7334592081        7.4921952237        1.9912706138
N             9.7337424960        7.4913421456        7.2730006155
N             9.7337394376        7.4938174896       12.5665787838
N             8.0864552073       10.2781093123        1.9964933676
N             8.1082836508       10.2958690461        7.2735602585
N             8.1122229657       10.2997771732       12.5611618746
N             6.4815578678       13.1083363689        1.9850333186
N             6.4874376369       13.1117310552        7.2759107599
N             6.4857523077       13.1107580299       12.5541049936

     Writing config-only to output data dir ./GaN.save/
     NEW-OLD atomic charge density approx. for the potential

     Check: negative core charge=   -0.000003

     Non-local corr. energy    =      81.30961276 Ry

     Self-consistent Calculation

     max_seconds     =  154800.00
     Calculation stopped in scf loop at iteration #     0

     Writing config to output data dir ./GaN.save/

     General routines

     Parallel routines

     PAW routines

   This run was terminated on:   2:30:48  29Apr2024

   JOB DONE.