     Program PWSCF v.7.1 starts on 24Apr2024 at  7:49:39

     Reading input from espresso.pwi
Warning: card &CELL ignored
Warning: card    CELL_DYNAMICS    = 'BFGS' ignored
Warning: card / ignored

     Current dimensions of program PWSCF are:
     Max number of different atomic species (ntypx) = 10
     Max number of k-points (npk) =  40000
     Max angular momentum in pseudopotentials (lmaxx) =  4
     file Ga.pbe-dn-kjpaw_psl.1.0.0.UPF: wavefunction(s)  4S renormalized
     file N.pbe-n-kjpaw_psl.1.0.0.UPF: wavefunction(s)  2S renormalized

     IMPORTANT: XC functional enforced from input :
     Exchange-correlation= BEEF-VDW
                           (   1   4  43  14   2   0   0)
     Any further DFT definition will be discarded
     Please, verify this is what you really want

     K-points division:     npool     =       2
     R & G space division:  proc/nbgrp/npool/nimage =      64
     Subspace diagonalization in iterative solution of the eigenvalue problem:
     a serial algorithm will be used

     Using Slab Decomposition

     bravais-lattice index     =            4
     lattice parameter (alat)  =      30.6565  a.u.
     unit-cell volume          =   24400.9461 (a.u.)^3
     number of atoms/cell      =          299
     number of atomic types    =            2
     number of electrons       =      2690.00
     number of Kohn-Sham states=         1614
     kinetic-energy cutoff     =      70.0000  Ry
     charge density cutoff     =     350.0000  Ry
     scf convergence threshold =      1.0E-07
     mixing beta               =       0.7000
     number of iterations used =            8  plain     mixing
     energy convergence thresh.=      1.0E-04
     force convergence thresh. =      1.0E-03
     Exchange-correlation= BEEF-VDW
                           (   1   4  43  14   2   0   0)
     nstep                     =           50

     celldm(1)=  30.656540  celldm(2)=   0.000000  celldm(3)=   0.977927
     celldm(4)=   0.000000  celldm(5)=   0.000000  celldm(6)=   0.000000

     crystal axes: (cart. coord. in units of alat)
               a(1) = (   1.000000   0.000000   0.000000 )
               a(2) = (  -0.500000   0.866025   0.000000 )
               a(3) = (   0.000000   0.000000   0.977927 )

     reciprocal axes: (cart. coord. in units 2 pi/alat)
               b(1) = (  1.000000  0.577350 -0.000000 )
               b(2) = (  0.000000  1.154701  0.000000 )
               b(3) = (  0.000000 -0.000000  1.022571 )

     PseudoPot. # 1 for Ga read from file:
     //group///packages/espresso/pseudo/psl_1.0.0/pslibrary.1.0.0/pbe/PSEUDOPOTENTIALS/Ga.pbe-dn-kjpaw_psl.1.0.0.UPF
     MD5 check sum: cd2a01e492f15b435d17032472d8505c
     Pseudo is Projector augmented-wave + core cor, Zval = 13.0
     Generated using 'atomic' code by A. Dal Corso  v.7.1
     Shape of augmentation charge: PSQ
     Using radial grid of 1205 points,  6 beta functions with:
                l(1) =   0
                l(2) =   0
                l(3) =   1
                l(4) =   1
                l(5) =   2
                l(6) =   2
     Q(r) pseudized with 0 coefficients

     PseudoPot. # 2 for N  read from file:
     //group///packages/espresso/pseudo/psl_1.0.0/pslibrary.1.0.0/pbe/PSEUDOPOTENTIALS/N.pbe-n-kjpaw_psl.1.0.0.UPF
     MD5 check sum: f77f775694dac7e2c3fe1c82443d1a16
     Pseudo is Projector augmented-wave + core cor, Zval =  5.0
     Generated using 'atomic' code by A. Dal Corso  v.7.1
     Shape of augmentation charge: PSQ
     Using radial grid of 1085 points,  4 beta functions with:
                l(1) =   0
                l(2) =   0
                l(3) =   1
                l(4) =   1
     Q(r) pseudized with 0 coefficients

     atomic species   valence    mass     pseudopotential
        Ga            13.00    69.72300     Ga( 1.00)
        N              5.00    14.00700     N ( 1.00)

      2 Sym. Ops. (no inversion) found

                                    s                        frac. trans.

      isym =  1     identity

 cryst.   s( 1) = (     1          0          0      )
                  (     0          1          0      )
                  (     0          0          1      )

 cart.    s( 1) = (  1.0000000  0.0000000  0.0000000 )
                  (  0.0000000  1.0000000  0.0000000 )
                  (  0.0000000  0.0000000  1.0000000 )

      isym =  2     inv. 180 deg rotation - cryst. axis [0,1,0]

 cryst.   s( 2) = (     1          1          0      )
                  (     0         -1          0      )
                  (     0          0          1      )

 cart.    s( 2) = (  0.5000000  0.8660254  0.0000000 )
                  (  0.8660254 -0.5000000  0.0000000 )
                  (  0.0000000  0.0000000  1.0000000 )

     point group C_s (m)
     there are  2 classes
     the character table:

       E     s
A'     1.00  1.00
A''    1.00 -1.00

     the symmetry operations in each class and the name of the first element:

     E        1
          identity
     s        2
          inv. 180 deg rotation - cryst. axis [0,1,0]

   Cartesian axes

     site n.     atom                  positions (alat units)
         1           Ga  tau(   1) = (   0.1000001   0.0577350   0.4886906  )
         2           Ga  tau(   2) = (   0.1000001   0.0577350   0.8146665  )
         3           Ga  tau(   3) = (   0.0000001   0.2309401   0.1627148  )
         4           Ga  tau(   4) = (   0.0000001   0.2309401   0.4886906  )
         5           Ga  tau(   5) = (   0.0000001   0.2309401   0.8146665  )
         6           Ga  tau(   6) = (  -0.0999999   0.4041451   0.1627148  )
         7           Ga  tau(   7) = (  -0.0999999   0.4041451   0.4886906  )
         8           Ga  tau(   8) = (  -0.0999999   0.4041451   0.8146665  )
         9           Ga  tau(   9) = (  -0.1999999   0.5773502   0.1627148  )
        10           Ga  tau(  10) = (  -0.1999999   0.5773502   0.4886906  )
        11           Ga  tau(  11) = (  -0.1999999   0.5773502   0.8146665  )
        12           Ga  tau(  12) = (  -0.2999999   0.7505553   0.1627148  )
        13           Ga  tau(  13) = (  -0.2999999   0.7505553   0.4886906  )
        14           Ga  tau(  14) = (  -0.2999999   0.7505553   0.8146665  )
        15           Ga  tau(  15) = (   0.3000001   0.0577350   0.1627148  )
        16           Ga  tau(  16) = (   0.3000001   0.0577350   0.4886906  )
        17           Ga  tau(  17) = (   0.3000001   0.0577350   0.8146665  )
        18           Ga  tau(  18) = (   0.2000001   0.2309401   0.1627148  )
        19           Ga  tau(  19) = (   0.2000001   0.2309401   0.4886906  )
        20           Ga  tau(  20) = (   0.2000001   0.2309401   0.8146665  )
        21           Ga  tau(  21) = (   0.1000001   0.4041451   0.1627148  )
        22           Ga  tau(  22) = (   0.1000001   0.4041451   0.4886906  )
        23           Ga  tau(  23) = (   0.1000001   0.4041451   0.8146665  )
        24           Ga  tau(  24) = (   0.0000001   0.5773502   0.1627148  )
        25           Ga  tau(  25) = (   0.0000001   0.5773502   0.4886906  )
        26           Ga  tau(  26) = (   0.0000001   0.5773502   0.8146665  )
        27           Ga  tau(  27) = (  -0.0999999   0.7505553   0.1627148  )
        28           Ga  tau(  28) = (  -0.0999999   0.7505553   0.4886906  )
        29           Ga  tau(  29) = (  -0.0999999   0.7505553   0.8146665  )
        30           Ga  tau(  30) = (   0.5000001   0.0577350   0.1627148  )
        31           Ga  tau(  31) = (   0.5000001   0.0577350   0.4886906  )
        32           Ga  tau(  32) = (   0.5000001   0.0577350   0.8146665  )
        33           Ga  tau(  33) = (   0.4000001   0.2309401   0.1627148  )
        34           Ga  tau(  34) = (   0.4000001   0.2309401   0.4886906  )
        35           Ga  tau(  35) = (   0.4000001   0.2309401   0.8146665  )
        36           Ga  tau(  36) = (   0.3000001   0.4041451   0.1627148  )
        37           Ga  tau(  37) = (   0.3000001   0.4041451   0.4886906  )
        38           Ga  tau(  38) = (   0.3000001   0.4041451   0.8146665  )
        39           Ga  tau(  39) = (   0.2000001   0.5773502   0.1627148  )
        40           Ga  tau(  40) = (   0.2000001   0.5773502   0.4886906  )
        41           Ga  tau(  41) = (   0.2000001   0.5773502   0.8146665  )
        42           Ga  tau(  42) = (   0.1000001   0.7505553   0.1627148  )
        43           Ga  tau(  43) = (   0.1000001   0.7505553   0.4886906  )
        44           Ga  tau(  44) = (   0.1000001   0.7505553   0.8146665  )
        45           Ga  tau(  45) = (   0.7000001   0.0577350   0.1627148  )
        46           Ga  tau(  46) = (   0.7000001   0.0577350   0.4886906  )
        47           Ga  tau(  47) = (   0.7000001   0.0577350   0.8146665  )
        48           Ga  tau(  48) = (   0.6000001   0.2309401   0.1627148  )
        49           Ga  tau(  49) = (   0.6000001   0.2309401   0.4886906  )
        50           Ga  tau(  50) = (   0.6000001   0.2309401   0.8146665  )
        51           Ga  tau(  51) = (   0.5000001   0.4041451   0.1627148  )
        52           Ga  tau(  52) = (   0.5000001   0.4041451   0.4886906  )
        53           Ga  tau(  53) = (   0.5000001   0.4041451   0.8146665  )
        54           Ga  tau(  54) = (   0.4000001   0.5773502   0.1627148  )
        55           Ga  tau(  55) = (   0.4000001   0.5773502   0.4886906  )
        56           Ga  tau(  56) = (   0.4000001   0.5773502   0.8146665  )
        57           Ga  tau(  57) = (   0.3000001   0.7505553   0.1627148  )
        58           Ga  tau(  58) = (   0.3000001   0.7505553   0.4886906  )
        59           Ga  tau(  59) = (   0.3000001   0.7505553   0.8146665  )
        60           Ga  tau(  60) = (   0.9000001   0.0577350   0.1627148  )
[...]
       285           N   tau( 285) = (   0.7999999   0.1154701   0.1225140  )
       286           N   tau( 286) = (   0.7999999   0.1154701   0.4484898  )
       287           N   tau( 287) = (   0.7999999   0.1154701   0.7744656  )
       288           N   tau( 288) = (   0.6999999   0.2886752   0.1225140  )
       289           N   tau( 289) = (   0.6999999   0.2886752   0.4484898  )
       290           N   tau( 290) = (   0.6999999   0.2886752   0.7744656  )
       291           N   tau( 291) = (   0.5999999   0.4618803   0.1225140  )
       292           N   tau( 292) = (   0.5999999   0.4618803   0.4484898  )
       293           N   tau( 293) = (   0.5999999   0.4618803   0.7744656  )
       294           N   tau( 294) = (   0.4999999   0.6350854   0.1225140  )
       295           N   tau( 295) = (   0.4999999   0.6350854   0.4484898  )
       296           N   tau( 296) = (   0.4999999   0.6350854   0.7744656  )
       297           N   tau( 297) = (   0.3999999   0.8082905   0.1225140  )
       298           N   tau( 298) = (   0.3999999   0.8082905   0.4484898  )
       299           N   tau( 299) = (   0.3999999   0.8082905   0.7744656  )

   Crystallographic axes

     site n.     atom                  positions (cryst. coord.)
         1           Ga  tau(   1) = (  0.1333334  0.0666666  0.4997208  )
[...]
     atom   55 type  1   force =     0.00000000    0.00000000    0.00000000
     atom   56 type  1   force =     0.00000000    0.00000000    0.00000000
     atom   57 type  1   force =     0.00000000    0.00000000    0.00000000
     atom   58 type  1   force =     0.00000000    0.00000000    0.00000000
     atom   59 type  1   force =     0.00000000    0.00000000    0.00000000
     atom   60 type  1   force =     0.00000000    0.00000000    0.00000000
[...]
     atom  285 type  2   force =     0.00000000    0.00000000    0.00000000
     atom  286 type  2   force =     0.00000000    0.00000000    0.00000000
     atom  287 type  2   force =     0.00000000    0.00000000    0.00000000
     atom  288 type  2   force =     0.00000000    0.00000000    0.00000000
     atom  289 type  2   force =     0.00000000    0.00000000    0.00000000
     atom  290 type  2   force =     0.00000000    0.00000000    0.00000000
     atom  291 type  2   force =     0.00000000    0.00000000    0.00000000
     atom  292 type  2   force =     0.00000000    0.00000000    0.00000000
     atom  293 type  2   force =     0.00000000    0.00000000    0.00000000
     atom  294 type  2   force =     0.00000000    0.00000000    0.00000000
     atom  295 type  2   force =     0.00000000    0.00000000    0.00000000
     atom  296 type  2   force =     0.00000000    0.00000000    0.00000000
     atom  297 type  2   force =     0.00000000    0.00000000    0.00000000
     atom  298 type  2   force =     0.00000000    0.00000000    0.00000000
     atom  299 type  2   force =     0.00000000    0.00000000    0.00000000
     The SCF correction term to forces
     atom    1 type  1   force =     0.00000067    0.00000038   -0.00000197
     atom    2 type  1   force =     0.00000063    0.00000036   -0.00000528
     atom    3 type  1   force =    -0.00000435   -0.00001643    0.00000116
     atom    4 type  1   force =     0.00000518   -0.00001530    0.00000116
     atom    5 type  1   force =     0.00000181   -0.00000443   -0.00000595
     atom    6 type  1   force =    -0.00001133   -0.00000489    0.00000913
     atom    7 type  1   force =    -0.00000420   -0.00000619   -0.00001407
     atom    8 type  1   force =    -0.00000356   -0.00000394    0.00000610
     atom    9 type  1   force =    -0.00000990   -0.00000736    0.00000913
     atom   10 type  1   force =    -0.00000746   -0.00000054   -0.00001407
     atom   11 type  1   force =    -0.00000519   -0.00000111    0.00000610
     atom   12 type  1   force =    -0.00001640    0.00000444    0.00000116
     atom   13 type  1   force =    -0.00001066    0.00001214    0.00000116
     atom   14 type  1   force =    -0.00000293    0.00000378   -0.00000595
     atom   15 type  1   force =    -0.00001015    0.00001326    0.00000128
     atom   16 type  1   force =    -0.00001515    0.00000423    0.00000095
     atom   17 type  1   force =    -0.00000416    0.00000178   -0.00000560
     atom   18 type  1   force =     0.00000641   -0.00001542    0.00000128
     atom   19 type  1   force =    -0.00000391   -0.00001523    0.00000095
     atom   20 type  1   force =    -0.00000053   -0.00000450   -0.00000560
     atom   21 type  1   force =     0.00000077   -0.00000066    0.00000569
     atom   22 type  1   force =     0.00000061   -0.00000906   -0.00000917
     atom   23 type  1   force =     0.00000058   -0.00000615    0.00000146
     atom   24 type  1   force =     0.00000944    0.00000545    0.00001182
     atom   25 type  1   force =    -0.00000410   -0.00000237   -0.00002192
     atom   26 type  1   force =    -0.00000109   -0.00000063    0.00001442
     atom   27 type  1   force =    -0.00000018    0.00000099    0.00000569
     atom   28 type  1   force =    -0.00000754    0.00000506   -0.00000917
     atom   29 type  1   force =    -0.00000504    0.00000358    0.00000146
     atom   30 type  1   force =     0.00000094    0.00001313    0.00000882
     atom   31 type  1   force =    -0.00000345    0.00000719   -0.00001432
     atom   32 type  1   force =    -0.00000185    0.00000567    0.00000634
     atom   33 type  1   force =     0.00000461    0.00000266    0.00000429
     atom   34 type  1   force =    -0.00000251   -0.00000145   -0.00001110
     atom   35 type  1   force =     0.00000195    0.00000112    0.00000721
     atom   36 type  1   force =     0.00001185   -0.00000575    0.00000882
     atom   37 type  1   force =     0.00000451   -0.00000659   -0.00001432
     atom   38 type  1   force =     0.00000398   -0.00000444    0.00000634
     atom   39 type  1   force =    -0.00000911    0.00000474    0.00001175
     atom   40 type  1   force =     0.00000447   -0.00000281   -0.00002186
     atom   41 type  1   force =     0.00000144   -0.00000101    0.00001437
     atom   42 type  1   force =    -0.00000045   -0.00001026    0.00001175
     atom   43 type  1   force =    -0.00000020    0.00000528   -0.00002186
     atom   44 type  1   force =    -0.00000016    0.00000175    0.00001437
     atom   45 type  1   force =    -0.00000277    0.00001280    0.00000894
     atom   46 type  1   force =     0.00000242    0.00000700   -0.00001388
     atom   47 type  1   force =     0.00000083    0.00000530    0.00000591
     atom   48 type  1   force =    -0.00000110    0.00001364    0.00000548
     atom   49 type  1   force =    -0.00000076    0.00000017   -0.00002157
     atom   50 type  1   force =    -0.00000085    0.00000709    0.00001246
     atom   51 type  1   force =     0.00001126   -0.00000778    0.00000548
     atom   52 type  1   force =    -0.00000023   -0.00000074   -0.00002157
     atom   53 type  1   force =     0.00000572   -0.00000428    0.00001246
     atom   54 type  1   force =     0.00000970   -0.00000880    0.00000894
     atom   55 type  1   force =     0.00000728   -0.00000141   -0.00001388
     atom   56 type  1   force =     0.00000500   -0.00000193    0.00000591
     atom   57 type  1   force =    -0.00000041   -0.00000024    0.00000567
     atom   58 type  1   force =     0.00000722    0.00000417   -0.00000851
     atom   59 type  1   force =     0.00000494    0.00000285    0.00000102
     atom   60 type  1   force =     0.00001196    0.00001354    0.00000043
[...]
     atom  285 type  2   force =     0.00000023    0.00000504    0.00000471
     atom  286 type  2   force =     0.00000048    0.00000161   -0.00000211
     atom  287 type  2   force =     0.00000216    0.00000109   -0.00000188
     atom  288 type  2   force =    -0.00000479    0.00000249    0.00000516
     atom  289 type  2   force =    -0.00000081    0.00000025   -0.00000767
     atom  290 type  2   force =    -0.00000143    0.00000063    0.00000361
     atom  291 type  2   force =    -0.00000024   -0.00000539    0.00000516
     atom  292 type  2   force =    -0.00000019   -0.00000083   -0.00000767
     atom  293 type  2   force =    -0.00000017   -0.00000155    0.00000361
     atom  294 type  2   force =     0.00000448   -0.00000232    0.00000471
     atom  295 type  2   force =     0.00000164   -0.00000039   -0.00000211
     atom  296 type  2   force =     0.00000202    0.00000133   -0.00000188
     atom  297 type  2   force =     0.00000300    0.00000173    0.00000363
     atom  298 type  2   force =     0.00000425    0.00000245    0.00000088
     atom  299 type  2   force =     0.00000320    0.00000185   -0.00000450

     Total force =     0.010023     Total SCF correction =     0.000207

     Computing stress (Cartesian axis) and pressure

[...]

          total   stress  (Ry/bohr**3)                   (kbar)     P=       21.42
   0.00014299  -0.00000001   0.00000000           21.03       -0.00        0.00
  -0.00000001   0.00014300   0.00000000           -0.00       21.04        0.00
   0.00000000   0.00000000   0.00015076            0.00        0.00       22.18

     kinetic stress (kbar)  18410.86      0.01      0.00
                                0.01  18410.85      0.00
                                0.00      0.00  18404.84

     local   stress (kbar)   5131.03      1.06      0.11
                                1.06   5129.62      0.07
                                0.11      0.07   3481.90

     nonloc. stress (kbar)     39.03      0.01     -0.00
                                0.01     39.01     -0.00
                               -0.00     -0.00     50.73

     hartree stress (kbar)  19600.35     -0.43     -0.06
                               -0.43  19600.85     -0.03
                               -0.06     -0.03  20354.90

     exc-cor stress (kbar)   5171.86     -0.00      0.00
                               -0.00   5171.86      0.00
                                0.00      0.00   5172.14

     corecor stress (kbar) -14020.65     -0.00     -0.00
                               -0.00 -14020.65     -0.00
                               -0.00     -0.00 -14020.09

     ewald   stress (kbar) -34472.65     -0.64     -0.05
                               -0.64 -34471.69     -0.03
                               -0.05     -0.03 -33582.58

     hubbard stress (kbar)      0.00      0.00      0.00
                                0.00      0.00      0.00
                                0.00      0.00      0.00

     DFT-D   stress (kbar)      0.00      0.00      0.00
                                0.00      0.00      0.00
                                0.00      0.00      0.00

     XDM     stress (kbar)      0.00      0.00      0.00
                                0.00      0.00      0.00
                                0.00      0.00      0.00

     dft-nl  stress (kbar)    161.20      0.00     -0.00
                                0.00    161.20     -0.00
                               -0.00     -0.00    160.35

     TS-vdW  stress (kbar)      0.00      0.00      0.00
                                0.00      0.00      0.00
                                0.00      0.00      0.00

     MDB     stress (kbar)      0.00      0.00      0.00
                                0.00      0.00      0.00
                                0.00      0.00      0.00

     3D-RISM stress (kbar)      0.00      0.00      0.00
                                0.00      0.00      0.00
                                0.00      0.00      0.00

     Energy error            =      8.4E-04 Ry
     Gradient error          =      2.0E-03 Ry/Bohr

     number of scf cycles    =   3
     number of bfgs steps    =   2

     energy             old  =  -46557.6366930793 Ry
     energy             new  =  -46557.6375379423 Ry

     CASE: energy            _new < energy            _old

     new trust radius        =       0.0021772874 bohr
     new conv_thr            =       0.0000000020 Ry

ATOMIC_POSITIONS (angstrom)
Ga            1.6219224669        0.9364159019        7.8690118575
Ga            1.6217623813        0.9363234765       13.2351262203
Ga            0.0125248725        3.6942103113        2.6291294030
Ga           -0.0023201611        3.7399513011        7.9231944776
Ga            0.0032474163        3.7416019768       13.2214475020
Ga           -1.6241573087        6.5555667547        2.6390225715
Ga           -1.6230461693        6.5540256936        7.9252730866
Ga           -1.6219827122        6.5520089975       13.2232051764
Ga           -3.2461610776        9.3649596925        2.6390225715
Ga           -3.2469401059        9.3666924979        7.9252730866
Ga           -3.2481548875        9.3686218269       13.2232051764
Ga           -4.9058273561       12.2130462610        2.6291294030
Ga           -4.8736370138       12.1773195899        7.9231944776
Ga           -4.8694236980       12.1813159154       13.2214475020
Ga            4.8143616849        0.9508009086        2.6290239657
Ga            4.8626600293        0.9419907059        7.9227773600
Ga            4.8610088762        0.9357382880       13.2213522122
Ga            3.2305998571        3.6939568615        2.6290239657
Ga            3.2471191699        3.7401895561        7.9227773600
Ga            3.2408788407        3.7418858245       13.2213522122
Ga            1.6220920576        6.5439629164        2.6377958226
Ga            1.6224721595        6.5513352794        7.9249795349
Ga            1.6224100600        6.5503904642       13.2214690144
Ga           -0.0001542233        9.3661139984        2.6385281740
Ga           -0.0009351038        9.3656631568        7.9271055844
Ga           -0.0016581801        9.3652456885       13.2197071771
Ga           -1.6330856132       12.1820960300        2.6377958226
Ga           -1.6265109085       12.1787390263        7.9249795349
Ga           -1.6273601923       12.1791576542       13.2214690144
Ga            8.1112596912        0.9381189479        2.6388587252
Ga            8.1099282447        0.9382399201        7.9251154480
Ga            8.1077694391        0.9383851899       13.2229624677
Ga            6.4725792310        3.7369438905        2.6274358669
Ga            6.4874020483        3.7455018481        7.9223634143
Ga            6.4853239423        3.7443020530       13.2252488329
Ga            4.8680659602        6.5554952691        2.6388587252
Ga            4.8675050019        6.5542817165        7.9251154480
Ga            4.8665514064        6.5523395012       13.2229624677
Ga            3.2449779162        9.3659398708        2.6387027124
Ga            3.2458869713        9.3656207810        7.9273203712
Ga            3.2465118725        9.3652292815       13.2198131648
Ga            1.6222610475       12.1765679338        2.6387027124
Ga            1.6224392352       12.1775147434        7.9273203712
Ga            1.6224126373       12.1782516735       13.2198131648
Ga           11.3547225149        0.9377564201        2.6389707821
Ga           11.3573061649        0.9379701701        7.9251530374
Ga           11.3596376097        0.9380432639       13.2229025574
Ga            9.7332359989        3.7448767353        2.6349211188
Ga            9.7334017989        3.7472736847        7.9252745516
Ga            9.7333874510        3.7464751458       13.2207848460
Ga            8.1097776600        6.5567890622        2.6349211188
Ga            8.1119363791        6.5557341746        7.9252745516
Ga            8.1112376501        6.5561210183       13.2207848460
Ga            6.4894834137        9.3645977346        2.6389707821
Ga            6.4909603516        9.3667283662        7.9251530374
Ga            6.4921893751        9.3687109096       13.2229025574
Ga            4.8770411114       12.1819640378        2.6379623648
Ga            4.8711629281       12.1785702672        7.9252520133
Ga            4.8719434619       12.1790209085       13.2214337573
Ga           14.6506137630        0.9506979732        2.6289676442
[...]
N            12.9436508662        1.8655448856        1.9943694895
N            12.9701936453        1.8744445869        7.2763812995
N            12.9756344670        1.8751199595       12.5599121276
N            11.3544499184        4.6838796059        1.9895695400
N            11.3543345305        4.6841517317        7.2749392197
N            11.3560709918        4.6831451829       12.5642753204
N             9.7335813661        7.4913062910        1.9895695400
N             9.7337593400        7.4910702993        7.2749392197
N             9.7337558738        7.4930773933       12.5642753204
N             8.0874323760       10.2767620435        1.9943694895
N             8.1084111329       10.2952989139        7.2763812995
N             8.1117164335       10.2996731174       12.5599121276
N             6.4770075548       13.1057092445        1.9861810510
N             6.4857627846       13.1107640788        7.2799805851
N             6.4856302536       13.1106875620       12.5535752000

     Writing config-only to output data dir ./GaN.save/
     NEW-OLD atomic charge density approx. for the potential

     Check: negative core charge=   -0.000003

[...]

     Self-consistent Calculation

[...]

     Threshold (ethr) on eigenvalues was too large:
     Diagonalizing with lowered threshold

     Davidson diagonalization with overlap

[...]

     ethr =  4.81E-12,  avg # of iterations = 16.0

     Non-local corr. energy    =      81.30987757 Ry

     total energy              =  -46557.63762677 Ry
     estimated scf accuracy    <          4.9E-09 Ry

     iteration # 10     ecut=    70.00 Ry     beta= 0.70
     Davidson diagonalization with overlap

     c_bands:  1 eigenvalues not converged

     max_seconds     =  154800.00
     Calculation stopped in k-point loop, point #     2
     Calculation stopped in scf loop at iteration #     9

     Writing config to output data dir ./GaN.save/

     General routines

     Parallel routines

     PAW routines

   This run was terminated on:   2:52:42  26Apr2024

   JOB DONE.