     Program PWSCF v.7.1 starts on 22Mar2024 at  9:51:28

     Reading input from espresso.pwi
Warning: card &CELL ignored
Warning: card    CELL_DYNAMICS    = 'BFGS' ignored
Warning: card / ignored

     Current dimensions of program PWSCF are:
     Max number of different atomic species (ntypx) = 10
     Max number of k-points (npk) =  40000
     Max angular momentum in pseudopotentials (lmaxx) =  4
     file Ga.pbe-dn-kjpaw_psl.1.0.0.UPF: wavefunction(s)  4S renormalized
     file N.pbe-n-kjpaw_psl.1.0.0.UPF: wavefunction(s)  2S renormalized

     IMPORTANT: XC functional enforced from input :
     Exchange-correlation= BEEF-VDW
                           (   1   4  43  14   2   0   0)
     Any further DFT definition will be discarded
     Please, verify this is what you really want

     K-points division:     npool     =       3
     R & G space division:  proc/nbgrp/npool/nimage =      60
     Subspace diagonalization in iterative solution of the eigenvalue problem:
     a serial algorithm will be used

     Using Slab Decomposition

     bravais-lattice index     =            4
     lattice parameter (alat)  =      30.6565  a.u.
     unit-cell volume          =   24400.9461 (a.u.)^3
     number of atoms/cell      =          299
     number of atomic types    =            2
     number of electrons       =      2689.00
     number of Kohn-Sham states=         1614
     kinetic-energy cutoff     =      70.0000  Ry
     charge density cutoff     =     350.0000  Ry
     scf convergence threshold =      1.0E-07
     mixing beta               =       0.7000
     number of iterations used =            8  plain     mixing
     energy convergence thresh.=      1.0E-04
     force convergence thresh. =      1.0E-03
     Exchange-correlation= BEEF-VDW
                           (   1   4  43  14   2   0   0)
     nstep                     =           50

     celldm(1)=  30.656540  celldm(2)=   0.000000  celldm(3)=   0.977927
     celldm(4)=   0.000000  celldm(5)=   0.000000  celldm(6)=   0.000000

     crystal axes: (cart. coord. in units of alat)
               a(1) = (   1.000000   0.000000   0.000000 )
               a(2) = (  -0.500000   0.866025   0.000000 )
               a(3) = (   0.000000   0.000000   0.977927 )

     reciprocal axes: (cart. coord. in units 2 pi/alat)
               b(1) = (  1.000000  0.577350 -0.000000 )
               b(2) = (  0.000000  1.154701  0.000000 )
               b(3) = (  0.000000 -0.000000  1.022571 )

     PseudoPot. # 1 for Ga read from file:
     //group///packages/espresso/pseudo/psl_1.0.0/pslibrary.1.0.0/pbe/PSEUDOPOTENTIALS/Ga.pbe-dn-kjpaw_psl.1.0.0.UPF
     MD5 check sum: cd2a01e492f15b435d17032472d8505c
     Pseudo is Projector augmented-wave + core cor, Zval = 13.0
     Generated using 'atomic' code by A. Dal Corso  v.7.1
     Shape of augmentation charge: PSQ
     Using radial grid of 1205 points,  6 beta functions with:
                l(1) =   0
                l(2) =   0
                l(3) =   1
                l(4) =   1
                l(5) =   2
                l(6) =   2
     Q(r) pseudized with 0 coefficients

     PseudoPot. # 2 for N  read from file:
     //group///packages/espresso/pseudo/psl_1.0.0/pslibrary.1.0.0/pbe/PSEUDOPOTENTIALS/N.pbe-n-kjpaw_psl.1.0.0.UPF
     MD5 check sum: f77f775694dac7e2c3fe1c82443d1a16
     Pseudo is Projector augmented-wave + core cor, Zval =  5.0
     Generated using 'atomic' code by A. Dal Corso  v.7.1
     Shape of augmentation charge: PSQ
     Using radial grid of 1085 points,  4 beta functions with:
                l(1) =   0
                l(2) =   0
                l(3) =   1
                l(4) =   1
     Q(r) pseudized with 0 coefficients

     atomic species   valence    mass     pseudopotential
        Ga            13.00    69.72300     Ga( 1.00)
        N              5.00    14.00700     N ( 1.00)

      2 Sym. Ops. (no inversion) found

                                    s                        frac. trans.

      isym =  1     identity

 cryst.   s( 1) = (     1          0          0      )
                  (     0          1          0      )
                  (     0          0          1      )

 cart.    s( 1) = (  1.0000000  0.0000000  0.0000000 )
                  (  0.0000000  1.0000000  0.0000000 )
                  (  0.0000000  0.0000000  1.0000000 )

      isym =  2     inv. 180 deg rotation - cryst. axis [0,1,0]

 cryst.   s( 2) = (     1          1          0      )
                  (     0         -1          0      )
                  (     0          0          1      )

 cart.    s( 2) = (  0.5000000  0.8660254  0.0000000 )
                  (  0.8660254 -0.5000000  0.0000000 )
                  (  0.0000000  0.0000000  1.0000000 )

     point group C_s (m)
     there are  2 classes
     the character table:

       E     s
A'     1.00  1.00
A''    1.00 -1.00

     the symmetry operations in each class and the name of the first element:

     E        1
          identity
     s        2
          inv. 180 deg rotation - cryst. axis [0,1,0]

   Cartesian axes

     site n.     atom                  positions (alat units)
         1           Ga  tau(   1) = (   0.1000001   0.0577350   0.4886906  )
         2           Ga  tau(   2) = (   0.1000001   0.0577350   0.8146665  )
         3           Ga  tau(   3) = (   0.0000001   0.2309401   0.1627148  )
         4           Ga  tau(   4) = (   0.0000001   0.2309401   0.4886906  )
         5           Ga  tau(   5) = (   0.0000001   0.2309401   0.8146665  )
         6           Ga  tau(   6) = (  -0.0999999   0.4041451   0.1627148  )
         7           Ga  tau(   7) = (  -0.0999999   0.4041451   0.4886906  )
         8           Ga  tau(   8) = (  -0.0999999   0.4041451   0.8146665  )
         9           Ga  tau(   9) = (  -0.1999999   0.5773502   0.1627148  )
        10           Ga  tau(  10) = (  -0.1999999   0.5773502   0.4886906  )
        11           Ga  tau(  11) = (  -0.1999999   0.5773502   0.8146665  )
        12           Ga  tau(  12) = (  -0.2999999   0.7505553   0.1627148  )
        13           Ga  tau(  13) = (  -0.2999999   0.7505553   0.4886906  )
        14           Ga  tau(  14) = (  -0.2999999   0.7505553   0.8146665  )
        15           Ga  tau(  15) = (   0.3000001   0.0577350   0.1627148  )
        16           Ga  tau(  16) = (   0.3000001   0.0577350   0.4886906  )
        17           Ga  tau(  17) = (   0.3000001   0.0577350   0.8146665  )
        18           Ga  tau(  18) = (   0.2000001   0.2309401   0.1627148  )
        19           Ga  tau(  19) = (   0.2000001   0.2309401   0.4886906  )
        20           Ga  tau(  20) = (   0.2000001   0.2309401   0.8146665  )
        21           Ga  tau(  21) = (   0.1000001   0.4041451   0.1627148  )
        22           Ga  tau(  22) = (   0.1000001   0.4041451   0.4886906  )
        23           Ga  tau(  23) = (   0.1000001   0.4041451   0.8146665  )
        24           Ga  tau(  24) = (   0.0000001   0.5773502   0.1627148  )
        25           Ga  tau(  25) = (   0.0000001   0.5773502   0.4886906  )
        26           Ga  tau(  26) = (   0.0000001   0.5773502   0.8146665  )
        27           Ga  tau(  27) = (  -0.0999999   0.7505553   0.1627148  )
        28           Ga  tau(  28) = (  -0.0999999   0.7505553   0.4886906  )
        29           Ga  tau(  29) = (  -0.0999999   0.7505553   0.8146665  )
        30           Ga  tau(  30) = (   0.5000001   0.0577350   0.1627148  )
        31           Ga  tau(  31) = (   0.5000001   0.0577350   0.4886906  )
        32           Ga  tau(  32) = (   0.5000001   0.0577350   0.8146665  )
        33           Ga  tau(  33) = (   0.4000001   0.2309401   0.1627148  )
        34           Ga  tau(  34) = (   0.4000001   0.2309401   0.4886906  )
        35           Ga  tau(  35) = (   0.4000001   0.2309401   0.8146665  )
        36           Ga  tau(  36) = (   0.3000001   0.4041451   0.1627148  )
        37           Ga  tau(  37) = (   0.3000001   0.4041451   0.4886906  )
        38           Ga  tau(  38) = (   0.3000001   0.4041451   0.8146665  )
        39           Ga  tau(  39) = (   0.2000001   0.5773502   0.1627148  )
        40           Ga  tau(  40) = (   0.2000001   0.5773502   0.4886906  )
        41           Ga  tau(  41) = (   0.2000001   0.5773502   0.8146665  )
        42           Ga  tau(  42) = (   0.1000001   0.7505553   0.1627148  )
        43           Ga  tau(  43) = (   0.1000001   0.7505553   0.4886906  )
        44           Ga  tau(  44) = (   0.1000001   0.7505553   0.8146665  )
        45           Ga  tau(  45) = (   0.7000001   0.0577350   0.1627148  )
        46           Ga  tau(  46) = (   0.7000001   0.0577350   0.4886906  )
        47           Ga  tau(  47) = (   0.7000001   0.0577350   0.8146665  )
        48           Ga  tau(  48) = (   0.6000001   0.2309401   0.1627148  )
        49           Ga  tau(  49) = (   0.6000001   0.2309401   0.4886906  )
        50           Ga  tau(  50) = (   0.6000001   0.2309401   0.8146665  )
        51           Ga  tau(  51) = (   0.5000001   0.4041451   0.1627148  )
        52           Ga  tau(  52) = (   0.5000001   0.4041451   0.4886906  )
        53           Ga  tau(  53) = (   0.5000001   0.4041451   0.8146665  )
        54           Ga  tau(  54) = (   0.4000001   0.5773502   0.1627148  )
        55           Ga  tau(  55) = (   0.4000001   0.5773502   0.4886906  )
        56           Ga  tau(  56) = (   0.4000001   0.5773502   0.8146665  )
        57           Ga  tau(  57) = (   0.3000001   0.7505553   0.1627148  )
        58           Ga  tau(  58) = (   0.3000001   0.7505553   0.4886906  )
        59           Ga  tau(  59) = (   0.3000001   0.7505553   0.8146665  )
        60           Ga  tau(  60) = (   0.9000001   0.0577350   0.1627148  )
[...]
       285           N   tau( 285) = (   0.7999999   0.1154701   0.1225140  )
       286           N   tau( 286) = (   0.7999999   0.1154701   0.4484898  )
       287           N   tau( 287) = (   0.7999999   0.1154701   0.7744656  )
       288           N   tau( 288) = (   0.6999999   0.2886752   0.1225140  )
       289           N   tau( 289) = (   0.6999999   0.2886752   0.4484898  )
       290           N   tau( 290) = (   0.6999999   0.2886752   0.7744656  )
       291           N   tau( 291) = (   0.5999999   0.4618803   0.1225140  )
       292           N   tau( 292) = (   0.5999999   0.4618803   0.4484898  )
       293           N   tau( 293) = (   0.5999999   0.4618803   0.7744656  )
       294           N   tau( 294) = (   0.4999999   0.6350854   0.1225140  )
       295           N   tau( 295) = (   0.4999999   0.6350854   0.4484898  )
       296           N   tau( 296) = (   0.4999999   0.6350854   0.7744656  )
       297           N   tau( 297) = (   0.3999999   0.8082905   0.1225140  )
       298           N   tau( 298) = (   0.3999999   0.8082905   0.4484898  )
       299           N   tau( 299) = (   0.3999999   0.8082905   0.7744656  )

   Crystallographic axes

     site n.     atom                  positions (cryst. coord.)
         1           Ga  tau(   1) = (  0.1333334  0.0666666  0.4997208  )
[...]
     atom   45 type  1   force =     0.00000000    0.00000000    0.00000000
     atom   46 type  1   force =     0.00000000    0.00000000    0.00000000
     atom   47 type  1   force =     0.00000000    0.00000000    0.00000000
     atom   48 type  1   force =     0.00000000    0.00000000    0.00000000
     atom   49 type  1   force =     0.00000000    0.00000000    0.00000000
     atom   50 type  1   force =     0.00000000    0.00000000    0.00000000
     atom   51 type  1   force =     0.00000000    0.00000000    0.00000000
     atom   52 type  1   force =     0.00000000    0.00000000    0.00000000
     atom   53 type  1   force =     0.00000000    0.00000000    0.00000000
     atom   54 type  1   force =     0.00000000    0.00000000    0.00000000
     atom   55 type  1   force =     0.00000000    0.00000000    0.00000000
     atom   56 type  1   force =     0.00000000    0.00000000    0.00000000
     atom   57 type  1   force =     0.00000000    0.00000000    0.00000000
     atom   58 type  1   force =     0.00000000    0.00000000    0.00000000
     atom   59 type  1   force =     0.00000000    0.00000000    0.00000000
     atom   60 type  1   force =     0.00000000    0.00000000    0.00000000
[...]
     atom  285 type  2   force =     0.00000000    0.00000000    0.00000000
     atom  286 type  2   force =     0.00000000    0.00000000    0.00000000
     atom  287 type  2   force =     0.00000000    0.00000000    0.00000000
     atom  288 type  2   force =     0.00000000    0.00000000    0.00000000
     atom  289 type  2   force =     0.00000000    0.00000000    0.00000000
     atom  290 type  2   force =     0.00000000    0.00000000    0.00000000
     atom  291 type  2   force =     0.00000000    0.00000000    0.00000000
     atom  292 type  2   force =     0.00000000    0.00000000    0.00000000
     atom  293 type  2   force =     0.00000000    0.00000000    0.00000000
     atom  294 type  2   force =     0.00000000    0.00000000    0.00000000
     atom  295 type  2   force =     0.00000000    0.00000000    0.00000000
     atom  296 type  2   force =     0.00000000    0.00000000    0.00000000
     atom  297 type  2   force =     0.00000000    0.00000000    0.00000000
     atom  298 type  2   force =     0.00000000    0.00000000    0.00000000
     atom  299 type  2   force =     0.00000000    0.00000000    0.00000000
     The SCF correction term to forces
     atom    1 type  1   force =     0.00000260    0.00000150    0.00011368
     atom    2 type  1   force =     0.00000086    0.00000050   -0.00012697
     atom    3 type  1   force =    -0.00000010    0.00006681    0.00007255
     atom    4 type  1   force =     0.00000980   -0.00001490    0.00000528
     atom    5 type  1   force =     0.00001915   -0.00000421   -0.00004237
     atom    6 type  1   force =    -0.00000209   -0.00003297    0.00000436
     atom    7 type  1   force =     0.00001199   -0.00000228    0.00001545
     atom    8 type  1   force =     0.00001159    0.00000058   -0.00005275
     atom    9 type  1   force =    -0.00002960    0.00001468    0.00000436
     atom   10 type  1   force =     0.00000403    0.00001152    0.00001545
     atom   11 type  1   force =     0.00000629    0.00000975   -0.00005275
     atom   12 type  1   force =     0.00005781   -0.00003349    0.00007255
     atom   13 type  1   force =    -0.00000801    0.00001594    0.00000528
     atom   14 type  1   force =     0.00000593    0.00001868   -0.00004237
     atom   15 type  1   force =     0.00005723   -0.00001282    0.00005686
     atom   16 type  1   force =    -0.00002046   -0.00000110    0.00000315
     atom   17 type  1   force =    -0.00001344   -0.00001275   -0.00003965
     atom   18 type  1   force =     0.00001751    0.00005598    0.00005686
     atom   19 type  1   force =    -0.00001118   -0.00001717    0.00000315
     atom   20 type  1   force =    -0.00001777   -0.00000526   -0.00003965
     atom   21 type  1   force =     0.00001026    0.00005861    0.00003851
     atom   22 type  1   force =    -0.00000006    0.00002174    0.00003037
     atom   23 type  1   force =     0.00000007   -0.00000704   -0.00005517
     atom   24 type  1   force =    -0.00000837   -0.00000483    0.00002896
     atom   25 type  1   force =     0.00000441    0.00000255    0.00001193
     atom   26 type  1   force =     0.00000120    0.00000070   -0.00005088
     atom   27 type  1   force =     0.00005589   -0.00002042    0.00003851
     atom   28 type  1   force =     0.00001880   -0.00001093    0.00003037
     atom   29 type  1   force =    -0.00000606    0.00000358   -0.00005517
     atom   30 type  1   force =    -0.00003241    0.00002520    0.00000230
     atom   31 type  1   force =    -0.00000927   -0.00000997    0.00001177
     atom   32 type  1   force =    -0.00000764   -0.00001111   -0.00004901
     atom   33 type  1   force =    -0.00000776   -0.00000448    0.00004846
     atom   34 type  1   force =    -0.00002341   -0.00001352    0.00001936
     atom   35 type  1   force =    -0.00001301   -0.00000751   -0.00006517
     atom   36 type  1   force =     0.00000562   -0.00004067    0.00000230
     atom   37 type  1   force =    -0.00001327   -0.00000305    0.00001177
     atom   38 type  1   force =    -0.00001344   -0.00000106   -0.00004901
     atom   39 type  1   force =     0.00001068   -0.00000903    0.00002988
     atom   40 type  1   force =    -0.00000546    0.00000370    0.00001076
     atom   41 type  1   force =    -0.00000267    0.00000043   -0.00004998
     atom   42 type  1   force =    -0.00000248    0.00001376    0.00002989
     atom   43 type  1   force =     0.00000047   -0.00000658    0.00001076
     atom   44 type  1   force =    -0.00000096   -0.00000253   -0.00004998
     atom   45 type  1   force =     0.00002693    0.00001952    0.00000306
     atom   46 type  1   force =     0.00000888   -0.00001020    0.00001526
     atom   47 type  1   force =     0.00000437   -0.00001048   -0.00005211
     atom   48 type  1   force =    -0.00000606   -0.00000968    0.00002679
     atom   49 type  1   force =     0.00000056   -0.00001198    0.00000446
     atom   50 type  1   force =    -0.00000074   -0.00001176   -0.00003900
     atom   51 type  1   force =    -0.00001141   -0.00000041    0.00002679
     atom   52 type  1   force =    -0.00001010    0.00000647    0.00000446
     atom   53 type  1   force =    -0.00001056    0.00000523   -0.00003900
     atom   54 type  1   force =     0.00003037    0.00001357    0.00000306
     atom   55 type  1   force =    -0.00000439    0.00001279    0.00001526
     atom   56 type  1   force =    -0.00000689    0.00000903   -0.00005211
     atom   57 type  1   force =    -0.00005354   -0.00003091    0.00003728
     atom   58 type  1   force =    -0.00002029   -0.00001171    0.00003243
     atom   59 type  1   force =     0.00000617    0.00000356   -0.00005431
     atom   60 type  1   force =    -0.00003958   -0.00002849    0.00006813
[...]
     atom  285 type  2   force =     0.00000128    0.00000011    0.00001457
     atom  286 type  2   force =     0.00000428    0.00000176    0.00000726
     atom  287 type  2   force =     0.00000941   -0.00000226   -0.00001942
     atom  288 type  2   force =    -0.00000308    0.00000039    0.00001304
     atom  289 type  2   force =     0.00000306   -0.00000151   -0.00000194
     atom  290 type  2   force =     0.00000804   -0.00000335   -0.00001446
     atom  291 type  2   force =    -0.00000120   -0.00000286    0.00001304
     atom  292 type  2   force =     0.00000022    0.00000340   -0.00000194
     atom  293 type  2   force =     0.00000112    0.00000864   -0.00001446
     atom  294 type  2   force =     0.00000074    0.00000106    0.00001457
     atom  295 type  2   force =     0.00000367    0.00000283    0.00000726
     atom  296 type  2   force =     0.00000275    0.00000928   -0.00001942
     atom  297 type  2   force =     0.00000716    0.00000413    0.00000777
     atom  298 type  2   force =     0.00000372    0.00000215    0.00000879
     atom  299 type  2   force =     0.00000846    0.00000489   -0.00001705

     Total force =     0.004750     Total SCF correction =     0.000633
     SCF correction compared to forces is large: reduce conv_thr to get better values

     Computing stress (Cartesian axis) and pressure

     Non-local corr. energy    =      81.31046652 Ry

          total   stress  (Ry/bohr**3)                   (kbar)     P=       14.73
   0.00009686  -0.00000002   0.00000002           14.25       -0.00        0.00
  -0.00000002   0.00009688   0.00000001           -0.00       14.25        0.00
   0.00000002   0.00000001   0.00010661            0.00        0.00       15.68

     kinetic stress (kbar)  18398.49      0.00      0.00
                                0.00  18398.48      0.00
                                0.00      0.00  18393.96

     local   stress (kbar)   5120.53      1.31     -0.06
                                1.31   5118.84     -0.04
                               -0.06     -0.04   3471.03

     nonloc. stress (kbar)     46.20      0.02     -0.01
                                0.02     46.18     -0.00
                               -0.01     -0.00     57.44

     hartree stress (kbar)  19603.74     -0.52      0.01
                               -0.52  19604.34      0.00
                                0.01      0.00  20358.09

     exc-cor stress (kbar)   5173.64     -0.00      0.00
                               -0.00   5173.65      0.00
                                0.00      0.00   5173.94

     corecor stress (kbar) -14020.55      0.00     -0.00
                                0.00 -14020.55     -0.00
                               -0.00     -0.00 -14020.01

     ewald   stress (kbar) -34469.01     -0.80      0.06
                               -0.80 -34467.86      0.04
                                0.06      0.04 -33579.10

     hubbard stress (kbar)      0.00      0.00      0.00
                                0.00      0.00      0.00
                                0.00      0.00      0.00

     DFT-D   stress (kbar)      0.00      0.00      0.00
                                0.00      0.00      0.00
                                0.00      0.00      0.00

     XDM     stress (kbar)      0.00      0.00      0.00
                                0.00      0.00      0.00
                                0.00      0.00      0.00

     dft-nl  stress (kbar)    161.19      0.00     -0.00
                                0.00    161.19     -0.00
                               -0.00     -0.00    160.34

     TS-vdW  stress (kbar)      0.00      0.00      0.00
                                0.00      0.00      0.00
                                0.00      0.00      0.00

     MDB     stress (kbar)      0.00      0.00      0.00
                                0.00      0.00      0.00
                                0.00      0.00      0.00

     3D-RISM stress (kbar)      0.00      0.00      0.00
                                0.00      0.00      0.00
                                0.00      0.00      0.00

     Energy error            =      7.4E-05 Ry
     Gradient error          =      9.2E-04 Ry/Bohr

     bfgs converged in   7 scf cycles and   6 bfgs steps
     (criteria: energy <  1.0E-04 Ry, force <  1.0E-03 Ry/Bohr)

     End of BFGS Geometry Optimization

     Final energy             =  -46558.3514103931 Ry

     File ./GaN.bfgs deleted, as requested
Begin final coordinates

ATOMIC_POSITIONS (angstrom)
Ga            1.6219599599        0.9364375485        7.8790623977
Ga            1.6217672518        0.9363262885       13.2290165715
Ga            0.0133300616        3.7112527531        2.6364796688
Ga           -0.0024290227        3.7430664858        7.9245170095
Ga            0.0024858497        3.7425720337       13.2183068126
Ga           -1.6230259113        6.5583626670        2.6407075369
Ga           -1.6230337196        6.5550285598        7.9262905545
Ga           -1.6220970761        6.5529143938       13.2214266781
Ga           -3.2431740478        9.3645415552        2.6407075369
Ga           -3.2460653734        9.3662018466        7.9262905545
Ga           -3.2474279731        9.3680700866       13.2214266781
Ga           -4.8906655740       12.2052223543        2.6364796688
Ga           -4.8709936155       12.1756677206        7.9245170095
Ga           -4.8689643873       12.1801713511       13.2183068126
Ga            4.8284678495        0.9412932872        2.6363162113
Ga            4.8654554195        0.9404967214        7.9241242139
Ga            4.8622477885        0.9359262143       13.2182065137
Ga            3.2294190977        3.7109269691        2.6363162113
Ga            3.2472230364        3.7433574273        7.9241242139
Ga            3.2416610457        3.7428647909       13.2182065137
Ga            1.6221947484        6.5478194244        2.6391672514
Ga            1.6224983580        6.5530516765        7.9261664184
Ga            1.6224313016        6.5519551083       13.2197084003
Ga            0.0005223991        9.3665046465        2.6392772574
Ga           -0.0005449935        9.3658883871        7.9277133879
Ga           -0.0012450808        9.3654841915       13.2185558978
Ga           -1.6296944339       12.1802567088        2.6391672514
Ga           -1.6250113658       12.1779035164        7.9261664184
Ga           -1.6259945500       12.1783937279       13.2197084003
Ga            8.1131188672        0.9357667074        2.6405405635
Ga            8.1107770108        0.9377200261        7.9261285273
Ga            8.1085856370        0.9380191113       13.2211970032
Ga            6.4768555046        3.7394127982        2.6301713791
Ga            6.4884227877        3.7460911723        7.9235954618
Ga            6.4861316200        3.7447683660       13.2231506023
Ga            4.8669584482        6.5582814831        2.6405405635
Ga            4.8674791435        6.5552767166        7.9261285273
Ga            4.8666424721        6.5532293886       13.2211970032
Ga            3.2443336569        9.3663364717        2.6394538014
Ga            3.2455025263        9.3658391720        7.9279267668
Ga            3.2461142639        9.3654606918       13.2186640938
Ga            1.6222823844       12.1758116884        2.6394538014
Ga            1.6224361449       12.1770726088        7.9279267668
Ga            1.6224142402       12.1777916292       13.2186640938
Ga           11.3529083838        0.9353722084        2.6406678521
Ga           11.3564239140        0.9374414474        7.9261699934
Ga           11.3587748051        0.9376713611       13.2211281017
Ga            9.7332468083        3.7454203639        2.6363104831
Ga            9.7333928397        3.7472682202        7.9260818968
Ga            9.7333796729        3.7465069969       13.2195180262
Ga            8.1102538609        6.5565266092        2.6363104831
Ga            8.1119271671        6.5557291480        7.9260818968
Ga            8.1112613450        6.5560983568       13.2195180262
Ga            6.4865115602        9.3642187569        2.6406678521
Ga            6.4900613389        9.3662286758        7.9261699934
Ga            6.4914358955        9.3681496504       13.2211281017
Ga            4.8736593527       12.1800115785        2.6393392273
Ga            4.8696304580       12.1776854951        7.9264297757
Ga            4.8705713189       12.1782287014       13.2197002047
Ga           14.6361649124        0.9411459534        2.6363133074
[...]
N            12.9520402520        1.8663747098        1.9935940973
N            12.9718235411        1.8741770381        7.2756038953
N            12.9766947964        1.8745528456       12.5609847378
N            11.3555235167        4.6832763667        1.9892507081
N            11.3547390493        4.6839139579        7.2745646287
N            11.3563567524        4.6829774446       12.5646318108
N             9.7335957448        7.4925376740        1.9892507081
N             9.7337556812        7.4915395098        7.2745646287
N             9.7337534885        7.4934087384       12.5646318108
N             8.0923457177       10.2836125527        1.9935940973
N             8.1089943768       10.2968442195        7.2756038953
N             8.1117554633       10.3008749466       12.5609847378
N             6.4811163058       13.1080814330        1.9868383254
N             6.4870176608       13.1114885819        7.2788870862
N             6.4867199916       13.1113167225       12.5554241682
End final coordinates

     Writing all to output data dir ./GaN.save/

     General routines

     Parallel routines

     PAW routines

   This run was terminated on:  12:58:22  22Mar2024

   JOB DONE.