     Program PWSCF v.7.1 starts on 19Feb2024 at  8:18:46

     Reading input from espresso.pwi
Warning: card &CELL ignored
Warning: card    CELL_DYNAMICS    = 'BFGS' ignored
Warning: card / ignored

     Current dimensions of program PWSCF are:
     Max number of different atomic species (ntypx) = 10
     Max number of k-points (npk) =  40000
     Max angular momentum in pseudopotentials (lmaxx) =  4
     file Ga.pbe-dn-kjpaw_psl.1.0.0.UPF: wavefunction(s)  4S renormalized
     file N.pbe-n-kjpaw_psl.1.0.0.UPF: wavefunction(s)  2S renormalized

     IMPORTANT: XC functional enforced from input :
     Exchange-correlation= BEEF-VDW
                           (   1   4  43  14   2   0   0)
     Any further DFT definition will be discarded
     Please, verify this is what you really want

     K-points division:     npool     =       4
     R & G space division:  proc/nbgrp/npool/nimage =      64
     Subspace diagonalization in iterative solution of the eigenvalue problem:
     a serial algorithm will be used

     Using Slab Decomposition

     bravais-lattice index     =            4
     lattice parameter (alat)  =      30.6565  a.u.
     unit-cell volume          =   24400.9461 (a.u.)^3
     number of atoms/cell      =          299
     number of atomic types    =            2
     number of electrons       =      2688.00
     number of Kohn-Sham states=         1613
     kinetic-energy cutoff     =      70.0000  Ry
     charge density cutoff     =     350.0000  Ry
     scf convergence threshold =      1.0E-07
     mixing beta               =       0.7000
     number of iterations used =            8  plain     mixing
     energy convergence thresh.=      1.0E-04
     force convergence thresh. =      1.0E-03
     Exchange-correlation= BEEF-VDW
                           (   1   4  43  14   2   0   0)
     nstep                     =           50

     celldm(1)=  30.656540  celldm(2)=   0.000000  celldm(3)=   0.977927
     celldm(4)=   0.000000  celldm(5)=   0.000000  celldm(6)=   0.000000

     crystal axes: (cart. coord. in units of alat)
               a(1) = (   1.000000   0.000000   0.000000 )
               a(2) = (  -0.500000   0.866025   0.000000 )
               a(3) = (   0.000000   0.000000   0.977927 )

     reciprocal axes: (cart. coord. in units 2 pi/alat)
               b(1) = (  1.000000  0.577350 -0.000000 )
               b(2) = (  0.000000  1.154701  0.000000 )
               b(3) = (  0.000000 -0.000000  1.022571 )

     PseudoPot. # 1 for Ga read from file:
     //group///packages/espresso/pseudo/psl_1.0.0/pslibrary.1.0.0/pbe/PSEUDOPOTENTIALS/Ga.pbe-dn-kjpaw_psl.1.0.0.UPF
     MD5 check sum: cd2a01e492f15b435d17032472d8505c
     Pseudo is Projector augmented-wave + core cor, Zval = 13.0
     Generated using 'atomic' code by A. Dal Corso  v.7.1
     Shape of augmentation charge: PSQ
     Using radial grid of 1205 points,  6 beta functions with:
                l(1) =   0
                l(2) =   0
                l(3) =   1
                l(4) =   1
                l(5) =   2
                l(6) =   2
     Q(r) pseudized with 0 coefficients

     PseudoPot. # 2 for N  read from file:
     //group///packages/espresso/pseudo/psl_1.0.0/pslibrary.1.0.0/pbe/PSEUDOPOTENTIALS/N.pbe-n-kjpaw_psl.1.0.0.UPF
     MD5 check sum: f77f775694dac7e2c3fe1c82443d1a16
     Pseudo is Projector augmented-wave + core cor, Zval =  5.0
     Generated using 'atomic' code by A. Dal Corso  v.7.1
     Shape of augmentation charge: PSQ
     Using radial grid of 1085 points,  4 beta functions with:
                l(1) =   0
                l(2) =   0
                l(3) =   1
                l(4) =   1
     Q(r) pseudized with 0 coefficients

     atomic species   valence    mass     pseudopotential
        Ga            13.00    69.72300     Ga( 1.00)
        N              5.00    14.00700     N ( 1.00)

      2 Sym. Ops. (no inversion) found

                                    s                        frac. trans.

      isym =  1     identity

 cryst.   s( 1) = (     1          0          0      )
                  (     0          1          0      )
                  (     0          0          1      )

 cart.    s( 1) = (  1.0000000  0.0000000  0.0000000 )
                  (  0.0000000  1.0000000  0.0000000 )
                  (  0.0000000  0.0000000  1.0000000 )

      isym =  2     inv. 180 deg rotation - cryst. axis [0,1,0]

 cryst.   s( 2) = (     1          1          0      )
                  (     0         -1          0      )
                  (     0          0          1      )

 cart.    s( 2) = (  0.5000000  0.8660254  0.0000000 )
                  (  0.8660254 -0.5000000  0.0000000 )
                  (  0.0000000  0.0000000  1.0000000 )

     point group C_s (m)
     there are  2 classes
     the character table:

       E     s
A'     1.00  1.00
A''    1.00 -1.00

     the symmetry operations in each class and the name of the first element:

     E        1
          identity
     s        2
          inv. 180 deg rotation - cryst. axis [0,1,0]

   Cartesian axes

     site n.     atom                  positions (alat units)
         1           Ga  tau(   1) = (   0.1000001   0.0577350   0.4886906  )
         2           Ga  tau(   2) = (   0.1000001   0.0577350   0.8146665  )
         3           Ga  tau(   3) = (   0.0000001   0.2309401   0.1627148  )
         4           Ga  tau(   4) = (   0.0000001   0.2309401   0.4886906  )
         5           Ga  tau(   5) = (   0.0000001   0.2309401   0.8146665  )
         6           Ga  tau(   6) = (  -0.0999999   0.4041451   0.1627148  )
         7           Ga  tau(   7) = (  -0.0999999   0.4041451   0.4886906  )
         8           Ga  tau(   8) = (  -0.0999999   0.4041451   0.8146665  )
         9           Ga  tau(   9) = (  -0.1999999   0.5773502   0.1627148  )
        10           Ga  tau(  10) = (  -0.1999999   0.5773502   0.4886906  )
        11           Ga  tau(  11) = (  -0.1999999   0.5773502   0.8146665  )
        12           Ga  tau(  12) = (  -0.2999999   0.7505553   0.1627148  )
        13           Ga  tau(  13) = (  -0.2999999   0.7505553   0.4886906  )
        14           Ga  tau(  14) = (  -0.2999999   0.7505553   0.8146665  )
        15           Ga  tau(  15) = (   0.3000001   0.0577350   0.1627148  )
        16           Ga  tau(  16) = (   0.3000001   0.0577350   0.4886906  )
        17           Ga  tau(  17) = (   0.3000001   0.0577350   0.8146665  )
        18           Ga  tau(  18) = (   0.2000001   0.2309401   0.1627148  )
        19           Ga  tau(  19) = (   0.2000001   0.2309401   0.4886906  )
        20           Ga  tau(  20) = (   0.2000001   0.2309401   0.8146665  )
        21           Ga  tau(  21) = (   0.1000001   0.4041451   0.1627148  )
        22           Ga  tau(  22) = (   0.1000001   0.4041451   0.4886906  )
        23           Ga  tau(  23) = (   0.1000001   0.4041451   0.8146665  )
        24           Ga  tau(  24) = (   0.0000001   0.5773502   0.1627148  )
        25           Ga  tau(  25) = (   0.0000001   0.5773502   0.4886906  )
        26           Ga  tau(  26) = (   0.0000001   0.5773502   0.8146665  )
        27           Ga  tau(  27) = (  -0.0999999   0.7505553   0.1627148  )
        28           Ga  tau(  28) = (  -0.0999999   0.7505553   0.4886906  )
        29           Ga  tau(  29) = (  -0.0999999   0.7505553   0.8146665  )
        30           Ga  tau(  30) = (   0.5000001   0.0577350   0.1627148  )
        31           Ga  tau(  31) = (   0.5000001   0.0577350   0.4886906  )
        32           Ga  tau(  32) = (   0.5000001   0.0577350   0.8146665  )
        33           Ga  tau(  33) = (   0.4000001   0.2309401   0.1627148  )
        34           Ga  tau(  34) = (   0.4000001   0.2309401   0.4886906  )
        35           Ga  tau(  35) = (   0.4000001   0.2309401   0.8146665  )
        36           Ga  tau(  36) = (   0.3000001   0.4041451   0.1627148  )
        37           Ga  tau(  37) = (   0.3000001   0.4041451   0.4886906  )
        38           Ga  tau(  38) = (   0.3000001   0.4041451   0.8146665  )
        39           Ga  tau(  39) = (   0.2000001   0.5773502   0.1627148  )
        40           Ga  tau(  40) = (   0.2000001   0.5773502   0.4886906  )
        41           Ga  tau(  41) = (   0.2000001   0.5773502   0.8146665  )
        42           Ga  tau(  42) = (   0.1000001   0.7505553   0.1627148  )
        43           Ga  tau(  43) = (   0.1000001   0.7505553   0.4886906  )
        44           Ga  tau(  44) = (   0.1000001   0.7505553   0.8146665  )
        45           Ga  tau(  45) = (   0.7000001   0.0577350   0.1627148  )
        46           Ga  tau(  46) = (   0.7000001   0.0577350   0.4886906  )
        47           Ga  tau(  47) = (   0.7000001   0.0577350   0.8146665  )
        48           Ga  tau(  48) = (   0.6000001   0.2309401   0.1627148  )
        49           Ga  tau(  49) = (   0.6000001   0.2309401   0.4886906  )
        50           Ga  tau(  50) = (   0.6000001   0.2309401   0.8146665  )
        51           Ga  tau(  51) = (   0.5000001   0.4041451   0.1627148  )
        52           Ga  tau(  52) = (   0.5000001   0.4041451   0.4886906  )
        53           Ga  tau(  53) = (   0.5000001   0.4041451   0.8146665  )
        54           Ga  tau(  54) = (   0.4000001   0.5773502   0.1627148  )
        55           Ga  tau(  55) = (   0.4000001   0.5773502   0.4886906  )
        56           Ga  tau(  56) = (   0.4000001   0.5773502   0.8146665  )
        57           Ga  tau(  57) = (   0.3000001   0.7505553   0.1627148  )
        58           Ga  tau(  58) = (   0.3000001   0.7505553   0.4886906  )
        59           Ga  tau(  59) = (   0.3000001   0.7505553   0.8146665  )
        60           Ga  tau(  60) = (   0.9000001   0.0577350   0.1627148  )
[...]
       285           N   tau( 285) = (   0.7999999   0.1154701   0.1225140  )
       286           N   tau( 286) = (   0.7999999   0.1154701   0.4484898  )
       287           N   tau( 287) = (   0.7999999   0.1154701   0.7744656  )
       288           N   tau( 288) = (   0.6999999   0.2886752   0.1225140  )
       289           N   tau( 289) = (   0.6999999   0.2886752   0.4484898  )
       290           N   tau( 290) = (   0.6999999   0.2886752   0.7744656  )
       291           N   tau( 291) = (   0.5999999   0.4618803   0.1225140  )
       292           N   tau( 292) = (   0.5999999   0.4618803   0.4484898  )
       293           N   tau( 293) = (   0.5999999   0.4618803   0.7744656  )
       294           N   tau( 294) = (   0.4999999   0.6350854   0.1225140  )
       295           N   tau( 295) = (   0.4999999   0.6350854   0.4484898  )
       296           N   tau( 296) = (   0.4999999   0.6350854   0.7744656  )
       297           N   tau( 297) = (   0.3999999   0.8082905   0.1225140  )
       298           N   tau( 298) = (   0.3999999   0.8082905   0.4484898  )
       299           N   tau( 299) = (   0.3999999   0.8082905   0.7744656  )

   Crystallographic axes

     site n.     atom                  positions (cryst. coord.)
         1           Ga  tau(   1) = (  0.1333334  0.0666666  0.4997208  )
[...]
     atom   45 type  1   force =     0.00000000    0.00000000    0.00000000
     atom   46 type  1   force =     0.00000000    0.00000000    0.00000000
     atom   47 type  1   force =     0.00000000    0.00000000    0.00000000
     atom   48 type  1   force =     0.00000000    0.00000000    0.00000000
     atom   49 type  1   force =     0.00000000    0.00000000    0.00000000
     atom   50 type  1   force =     0.00000000    0.00000000    0.00000000
     atom   51 type  1   force =     0.00000000    0.00000000    0.00000000
     atom   52 type  1   force =     0.00000000    0.00000000    0.00000000
     atom   53 type  1   force =     0.00000000    0.00000000    0.00000000
     atom   54 type  1   force =     0.00000000    0.00000000    0.00000000
     atom   55 type  1   force =     0.00000000    0.00000000    0.00000000
     atom   56 type  1   force =     0.00000000    0.00000000    0.00000000
     atom   57 type  1   force =     0.00000000    0.00000000    0.00000000
     atom   58 type  1   force =     0.00000000    0.00000000    0.00000000
     atom   59 type  1   force =     0.00000000    0.00000000    0.00000000
     atom   60 type  1   force =     0.00000000    0.00000000    0.00000000
[...]
     atom  285 type  2   force =     0.00000000    0.00000000    0.00000000
     atom  286 type  2   force =     0.00000000    0.00000000    0.00000000
     atom  287 type  2   force =     0.00000000    0.00000000    0.00000000
     atom  288 type  2   force =     0.00000000    0.00000000    0.00000000
     atom  289 type  2   force =     0.00000000    0.00000000    0.00000000
     atom  290 type  2   force =     0.00000000    0.00000000    0.00000000
     atom  291 type  2   force =     0.00000000    0.00000000    0.00000000
     atom  292 type  2   force =     0.00000000    0.00000000    0.00000000
     atom  293 type  2   force =     0.00000000    0.00000000    0.00000000
     atom  294 type  2   force =     0.00000000    0.00000000    0.00000000
     atom  295 type  2   force =     0.00000000    0.00000000    0.00000000
     atom  296 type  2   force =     0.00000000    0.00000000    0.00000000
     atom  297 type  2   force =     0.00000000    0.00000000    0.00000000
     atom  298 type  2   force =     0.00000000    0.00000000    0.00000000
     atom  299 type  2   force =     0.00000000    0.00000000    0.00000000
     The SCF correction term to forces
     atom    1 type  1   force =     0.00000859    0.00000496    0.00002406
     atom    2 type  1   force =     0.00000627    0.00000362   -0.00002930
     atom    3 type  1   force =     0.00006370    0.00001736    0.00003212
     atom    4 type  1   force =     0.00002634   -0.00000804    0.00002075
     atom    5 type  1   force =     0.00002274   -0.00000738    0.00000114
     atom    6 type  1   force =     0.00003608    0.00000672   -0.00000690
     atom    7 type  1   force =     0.00000055   -0.00000266    0.00005386
     atom    8 type  1   force =     0.00001398   -0.00000551   -0.00002312
     atom    9 type  1   force =     0.00002386    0.00002789   -0.00000690
     atom   10 type  1   force =    -0.00000203    0.00000180    0.00005386
     atom   11 type  1   force =     0.00000222    0.00001486   -0.00002312
     atom   12 type  1   force =     0.00004688    0.00004648    0.00003212
     atom   13 type  1   force =     0.00000621    0.00002683    0.00002075
     atom   14 type  1   force =     0.00000498    0.00002338    0.00000114
     atom   15 type  1   force =    -0.00002304   -0.00002457    0.00001606
     atom   16 type  1   force =    -0.00001685   -0.00000647    0.00001988
     atom   17 type  1   force =    -0.00001175   -0.00000495    0.00000395
     atom   18 type  1   force =    -0.00003280   -0.00000766    0.00001606
     atom   19 type  1   force =    -0.00001403   -0.00001135    0.00001988
     atom   20 type  1   force =    -0.00001017   -0.00000770    0.00000395
     atom   21 type  1   force =     0.00001093    0.00001238   -0.00002771
     atom   22 type  1   force =     0.00000557   -0.00000597    0.00004064
     atom   23 type  1   force =     0.00000623   -0.00000877   -0.00002271
     atom   24 type  1   force =     0.00002225    0.00001285   -0.00002532
     atom   25 type  1   force =     0.00000803    0.00000464    0.00004132
     atom   26 type  1   force =     0.00001070    0.00000618   -0.00002321
     atom   27 type  1   force =     0.00001618    0.00000327   -0.00002771
     atom   28 type  1   force =    -0.00000238    0.00000781    0.00004064
     atom   29 type  1   force =    -0.00000448    0.00000978   -0.00002271
     atom   30 type  1   force =    -0.00001697   -0.00002409   -0.00001163
     atom   31 type  1   force =    -0.00000667    0.00000685    0.00005202
     atom   32 type  1   force =    -0.00001358   -0.00000299   -0.00002067
     atom   33 type  1   force =    -0.00001821   -0.00001052    0.00001702
     atom   34 type  1   force =    -0.00000084   -0.00000049    0.00006121
     atom   35 type  1   force =    -0.00001402   -0.00000809   -0.00001822
     atom   36 type  1   force =    -0.00002934   -0.00000265   -0.00001163
     atom   37 type  1   force =     0.00000260   -0.00000921    0.00005202
     atom   38 type  1   force =    -0.00000937   -0.00001026   -0.00002067
     atom   39 type  1   force =    -0.00001506    0.00000628   -0.00002689
     atom   40 type  1   force =    -0.00000628   -0.00000053    0.00004008
     atom   41 type  1   force =    -0.00000631    0.00000131   -0.00002220
     atom   42 type  1   force =    -0.00000210   -0.00001618   -0.00002689
     atom   43 type  1   force =    -0.00000360   -0.00000518    0.00004008
     atom   44 type  1   force =    -0.00000202   -0.00000612   -0.00002220
     atom   45 type  1   force =     0.00000327   -0.00003141   -0.00001011
     atom   46 type  1   force =    -0.00000531    0.00000390    0.00005205
     atom   47 type  1   force =     0.00000385   -0.00000652   -0.00001996
     atom   48 type  1   force =    -0.00000954    0.00000706    0.00000078
     atom   49 type  1   force =    -0.00000786    0.00000961    0.00006293
     atom   50 type  1   force =    -0.00000799   -0.00000021   -0.00003487
     atom   51 type  1   force =     0.00000134   -0.00001179    0.00000078
     atom   52 type  1   force =     0.00000439   -0.00001161    0.00006293
     atom   53 type  1   force =    -0.00000418   -0.00000682   -0.00003487
     atom   54 type  1   force =    -0.00002557    0.00001853   -0.00001011
     atom   55 type  1   force =     0.00000072   -0.00000655    0.00005205
     atom   56 type  1   force =    -0.00000372    0.00000659   -0.00001996
     atom   57 type  1   force =    -0.00001859   -0.00001073   -0.00002860
     atom   58 type  1   force =    -0.00000092   -0.00000053    0.00003923
     atom   59 type  1   force =     0.00000276    0.00000159   -0.00002049
     atom   60 type  1   force =     0.00001222   -0.00005145    0.00003344
[...]
     atom  285 type  2   force =     0.00000908   -0.00000506   -0.00001169
     atom  286 type  2   force =     0.00000091    0.00000221    0.00001942
     atom  287 type  2   force =     0.00000555    0.00000004   -0.00000343
     atom  288 type  2   force =    -0.00000352   -0.00000163   -0.00000842
     atom  289 type  2   force =    -0.00000481    0.00000093    0.00002558
     atom  290 type  2   force =    -0.00000124   -0.00000156   -0.00001139
     atom  291 type  2   force =    -0.00000317   -0.00000223   -0.00000842
     atom  292 type  2   force =    -0.00000160   -0.00000463    0.00002558
     atom  293 type  2   force =    -0.00000197   -0.00000030   -0.00001139
     atom  294 type  2   force =     0.00000016    0.00001040   -0.00001169
     atom  295 type  2   force =     0.00000237   -0.00000032    0.00001942
     atom  296 type  2   force =     0.00000281    0.00000479   -0.00000343
     atom  297 type  2   force =     0.00001176    0.00000679   -0.00001111
     atom  298 type  2   force =     0.00000505    0.00000292    0.00001399
     atom  299 type  2   force =     0.00000609    0.00000352    0.00000210

     Total force =     0.003595     Total SCF correction =     0.000680
     SCF correction compared to forces is large: reduce conv_thr to get better values

     Computing stress (Cartesian axis) and pressure

     Non-local corr. energy    =      81.30988933 Ry

          total   stress  (Ry/bohr**3)                   (kbar)     P=        8.34
   0.00005280  -0.00000004   0.00000001            7.77       -0.01        0.00
  -0.00000004   0.00005284   0.00000001           -0.01        7.77        0.00
   0.00000001   0.00000001   0.00006446            0.00        0.00        9.48

     kinetic stress (kbar)  18386.45     -0.01      0.00
                               -0.01  18386.46      0.00
                                0.00      0.00  18383.22

     local   stress (kbar)   5104.96      1.05     -0.17
                                1.05   5103.57     -0.10
                               -0.17     -0.10   3447.82

     nonloc. stress (kbar)     53.36      0.01     -0.01
                                0.01     53.34     -0.00
                               -0.01     -0.00     64.00

     hartree stress (kbar)  19610.02     -0.42      0.05
                               -0.42  19610.50      0.03
                                0.05      0.03  20366.41

     exc-cor stress (kbar)   5175.42     -0.00      0.00
                               -0.00   5175.42      0.00
                                0.00      0.00   5175.75

     corecor stress (kbar) -14020.45      0.00     -0.00
                                0.00 -14020.45     -0.00
                               -0.00     -0.00 -14019.93

     ewald   stress (kbar) -34463.19     -0.63      0.12
                               -0.63 -34462.23      0.07
                                0.12      0.07 -33568.10

     hubbard stress (kbar)      0.00      0.00      0.00
                                0.00      0.00      0.00
                                0.00      0.00      0.00

     DFT-D   stress (kbar)      0.00      0.00      0.00
                                0.00      0.00      0.00
                                0.00      0.00      0.00

     XDM     stress (kbar)      0.00      0.00      0.00
                                0.00      0.00      0.00
                                0.00      0.00      0.00

     dft-nl  stress (kbar)    161.18      0.00     -0.00
                                0.00    161.18     -0.00
                               -0.00     -0.00    160.31

     TS-vdW  stress (kbar)      0.00      0.00      0.00
                                0.00      0.00      0.00
                                0.00      0.00      0.00

     MDB     stress (kbar)      0.00      0.00      0.00
                                0.00      0.00      0.00
                                0.00      0.00      0.00

     3D-RISM stress (kbar)      0.00      0.00      0.00
                                0.00      0.00      0.00
                                0.00      0.00      0.00

     Energy error            =      4.0E-05 Ry
     Gradient error          =      9.6E-04 Ry/Bohr

     bfgs converged in   5 scf cycles and   4 bfgs steps
     (criteria: energy <  1.0E-04 Ry, force <  1.0E-03 Ry/Bohr)

     End of BFGS Geometry Optimization

     Final energy             =  -46559.0328543848 Ry

     File ./GaN.bfgs deleted, as requested
Begin final coordinates

ATOMIC_POSITIONS (angstrom)
Ga            1.6219702410        0.9364434843        7.8933321446
Ga            1.6217633780        0.9363240519       13.2177000384
Ga            0.0146430593        3.7289798842        2.6455104142
Ga           -0.0020000774        3.7459701007        7.9249174495
Ga            0.0021803511        3.7442397490       13.2153020883
Ga           -1.6210349190        6.5597036647        2.6419449009
Ga           -1.6229742983        6.5558719319        7.9273674886
Ga           -1.6219068207        6.5541540332       13.2187344009
Ga           -3.2410172136        9.3655953063        2.6419449009
Ga           -3.2453052811        9.3658316209        7.9273674886
Ga           -3.2462592863        9.3676150330       13.2187344009
Ga           -4.8746569293       12.1974958781        2.6455104142
Ga           -4.8682645385       12.1745873907        7.9249174495
Ga           -4.8676728528       12.1790729239       13.2153020883
Ga            4.8430751458        0.9309851507        2.6451774483
Ga            4.8677975020        0.9384810875        7.9245972656
Ga            4.8638588218        0.9353567332       13.2151243698
Ga            3.2277956377        3.7287313270        2.6451774483
Ga            3.2466484875        3.7463935471        7.9245972656
Ga            3.2419733773        3.7445447272       13.2151243698
Ga            1.6224422879        6.5550845429        2.6407607069
Ga            1.6225414160        6.5558954919        7.9281295868
Ga            1.6224802172        6.5539277365       13.2170374881
Ga            0.0012515754        9.3669256366        2.6397890521
Ga           -0.0001481852        9.3661174845        7.9281415949
Ga           -0.0006269214        9.3658410860       13.2168599571
Ga           -1.6232788869       12.1768385251        2.6407607069
Ga           -1.6225270205       12.1765188980        7.9281295868
Ga           -1.6242617461       12.1774497759       13.2170374881
Ga            8.1134830415        0.9334127798        2.6417960419
Ga            8.1114389187        0.9371799664        7.9272133188
Ga            8.1094950810        0.9371554049       13.2185608716
Ga            6.4811375101        3.7418850153        2.6348833092
Ga            6.4889667220        3.7464052129        7.9258245733
Ga            6.4870221708        3.7452825257       13.2196722262
Ga            4.8651019742        6.5597738310        2.6417960419
Ga            4.8673423921        6.5561199755        7.9272133188
Ga            4.8663492024        6.5544488434       13.2185608716
Ga            3.2436572089        9.3667412934        2.6399763295
Ga            3.2450983600        9.3660543649        7.9283377186
Ga            3.2455265561        9.3657910620       13.2170012684
Ga            1.6222947462       12.1750234564        2.6399763295
Ga            1.6224204243       12.1766149941        7.9283377186
Ga            1.6224064953       12.1771174743       13.2170012684
Ga           11.3528545334        0.9329059150        2.6419379353
Ga           11.3556465737        0.9368747610        7.9272810903
Ga           11.3577137280        0.9367842553       13.2184537497
Ga            9.7332922882        3.7457656680        2.6384048812
Ga            9.7333440727        3.7470448114        7.9270839078
Ga            9.7333370123        3.7464950574       13.2173754148
Ga            8.1105756430        6.5563933439        2.6384048812
Ga            8.1117093059        6.5557986189        7.9270839078
Ga            8.1112296747        6.5560673814       13.2173754148
Ga            6.4843487623        9.3654052677        2.6419379353
Ga            6.4891819040        9.3658388225        7.9272810903
Ga            6.4901371009        9.3676742836       13.2184537497
Ga            4.8672762558       12.1763262959        2.6409776989
Ga            4.8670390707       12.1761893570        7.9283859484
Ga            4.8687832137       12.1771963384       13.2171180194
Ga           14.6227810158        0.9314150483        2.6451644766
[...]
N            12.9594382816        1.8684198761        1.9911806640
N            12.9734078079        1.8739991763        7.2757172155
N            12.9776925771        1.8738060573       12.5617279403
N            11.3559890717        4.6830672505        1.9881427274
N            11.3552753168        4.6835606916        7.2750852360
N            11.3565335351        4.6828336173       12.5641309186
N             9.7336474223        7.4930454146        1.9881427274
N             9.7337178775        7.4921805641        7.2750852360
N             9.7337173217        7.4936337503       12.5641309186
N             8.0978158985       10.2889968511        1.9911806640
N             8.1096324773       10.2983051657        7.2757172155
N             8.1116076160       10.3021124442       12.5617279403
N             6.4795176773       13.1071584644        1.9874614428
N             6.4865207775       13.1112017062        7.2794206271
N             6.4875028360       13.1117686979       12.5568003823
End final coordinates

     Writing all to output data dir ./GaN.save/

     General routines

     Parallel routines

     PAW routines

   This run was terminated on:   9: 2:21  19Feb2024

   JOB DONE.