     Program PWSCF v.7.1 starts on 12Feb2024 at 14:27:45

     Reading input from espresso.pwi
Warning: card &CELL ignored
Warning: card    CELL_DYNAMICS    = 'BFGS' ignored
Warning: card / ignored

     Current dimensions of program PWSCF are:
     Max number of different atomic species (ntypx) = 10
     Max number of k-points (npk) =  40000
     Max angular momentum in pseudopotentials (lmaxx) =  4
     file Ga.pbe-dn-kjpaw_psl.1.0.0.UPF: wavefunction(s)  4S renormalized
     file N.pbe-n-kjpaw_psl.1.0.0.UPF: wavefunction(s)  2S renormalized

     IMPORTANT: XC functional enforced from input :
     Exchange-correlation= BEEF-VDW
                           (   1   4  43  14   2   0   0)
     Any further DFT definition will be discarded
     Please, verify this is what you really want

     K-points division:     npool     =       4
     R & G space division:  proc/nbgrp/npool/nimage =      64
     Subspace diagonalization in iterative solution of the eigenvalue problem:
     a serial algorithm will be used

     Using Slab Decomposition

     bravais-lattice index     =            4
     lattice parameter (alat)  =      24.5252  a.u.
     unit-cell volume          =   15616.6055 (a.u.)^3
     number of atoms/cell      =          191
     number of atomic types    =            2
     number of electrons       =      1715.00
     number of Kohn-Sham states=         1030
     kinetic-energy cutoff     =      70.0000  Ry
     charge density cutoff     =     350.0000  Ry
     scf convergence threshold =      1.0E-07
     mixing beta               =       0.7000
     number of iterations used =            8  plain     mixing
     Exchange-correlation= BEEF-VDW
                           (   1   4  43  14   2   0   0)

     celldm(1)=  24.525232  celldm(2)=   0.000000  celldm(3)=   1.222409
     celldm(4)=   0.000000  celldm(5)=   0.000000  celldm(6)=   0.000000

     crystal axes: (cart. coord. in units of alat)
               a(1) = (   1.000000   0.000000   0.000000 )
               a(2) = (  -0.500000   0.866025   0.000000 )
               a(3) = (   0.000000   0.000000   1.222409 )

     reciprocal axes: (cart. coord. in units 2 pi/alat)
               b(1) = (  1.000000  0.577350 -0.000000 )
               b(2) = (  0.000000  1.154701  0.000000 )
               b(3) = (  0.000000 -0.000000  0.818057 )

     PseudoPot. # 1 for Ga read from file:
     /trace/group/acmegroup/atimmins/packages/espresso/pseudo/psl_1.0.0/pslibrary.1.0.0/pbe/PSEUDOPOTENTIALS/Ga.pbe-dn-kjpaw_psl.1.0.0.UPF
     MD5 check sum: cd2a01e492f15b435d17032472d8505c
     Pseudo is Projector augmented-wave + core cor, Zval = 13.0
     Generated using 'atomic' code by A. Dal Corso  v.7.1
     Shape of augmentation charge: PSQ
     Using radial grid of 1205 points,  6 beta functions with:
                l(1) =   0
                l(2) =   0
                l(3) =   1
                l(4) =   1
                l(5) =   2
                l(6) =   2
     Q(r) pseudized with 0 coefficients

     PseudoPot. # 2 for N  read from file:
     /trace/group/acmegroup/atimmins/packages/espresso/pseudo/psl_1.0.0/pslibrary.1.0.0/pbe/PSEUDOPOTENTIALS/N.pbe-n-kjpaw_psl.1.0.0.UPF
     MD5 check sum: f77f775694dac7e2c3fe1c82443d1a16
     Pseudo is Projector augmented-wave + core cor, Zval =  5.0
     Generated using 'atomic' code by A. Dal Corso  v.7.1
     Shape of augmentation charge: PSQ
     Using radial grid of 1085 points,  4 beta functions with:
                l(1) =   0
                l(2) =   0
                l(3) =   1
                l(4) =   1
     Q(r) pseudized with 0 coefficients

     atomic species   valence    mass     pseudopotential
        Ga            13.00    69.72300     Ga( 1.00)
        N              5.00    14.00700     N ( 1.00)

      6 Sym. Ops. (no inversion) found ( 4 have fractional translation)

                                    s                        frac. trans.

      isym =  1     identity

 cryst.   s( 1) = (     1          0          0      )
                  (     0          1          0      )
                  (     0          0          1      )

 cart.    s( 1) = (  1.0000000  0.0000000  0.0000000 )
                  (  0.0000000  1.0000000  0.0000000 )
                  (  0.0000000  0.0000000  1.0000000 )

      isym =  2     120 deg rotation - cryst. axis [0,0,1]

 cryst.   s( 2) = (     0          1          0      )    f =( -0.2500000 )
                  (    -1         -1          0      )       (  0.0000002 )
                  (     0          0          1      )       (  0.0000000 )

 cart.    s( 2) = ( -0.5000000 -0.8660254  0.0000000 )    f =( -0.2500001 )
                  (  0.8660254 -0.5000000  0.0000000 )       (  0.0000002 )
                  (  0.0000000  0.0000000  1.0000000 )       (  0.0000000 )

      isym =  3     120 deg rotation - cryst. axis [0,0,-1]

[...]

      isym =  4     inv. 180 deg rotation - cart. axis [1,0,0]

[...]

      isym =  5     inv. 180 deg rotation - cryst. axis [0,1,0]

 cryst.   s( 5) = (     1          1          0      )
                  (     0         -1          0      )
                  (     0          0          1      )

 cart.    s( 5) = (  0.5000000  0.8660254  0.0000000 )
                  (  0.8660254 -0.5000000  0.0000000 )
                  (  0.0000000  0.0000000  1.0000000 )

      isym =  6     inv. 180 deg rotation - cryst. axis [1,1,0]

 cryst.   s( 6) = (     0         -1          0      )    f =( -0.2500000 )
                  (    -1          0          0      )       ( -0.2500000 )
                  (     0          0          1      )       (  0.0000000 )

 cart.    s( 6) = (  0.5000000 -0.8660254  0.0000000 )    f =( -0.1250000 )
                  ( -0.8660254 -0.5000000  0.0000000 )       ( -0.2165064 )
                  (  0.0000000  0.0000000  1.0000000 )       (  0.0000000 )

     point group C_3v (3m)
     there are  3 classes
     the character table:

       E     2C3   3s_v
A_1    1.00  1.00  1.00
A_2    1.00  1.00 -1.00
E      2.00 -1.00  0.00

     the symmetry operations in each class and the name of the first element:

     E        1
          identity
     2C3      2    3
          120 deg rotation - cryst. axis [0,0,1]
     3s_v     4    5    6
          inv. 180 deg rotation - cart. axis [1,0,0]

   Cartesian axes

     site n.     atom                  positions (alat units)
         1           Ga  tau(   1) = (   0.1250001   0.0721687   0.6108633  )
         2           Ga  tau(   2) = (   0.1250001   0.0721687   1.0183331  )
         3           Ga  tau(   3) = (   0.0000001   0.2886751   0.2033935  )
         4           Ga  tau(   4) = (   0.0000001   0.2886751   0.6108633  )
         5           Ga  tau(   5) = (   0.0000001   0.2886751   1.0183331  )
         6           Ga  tau(   6) = (  -0.1249999   0.5051814   0.2033935  )
         7           Ga  tau(   7) = (  -0.1249999   0.5051814   0.6108633  )
         8           Ga  tau(   8) = (  -0.1249999   0.5051814   1.0183331  )
         9           Ga  tau(   9) = (  -0.2499999   0.7216878   0.2033935  )
        10           Ga  tau(  10) = (  -0.2499999   0.7216878   0.6108633  )
        11           Ga  tau(  11) = (  -0.2499999   0.7216878   1.0183331  )
        12           Ga  tau(  12) = (   0.3750001   0.0721687   0.2033935  )
        13           Ga  tau(  13) = (   0.3750001   0.0721687   0.6108633  )
        14           Ga  tau(  14) = (   0.3750001   0.0721687   1.0183331  )
        15           Ga  tau(  15) = (   0.2500001   0.2886751   0.2033935  )
        16           Ga  tau(  16) = (   0.2500001   0.2886751   0.6108633  )
        17           Ga  tau(  17) = (   0.2500001   0.2886751   1.0183331  )
        18           Ga  tau(  18) = (   0.1250001   0.5051814   0.2033935  )
        19           Ga  tau(  19) = (   0.1250001   0.5051814   0.6108633  )
        20           Ga  tau(  20) = (   0.1250001   0.5051814   1.0183331  )
        21           Ga  tau(  21) = (   0.0000001   0.7216878   0.2033935  )
        22           Ga  tau(  22) = (   0.0000001   0.7216878   0.6108633  )
        23           Ga  tau(  23) = (   0.0000001   0.7216878   1.0183331  )
        24           Ga  tau(  24) = (   0.6250001   0.0721687   0.2033935  )
        25           Ga  tau(  25) = (   0.6250001   0.0721687   0.6108633  )
        26           Ga  tau(  26) = (   0.6250001   0.0721687   1.0183331  )
        27           Ga  tau(  27) = (   0.5000001   0.2886751   0.2033935  )
        28           Ga  tau(  28) = (   0.5000001   0.2886751   0.6108633  )
        29           Ga  tau(  29) = (   0.5000001   0.2886751   1.0183331  )
        30           Ga  tau(  30) = (   0.3750001   0.5051814   0.2033935  )
        31           Ga  tau(  31) = (   0.3750001   0.5051814   0.6108633  )
        32           Ga  tau(  32) = (   0.3750001   0.5051814   1.0183331  )
        33           Ga  tau(  33) = (   0.2500001   0.7216878   0.2033935  )
        34           Ga  tau(  34) = (   0.2500001   0.7216878   0.6108633  )
        35           Ga  tau(  35) = (   0.2500001   0.7216878   1.0183331  )
        36           Ga  tau(  36) = (   0.8750001   0.0721687   0.2033935  )
        37           Ga  tau(  37) = (   0.8750001   0.0721687   0.6108633  )
        38           Ga  tau(  38) = (   0.8750001   0.0721687   1.0183331  )
        39           Ga  tau(  39) = (   0.7500001   0.2886751   0.2033935  )
        40           Ga  tau(  40) = (   0.7500001   0.2886751   0.6108633  )
        41           Ga  tau(  41) = (   0.7500001   0.2886751   1.0183331  )
        42           Ga  tau(  42) = (   0.6250001   0.5051814   0.2033935  )
        43           Ga  tau(  43) = (   0.6250001   0.5051814   0.6108633  )
        44           Ga  tau(  44) = (   0.6250001   0.5051814   1.0183331  )
        45           Ga  tau(  45) = (   0.5000001   0.7216878   0.2033935  )
        46           Ga  tau(  46) = (   0.5000001   0.7216878   0.6108633  )
        47           Ga  tau(  47) = (   0.5000001   0.7216878   1.0183331  )
        48           Ga  tau(  48) = (  -0.0000002   0.1443377   0.4071284  )
        49           Ga  tau(  49) = (  -0.0000002   0.1443377   0.8145982  )
        50           Ga  tau(  50) = (  -0.0000002   0.1443377   1.2220680  )
        51           Ga  tau(  51) = (  -0.1250002   0.3608440   0.4071284  )
        52           Ga  tau(  52) = (  -0.1250002   0.3608440   0.8145982  )
        53           Ga  tau(  53) = (  -0.1250002   0.3608440   1.2220680  )
        54           Ga  tau(  54) = (  -0.2500002   0.5773504   0.4071284  )
        55           Ga  tau(  55) = (  -0.2500002   0.5773504   0.8145982  )
        56           Ga  tau(  56) = (  -0.2500002   0.5773504   1.2220680  )
        57           Ga  tau(  57) = (  -0.3750001   0.7938567   0.4071284  )
        58           Ga  tau(  58) = (  -0.3750001   0.7938567   0.8145982  )
        59           Ga  tau(  59) = (  -0.3750001   0.7938567   1.2220680  )
        60           Ga  tau(  60) = (   0.2499998   0.1443377   0.4071284  )
[...]
       177           N   tau( 177) = (   0.1249998   0.7938567   0.1531425  )
[...]
     atom   25 type  1   force =     0.00000000    0.00000000    0.00000000
     atom   26 type  1   force =     0.00000000    0.00000000    0.00000000
     atom   27 type  1   force =     0.00000000    0.00000000    0.00000000
     atom   28 type  1   force =     0.00000000    0.00000000    0.00000000
     atom   29 type  1   force =     0.00000000    0.00000000    0.00000000
     atom   30 type  1   force =     0.00000000    0.00000000    0.00000000
     atom   31 type  1   force =     0.00000000    0.00000000    0.00000000
     atom   32 type  1   force =     0.00000000    0.00000000    0.00000000
     atom   33 type  1   force =     0.00000000    0.00000000    0.00000000
     atom   34 type  1   force =     0.00000000    0.00000000    0.00000000
     atom   35 type  1   force =     0.00000000    0.00000000    0.00000000
     atom   36 type  1   force =     0.00000000    0.00000000    0.00000000
     atom   37 type  1   force =     0.00000000    0.00000000    0.00000000
     atom   38 type  1   force =     0.00000000    0.00000000    0.00000000
     atom   39 type  1   force =     0.00000000    0.00000000    0.00000000
     atom   40 type  1   force =     0.00000000    0.00000000    0.00000000
     atom   41 type  1   force =     0.00000000    0.00000000    0.00000000
     atom   42 type  1   force =     0.00000000    0.00000000    0.00000000
     atom   43 type  1   force =     0.00000000    0.00000000    0.00000000
     atom   44 type  1   force =     0.00000000    0.00000000    0.00000000
     atom   45 type  1   force =     0.00000000    0.00000000    0.00000000
     atom   46 type  1   force =     0.00000000    0.00000000    0.00000000
     atom   47 type  1   force =     0.00000000    0.00000000    0.00000000
     atom   48 type  1   force =     0.00000000    0.00000000    0.00000000
     atom   49 type  1   force =     0.00000000    0.00000000    0.00000000
     atom   50 type  1   force =     0.00000000    0.00000000    0.00000000
     atom   51 type  1   force =     0.00000000    0.00000000    0.00000000
     atom   52 type  1   force =     0.00000000    0.00000000    0.00000000
     atom   53 type  1   force =     0.00000000    0.00000000    0.00000000
     atom   54 type  1   force =     0.00000000    0.00000000    0.00000000
     atom   55 type  1   force =     0.00000000    0.00000000    0.00000000
     atom   56 type  1   force =     0.00000000    0.00000000    0.00000000
     atom   57 type  1   force =     0.00000000    0.00000000    0.00000000
     atom   58 type  1   force =     0.00000000    0.00000000    0.00000000
     atom   59 type  1   force =     0.00000000    0.00000000    0.00000000
     atom   60 type  1   force =     0.00000000    0.00000000    0.00000000
[...]
     atom  177 type  2   force =     0.00000000    0.00000000    0.00000000
     atom  178 type  2   force =     0.00000000    0.00000000    0.00000000
     atom  179 type  2   force =     0.00000000    0.00000000    0.00000000
     atom  180 type  2   force =     0.00000000    0.00000000    0.00000000
     atom  181 type  2   force =     0.00000000    0.00000000    0.00000000
     atom  182 type  2   force =     0.00000000    0.00000000    0.00000000
     atom  183 type  2   force =     0.00000000    0.00000000    0.00000000
     atom  184 type  2   force =     0.00000000    0.00000000    0.00000000
     atom  185 type  2   force =     0.00000000    0.00000000    0.00000000
     atom  186 type  2   force =     0.00000000    0.00000000    0.00000000
     atom  187 type  2   force =     0.00000000    0.00000000    0.00000000
     atom  188 type  2   force =     0.00000000    0.00000000    0.00000000
     atom  189 type  2   force =     0.00000000    0.00000000    0.00000000
     atom  190 type  2   force =     0.00000000    0.00000000    0.00000000
     atom  191 type  2   force =     0.00000000    0.00000000    0.00000000
     The SCF correction term to forces
     atom    1 type  1   force =     0.00000000   -0.00000000    0.00001315
     atom    2 type  1   force =     0.00000000   -0.00000000    0.00003195
     atom    3 type  1   force =     0.00000428   -0.00001900   -0.00003205
     atom    4 type  1   force =    -0.00000086    0.00000927    0.00000062
     atom    5 type  1   force =     0.00000509   -0.00000984    0.00002327
     atom    6 type  1   force =     0.00000271    0.00000157   -0.00001506
     atom    7 type  1   force =     0.00000265    0.00000153   -0.00000294
     atom    8 type  1   force =     0.00000063    0.00000036    0.00001732
     atom    9 type  1   force =    -0.00001431    0.00001321   -0.00003205
     atom   10 type  1   force =     0.00000760   -0.00000538    0.00000062
     atom   11 type  1   force =    -0.00000597    0.00000933    0.00002327
     atom   12 type  1   force =    -0.00001859    0.00000579   -0.00003206
     atom   13 type  1   force =     0.00000845   -0.00000389    0.00000062
     atom   14 type  1   force =    -0.00001107    0.00000051    0.00002327
     atom   15 type  1   force =    -0.00000428   -0.00001900   -0.00003205
     atom   16 type  1   force =     0.00000086    0.00000927    0.00000062
     atom   17 type  1   force =    -0.00000509   -0.00000984    0.00002327
     atom   18 type  1   force =    -0.00000000   -0.00000396   -0.00001197
     atom   19 type  1   force =     0.00000000    0.00000160   -0.00000373
     atom   20 type  1   force =     0.00000000   -0.00000538    0.00001854
     atom   21 type  1   force =    -0.00000343    0.00000198   -0.00001197
     atom   22 type  1   force =     0.00000138   -0.00000080   -0.00000373
     atom   23 type  1   force =    -0.00000466    0.00000269    0.00001854
     atom   24 type  1   force =     0.00000000   -0.00000313   -0.00001506
     atom   25 type  1   force =     0.00000000   -0.00000306   -0.00000294
     atom   26 type  1   force =     0.00000000   -0.00000072    0.00001732
     atom   27 type  1   force =    -0.00000961   -0.00000555   -0.00001551
     atom   28 type  1   force =    -0.00000228   -0.00000131   -0.00000060
     atom   29 type  1   force =    -0.00000459   -0.00000265    0.00001404
     atom   30 type  1   force =    -0.00000271    0.00000157   -0.00001506
     atom   31 type  1   force =    -0.00000265    0.00000153   -0.00000294
     atom   32 type  1   force =    -0.00000063    0.00000036    0.00001732
     atom   33 type  1   force =     0.00000343    0.00000198   -0.00001197
     atom   34 type  1   force =    -0.00000138   -0.00000080   -0.00000373
     atom   35 type  1   force =     0.00000466    0.00000269    0.00001854
     atom   36 type  1   force =     0.00001859    0.00000579   -0.00003205
     atom   37 type  1   force =    -0.00000845   -0.00000389    0.00000062
     atom   38 type  1   force =     0.00001107    0.00000051    0.00002327
     atom   39 type  1   force =     0.00000961   -0.00000555   -0.00001551
     atom   40 type  1   force =     0.00000228   -0.00000131   -0.00000060
     atom   41 type  1   force =     0.00000459   -0.00000265    0.00001404
     atom   42 type  1   force =     0.00000000    0.00001109   -0.00001551
     atom   43 type  1   force =     0.00000000    0.00000263   -0.00000060
     atom   44 type  1   force =     0.00000000    0.00000530    0.00001404
     atom   45 type  1   force =     0.00001431    0.00001321   -0.00003205
     atom   46 type  1   force =    -0.00000760   -0.00000538    0.00000062
     atom   47 type  1   force =     0.00000597    0.00000933    0.00002327
     atom   48 type  1   force =    -0.00002578    0.00001488   -0.00002880
     atom   49 type  1   force =    -0.00000201    0.00000116    0.00002261
     atom   50 type  1   force =     0.00001528   -0.00000882    0.00002136
     atom   51 type  1   force =     0.00000319    0.00000249   -0.00001782
     atom   52 type  1   force =     0.00000265   -0.00000142    0.00001333
     atom   53 type  1   force =     0.00001243   -0.00000639    0.00000712
     atom   54 type  1   force =     0.00000375    0.00000152   -0.00001782
     atom   55 type  1   force =     0.00000009    0.00000301    0.00001333
     atom   56 type  1   force =     0.00000067    0.00001396    0.00000712
     atom   57 type  1   force =    -0.00000000   -0.00002976   -0.00002880
     atom   58 type  1   force =    -0.00000000   -0.00000232    0.00002261
     atom   59 type  1   force =    -0.00000000    0.00001765    0.00002136
     atom   60 type  1   force =     0.00002578    0.00001488   -0.00002880
[...]
     atom  177 type  2   force =     0.00000000    0.00000178   -0.00000252
     atom  178 type  2   force =     0.00000000   -0.00000150   -0.00000137
     atom  179 type  2   force =     0.00000000    0.00000138    0.00000827
     atom  180 type  2   force =     0.00000445   -0.00000357   -0.00000381
     atom  181 type  2   force =    -0.00000078   -0.00000183   -0.00000092
     atom  182 type  2   force =     0.00000289   -0.00000051    0.00000792
     atom  183 type  2   force =     0.00000000   -0.00000000   -0.00000229
     atom  184 type  2   force =     0.00000000   -0.00000000   -0.00000057
     atom  185 type  2   force =     0.00000000   -0.00000000    0.00000721
     atom  186 type  2   force =    -0.00000086    0.00000564   -0.00000381
     atom  187 type  2   force =    -0.00000198    0.00000024   -0.00000092
     atom  188 type  2   force =     0.00000100    0.00000276    0.00000792
     atom  189 type  2   force =     0.00000497    0.00000287   -0.00000455
     atom  190 type  2   force =    -0.00000252   -0.00000145   -0.00000042
     atom  191 type  2   force =     0.00000372    0.00000215    0.00000961

     Total force =     0.003818     Total SCF correction =     0.000210

     Computing stress (Cartesian axis) and pressure

[...]

          total   stress  (Ry/bohr**3)                   (kbar)     P=        2.47
   0.00001195   0.00000000   0.00000000            1.76        0.00        0.00
   0.00000000   0.00001195   0.00000000            0.00        1.76        0.00
   0.00000000   0.00000000   0.00002649            0.00        0.00        3.90

     kinetic stress (kbar)  18330.96      0.00      0.00
                                0.00  18330.96     -0.00
                                0.00     -0.00  18331.94

     local   stress (kbar)   4882.07     -0.07     -0.00
                               -0.07   4881.97     -0.00
                               -0.00     -0.00   3297.11

     nonloc. stress (kbar)     61.23     -0.00      0.00
                               -0.00     61.23      0.00
                                0.00      0.00     70.10

     hartree stress (kbar)  19629.39     -0.00     -0.00
                               -0.00  19629.39      0.00
                               -0.00      0.00  20346.88

     exc-cor stress (kbar)   5154.27      0.00     -0.00
                                0.00   5154.27      0.00
                               -0.00      0.00   5154.72

     corecor stress (kbar) -13969.73     -0.00     -0.00
                               -0.00 -13969.73      0.00
                               -0.00      0.00 -13969.33

     ewald   stress (kbar) -34247.09      0.09      0.00
                                0.09 -34246.97     -0.00
                                0.00     -0.00 -33387.28

     hubbard stress (kbar)      0.00      0.00      0.00
                                0.00      0.00      0.00
                                0.00      0.00      0.00

     DFT-D   stress (kbar)      0.00      0.00      0.00
                                0.00      0.00      0.00
                                0.00      0.00      0.00

     XDM     stress (kbar)      0.00      0.00      0.00
                                0.00      0.00      0.00
                                0.00      0.00      0.00

     dft-nl  stress (kbar)    160.65     -0.00     -0.00
                               -0.00    160.65     -0.00
                               -0.00     -0.00    159.77

     TS-vdW  stress (kbar)      0.00      0.00      0.00
                                0.00      0.00      0.00
                                0.00      0.00      0.00

     MDB     stress (kbar)      0.00      0.00      0.00
                                0.00      0.00      0.00
                                0.00      0.00      0.00

     3D-RISM stress (kbar)      0.00      0.00      0.00
                                0.00      0.00      0.00
                                0.00      0.00      0.00

[...]

     Non-local corr. energy    =      51.87580793 Ry

 BEEFens 2000 ensemble energies
             -0.419902245375813E+02
             -0.377736728453484E+03
             -0.162426510238343E+03
              0.132960868771127E+03
             -0.271521762536399E+03
             -0.349277165495797E+03
              0.179556162443213E+03
             -0.189769491654879E+02
              0.299146824587114E+03
             -0.129145341684020E+02
              0.146727340650994E+03
              0.606104995184887E+01
              0.607723723982883E+01
             -0.128704505953065E+02
              0.195805335221969E+03
             -0.142608463329884E+03
             -0.293933600138853E+03
             -0.960500960090278E+02
              0.717334105083517E+02
             -0.642738709076775E+01
              0.428874702167739E+03
              0.365070420036810E+03
             -0.208877691508705E+03
              0.757123421598280E+02
             -0.458171089757601E+03
              0.367367286648189E+03
              0.120006817439071E+03
              0.357240685501778E+03
              0.234684130267167E+03
             -0.114303595013459E+03
              0.864892040490877E+02
             -0.168827330771220E+03
              0.471431956998313E+02
              0.229556458784651E+03
              0.243524156245638E+03
             -0.879080701429086E+02
              0.540885563809807E+03
             -0.205262959136425E+03
             -0.147772310126827E+03
              0.216762786977170E+03
              0.969008598370219E+02
              0.162297354213070E+03
             -0.309239161372436E+03
             -0.867522941950892E+01
              0.303620531194432E+03
              0.394338716446600E+03
             -0.392517266592689E+03
              0.279476794058464E+02
              0.147999074670055E+03
              0.719694907582957E+02
              0.164159777222807E+03
              0.347695462632309E+03
             -0.210213823698639E+03
             -0.230432784950982E+03
             -0.299595778431208E+03
             -0.464198070128173E+02
             -0.273251110517748E+03
              0.267127362306596E+02
             -0.506318984729187E+02
             -0.213016913325562E+03
[...]
              0.265869943964833E+03
              0.146785613357789E+03
              0.186609530455532E+03
             -0.301510651474771E+03
             -0.288524417223477E+03
             -0.730731642661453E+02
             -0.282878157630821E+03
              0.452986724036549E+03
              0.388227185939586E+03
              0.185513180671199E+03
              0.502297350719336E+03
             -0.261437906100995E+03
             -0.106567975519644E+03
             -0.148194848887891E+03
              0.415452415382592E+03

 BEEF-vdW xc energy contributions
            1 :    -3807.734256149334
            2 :     3429.332887310945
            3 :    -2795.462547831357
            4 :     2091.768507770024
            5 :    -1481.513608614897
            6 :     1043.481866070648
            7 :    -763.2615880459402
            8 :     573.6620317947231
            9 :    -411.6958055559176
           10 :     255.0896448144636
           11 :    -120.8680795656269
           12 :     36.32831142464283
           13 :    -9.085712789471017
           14 :     18.33982993656036
           15 :    -30.24426621997327
           16 :     21.98220068106593
           17 :     5.127215780029019
           18 :    -32.18933922843144
           19 :     41.53332018499032
           20 :    -31.79477462823934
           21 :     17.99953343579318
           22 :    -18.22837638955525
           23 :     38.74732473055428
           24 :    -69.52812831295660
           25 :     92.82485999572509
           26 :    -97.00020501438712
           27 :     84.39384988668235
           28 :    -67.71224165131889
           29 :     58.91812355479806
           30 :    -60.10365677641448
           31 :    -326.4574708185023
           32 :    -223.6470447975162

     Writing all to output data dir ./GaN.save/

     General routines

     Parallel routines

     PAW routines

   This run was terminated on:  14:49:48  12Feb2024

   JOB DONE.