     Program PWSCF v.7.1 starts on 25Jan2024 at 15:25:49

     Reading input from espresso.pwi
Warning: card &CELL ignored
Warning: card    CELL_DYNAMICS    = 'BFGS' ignored
Warning: card / ignored

     Current dimensions of program PWSCF are:
     Max number of different atomic species (ntypx) = 10
     Max number of k-points (npk) =  40000
     Max angular momentum in pseudopotentials (lmaxx) =  4
     file Ga.pbe-dn-kjpaw_psl.1.0.0.UPF: wavefunction(s)  4S renormalized
     file N.pbe-n-kjpaw_psl.1.0.0.UPF: wavefunction(s)  2S renormalized

     IMPORTANT: XC functional enforced from input :
     Exchange-correlation= BEEF-VDW
                           (   1   4  43  14   2   0   0)
     Any further DFT definition will be discarded
     Please, verify this is what you really want

     K-points division:     npool     =       4
     R & G space division:  proc/nbgrp/npool/nimage =      64
     Subspace diagonalization in iterative solution of the eigenvalue problem:
     a serial algorithm will be used

     Using Slab Decomposition

     bravais-lattice index     =            4
     lattice parameter (alat)  =      24.5252  a.u.
     unit-cell volume          =   15616.6055 (a.u.)^3
     number of atoms/cell      =          191
     number of atomic types    =            2
     number of electrons       =      1715.00
     number of Kohn-Sham states=         1030
     kinetic-energy cutoff     =      70.0000  Ry
     charge density cutoff     =     350.0000  Ry
     scf convergence threshold =      1.0E-09
     mixing beta               =       0.7000
     number of iterations used =            8  plain     mixing
     energy convergence thresh.=      1.0E-04
     force convergence thresh. =      1.0E-03
     Exchange-correlation= BEEF-VDW
                           (   1   4  43  14   2   0   0)
     nstep                     =           50

     celldm(1)=  24.525232  celldm(2)=   0.000000  celldm(3)=   1.222409
     celldm(4)=   0.000000  celldm(5)=   0.000000  celldm(6)=   0.000000

     crystal axes: (cart. coord. in units of alat)
               a(1) = (   1.000000   0.000000   0.000000 )
               a(2) = (  -0.500000   0.866025   0.000000 )
               a(3) = (   0.000000   0.000000   1.222409 )

     reciprocal axes: (cart. coord. in units 2 pi/alat)
               b(1) = (  1.000000  0.577350 -0.000000 )
               b(2) = (  0.000000  1.154701  0.000000 )
               b(3) = (  0.000000 -0.000000  0.818057 )

     PseudoPot. # 1 for Ga read from file:
     //group///packages/espresso/pseudo/psl_1.0.0/pslibrary.1.0.0/pbe/PSEUDOPOTENTIALS/Ga.pbe-dn-kjpaw_psl.1.0.0.UPF
     MD5 check sum: cd2a01e492f15b435d17032472d8505c
     Pseudo is Projector augmented-wave + core cor, Zval = 13.0
     Generated using 'atomic' code by A. Dal Corso  v.7.1
     Shape of augmentation charge: PSQ
     Using radial grid of 1205 points,  6 beta functions with:
                l(1) =   0
                l(2) =   0
                l(3) =   1
                l(4) =   1
                l(5) =   2
                l(6) =   2
     Q(r) pseudized with 0 coefficients

     PseudoPot. # 2 for N  read from file:
     //group///packages/espresso/pseudo/psl_1.0.0/pslibrary.1.0.0/pbe/PSEUDOPOTENTIALS/N.pbe-n-kjpaw_psl.1.0.0.UPF
     MD5 check sum: f77f775694dac7e2c3fe1c82443d1a16
     Pseudo is Projector augmented-wave + core cor, Zval =  5.0
     Generated using 'atomic' code by A. Dal Corso  v.7.1
     Shape of augmentation charge: PSQ
     Using radial grid of 1085 points,  4 beta functions with:
                l(1) =   0
                l(2) =   0
                l(3) =   1
                l(4) =   1
     Q(r) pseudized with 0 coefficients

     atomic species   valence    mass     pseudopotential
        Ga            13.00    69.72300     Ga( 1.00)
        N              5.00    14.00700     N ( 1.00)

      6 Sym. Ops. (no inversion) found ( 4 have fractional translation)

                                    s                        frac. trans.

      isym =  1     identity

 cryst.   s( 1) = (     1          0          0      )
                  (     0          1          0      )
                  (     0          0          1      )

 cart.    s( 1) = (  1.0000000  0.0000000  0.0000000 )
                  (  0.0000000  1.0000000  0.0000000 )
                  (  0.0000000  0.0000000  1.0000000 )

      isym =  2     120 deg rotation - cryst. axis [0,0,1]

 cryst.   s( 2) = (     0          1          0      )    f =( -0.2500000 )
                  (    -1         -1          0      )       (  0.0000002 )
                  (     0          0          1      )       (  0.0000000 )

 cart.    s( 2) = ( -0.5000000 -0.8660254  0.0000000 )    f =( -0.2500001 )
                  (  0.8660254 -0.5000000  0.0000000 )       (  0.0000002 )
                  (  0.0000000  0.0000000  1.0000000 )       (  0.0000000 )

      isym =  3     120 deg rotation - cryst. axis [0,0,-1]

[...]

      isym =  4     inv. 180 deg rotation - cart. axis [1,0,0]

[...]

      isym =  5     inv. 180 deg rotation - cryst. axis [0,1,0]

 cryst.   s( 5) = (     1          1          0      )
                  (     0         -1          0      )
                  (     0          0          1      )

 cart.    s( 5) = (  0.5000000  0.8660254  0.0000000 )
                  (  0.8660254 -0.5000000  0.0000000 )
                  (  0.0000000  0.0000000  1.0000000 )

      isym =  6     inv. 180 deg rotation - cryst. axis [1,1,0]

 cryst.   s( 6) = (     0         -1          0      )    f =( -0.2500000 )
                  (    -1          0          0      )       ( -0.2500000 )
                  (     0          0          1      )       (  0.0000000 )

 cart.    s( 6) = (  0.5000000 -0.8660254  0.0000000 )    f =( -0.1250000 )
                  ( -0.8660254 -0.5000000  0.0000000 )       ( -0.2165064 )
                  (  0.0000000  0.0000000  1.0000000 )       (  0.0000000 )

     point group C_3v (3m)
     there are  3 classes
     the character table:

       E     2C3   3s_v
A_1    1.00  1.00  1.00
A_2    1.00  1.00 -1.00
E      2.00 -1.00  0.00

     the symmetry operations in each class and the name of the first element:

     E        1
          identity
     2C3      2    3
          120 deg rotation - cryst. axis [0,0,1]
     3s_v     4    5    6
          inv. 180 deg rotation - cart. axis [1,0,0]

   Cartesian axes

     site n.     atom                  positions (alat units)
         1           Ga  tau(   1) = (   0.1250001   0.0721687   0.6108633  )
         2           Ga  tau(   2) = (   0.1250001   0.0721687   1.0183331  )
         3           Ga  tau(   3) = (   0.0000001   0.2886751   0.2033935  )
         4           Ga  tau(   4) = (   0.0000001   0.2886751   0.6108633  )
         5           Ga  tau(   5) = (   0.0000001   0.2886751   1.0183331  )
         6           Ga  tau(   6) = (  -0.1249999   0.5051814   0.2033935  )
         7           Ga  tau(   7) = (  -0.1249999   0.5051814   0.6108633  )
         8           Ga  tau(   8) = (  -0.1249999   0.5051814   1.0183331  )
         9           Ga  tau(   9) = (  -0.2499999   0.7216878   0.2033935  )
        10           Ga  tau(  10) = (  -0.2499999   0.7216878   0.6108633  )
        11           Ga  tau(  11) = (  -0.2499999   0.7216878   1.0183331  )
        12           Ga  tau(  12) = (   0.3750001   0.0721687   0.2033935  )
        13           Ga  tau(  13) = (   0.3750001   0.0721687   0.6108633  )
        14           Ga  tau(  14) = (   0.3750001   0.0721687   1.0183331  )
        15           Ga  tau(  15) = (   0.2500001   0.2886751   0.2033935  )
        16           Ga  tau(  16) = (   0.2500001   0.2886751   0.6108633  )
        17           Ga  tau(  17) = (   0.2500001   0.2886751   1.0183331  )
        18           Ga  tau(  18) = (   0.1250001   0.5051814   0.2033935  )
        19           Ga  tau(  19) = (   0.1250001   0.5051814   0.6108633  )
        20           Ga  tau(  20) = (   0.1250001   0.5051814   1.0183331  )
        21           Ga  tau(  21) = (   0.0000001   0.7216878   0.2033935  )
        22           Ga  tau(  22) = (   0.0000001   0.7216878   0.6108633  )
        23           Ga  tau(  23) = (   0.0000001   0.7216878   1.0183331  )
        24           Ga  tau(  24) = (   0.6250001   0.0721687   0.2033935  )
        25           Ga  tau(  25) = (   0.6250001   0.0721687   0.6108633  )
        26           Ga  tau(  26) = (   0.6250001   0.0721687   1.0183331  )
        27           Ga  tau(  27) = (   0.5000001   0.2886751   0.2033935  )
        28           Ga  tau(  28) = (   0.5000001   0.2886751   0.6108633  )
        29           Ga  tau(  29) = (   0.5000001   0.2886751   1.0183331  )
        30           Ga  tau(  30) = (   0.3750001   0.5051814   0.2033935  )
        31           Ga  tau(  31) = (   0.3750001   0.5051814   0.6108633  )
        32           Ga  tau(  32) = (   0.3750001   0.5051814   1.0183331  )
        33           Ga  tau(  33) = (   0.2500001   0.7216878   0.2033935  )
        34           Ga  tau(  34) = (   0.2500001   0.7216878   0.6108633  )
        35           Ga  tau(  35) = (   0.2500001   0.7216878   1.0183331  )
        36           Ga  tau(  36) = (   0.8750001   0.0721687   0.2033935  )
        37           Ga  tau(  37) = (   0.8750001   0.0721687   0.6108633  )
        38           Ga  tau(  38) = (   0.8750001   0.0721687   1.0183331  )
        39           Ga  tau(  39) = (   0.7500001   0.2886751   0.2033935  )
        40           Ga  tau(  40) = (   0.7500001   0.2886751   0.6108633  )
        41           Ga  tau(  41) = (   0.7500001   0.2886751   1.0183331  )
        42           Ga  tau(  42) = (   0.6250001   0.5051814   0.2033935  )
        43           Ga  tau(  43) = (   0.6250001   0.5051814   0.6108633  )
        44           Ga  tau(  44) = (   0.6250001   0.5051814   1.0183331  )
        45           Ga  tau(  45) = (   0.5000001   0.7216878   0.2033935  )
        46           Ga  tau(  46) = (   0.5000001   0.7216878   0.6108633  )
        47           Ga  tau(  47) = (   0.5000001   0.7216878   1.0183331  )
        48           Ga  tau(  48) = (  -0.0000002   0.1443377   0.4071284  )
        49           Ga  tau(  49) = (  -0.0000002   0.1443377   0.8145982  )
        50           Ga  tau(  50) = (  -0.0000002   0.1443377   1.2220680  )
        51           Ga  tau(  51) = (  -0.1250002   0.3608440   0.4071284  )
        52           Ga  tau(  52) = (  -0.1250002   0.3608440   0.8145982  )
        53           Ga  tau(  53) = (  -0.1250002   0.3608440   1.2220680  )
        54           Ga  tau(  54) = (  -0.2500002   0.5773504   0.4071284  )
        55           Ga  tau(  55) = (  -0.2500002   0.5773504   0.8145982  )
        56           Ga  tau(  56) = (  -0.2500002   0.5773504   1.2220680  )
        57           Ga  tau(  57) = (  -0.3750001   0.7938567   0.4071284  )
        58           Ga  tau(  58) = (  -0.3750001   0.7938567   0.8145982  )
        59           Ga  tau(  59) = (  -0.3750001   0.7938567   1.2220680  )
        60           Ga  tau(  60) = (   0.2499998   0.1443377   0.4071284  )
[...]
[...]
     atom   44 type  1   force =     0.00000000    0.00000000    0.00000000
     atom   45 type  1   force =     0.00000000    0.00000000    0.00000000
     atom   46 type  1   force =     0.00000000    0.00000000    0.00000000
     atom   47 type  1   force =     0.00000000    0.00000000    0.00000000
     atom   48 type  1   force =     0.00000000    0.00000000    0.00000000
     atom   49 type  1   force =     0.00000000    0.00000000    0.00000000
     atom   50 type  1   force =     0.00000000    0.00000000    0.00000000
     atom   51 type  1   force =     0.00000000    0.00000000    0.00000000
     atom   52 type  1   force =     0.00000000    0.00000000    0.00000000
     atom   53 type  1   force =     0.00000000    0.00000000    0.00000000
     atom   54 type  1   force =     0.00000000    0.00000000    0.00000000
     atom   55 type  1   force =     0.00000000    0.00000000    0.00000000
     atom   56 type  1   force =     0.00000000    0.00000000    0.00000000
     atom   57 type  1   force =     0.00000000    0.00000000    0.00000000
     atom   58 type  1   force =     0.00000000    0.00000000    0.00000000
     atom   59 type  1   force =     0.00000000    0.00000000    0.00000000
     atom   60 type  1   force =     0.00000000    0.00000000    0.00000000
[...]
     atom  177 type  2   force =     0.00000000    0.00000000    0.00000000
     atom  178 type  2   force =     0.00000000    0.00000000    0.00000000
     atom  179 type  2   force =     0.00000000    0.00000000    0.00000000
     atom  180 type  2   force =     0.00000000    0.00000000    0.00000000
     atom  181 type  2   force =     0.00000000    0.00000000    0.00000000
     atom  182 type  2   force =     0.00000000    0.00000000    0.00000000
     atom  183 type  2   force =     0.00000000    0.00000000    0.00000000
     atom  184 type  2   force =     0.00000000    0.00000000    0.00000000
     atom  185 type  2   force =     0.00000000    0.00000000    0.00000000
     atom  186 type  2   force =     0.00000000    0.00000000    0.00000000
     atom  187 type  2   force =     0.00000000    0.00000000    0.00000000
     atom  188 type  2   force =     0.00000000    0.00000000    0.00000000
     atom  189 type  2   force =     0.00000000    0.00000000    0.00000000
     atom  190 type  2   force =     0.00000000    0.00000000    0.00000000
     atom  191 type  2   force =     0.00000000    0.00000000    0.00000000
     The SCF correction term to forces
     atom    1 type  1   force =    -0.00000000    0.00000000    0.00000014
     atom    2 type  1   force =     0.00000000   -0.00000000    0.00000035
     atom    3 type  1   force =     0.00000032    0.00000013   -0.00000034
     atom    4 type  1   force =     0.00000024   -0.00000025    0.00000011
     atom    5 type  1   force =     0.00000023   -0.00000037    0.00000055
     atom    6 type  1   force =     0.00000016    0.00000010   -0.00000027
     atom    7 type  1   force =     0.00000002    0.00000001    0.00000007
     atom    8 type  1   force =     0.00000006    0.00000004    0.00000012
     atom    9 type  1   force =     0.00000027    0.00000022   -0.00000034
     atom   10 type  1   force =    -0.00000009    0.00000033    0.00000011
     atom   11 type  1   force =    -0.00000021    0.00000039    0.00000055
     atom   12 type  1   force =    -0.00000005   -0.00000034   -0.00000034
     atom   13 type  1   force =    -0.00000033   -0.00000009    0.00000011
     atom   14 type  1   force =    -0.00000044   -0.00000001    0.00000055
     atom   15 type  1   force =    -0.00000032    0.00000013   -0.00000034
     atom   16 type  1   force =    -0.00000024   -0.00000025    0.00000011
     atom   17 type  1   force =    -0.00000023   -0.00000037    0.00000055
     atom   18 type  1   force =     0.00000000   -0.00000015   -0.00000031
     atom   19 type  1   force =    -0.00000000   -0.00000009   -0.00000001
     atom   20 type  1   force =    -0.00000000   -0.00000016    0.00000020
     atom   21 type  1   force =    -0.00000013    0.00000008   -0.00000031
     atom   22 type  1   force =    -0.00000008    0.00000004   -0.00000001
     atom   23 type  1   force =    -0.00000014    0.00000008    0.00000020
     atom   24 type  1   force =    -0.00000000   -0.00000019   -0.00000027
     atom   25 type  1   force =    -0.00000000   -0.00000002    0.00000007
     atom   26 type  1   force =     0.00000000   -0.00000007    0.00000012
     atom   27 type  1   force =    -0.00000024   -0.00000014   -0.00000010
     atom   28 type  1   force =    -0.00000012   -0.00000007    0.00000007
     atom   29 type  1   force =    -0.00000030   -0.00000017    0.00000011
     atom   30 type  1   force =    -0.00000016    0.00000010   -0.00000027
     atom   31 type  1   force =    -0.00000002    0.00000001    0.00000007
     atom   32 type  1   force =    -0.00000006    0.00000004    0.00000012
     atom   33 type  1   force =     0.00000013    0.00000008   -0.00000031
     atom   34 type  1   force =     0.00000008    0.00000004   -0.00000001
     atom   35 type  1   force =     0.00000014    0.00000008    0.00000020
     atom   36 type  1   force =     0.00000005   -0.00000034   -0.00000034
     atom   37 type  1   force =     0.00000033   -0.00000009    0.00000011
     atom   38 type  1   force =     0.00000044   -0.00000001    0.00000055
     atom   39 type  1   force =     0.00000024   -0.00000014   -0.00000010
     atom   40 type  1   force =     0.00000012   -0.00000007    0.00000007
     atom   41 type  1   force =     0.00000030   -0.00000017    0.00000011
     atom   42 type  1   force =    -0.00000000    0.00000027   -0.00000010
     atom   43 type  1   force =     0.00000000    0.00000014    0.00000007
     atom   44 type  1   force =    -0.00000000    0.00000035    0.00000011
     atom   45 type  1   force =    -0.00000027    0.00000022   -0.00000034
     atom   46 type  1   force =     0.00000009    0.00000033    0.00000011
     atom   47 type  1   force =     0.00000021    0.00000039    0.00000055
     atom   48 type  1   force =     0.00000022   -0.00000013   -0.00000011
     atom   49 type  1   force =     0.00000012   -0.00000007    0.00000043
     atom   50 type  1   force =     0.00000033   -0.00000019   -0.00000056
     atom   51 type  1   force =     0.00000011    0.00000001   -0.00000010
     atom   52 type  1   force =     0.00000018   -0.00000010    0.00000021
     atom   53 type  1   force =     0.00000053   -0.00000024   -0.00000029
     atom   54 type  1   force =     0.00000007    0.00000009   -0.00000010
     atom   55 type  1   force =     0.00000001    0.00000021    0.00000021
     atom   56 type  1   force =     0.00000005    0.00000058   -0.00000029
     atom   57 type  1   force =    -0.00000000    0.00000025   -0.00000011
     atom   58 type  1   force =     0.00000000    0.00000014    0.00000043
     atom   59 type  1   force =    -0.00000000    0.00000038   -0.00000056
     atom   60 type  1   force =    -0.00000022   -0.00000013   -0.00000011
[...]
     atom  177 type  2   force =     0.00000000   -0.00000004   -0.00000003
     atom  178 type  2   force =    -0.00000000   -0.00000004    0.00000006
     atom  179 type  2   force =    -0.00000000   -0.00000002    0.00000002
     atom  180 type  2   force =     0.00000011   -0.00000012   -0.00000006
     atom  181 type  2   force =    -0.00000002   -0.00000000    0.00000005
     atom  182 type  2   force =     0.00000008   -0.00000003    0.00000008
     atom  183 type  2   force =     0.00000000   -0.00000000    0.00000005
     atom  184 type  2   force =    -0.00000000    0.00000000   -0.00000000
     atom  185 type  2   force =    -0.00000000    0.00000000    0.00000006
     atom  186 type  2   force =    -0.00000005    0.00000016   -0.00000006
     atom  187 type  2   force =    -0.00000001   -0.00000001    0.00000005
     atom  188 type  2   force =     0.00000002    0.00000008    0.00000008
     atom  189 type  2   force =     0.00000007    0.00000004   -0.00000007
     atom  190 type  2   force =     0.00000003    0.00000002    0.00000004
     atom  191 type  2   force =     0.00000007    0.00000004    0.00000008

     Total force =     0.003842     Total SCF correction =     0.000004

     Computing stress (Cartesian axis) and pressure

     Non-local corr. energy    =      51.87584443 Ry

          total   stress  (Ry/bohr**3)                   (kbar)     P=        2.47
   0.00001197   0.00000000   0.00000000            1.76        0.00        0.00
  -0.00000000   0.00001197   0.00000000           -0.00        1.76        0.00
   0.00000000  -0.00000000   0.00002651            0.00       -0.00        3.90

     kinetic stress (kbar)  18330.99      0.00      0.00
                                0.00  18330.99      0.00
                                0.00      0.00  18331.97

     local   stress (kbar)   4882.07     -0.07     -0.00
                               -0.07   4881.98     -0.00
                               -0.00     -0.00   3297.11

     nonloc. stress (kbar)     61.19      0.00      0.00
                                0.00     61.19      0.00
                                0.00      0.00     70.06

     hartree stress (kbar)  19629.40     -0.00     -0.00
                               -0.00  19629.40      0.00
                               -0.00      0.00  20346.89

     exc-cor stress (kbar)   5154.27      0.00     -0.00
                                0.00   5154.27      0.00
                               -0.00      0.00   5154.72

     corecor stress (kbar) -13969.73     -0.00     -0.00
                               -0.00 -13969.73      0.00
                               -0.00      0.00 -13969.33

     ewald   stress (kbar) -34247.09      0.09      0.00
                                0.09 -34246.97     -0.00
                                0.00     -0.00 -33387.28

     hubbard stress (kbar)      0.00      0.00      0.00
                                0.00      0.00      0.00
                                0.00      0.00      0.00

     DFT-D   stress (kbar)      0.00      0.00      0.00
                                0.00      0.00      0.00
                                0.00      0.00      0.00

     XDM     stress (kbar)      0.00      0.00      0.00
                                0.00      0.00      0.00
                                0.00      0.00      0.00

     dft-nl  stress (kbar)    160.65     -0.00     -0.00
                               -0.00    160.65     -0.00
                               -0.00     -0.00    159.77

     TS-vdW  stress (kbar)      0.00      0.00      0.00
                                0.00      0.00      0.00
                                0.00      0.00      0.00

     MDB     stress (kbar)      0.00      0.00      0.00
                                0.00      0.00      0.00
                                0.00      0.00      0.00

     3D-RISM stress (kbar)      0.00      0.00      0.00
                                0.00      0.00      0.00
                                0.00      0.00      0.00

     Energy error            =      3.9E-05 Ry
     Gradient error          =      8.3E-04 Ry/Bohr

     bfgs converged in  12 scf cycles and  11 bfgs steps
     (criteria: energy <  1.0E-04 Ry, force <  1.0E-03 Ry/Bohr)

     End of BFGS Geometry Optimization

     Final energy             =  -29696.0166462675 Ry

     File ./GaN.bfgs deleted, as requested
Begin final coordinates

ATOMIC_POSITIONS (angstrom)
Ga            1.6222756606        0.9366198184        7.9005997724
Ga            1.6222756606        0.9366198184       13.2124771968
Ga            0.0187943458        3.7377289482        2.6518064160
Ga           -0.0018754190        3.7487729583        7.9249012097
Ga            0.0019085662        3.7457221903       13.2130538715
Ga           -1.6128904897        6.5617593789        2.6480573847
Ga           -1.6226575109        6.5561203865        7.9271496652
Ga           -1.6224131578        6.5562614639       13.2180418662
Ga           -3.2427301658        9.3868551126        2.6518064160
Ga           -3.2435006549        9.3634325662        7.9249012097
Ga           -3.2442507050        9.3682349775       13.2130538715
Ga            4.8498479831        0.9247208066        2.6518064160
Ga            4.8697472589        0.9370993430        7.9249012097
Ga            4.8652132236        0.9353476997       13.2130538715
Ga            3.2257569754        3.7377289482        2.6518064160
Ga            3.2464267402        3.7487729583        7.9249012097
Ga            3.2426427550        3.7457221903       13.2130538715
Ga            1.6222756606        6.5585635306        2.6424889877
Ga            1.6222756606        6.5570417854        7.9289582539
Ga            1.6222756606        6.5558738752       13.2153413494
Ga            0.0019248997        9.3650933746        2.6424889877
Ga            0.0006070297        9.3658542472        7.9289582539
Ga           -0.0004044102        9.3664382023       13.2153413494
Ga            8.1113724947        0.9257861099        2.6480573847
Ga            8.1113724947        0.9370640945        7.9271496652
Ga            8.1113724947        0.9367819399       13.2180418662
Ga            6.4848492559        3.7440279927        2.6387456006
Ga            6.4891336350        3.7465015801        7.9263250529
Ga            6.4876696741        3.7456563619       13.2180371534
Ga            4.8574418109        6.5617593789        2.6480573847
Ga            4.8672088321        6.5561203865        7.9271496652
Ga            4.8669644790        6.5562614639       13.2180418662
Ga            3.2426264215        9.3650933746        2.6424889877
Ga            3.2439442915        9.3658542472        7.9289582539
Ga            3.2449557314        9.3664382023       13.2153413494
Ga           11.3728970064        0.9247208066        2.6518064160
Ga           11.3529977306        0.9370993430        7.9249012097
Ga           11.3575317659        0.9353476997       13.2130538715
Ga            9.7378957336        3.7440279927        2.6387456006
Ga            9.7336113545        3.7465015801        7.9263250529
Ga            9.7350753154        3.7456563619       13.2180371534
Ga            8.1113724947        6.5612488822        2.6387456006
Ga            8.1113724947        6.5563017073        7.9263250529
Ga            8.1113724947        6.5579921438       13.2180371534
Ga            6.4872814870        9.3868551126        2.6518064160
Ga            6.4880519761        9.3634325662        7.9249012097
Ga            6.4888020262        9.3682349775       13.2130538715
Ga            0.0002883013        1.8730748613        5.2591343806
Ga            0.0024396260        1.8718327934       10.5637412202
Ga            0.0058965897        1.8698369145       15.8814507287
Ga           -1.6229370064        4.6840705079        5.2832809880
Ga           -1.6222892387        4.6830169340       10.5711694594
Ga           -1.6170780596        4.6796177472       15.8633816470
Ga           -3.2440436045        7.4919095003        5.2832809880
Ga           -3.2446321424        7.4929972706       10.5711694594
Ga           -3.2449703349        7.4992098774       15.8633816470
Ga           -4.8668245904       10.3031616761        5.2591343806
Ga           -4.8668245904       10.3056458120       10.5637412202
Ga           -4.8668245904       10.3096375698       15.8814507287
Ga            3.2442561862        1.8730748613        5.2591343806
[...]
N             1.6222722437       10.2996259539        1.9880583672
N             1.6222722437       10.3025675146        7.2770535883
N             1.6222722437       10.3032710242       12.5633480281
N             9.7208128781        1.8713258914        1.9892541540
N             9.7312588188        1.8737526507        7.2743828540
N             9.7337360149        1.8730951917       12.5628880391
N             8.1113690779        4.6831037996        1.9884136898
N             8.1113690779        4.6831037996        7.2736074315
N             8.1113690779        4.6831037996       12.5652274821
N             6.4810198797        7.4828119707        1.9892541540
N             6.4883444853        7.4906450411        7.2743828540
N             6.4890137072        7.4931190853       12.5628880391
N             4.8588677323       10.2982348803        1.9871597558
N             4.8654871355       10.3020565945        7.2786105259
N             4.8663588300       10.3025598676       12.5584810087
End final coordinates

     Writing all to output data dir ./GaN.save/

     General routines

     Parallel routines

     PAW routines

   This run was terminated on:   9:45:40  26Jan2024

   JOB DONE.