     Program PWSCF v.7.2 starts on 17Mar2024 at 21:17:22

     Reading input from espresso.pwi
Warning: card &CELL ignored
Warning: card    CELL_DYNAMICS    = 'BFGS' ignored
Warning: card / ignored

     Current dimensions of program PWSCF are:
     Max number of different atomic species (ntypx) = 10
     Max number of k-points (npk) =  40000
     Max angular momentum in pseudopotentials (lmaxx) =  4
     file C.pbe-n-kjpaw_psl.1.0.0.UPF: wavefunction(s)  2S 2P renormalized

     IMPORTANT: XC functional enforced from input :
     Exchange-correlation= BEEF-VDW
                           (   1   4  43  14   2   0   0)
     Any further DFT definition will be discarded
     Please, verify this is what you really want

     K-points division:     npool     =       4
     R & G space division:  proc/nbgrp/npool/nimage =      32
     Subspace diagonalization in iterative solution of the eigenvalue problem:
     a serial algorithm will be used

     Using Slab Decomposition

     bravais-lattice index     =            1
     lattice parameter (alat)  =      13.5013  a.u.
     unit-cell volume          =    2461.1121 (a.u.)^3
     number of atoms/cell      =           63
     number of atomic types    =            1
     number of electrons       =       253.00
     number of Kohn-Sham states=          152
     kinetic-energy cutoff     =      70.0000  Ry
     charge density cutoff     =     350.0000  Ry
     scf convergence threshold =      1.0E-07
     mixing beta               =       0.7000
     number of iterations used =            8  plain     mixing
     Exchange-correlation= BEEF-VDW
                           (   1   4  43  14   2   0   0)

     celldm(1)=  13.501348  celldm(2)=   0.000000  celldm(3)=   0.000000
     celldm(4)=   0.000000  celldm(5)=   0.000000  celldm(6)=   0.000000

     crystal axes: (cart. coord. in units of alat)
               a(1) = (   1.000000   0.000000   0.000000 )
               a(2) = (   0.000000   1.000000   0.000000 )
               a(3) = (   0.000000   0.000000   1.000000 )

     reciprocal axes: (cart. coord. in units 2 pi/alat)
               b(1) = (  1.000000  0.000000  0.000000 )
               b(2) = (  0.000000  1.000000  0.000000 )
               b(3) = (  0.000000  0.000000  1.000000 )

     PseudoPot. # 1 for C  read from file:
     /trace/group/acmegroup/atimmins/packages/espresso/pseudo/psl_1.0.0/pslibrary.1.0.0/pbe/PSEUDOPOTENTIALS/C.pbe-n-kjpaw_psl.1.0.0.UPF
     MD5 check sum: 5459cf7f2c8c37df2f7cde8914797f4d
     Pseudo is Projector augmented-wave + core cor, Zval =  4.0
     Generated using 'atomic' code by A. Dal Corso  v.7.1
     Shape of augmentation charge: PSQ
     Using radial grid of 1073 points,  4 beta functions with:
                l(1) =   0
                l(2) =   0
                l(3) =   1
                l(4) =   1
     Q(r) pseudized with 0 coefficients

     atomic species   valence    mass     pseudopotential
        C              4.00    12.01100     C ( 1.00)

      6 Sym. Ops. (no inversion) found ( 4 have fractional translation)

                                    s                        frac. trans.

      isym =  1     identity

 cryst.   s( 1) = (     1          0          0      )
                  (     0          1          0      )
                  (     0          0          1      )

 cart.    s( 1) = (  1.0000000  0.0000000  0.0000000 )
                  (  0.0000000  1.0000000  0.0000000 )
                  (  0.0000000  0.0000000  1.0000000 )

      isym =  2     120 deg rotation - cart. axis [1,-1,1]

 cryst.   s( 2) = (     0          0          1      )    f =( -0.5000000 )
                  (    -1          0          0      )       ( -0.5000000 )
                  (     0         -1          0      )       (  0.0000000 )

 cart.    s( 2) = (  0.0000000 -1.0000000  0.0000000 )    f =( -0.5000000 )
                  (  0.0000000  0.0000000 -1.0000000 )       ( -0.5000000 )
                  (  1.0000000  0.0000000  0.0000000 )       (  0.0000000 )

      isym =  3     120 deg rotation - cart. axis [-1,1,-1]

[...]

      isym =  4     inv. 180 deg rotation - cart. axis [1,1,0]

[...]

 cryst.   s( 5) = (     0          0          1      )
                  (     0          1          0      )
                  (     1          0          0      )

 cart.    s( 5) = (  0.0000000  0.0000000  1.0000000 )
                  (  0.0000000  1.0000000  0.0000000 )
                  (  1.0000000  0.0000000  0.0000000 )

      isym =  6     inv. 180 deg rotation - cart. axis [0,1,1]

 cryst.   s( 6) = (     1          0          0      )    f =(  0.0000000 )
                  (     0          0         -1      )       ( -0.5000000 )
                  (     0         -1          0      )       ( -0.5000000 )

 cart.    s( 6) = (  1.0000000  0.0000000  0.0000000 )    f =(  0.0000000 )
                  (  0.0000000  0.0000000 -1.0000000 )       ( -0.5000000 )
                  (  0.0000000 -1.0000000  0.0000000 )       ( -0.5000000 )

     point group C_3v (3m)
     there are  3 classes
     the character table:

       E     2C3   3s_v
A_1    1.00  1.00  1.00
A_2    1.00  1.00 -1.00
E      2.00 -1.00  0.00

     the symmetry operations in each class and the name of the first element:

     E        1
          identity
     2C3      2    3
          120 deg rotation - cart. axis [1,-1,1]
     3s_v     4    5    6
          inv. 180 deg rotation - cart. axis [1,1,0]

   Cartesian axes

     site n.     atom                  positions (alat units)
         1           C   tau(   1) = (   0.1250031   0.3749969   0.6250031  )
         2           C   tau(   2) = (   0.1250031   0.8749969   0.1250031  )
         3           C   tau(   3) = (   0.1250031   0.8749969   0.6250031  )
         4           C   tau(   4) = (   0.6250031   0.3749969   0.1250031  )
         5           C   tau(   5) = (   0.6250031   0.3749969   0.6250031  )
         6           C   tau(   6) = (   0.6250031   0.8749969   0.1250031  )
         7           C   tau(   7) = (   0.6250031   0.8749969   0.6250031  )
         8           C   tau(   8) = (   0.0000000   0.0000000   0.2500000  )
         9           C   tau(   9) = (   0.0000000   0.0000000   0.7500000  )
        10           C   tau(  10) = (   0.0000000   0.5000000   0.2500000  )
        11           C   tau(  11) = (   0.0000000   0.5000000   0.7500000  )
        12           C   tau(  12) = (   0.5000000   0.0000000   0.2500000  )
        13           C   tau(  13) = (   0.5000000   0.0000000   0.7500000  )
        14           C   tau(  14) = (   0.5000000   0.5000000   0.2500000  )
        15           C   tau(  15) = (   0.5000000   0.5000000   0.7500000  )
        16           C   tau(  16) = (   0.1250031   0.1250031   0.3749969  )
        17           C   tau(  17) = (   0.1250031   0.1250031   0.8749969  )
        18           C   tau(  18) = (   0.1250031   0.6250031   0.3749969  )
        19           C   tau(  19) = (   0.1250031   0.6250031   0.8749969  )
        20           C   tau(  20) = (   0.6250031   0.1250031   0.3749969  )
        21           C   tau(  21) = (   0.6250031   0.1250031   0.8749969  )
        22           C   tau(  22) = (   0.6250031   0.6250031   0.3749969  )
        23           C   tau(  23) = (   0.6250031   0.6250031   0.8749969  )
        24           C   tau(  24) = (   0.0000000   0.2500000   0.0000000  )
        25           C   tau(  25) = (   0.0000000   0.2500000   0.5000000  )
        26           C   tau(  26) = (   0.0000000   0.7500000   0.0000000  )
        27           C   tau(  27) = (   0.0000000   0.7500000   0.5000000  )
        28           C   tau(  28) = (   0.5000000   0.2500000   0.0000000  )
        29           C   tau(  29) = (   0.5000000   0.2500000   0.5000000  )
        30           C   tau(  30) = (   0.5000000   0.7500000   0.0000000  )
        31           C   tau(  31) = (   0.5000000   0.7500000   0.5000000  )
        32           C   tau(  32) = (   0.3749969   0.3749969   0.3749969  )
        33           C   tau(  33) = (   0.3749969   0.3749969   0.8749969  )
        34           C   tau(  34) = (   0.3749969   0.8749969   0.3749969  )
        35           C   tau(  35) = (   0.3749969   0.8749969   0.8749969  )
        36           C   tau(  36) = (   0.8749969   0.3749969   0.3749969  )
        37           C   tau(  37) = (   0.8749969   0.3749969   0.8749969  )
        38           C   tau(  38) = (   0.8749969   0.8749969   0.3749969  )
        39           C   tau(  39) = (   0.8749969   0.8749969   0.8749969  )
        40           C   tau(  40) = (   0.2500000   0.0000000   0.0000000  )
        41           C   tau(  41) = (   0.2500000   0.0000000   0.5000000  )
        42           C   tau(  42) = (   0.2500000   0.5000000   0.0000000  )
        43           C   tau(  43) = (   0.2500000   0.5000000   0.5000000  )
        44           C   tau(  44) = (   0.7500000   0.0000000   0.0000000  )
        45           C   tau(  45) = (   0.7500000   0.0000000   0.5000000  )
        46           C   tau(  46) = (   0.7500000   0.5000000   0.0000000  )
        47           C   tau(  47) = (   0.7500000   0.5000000   0.5000000  )
        48           C   tau(  48) = (   0.3749969   0.1250031   0.1250031  )
        49           C   tau(  49) = (   0.3749969   0.1250031   0.6250031  )
        50           C   tau(  50) = (   0.3749969   0.6250031   0.1250031  )
        51           C   tau(  51) = (   0.3749969   0.6250031   0.6250031  )
        52           C   tau(  52) = (   0.8749969   0.1250031   0.1250031  )
        53           C   tau(  53) = (   0.8749969   0.1250031   0.6250031  )
        54           C   tau(  54) = (   0.8749969   0.6250031   0.1250031  )
        55           C   tau(  55) = (   0.8749969   0.6250031   0.6250031  )
        56           C   tau(  56) = (   0.2500000   0.2500000   0.2500000  )
        57           C   tau(  57) = (   0.2500000   0.2500000   0.7500000  )
        58           C   tau(  58) = (   0.2500000   0.7500000   0.2500000  )
        59           C   tau(  59) = (   0.2500000   0.7500000   0.7500000  )
        60           C   tau(  60) = (   0.7500000   0.2500000   0.2500000  )
        61           C   tau(  61) = (   0.7500000   0.2500000   0.7500000  )
        62           C   tau(  62) = (   0.7500000   0.7500000   0.2500000  )
        63           C   tau(  63) = (   0.7500000   0.7500000   0.7500000  )

   Crystallographic axes

     site n.     atom                  positions (cryst. coord.)
         1           C   tau(   1) = (  0.1250031  0.3749969  0.6250031  )
         2           C   tau(   2) = (  0.1250031  0.8749969  0.1250031  )
         3           C   tau(   3) = (  0.1250031  0.8749969  0.6250031  )
         4           C   tau(   4) = (  0.6250031  0.3749969  0.1250031  )
         5           C   tau(   5) = (  0.6250031  0.3749969  0.6250031  )
         6           C   tau(   6) = (  0.6250031  0.8749969  0.1250031  )
         7           C   tau(   7) = (  0.6250031  0.8749969  0.6250031  )
         8           C   tau(   8) = (  0.0000000  0.0000000  0.2500000  )
[...]
     The Hubbard contrib.    to forces
     atom    1 type  1   force =     0.00000000    0.00000000    0.00000000
     atom    2 type  1   force =     0.00000000    0.00000000    0.00000000
     atom    3 type  1   force =     0.00000000    0.00000000    0.00000000
     atom    4 type  1   force =     0.00000000    0.00000000    0.00000000
     atom    5 type  1   force =     0.00000000    0.00000000    0.00000000
     atom    6 type  1   force =     0.00000000    0.00000000    0.00000000
     atom    7 type  1   force =     0.00000000    0.00000000    0.00000000
     atom    8 type  1   force =     0.00000000    0.00000000    0.00000000
     atom    9 type  1   force =     0.00000000    0.00000000    0.00000000
     atom   10 type  1   force =     0.00000000    0.00000000    0.00000000
     atom   11 type  1   force =     0.00000000    0.00000000    0.00000000
     atom   12 type  1   force =     0.00000000    0.00000000    0.00000000
     atom   13 type  1   force =     0.00000000    0.00000000    0.00000000
     atom   14 type  1   force =     0.00000000    0.00000000    0.00000000
     atom   15 type  1   force =     0.00000000    0.00000000    0.00000000
     atom   16 type  1   force =     0.00000000    0.00000000    0.00000000
     atom   17 type  1   force =     0.00000000    0.00000000    0.00000000
     atom   18 type  1   force =     0.00000000    0.00000000    0.00000000
     atom   19 type  1   force =     0.00000000    0.00000000    0.00000000
     atom   20 type  1   force =     0.00000000    0.00000000    0.00000000
     atom   21 type  1   force =     0.00000000    0.00000000    0.00000000
     atom   22 type  1   force =     0.00000000    0.00000000    0.00000000
     atom   23 type  1   force =     0.00000000    0.00000000    0.00000000
     atom   24 type  1   force =     0.00000000    0.00000000    0.00000000
     atom   25 type  1   force =     0.00000000    0.00000000    0.00000000
     atom   26 type  1   force =     0.00000000    0.00000000    0.00000000
     atom   27 type  1   force =     0.00000000    0.00000000    0.00000000
     atom   28 type  1   force =     0.00000000    0.00000000    0.00000000
     atom   29 type  1   force =     0.00000000    0.00000000    0.00000000
     atom   30 type  1   force =     0.00000000    0.00000000    0.00000000
     atom   31 type  1   force =     0.00000000    0.00000000    0.00000000
     atom   32 type  1   force =     0.00000000    0.00000000    0.00000000
     atom   33 type  1   force =     0.00000000    0.00000000    0.00000000
     atom   34 type  1   force =     0.00000000    0.00000000    0.00000000
     atom   35 type  1   force =     0.00000000    0.00000000    0.00000000
     atom   36 type  1   force =     0.00000000    0.00000000    0.00000000
     atom   37 type  1   force =     0.00000000    0.00000000    0.00000000
     atom   38 type  1   force =     0.00000000    0.00000000    0.00000000
     atom   39 type  1   force =     0.00000000    0.00000000    0.00000000
     atom   40 type  1   force =     0.00000000    0.00000000    0.00000000
     atom   41 type  1   force =     0.00000000    0.00000000    0.00000000
     atom   42 type  1   force =     0.00000000    0.00000000    0.00000000
     atom   43 type  1   force =     0.00000000    0.00000000    0.00000000
     atom   44 type  1   force =     0.00000000    0.00000000    0.00000000
     atom   45 type  1   force =     0.00000000    0.00000000    0.00000000
     atom   46 type  1   force =     0.00000000    0.00000000    0.00000000
     atom   47 type  1   force =     0.00000000    0.00000000    0.00000000
     atom   48 type  1   force =     0.00000000    0.00000000    0.00000000
     atom   49 type  1   force =     0.00000000    0.00000000    0.00000000
     atom   50 type  1   force =     0.00000000    0.00000000    0.00000000
     atom   51 type  1   force =     0.00000000    0.00000000    0.00000000
     atom   52 type  1   force =     0.00000000    0.00000000    0.00000000
     atom   53 type  1   force =     0.00000000    0.00000000    0.00000000
     atom   54 type  1   force =     0.00000000    0.00000000    0.00000000
     atom   55 type  1   force =     0.00000000    0.00000000    0.00000000
     atom   56 type  1   force =     0.00000000    0.00000000    0.00000000
     atom   57 type  1   force =     0.00000000    0.00000000    0.00000000
     atom   58 type  1   force =     0.00000000    0.00000000    0.00000000
     atom   59 type  1   force =     0.00000000    0.00000000    0.00000000
     atom   60 type  1   force =     0.00000000    0.00000000    0.00000000
     atom   61 type  1   force =     0.00000000    0.00000000    0.00000000
     atom   62 type  1   force =     0.00000000    0.00000000    0.00000000
     atom   63 type  1   force =     0.00000000    0.00000000    0.00000000
     The SCF correction term to forces
     atom    1 type  1   force =     0.00001114   -0.00001114   -0.00001003
     atom    2 type  1   force =     0.00001114    0.00001003    0.00001114
     atom    3 type  1   force =     0.00001183    0.00001227   -0.00001227
     atom    4 type  1   force =    -0.00001003   -0.00001114    0.00001114
     atom    5 type  1   force =    -0.00001227   -0.00001183   -0.00001227
     atom    6 type  1   force =    -0.00001227    0.00001227    0.00001183
     atom    7 type  1   force =    -0.00001205    0.00001205   -0.00001205
     atom    8 type  1   force =     0.00000348    0.00000824    0.00001087
     atom    9 type  1   force =     0.00000087    0.00000718   -0.00001153
     atom   10 type  1   force =     0.00000698   -0.00000698    0.00000657
     atom   11 type  1   force =     0.00000750   -0.00000750   -0.00000571
     atom   12 type  1   force =    -0.00000384    0.00000384    0.00001467
     atom   13 type  1   force =    -0.00000143    0.00000143   -0.00001382
     atom   14 type  1   force =    -0.00000824   -0.00000348    0.00001087
     atom   15 type  1   force =    -0.00000718   -0.00000087   -0.00001153
     atom   16 type  1   force =     0.00001293    0.00000016   -0.00000016
     atom   17 type  1   force =     0.00000925    0.00000008   -0.00000082
     atom   18 type  1   force =     0.00000925    0.00000082   -0.00000008
     atom   19 type  1   force =     0.00001506   -0.00000135    0.00000135
     atom   20 type  1   force =    -0.00001189   -0.00000924    0.00000924
     atom   21 type  1   force =    -0.00000941   -0.00000881   -0.00000832
     atom   22 type  1   force =    -0.00000941    0.00000832    0.00000881
     atom   23 type  1   force =    -0.00001619    0.00000833   -0.00000833
     atom   24 type  1   force =     0.00000698   -0.00000657    0.00000698
     atom   25 type  1   force =     0.00000348   -0.00001087   -0.00000824
     atom   26 type  1   force =     0.00000750    0.00000571    0.00000750
     atom   27 type  1   force =     0.00000087    0.00001153   -0.00000718
     atom   28 type  1   force =    -0.00000824   -0.00001087    0.00000348
     atom   29 type  1   force =    -0.00000384   -0.00001467   -0.00000384
     atom   30 type  1   force =    -0.00000718    0.00001153    0.00000087
     atom   31 type  1   force =    -0.00000143    0.00001382   -0.00000143
     atom   32 type  1   force =    -0.00000016   -0.00001293   -0.00000016
     atom   33 type  1   force =    -0.00000008   -0.00000925   -0.00000082
     atom   34 type  1   force =     0.00000924    0.00001189    0.00000924
     atom   35 type  1   force =     0.00000881    0.00000941   -0.00000832
     atom   36 type  1   force =    -0.00000082   -0.00000925   -0.00000008
     atom   37 type  1   force =     0.00000135   -0.00001506    0.00000135
     atom   38 type  1   force =    -0.00000832    0.00000941    0.00000881
     atom   39 type  1   force =    -0.00000833    0.00001619   -0.00000833
     atom   40 type  1   force =     0.00001087    0.00000824    0.00000348
     atom   41 type  1   force =     0.00001467    0.00000384   -0.00000384
     atom   42 type  1   force =     0.00000657   -0.00000698    0.00000698
     atom   43 type  1   force =     0.00001087   -0.00000348   -0.00000824
     atom   44 type  1   force =    -0.00001153    0.00000718    0.00000087
     atom   45 type  1   force =    -0.00001382    0.00000143   -0.00000143
     atom   46 type  1   force =    -0.00000571   -0.00000750    0.00000750
     atom   47 type  1   force =    -0.00001153   -0.00000087   -0.00000718
     atom   48 type  1   force =    -0.00000016    0.00000016    0.00001293
     atom   49 type  1   force =     0.00000924   -0.00000924   -0.00001189
     atom   50 type  1   force =    -0.00000008    0.00000082    0.00000925
     atom   51 type  1   force =     0.00000881    0.00000832   -0.00000941
     atom   52 type  1   force =    -0.00000082    0.00000008    0.00000925
     atom   53 type  1   force =    -0.00000832   -0.00000881   -0.00000941
     atom   54 type  1   force =     0.00000135   -0.00000135    0.00001506
     atom   55 type  1   force =    -0.00000833    0.00000833   -0.00001619
     atom   56 type  1   force =     0.00000479   -0.00000479    0.00000479
     atom   57 type  1   force =     0.00001026   -0.00001026   -0.00000532
     atom   58 type  1   force =     0.00001026    0.00000532    0.00001026
     atom   59 type  1   force =     0.00001678    0.00001058   -0.00001058
     atom   60 type  1   force =    -0.00000532   -0.00001026    0.00001026
     atom   61 type  1   force =    -0.00001058   -0.00001678   -0.00001058
     atom   62 type  1   force =    -0.00001058    0.00001058    0.00001678
     atom   63 type  1   force =    -0.00001622    0.00001622   -0.00001622

     Total force =     0.002335     Total SCF correction =     0.000125

     Computing stress (Cartesian axis) and pressure

[...]

          total   stress  (Ry/bohr**3)                   (kbar)     P=       84.03
   0.00057123  -0.00000006   0.00000006           84.03       -0.01        0.01
  -0.00000006   0.00057123  -0.00000006           -0.01       84.03       -0.01
   0.00000006  -0.00000006   0.00057123            0.01       -0.01       84.03

     kinetic stress (kbar)  18759.53      0.03     -0.03
                                0.03  18759.53      0.03
                               -0.03      0.03  18759.53

     local   stress (kbar)  -3782.37      0.21     -0.21
                                0.21  -3782.37      0.21
                               -0.21      0.21  -3782.37

     nonloc. stress (kbar)   4281.10      0.00     -0.00
                                0.00   4281.10      0.00
                               -0.00      0.00   4281.10

     hartree stress (kbar)   1375.95     -0.08      0.08
                               -0.08   1375.95     -0.08
                                0.08     -0.08   1375.95

     exc-cor stress (kbar)   -419.91      0.01     -0.01
                                0.01   -419.91      0.01
                               -0.01      0.01   -419.91

     corecor stress (kbar)  -4367.10     -0.02      0.02
                               -0.02  -4367.10     -0.02
                                0.02     -0.02  -4367.10

     ewald   stress (kbar) -15788.01     -0.16      0.16
                               -0.16 -15788.01     -0.16
                                0.16     -0.16 -15788.01

     hubbard stress (kbar)      0.00      0.00      0.00
                                0.00      0.00      0.00
                                0.00      0.00      0.00

     DFT-D   stress (kbar)      0.00      0.00      0.00
                                0.00      0.00      0.00
                                0.00      0.00      0.00

     XDM     stress (kbar)      0.00      0.00      0.00
                                0.00      0.00      0.00
                                0.00      0.00      0.00

     dft-nl  stress (kbar)     24.84      0.00     -0.00
                                0.00     24.84      0.00
                               -0.00      0.00     24.84

     TS-vdW  stress (kbar)      0.00      0.00      0.00
                                0.00      0.00      0.00
                                0.00      0.00      0.00

     MDB     stress (kbar)      0.00      0.00      0.00
                                0.00      0.00      0.00
                                0.00      0.00      0.00

     3D-RISM stress (kbar)      0.00      0.00      0.00
                                0.00      0.00      0.00
                                0.00      0.00      0.00

[...]

     Non-local corr. energy    =       2.16641133 Ry

 BEEFens 2000 ensemble energies
             -0.224559016662903E+02
             -0.150043000629224E+01
             -0.507035536067675E+01
              0.154408547431402E+02
             -0.678979334198628E+01
             -0.578557364226822E+01
             -0.156212002081067E+02
             -0.336556823232790E+02
             -0.125178000092337E+02
             -0.130369656922963E+02
             -0.134244419906420E+02
              0.187376298483784E+01
              0.197076410910203E+01
             -0.168011931254347E+01
              0.148374509145957E+01
              0.165634141169820E+02
             -0.668154309082515E+01
             -0.434134109389580E+01
              0.848920258405343E+01
             -0.383468355646229E+02
              0.200546164545034E+02
             -0.697344061363560E+01
             -0.205380387527732E+01
             -0.271307630445436E+01
             -0.628662548228931E-02
             -0.205205058762481E+01
              0.301303215128743E+02
             -0.809706520088585E+01
             -0.314081919310698E+01
             -0.201184295471097E+02
              0.243877332080582E+02
             -0.226021868492333E+01
             -0.146072590068260E+02
              0.698688722977341E+01
             -0.799302921386371E+00
              0.999305488529643E+01
              0.824013307962275E+00
              0.376799628454165E-01
              0.128517639758004E+02
             -0.349196044398084E+02
              0.185190282386225E+02
              0.448201183754836E+01
             -0.357821130273163E+01
             -0.112980616064370E+02
              0.402395074014937E+01
             -0.584864228851572E+01
              0.175169257342633E+02
              0.121606879283350E+02
             -0.672074904832931E+01
             -0.115615551784147E+02
             -0.112050995828826E+02
             -0.124563503632282E+02
              0.665313895626839E+01
             -0.185485617547954E+02
              0.540457985423666E+01
              0.213749029232969E+02
              0.261558794500436E+02
              0.105908586414289E+02
              0.555935533467117E+01
              0.109523825476294E+02
[...]
             -0.262594993320553E+02
              0.734181784042903E+00
              0.351106119961288E+00
             -0.392634617943989E+01
              0.172595940091892E+01
             -0.225321897773597E+02
             -0.378930778862704E+01
              0.400965109875480E+01
              0.430001311663766E+01
              0.175987181829124E+02
             -0.152634994907116E+02
              0.183915688065616E+02
             -0.136457819293855E+02
              0.912633583040989E+01
              0.151134309921227E+02

 BEEF-vdW xc energy contributions
            1 :    -258.5042754929385
            2 :     228.0942303394000
            3 :    -175.6351826257870
            4 :     114.7036780376961
            5 :    -59.18139159040601
            6 :     18.67909531643164
            7 :     3.875521514033778
            8 :    -11.74549841216361
            9 :     11.59142550995659
           10 :    -9.923148592724374
           11 :     10.46569896019088
           12 :    -13.43461022829138
           13 :     16.65850262616578
           14 :    -17.61184255681007
           15 :     15.14096883678258
           16 :    -10.04379689801016
           17 :     4.413189046559921
           18 :   -0.3315413685378985
           19 :    -1.239950426327766
           20 :    0.7777398608731119
           21 :    0.3418305809293543
           22 :   -0.7995363350367484
           23 :    9.6566318104237325E-002
           24 :     1.290787600070985
           25 :    -2.368091883931243
           26 :     2.334187044314717
           27 :    -1.085153801666081
           28 :   -0.7692586277718192
           29 :     2.329542900363208
           30 :    -2.962285699402400
           31 :    -33.83832274332735
           32 :    -24.55392212162070

     Writing all to output data dir ./diamond.save/

     General routines

     Parallel routines

     PAW routines

   This run was terminated on:  21:17:36  17Mar2024

   JOB DONE.