     Program PWSCF v.7.1 starts on 18Feb2024 at 12:15:32

     Reading input from espresso.pwi
Warning: card &CELL ignored
Warning: card    CELL_DYNAMICS    = 'BFGS' ignored
Warning: card / ignored

     Current dimensions of program PWSCF are:
     Max number of different atomic species (ntypx) = 10
     Max number of k-points (npk) =  40000
     Max angular momentum in pseudopotentials (lmaxx) =  4
     file Pb.pbe-dn-kjpaw_psl.1.0.0.UPF: wavefunction(s)  6S 6P 5D renormalized
     file I.pbe-dn-kjpaw_psl.1.0.0.UPF: wavefunction(s)  5S 5P renormalized

     IMPORTANT: XC functional enforced from input :
     Exchange-correlation= BEEF-VDW
                           (   1   4  43  14   2   0   0)
     Any further DFT definition will be discarded
     Please, verify this is what you really want

     K-points division:     npool     =       2
     R & G space division:  proc/nbgrp/npool/nimage =      64
     Subspace diagonalization in iterative solution of the eigenvalue problem:
     a serial algorithm will be used

     Using Slab Decomposition

     bravais-lattice index     =            4
     lattice parameter (alat)  =      26.7090  a.u.
     unit-cell volume          =   17226.5091 (a.u.)^3
     number of atoms/cell      =           54
     number of atomic types    =            2
     number of electrons       =       869.00
     number of Kohn-Sham states=          522
     kinetic-energy cutoff     =      70.0000  Ry
     charge density cutoff     =     350.0000  Ry
     scf convergence threshold =      1.0E-07
     mixing beta               =       0.7000
     number of iterations used =            8  plain     mixing
     Exchange-correlation= BEEF-VDW
                           (   1   4  43  14   2   0   0)

     celldm(1)=  26.709025  celldm(2)=   0.000000  celldm(3)=   1.043981
     celldm(4)=   0.000000  celldm(5)=   0.000000  celldm(6)=   0.000000

     crystal axes: (cart. coord. in units of alat)
               a(1) = (   1.000000   0.000000   0.000000 )
               a(2) = (  -0.500000   0.866025   0.000000 )
               a(3) = (   0.000000   0.000000   1.043981 )

     reciprocal axes: (cart. coord. in units 2 pi/alat)
               b(1) = (  1.000000  0.577350 -0.000000 )
               b(2) = (  0.000000  1.154701  0.000000 )
               b(3) = (  0.000000 -0.000000  0.957872 )

     PseudoPot. # 1 for Pb read from file:
     /trace/group/acmegroup/atimmins/packages/espresso/pseudo/psl_1.0.0/pslibrary.1.0.0/pbe/PSEUDOPOTENTIALS/Pb.pbe-dn-kjpaw_psl.1.0.0.UPF
     MD5 check sum: 39ab5b8a6bbd56b7735ad9f188aac93a
     Pseudo is Projector augmented-wave + core cor, Zval = 14.0
     Generated using 'atomic' code by A. Dal Corso  v.7.1
     Shape of augmentation charge: PSQ
     Using radial grid of 1281 points,  6 beta functions with:
                l(1) =   0
                l(2) =   0
                l(3) =   1
                l(4) =   1
                l(5) =   2
                l(6) =   2
     Q(r) pseudized with 0 coefficients

     PseudoPot. # 2 for I  read from file:
     /trace/group/acmegroup/atimmins/packages/espresso/pseudo/psl_1.0.0/pslibrary.1.0.0/pbe/PSEUDOPOTENTIALS/I.pbe-dn-kjpaw_psl.1.0.0.UPF
     MD5 check sum: bfa8781bc1224d19af3f3980e3fab11e
     Pseudo is Projector augmented-wave + core cor, Zval = 17.0
     Generated using 'atomic' code by A. Dal Corso  v.7.1
     Shape of augmentation charge: PSQ
     Using radial grid of 1247 points,  6 beta functions with:
                l(1) =   0
                l(2) =   0
                l(3) =   1
                l(4) =   1
                l(5) =   2
                l(6) =   2
     Q(r) pseudized with 0 coefficients

     atomic species   valence    mass     pseudopotential
        Pb            14.00   207.20000     Pb( 1.00)
        I             17.00   126.90447     I ( 1.00)

     No symmetry found

                                    s                        frac. trans.

      isym =  1     identity

 cryst.   s( 1) = (     1          0          0      )
                  (     0          1          0      )
                  (     0          0          1      )

 cart.    s( 1) = (  1.0000000  0.0000000  0.0000000 )
                  (  0.0000000  1.0000000  0.0000000 )
                  (  0.0000000  0.0000000  1.0000000 )

     point group C_1 (1)
     there are  1 classes
     the character table:

       E
A      1.00

     the symmetry operations in each class and the name of the first element:

     E        1
          identity

   Cartesian axes

     site n.     atom                  positions (alat units)
         1           Pb  tau(   1) = (   0.1666712   0.2886557   0.5219862  )
         2           Pb  tau(   2) = (   0.0000102   0.5773235   1.0439712  )
         3           Pb  tau(   3) = (   0.0000034   0.5773295   0.5219807  )
         4           Pb  tau(   4) = (  -0.1666576   0.8659973   1.0439657  )
         5           Pb  tau(   5) = (  -0.1666644   0.8660033   0.5219752  )
         6           Pb  tau(   6) = (   0.5000113   0.2886484   1.0439810  )
         7           Pb  tau(   7) = (   0.5000045   0.2886544   0.5219905  )
         8           Pb  tau(   8) = (   0.3333436   0.5773222   1.0439755  )
         9           Pb  tau(   9) = (   0.3333367   0.5773282   0.5219850  )
        10           Pb  tau(  10) = (   0.1666758   0.8659960   1.0439700  )
        11           Pb  tau(  11) = (   0.1666690   0.8660020   0.5219795  )
        12           Pb  tau(  12) = (   0.8333447   0.2886471   1.0439853  )
        13           Pb  tau(  13) = (   0.8333379   0.2886531   0.5219949  )
        14           Pb  tau(  14) = (   0.6666769   0.5773209   1.0439798  )
        15           Pb  tau(  15) = (   0.6666701   0.5773269   0.5219894  )
        16           Pb  tau(  16) = (   0.5000091   0.8659947   1.0439743  )
        17           Pb  tau(  17) = (   0.5000023   0.8660007   0.5219839  )
        18           I   tau(  18) = (   0.1666738   0.0962066   0.3879099  )
        19           I   tau(  19) = (   0.1666806   0.0962006   0.9099004  )
        20           I   tau(  20) = (   0.0000060   0.3848804   0.3879044  )
        21           I   tau(  21) = (   0.0000129   0.3848744   0.9098949  )
        22           I   tau(  22) = (  -0.1666617   0.6735542   0.3878990  )
        23           I   tau(  23) = (  -0.1666549   0.6735482   0.9098894  )
        24           I   tau(  24) = (   0.5000071   0.0962053   0.3879143  )
        25           I   tau(  25) = (   0.5000140   0.0961993   0.9099047  )
        26           I   tau(  26) = (   0.3333394   0.3848792   0.3879088  )
        27           I   tau(  27) = (   0.3333462   0.3848731   0.9098993  )
        28           I   tau(  28) = (   0.1666716   0.6735530   0.3879033  )
        29           I   tau(  29) = (   0.1666784   0.6735469   0.9098938  )
        30           I   tau(  30) = (   0.8333405   0.0962041   0.3879186  )
        31           I   tau(  31) = (   0.8333473   0.0961980   0.9099091  )
        32           I   tau(  32) = (   0.6666727   0.3848779   0.3879131  )
        33           I   tau(  33) = (   0.6666795   0.3848718   0.9099036  )
        34           I   tau(  34) = (   0.5000049   0.6735517   0.3879076  )
        35           I   tau(  35) = (   0.5000117   0.6735457   0.9098981  )
        36           I   tau(  36) = (  -0.0000023   0.1924396   0.1340740  )
        37           I   tau(  37) = (   0.0000045   0.1924336   0.6560644  )
        38           I   tau(  38) = (  -0.1666701   0.4811134   0.1340685  )
        39           I   tau(  39) = (  -0.1666632   0.4811074   0.6560589  )
        40           I   tau(  40) = (  -0.3333378   0.7697873   0.1340630  )
        41           I   tau(  41) = (  -0.3333310   0.7697812   0.6560534  )
        42           I   tau(  42) = (   0.3333311   0.1924384   0.1340783  )
        43           I   tau(  43) = (   0.3333379   0.1924323   0.6560688  )
        44           I   tau(  44) = (   0.1666633   0.4811122   0.1340728  )
        45           I   tau(  45) = (   0.1666701   0.4811061   0.6560633  )
        46           I   tau(  46) = (  -0.0000045   0.7697860   0.1340673  )
        47           I   tau(  47) = (   0.0000023   0.7697799   0.6560578  )
        48           I   tau(  48) = (   0.6666644   0.1924371   0.1340827  )
        49           I   tau(  49) = (   0.6666712   0.1924310   0.6560731  )
        50           I   tau(  50) = (   0.4999966   0.4811109   0.1340772  )
        51           I   tau(  51) = (   0.5000034   0.4811049   0.6560676  )
        52           I   tau(  52) = (   0.3333288   0.7697847   0.1340717  )
        53           I   tau(  53) = (   0.3333356   0.7697787   0.6560621  )
        54           I   tau(  54) = (   0.1666780   0.2886497   1.0439767  )

   Crystallographic axes

     site n.     atom                  positions (cryst. coord.)
         1           Pb  tau(   1) = (  0.3333266  0.3333109  0.4999959  )
         2           Pb  tau(   2) = (  0.3333281  0.6666357  0.9999906  )
         3           Pb  tau(   3) = (  0.3333248  0.6666427  0.4999906  )
         4           Pb  tau(   4) = (  0.3333262  0.9999675  0.9999854  )
         5           Pb  tau(   5) = (  0.3333229  0.9999745  0.4999854  )
         6           Pb  tau(   6) = (  0.6666626  0.3333025  1.0000001  )
         7           Pb  tau(   7) = (  0.6666592  0.3333094  0.5000001  )
         8           Pb  tau(   8) = (  0.6666607  0.6666343  0.9999948  )
         9           Pb  tau(   9) = (  0.6666573  0.6666412  0.4999948  )
        10           Pb  tau(  10) = (  0.6666588  0.9999661  0.9999895  )
        11           Pb  tau(  11) = (  0.6666555  0.9999730  0.4999895  )
        12           Pb  tau(  12) = (  0.9999951  0.3333010  1.0000042  )
        13           Pb  tau(  13) = (  0.9999918  0.3333079  0.5000042  )
        14           Pb  tau(  14) = (  0.9999933  0.6666328  0.9999990  )
        15           Pb  tau(  15) = (  0.9999899  0.6666397  0.4999990  )
        16           Pb  tau(  16) = (  0.9999914  0.9999646  0.9999937  )
        17           Pb  tau(  17) = (  0.9999881  0.9999715  0.4999937  )
        18           I   tau(  18) = (  0.2222187  0.1110899  0.3715680  )
        19           I   tau(  19) = (  0.2222221  0.1110829  0.8715680  )
        20           I   tau(  20) = (  0.2222169  0.4444217  0.3715628  )
        21           I   tau(  21) = (  0.2222202  0.4444147  0.8715628  )
        22           I   tau(  22) = (  0.2222150  0.7777534  0.3715575  )
        23           I   tau(  23) = (  0.2222183  0.7777465  0.8715575  )
        24           I   tau(  24) = (  0.5555513  0.1110884  0.3715722  )
        25           I   tau(  25) = (  0.5555547  0.1110814  0.8715722  )
        26           I   tau(  26) = (  0.5555495  0.4444202  0.3715669  )
        27           I   tau(  27) = (  0.5555528  0.4444132  0.8715669  )
        28           I   tau(  28) = (  0.5555476  0.7777520  0.3715617  )
        29           I   tau(  29) = (  0.5555509  0.7777450  0.8715617  )
        30           I   tau(  30) = (  0.8888839  0.1110869  0.3715764  )
[...]
     atom   38 type  2   force =    -0.00015178    0.00025795    0.00483971
     atom   39 type  2   force =     0.00000810   -0.00006212    0.00589179
     atom   40 type  2   force =     0.00006253   -0.00026204    0.00483022
     atom   41 type  2   force =    -0.00013851   -0.00005540    0.00595930
     atom   42 type  2   force =    -0.00137981    0.00064247    0.00404008
     atom   43 type  2   force =    -0.00014506    0.00012368    0.00560393
     atom   44 type  2   force =    -0.00007246   -0.00148994    0.00411868
     atom   45 type  2   force =    -0.00011509   -0.00005463    0.00544873
     atom   46 type  2   force =    -0.00051077   -0.00039734    0.00435463
     atom   47 type  2   force =    -0.00018756   -0.00000114    0.00537724
     atom   48 type  2   force =     0.00015247    0.00083110    0.00441039
     atom   49 type  2   force =     0.00003406    0.00004975    0.00539674
     atom   50 type  2   force =    -0.00001585    0.00024853    0.00479900
     atom   51 type  2   force =    -0.00003194    0.00002297    0.00594264
     atom   52 type  2   force =     0.00058740   -0.00037132    0.00438619
     atom   53 type  2   force =    -0.00006833    0.00006044    0.00538525
     atom   54 type  2   force =    -0.00004204   -0.00006683    0.00000219
     The Hubbard contrib.    to forces
     atom    1 type  1   force =     0.00000000    0.00000000    0.00000000
     atom    2 type  1   force =     0.00000000    0.00000000    0.00000000
     atom    3 type  1   force =     0.00000000    0.00000000    0.00000000
     atom    4 type  1   force =     0.00000000    0.00000000    0.00000000
     atom    5 type  1   force =     0.00000000    0.00000000    0.00000000
     atom    6 type  1   force =     0.00000000    0.00000000    0.00000000
     atom    7 type  1   force =     0.00000000    0.00000000    0.00000000
     atom    8 type  1   force =     0.00000000    0.00000000    0.00000000
     atom    9 type  1   force =     0.00000000    0.00000000    0.00000000
     atom   10 type  1   force =     0.00000000    0.00000000    0.00000000
     atom   11 type  1   force =     0.00000000    0.00000000    0.00000000
     atom   12 type  1   force =     0.00000000    0.00000000    0.00000000
     atom   13 type  1   force =     0.00000000    0.00000000    0.00000000
     atom   14 type  1   force =     0.00000000    0.00000000    0.00000000
     atom   15 type  1   force =     0.00000000    0.00000000    0.00000000
     atom   16 type  1   force =     0.00000000    0.00000000    0.00000000
     atom   17 type  1   force =     0.00000000    0.00000000    0.00000000
     atom   18 type  2   force =     0.00000000    0.00000000    0.00000000
     atom   19 type  2   force =     0.00000000    0.00000000    0.00000000
     atom   20 type  2   force =     0.00000000    0.00000000    0.00000000
     atom   21 type  2   force =     0.00000000    0.00000000    0.00000000
     atom   22 type  2   force =     0.00000000    0.00000000    0.00000000
     atom   23 type  2   force =     0.00000000    0.00000000    0.00000000
     atom   24 type  2   force =     0.00000000    0.00000000    0.00000000
     atom   25 type  2   force =     0.00000000    0.00000000    0.00000000
     atom   26 type  2   force =     0.00000000    0.00000000    0.00000000
     atom   27 type  2   force =     0.00000000    0.00000000    0.00000000
     atom   28 type  2   force =     0.00000000    0.00000000    0.00000000
     atom   29 type  2   force =     0.00000000    0.00000000    0.00000000
     atom   30 type  2   force =     0.00000000    0.00000000    0.00000000
     atom   31 type  2   force =     0.00000000    0.00000000    0.00000000
     atom   32 type  2   force =     0.00000000    0.00000000    0.00000000
     atom   33 type  2   force =     0.00000000    0.00000000    0.00000000
     atom   34 type  2   force =     0.00000000    0.00000000    0.00000000
     atom   35 type  2   force =     0.00000000    0.00000000    0.00000000
     atom   36 type  2   force =     0.00000000    0.00000000    0.00000000
     atom   37 type  2   force =     0.00000000    0.00000000    0.00000000
     atom   38 type  2   force =     0.00000000    0.00000000    0.00000000
     atom   39 type  2   force =     0.00000000    0.00000000    0.00000000
     atom   40 type  2   force =     0.00000000    0.00000000    0.00000000
     atom   41 type  2   force =     0.00000000    0.00000000    0.00000000
     atom   42 type  2   force =     0.00000000    0.00000000    0.00000000
     atom   43 type  2   force =     0.00000000    0.00000000    0.00000000
     atom   44 type  2   force =     0.00000000    0.00000000    0.00000000
     atom   45 type  2   force =     0.00000000    0.00000000    0.00000000
     atom   46 type  2   force =     0.00000000    0.00000000    0.00000000
     atom   47 type  2   force =     0.00000000    0.00000000    0.00000000
     atom   48 type  2   force =     0.00000000    0.00000000    0.00000000
     atom   49 type  2   force =     0.00000000    0.00000000    0.00000000
     atom   50 type  2   force =     0.00000000    0.00000000    0.00000000
     atom   51 type  2   force =     0.00000000    0.00000000    0.00000000
     atom   52 type  2   force =     0.00000000    0.00000000    0.00000000
     atom   53 type  2   force =     0.00000000    0.00000000    0.00000000
     atom   54 type  2   force =     0.00000000    0.00000000    0.00000000
     The SCF correction term to forces
     atom    1 type  1   force =     0.00000844    0.00000812    0.00000128
     atom    2 type  1   force =    -0.00002235    0.00008581    0.00002056
     atom    3 type  1   force =    -0.00003134    0.00007596   -0.00000373
     atom    4 type  1   force =     0.00004004   -0.00008342   -0.00001952
     atom    5 type  1   force =     0.00004384   -0.00007499    0.00000505
     atom    6 type  1   force =     0.00008704   -0.00001121    0.00002207
     atom    7 type  1   force =     0.00006650   -0.00000329   -0.00001245
     atom    8 type  1   force =     0.00000654    0.00007845    0.00004034
     atom    9 type  1   force =     0.00002277    0.00006280   -0.00001596
     atom   10 type  1   force =    -0.00002952   -0.00002425   -0.00004152
     atom   11 type  1   force =    -0.00001437   -0.00001466    0.00004327
     atom   12 type  1   force =    -0.00009519    0.00002768   -0.00002269
     atom   13 type  1   force =    -0.00007628    0.00001206    0.00001427
     atom   14 type  1   force =     0.00001603    0.00001094    0.00004497
     atom   15 type  1   force =     0.00000848    0.00001047   -0.00004542
     atom   16 type  1   force =    -0.00001203   -0.00009270   -0.00004441
     atom   17 type  1   force =    -0.00002913   -0.00007802    0.00001956
     atom   18 type  2   force =     0.00003255   -0.00009599   -0.00001975
     atom   19 type  2   force =     0.00001453   -0.00007649   -0.00000244
     atom   20 type  2   force =    -0.00005685    0.00008926   -0.00003247
     atom   21 type  2   force =    -0.00005049    0.00005065   -0.00000135
     atom   22 type  2   force =    -0.00001527   -0.00001752   -0.00002158
     atom   23 type  2   force =     0.00001165    0.00002324    0.00003054
     atom   24 type  2   force =     0.00004701   -0.00004687   -0.00000487
     atom   25 type  2   force =     0.00006897   -0.00007961   -0.00000363
     atom   26 type  2   force =     0.00007231    0.00006018   -0.00004789
     atom   27 type  2   force =     0.00005542    0.00003618    0.00001277
     atom   28 type  2   force =    -0.00001192    0.00004380   -0.00001684
     atom   29 type  2   force =    -0.00002775    0.00009652    0.00001076
     atom   30 type  2   force =    -0.00008221   -0.00005370    0.00002169
     atom   31 type  2   force =    -0.00008166   -0.00005538   -0.00002971
     atom   32 type  2   force =    -0.00001322    0.00005006   -0.00002343
     atom   33 type  2   force =     0.00001750    0.00000335    0.00003575
     atom   34 type  2   force =     0.00002720   -0.00003886   -0.00001875
     atom   35 type  2   force =     0.00001683    0.00002687    0.00002588
     atom   36 type  2   force =    -0.00005484   -0.00002446    0.00000223
     atom   37 type  2   force =    -0.00006454   -0.00004825    0.00005077
     atom   38 type  2   force =    -0.00006812    0.00008145    0.00000790
     atom   39 type  2   force =    -0.00004043    0.00005068    0.00000266
     atom   40 type  2   force =     0.00002926   -0.00011250   -0.00000145
     atom   41 type  2   force =     0.00001540   -0.00005809    0.00001166
     atom   42 type  2   force =     0.00006029   -0.00003446    0.00000954
     atom   43 type  2   force =     0.00006897   -0.00007003    0.00002599
     atom   44 type  2   force =    -0.00000613    0.00008398    0.00000830
     atom   45 type  2   force =    -0.00001614    0.00010592    0.00001408
     atom   46 type  2   force =     0.00000201   -0.00002798   -0.00002931
     atom   47 type  2   force =     0.00002282    0.00001000    0.00001505
     atom   48 type  2   force =    -0.00003521    0.00000485   -0.00002535
     atom   49 type  2   force =    -0.00000356   -0.00005237    0.00002044
     atom   50 type  2   force =     0.00007098    0.00004916    0.00002856
     atom   51 type  2   force =     0.00006282    0.00004585   -0.00002727
     atom   52 type  2   force =    -0.00002988   -0.00005130   -0.00002085
     atom   53 type  2   force =    -0.00003841    0.00001587    0.00001402
     atom   54 type  2   force =     0.00000840    0.00001428    0.00000404

     Total force =     0.004088     Total SCF correction =     0.000566
     SCF correction compared to forces is large: reduce conv_thr to get better values

     Computing stress (Cartesian axis) and pressure

[...]

          total   stress  (Ry/bohr**3)                   (kbar)     P=       15.37
   0.00010452  -0.00000043   0.00000076           15.37       -0.06        0.11
  -0.00000043   0.00010405  -0.00000041           -0.06       15.31       -0.06
   0.00000076  -0.00000041   0.00010480            0.11       -0.06       15.42

     kinetic stress (kbar)  14868.56     -0.07      0.13
                               -0.07  14868.51     -0.06
                                0.13     -0.06  14875.62

     local   stress (kbar)  -7030.78      8.50     -7.17
                                8.50  -7020.40      4.26
                               -7.17      4.26    593.08

     nonloc. stress (kbar)   -874.94     -0.07      0.11
                               -0.07   -875.01     -0.05
                                0.11     -0.05   -880.62

     hartree stress (kbar)  11931.47     -3.33      2.62
                               -3.33  11927.40     -1.57
                                2.62     -1.57   8473.15

     exc-cor stress (kbar)   7008.28     -0.02      0.02
                               -0.02   7008.27     -0.01
                                0.02     -0.01   7007.79

     corecor stress (kbar) -11402.10      0.01     -0.00
                                0.01 -11402.09      0.00
                               -0.00      0.00 -11402.02

     ewald   stress (kbar) -14569.54     -5.09      4.42
                               -5.09 -14575.79     -2.64
                                4.42     -2.64 -18736.98

     hubbard stress (kbar)      0.00      0.00      0.00
                                0.00      0.00      0.00
                                0.00      0.00      0.00

     DFT-D   stress (kbar)      0.00      0.00      0.00
                                0.00      0.00      0.00
                                0.00      0.00      0.00

     XDM     stress (kbar)      0.00      0.00      0.00
                                0.00      0.00      0.00
                                0.00      0.00      0.00

     dft-nl  stress (kbar)     84.42      0.00     -0.00
                                0.00     84.42      0.00
                               -0.00      0.00     85.40

     TS-vdW  stress (kbar)      0.00      0.00      0.00
                                0.00      0.00      0.00
                                0.00      0.00      0.00

     MDB     stress (kbar)      0.00      0.00      0.00
                                0.00      0.00      0.00
                                0.00      0.00      0.00

     3D-RISM stress (kbar)      0.00      0.00      0.00
                                0.00      0.00      0.00
                                0.00      0.00      0.00

[...]

     Non-local corr. energy    =      26.18681261 Ry

 BEEFens 2000 ensemble energies
             -0.219357679612901E+02
             -0.220855468027241E+03
             -0.100438358611435E+03
              0.771162766521326E+02
             -0.168762784428262E+03
             -0.206697427709838E+03
              0.106050007859391E+03
              0.470076178329464E+00
              0.178834652270437E+03
             -0.113014138339998E+02
              0.914554634867647E+02
              0.940517869996330E+01
             -0.700055770890128E+01
             -0.564278647389733E+01
              0.114196642805590E+03
             -0.858230193385039E+02
             -0.168745139979373E+03
             -0.544090956820811E+02
              0.488507182086967E+02
             -0.980246877409627E+00
              0.248690610748000E+03
              0.207607960149624E+03
             -0.127897534013534E+03
              0.442240954819973E+02
             -0.266417568398750E+03
              0.218703232029227E+03
              0.747519015268024E+02
              0.197533328739597E+03
              0.133165873351518E+03
             -0.618446882925737E+02
              0.487040348680343E+02
             -0.871652752679782E+02
              0.363185186359322E+02
              0.132368575403937E+03
              0.142404558064426E+03
             -0.618655766067138E+02
              0.314350691122713E+03
             -0.126411687730751E+03
             -0.842822659081895E+02
              0.125719658909638E+03
              0.554263428489662E+02
              0.954770804816205E+02
             -0.184466111565597E+03
             -0.119553333723593E+02
              0.177010586619525E+03
              0.231297240973260E+03
             -0.234774035267506E+03
              0.151305083920638E+02
              0.815064284771936E+02
              0.525643344863540E+02
              0.918996159087330E+02
              0.201707759689788E+03
             -0.130973094571662E+03
             -0.127150181970641E+03
             -0.177141815047196E+03
             -0.257980754037130E+02
             -0.151114424101928E+03
              0.195570267163928E+02
             -0.218134825833606E+02
             -0.119859289169155E+03
[...]
              0.149663068946837E+03
              0.958660552394426E+02
              0.978286832629799E+02
             -0.180883009853756E+03
             -0.186810023061953E+03
             -0.421338448259303E+02
             -0.166987630642472E+03
              0.265159161512963E+03
              0.223370008748940E+03
              0.105288936760777E+03
              0.290384045821571E+03
             -0.145163534145295E+03
             -0.625045720963522E+02
             -0.900171266884281E+02
              0.251142473492156E+03

 BEEF-vdW xc energy contributions
            1 :    -2270.749400378250
            2 :     2081.064006194310
            3 :    -1757.303305363719
            4 :     1385.438409302368
            5 :    -1046.807525315457
            6 :     791.8127777796667
            7 :    -631.4312712859610
            8 :     544.5843460861590
            9 :    -494.2907691900155
           10 :     445.4430664704250
           11 :    -378.1063891277099
           12 :     291.9157725619443
           13 :    -200.8786222103408
           14 :     122.6236960075330
           15 :    -68.48119426288940
           16 :     39.04657781140850
           17 :    -25.94487463737642
           18 :     17.41298732501264
           19 :    -4.358432440809338
           20 :    -15.84551422932964
           21 :     39.24450311697728
           22 :    -58.58019852767757
           23 :     68.01925944663662
           24 :    -66.66573578412863
           25 :     58.99220157275749
           26 :    -52.20141695048915
           27 :     52.22998954578452
           28 :    -60.64323688930290
           29 :     73.97038045366662
           30 :    -85.67839960971378
           31 :    -194.9658989098730
           32 :    -140.2368777626521

     Writing all to output data dir ./PbI2.save/

     General routines

     Parallel routines

     PAW routines

   This run was terminated on:  12:19:20  18Feb2024

   JOB DONE.