     Program PWSCF v.7.1 starts on 14Feb2024 at 11: 2: 8

     Reading input from espresso.pwi
Warning: card &CELL ignored
Warning: card    CELL_DYNAMICS    = 'BFGS' ignored
Warning: card / ignored

     Current dimensions of program PWSCF are:
     Max number of different atomic species (ntypx) = 10
     Max number of k-points (npk) =  40000
     Max angular momentum in pseudopotentials (lmaxx) =  4
     file Pb.pbe-dn-kjpaw_psl.1.0.0.UPF: wavefunction(s)  6S 6P 5D renormalized
     file I.pbe-dn-kjpaw_psl.1.0.0.UPF: wavefunction(s)  5S 5P renormalized

     IMPORTANT: XC functional enforced from input :
     Exchange-correlation= BEEF-VDW
                           (   1   4  43  14   2   0   0)
     Any further DFT definition will be discarded
     Please, verify this is what you really want

     K-points division:     npool     =       2
     R & G space division:  proc/nbgrp/npool/nimage =      64
     Subspace diagonalization in iterative solution of the eigenvalue problem:
     a serial algorithm will be used

     Using Slab Decomposition

     bravais-lattice index     =            4
     lattice parameter (alat)  =      26.7090  a.u.
     unit-cell volume          =   17226.5091 (a.u.)^3
     number of atoms/cell      =           54
     number of atomic types    =            2
     number of electrons       =       869.00
     number of Kohn-Sham states=          522
     kinetic-energy cutoff     =      70.0000  Ry
     charge density cutoff     =     350.0000  Ry
     scf convergence threshold =      1.0E-07
     mixing beta               =       0.7000
     number of iterations used =            8  plain     mixing
     energy convergence thresh.=      1.0E-04
     force convergence thresh. =      1.0E-03
     Exchange-correlation= BEEF-VDW
                           (   1   4  43  14   2   0   0)
     nstep                     =           50

     celldm(1)=  26.709025  celldm(2)=   0.000000  celldm(3)=   1.043981
     celldm(4)=   0.000000  celldm(5)=   0.000000  celldm(6)=   0.000000

     crystal axes: (cart. coord. in units of alat)
               a(1) = (   1.000000   0.000000   0.000000 )
               a(2) = (  -0.500000   0.866025   0.000000 )
               a(3) = (   0.000000   0.000000   1.043981 )

     reciprocal axes: (cart. coord. in units 2 pi/alat)
               b(1) = (  1.000000  0.577350 -0.000000 )
               b(2) = (  0.000000  1.154701  0.000000 )
               b(3) = (  0.000000 -0.000000  0.957872 )

     PseudoPot. # 1 for Pb read from file:
     //group///packages/espresso/pseudo/psl_1.0.0/pslibrary.1.0.0/pbe/PSEUDOPOTENTIALS/Pb.pbe-dn-kjpaw_psl.1.0.0.UPF
     MD5 check sum: 39ab5b8a6bbd56b7735ad9f188aac93a
     Pseudo is Projector augmented-wave + core cor, Zval = 14.0
     Generated using 'atomic' code by A. Dal Corso  v.7.1
     Shape of augmentation charge: PSQ
     Using radial grid of 1281 points,  6 beta functions with:
                l(1) =   0
                l(2) =   0
                l(3) =   1
                l(4) =   1
                l(5) =   2
                l(6) =   2
     Q(r) pseudized with 0 coefficients

     PseudoPot. # 2 for I  read from file:
     //group///packages/espresso/pseudo/psl_1.0.0/pslibrary.1.0.0/pbe/PSEUDOPOTENTIALS/I.pbe-dn-kjpaw_psl.1.0.0.UPF
     MD5 check sum: bfa8781bc1224d19af3f3980e3fab11e
     Pseudo is Projector augmented-wave + core cor, Zval = 17.0
     Generated using 'atomic' code by A. Dal Corso  v.7.1
     Shape of augmentation charge: PSQ
     Using radial grid of 1247 points,  6 beta functions with:
                l(1) =   0
                l(2) =   0
                l(3) =   1
                l(4) =   1
                l(5) =   2
                l(6) =   2
     Q(r) pseudized with 0 coefficients

     atomic species   valence    mass     pseudopotential
        Pb            14.00   207.20000     Pb( 1.00)
        I             17.00   126.90447     I ( 1.00)

     No symmetry found

                                    s                        frac. trans.

      isym =  1     identity

 cryst.   s( 1) = (     1          0          0      )
                  (     0          1          0      )
                  (     0          0          1      )

 cart.    s( 1) = (  1.0000000  0.0000000  0.0000000 )
                  (  0.0000000  1.0000000  0.0000000 )
                  (  0.0000000  0.0000000  1.0000000 )

     point group C_1 (1)
     there are  1 classes
     the character table:

       E
A      1.00

     the symmetry operations in each class and the name of the first element:

     E        1
          identity

   Cartesian axes

     site n.     atom                  positions (alat units)
         1           Pb  tau(   1) = (   0.1666712   0.2886557   0.5219862  )
         2           Pb  tau(   2) = (   0.0000102   0.5773235   1.0439712  )
         3           Pb  tau(   3) = (   0.0000034   0.5773295   0.5219807  )
         4           Pb  tau(   4) = (  -0.1666576   0.8659973   1.0439657  )
         5           Pb  tau(   5) = (  -0.1666644   0.8660033   0.5219752  )
         6           Pb  tau(   6) = (   0.5000113   0.2886484   1.0439810  )
         7           Pb  tau(   7) = (   0.5000045   0.2886544   0.5219905  )
         8           Pb  tau(   8) = (   0.3333436   0.5773222   1.0439755  )
         9           Pb  tau(   9) = (   0.3333367   0.5773282   0.5219850  )
        10           Pb  tau(  10) = (   0.1666758   0.8659960   1.0439700  )
        11           Pb  tau(  11) = (   0.1666690   0.8660020   0.5219795  )
        12           Pb  tau(  12) = (   0.8333447   0.2886471   1.0439853  )
        13           Pb  tau(  13) = (   0.8333379   0.2886531   0.5219949  )
        14           Pb  tau(  14) = (   0.6666769   0.5773209   1.0439798  )
        15           Pb  tau(  15) = (   0.6666701   0.5773269   0.5219894  )
        16           Pb  tau(  16) = (   0.5000091   0.8659947   1.0439743  )
        17           Pb  tau(  17) = (   0.5000023   0.8660007   0.5219839  )
        18           I   tau(  18) = (   0.1666738   0.0962066   0.3879099  )
        19           I   tau(  19) = (   0.1666806   0.0962006   0.9099004  )
        20           I   tau(  20) = (   0.0000060   0.3848804   0.3879044  )
        21           I   tau(  21) = (   0.0000129   0.3848744   0.9098949  )
        22           I   tau(  22) = (  -0.1666617   0.6735542   0.3878990  )
        23           I   tau(  23) = (  -0.1666549   0.6735482   0.9098894  )
        24           I   tau(  24) = (   0.5000071   0.0962053   0.3879143  )
        25           I   tau(  25) = (   0.5000140   0.0961993   0.9099047  )
        26           I   tau(  26) = (   0.3333394   0.3848792   0.3879088  )
        27           I   tau(  27) = (   0.3333462   0.3848731   0.9098993  )
        28           I   tau(  28) = (   0.1666716   0.6735530   0.3879033  )
        29           I   tau(  29) = (   0.1666784   0.6735469   0.9098938  )
        30           I   tau(  30) = (   0.8333405   0.0962041   0.3879186  )
        31           I   tau(  31) = (   0.8333473   0.0961980   0.9099091  )
        32           I   tau(  32) = (   0.6666727   0.3848779   0.3879131  )
        33           I   tau(  33) = (   0.6666795   0.3848718   0.9099036  )
        34           I   tau(  34) = (   0.5000049   0.6735517   0.3879076  )
        35           I   tau(  35) = (   0.5000117   0.6735457   0.9098981  )
        36           I   tau(  36) = (  -0.0000023   0.1924396   0.1340740  )
        37           I   tau(  37) = (   0.0000045   0.1924336   0.6560644  )
        38           I   tau(  38) = (  -0.1666701   0.4811134   0.1340685  )
        39           I   tau(  39) = (  -0.1666632   0.4811074   0.6560589  )
        40           I   tau(  40) = (  -0.3333378   0.7697873   0.1340630  )
        41           I   tau(  41) = (  -0.3333310   0.7697812   0.6560534  )
        42           I   tau(  42) = (   0.3333311   0.1924384   0.1340783  )
        43           I   tau(  43) = (   0.3333379   0.1924323   0.6560688  )
        44           I   tau(  44) = (   0.1666633   0.4811122   0.1340728  )
        45           I   tau(  45) = (   0.1666701   0.4811061   0.6560633  )
        46           I   tau(  46) = (  -0.0000045   0.7697860   0.1340673  )
        47           I   tau(  47) = (   0.0000023   0.7697799   0.6560578  )
        48           I   tau(  48) = (   0.6666644   0.1924371   0.1340827  )
        49           I   tau(  49) = (   0.6666712   0.1924310   0.6560731  )
        50           I   tau(  50) = (   0.4999966   0.4811109   0.1340772  )
        51           I   tau(  51) = (   0.5000034   0.4811049   0.6560676  )
        52           I   tau(  52) = (   0.3333288   0.7697847   0.1340717  )
        53           I   tau(  53) = (   0.3333356   0.7697787   0.6560621  )
        54           I   tau(  54) = (   0.1666780   0.2886497   1.0439767  )

   Crystallographic axes

     site n.     atom                  positions (cryst. coord.)
         1           Pb  tau(   1) = (  0.3333266  0.3333109  0.4999959  )
         2           Pb  tau(   2) = (  0.3333281  0.6666357  0.9999906  )
         3           Pb  tau(   3) = (  0.3333248  0.6666427  0.4999906  )
         4           Pb  tau(   4) = (  0.3333262  0.9999675  0.9999854  )
         5           Pb  tau(   5) = (  0.3333229  0.9999745  0.4999854  )
         6           Pb  tau(   6) = (  0.6666626  0.3333025  1.0000001  )
         7           Pb  tau(   7) = (  0.6666592  0.3333094  0.5000001  )
         8           Pb  tau(   8) = (  0.6666607  0.6666343  0.9999948  )
         9           Pb  tau(   9) = (  0.6666573  0.6666412  0.4999948  )
        10           Pb  tau(  10) = (  0.6666588  0.9999661  0.9999895  )
        11           Pb  tau(  11) = (  0.6666555  0.9999730  0.4999895  )
        12           Pb  tau(  12) = (  0.9999951  0.3333010  1.0000042  )
        13           Pb  tau(  13) = (  0.9999918  0.3333079  0.5000042  )
        14           Pb  tau(  14) = (  0.9999933  0.6666328  0.9999990  )
        15           Pb  tau(  15) = (  0.9999899  0.6666397  0.4999990  )
        16           Pb  tau(  16) = (  0.9999914  0.9999646  0.9999937  )
        17           Pb  tau(  17) = (  0.9999881  0.9999715  0.4999937  )
        18           I   tau(  18) = (  0.2222187  0.1110899  0.3715680  )
        19           I   tau(  19) = (  0.2222221  0.1110829  0.8715680  )
        20           I   tau(  20) = (  0.2222169  0.4444217  0.3715628  )
        21           I   tau(  21) = (  0.2222202  0.4444147  0.8715628  )
        22           I   tau(  22) = (  0.2222150  0.7777534  0.3715575  )
        23           I   tau(  23) = (  0.2222183  0.7777465  0.8715575  )
        24           I   tau(  24) = (  0.5555513  0.1110884  0.3715722  )
        25           I   tau(  25) = (  0.5555547  0.1110814  0.8715722  )
        26           I   tau(  26) = (  0.5555495  0.4444202  0.3715669  )
        27           I   tau(  27) = (  0.5555528  0.4444132  0.8715669  )
        28           I   tau(  28) = (  0.5555476  0.7777520  0.3715617  )
        29           I   tau(  29) = (  0.5555509  0.7777450  0.8715617  )
[...]
     atom   38 type  2   force =    -0.00015203    0.00025811    0.00483982
     atom   39 type  2   force =     0.00000788   -0.00006191    0.00589210
     atom   40 type  2   force =     0.00006255   -0.00026242    0.00483028
     atom   41 type  2   force =    -0.00013845   -0.00005589    0.00595959
     atom   42 type  2   force =    -0.00137976    0.00064250    0.00404062
     atom   43 type  2   force =    -0.00014479    0.00012349    0.00560436
     atom   44 type  2   force =    -0.00007248   -0.00148977    0.00411899
     atom   45 type  2   force =    -0.00011507   -0.00005426    0.00544907
     atom   46 type  2   force =    -0.00051077   -0.00039758    0.00435444
     atom   47 type  2   force =    -0.00018782   -0.00000127    0.00537719
     atom   48 type  2   force =     0.00015245    0.00083137    0.00441040
     atom   49 type  2   force =     0.00003402    0.00004973    0.00539672
     atom   50 type  2   force =    -0.00001559    0.00024869    0.00479912
     atom   51 type  2   force =    -0.00003155    0.00002322    0.00594280
     atom   52 type  2   force =     0.00058745   -0.00037158    0.00438619
     atom   53 type  2   force =    -0.00006817    0.00006035    0.00538524
     atom   54 type  2   force =    -0.00004203   -0.00006675    0.00000234
     The Hubbard contrib.    to forces
     atom    1 type  1   force =     0.00000000    0.00000000    0.00000000
     atom    2 type  1   force =     0.00000000    0.00000000    0.00000000
     atom    3 type  1   force =     0.00000000    0.00000000    0.00000000
     atom    4 type  1   force =     0.00000000    0.00000000    0.00000000
     atom    5 type  1   force =     0.00000000    0.00000000    0.00000000
     atom    6 type  1   force =     0.00000000    0.00000000    0.00000000
     atom    7 type  1   force =     0.00000000    0.00000000    0.00000000
     atom    8 type  1   force =     0.00000000    0.00000000    0.00000000
     atom    9 type  1   force =     0.00000000    0.00000000    0.00000000
     atom   10 type  1   force =     0.00000000    0.00000000    0.00000000
     atom   11 type  1   force =     0.00000000    0.00000000    0.00000000
     atom   12 type  1   force =     0.00000000    0.00000000    0.00000000
     atom   13 type  1   force =     0.00000000    0.00000000    0.00000000
     atom   14 type  1   force =     0.00000000    0.00000000    0.00000000
     atom   15 type  1   force =     0.00000000    0.00000000    0.00000000
     atom   16 type  1   force =     0.00000000    0.00000000    0.00000000
     atom   17 type  1   force =     0.00000000    0.00000000    0.00000000
     atom   18 type  2   force =     0.00000000    0.00000000    0.00000000
     atom   19 type  2   force =     0.00000000    0.00000000    0.00000000
     atom   20 type  2   force =     0.00000000    0.00000000    0.00000000
     atom   21 type  2   force =     0.00000000    0.00000000    0.00000000
     atom   22 type  2   force =     0.00000000    0.00000000    0.00000000
     atom   23 type  2   force =     0.00000000    0.00000000    0.00000000
     atom   24 type  2   force =     0.00000000    0.00000000    0.00000000
     atom   25 type  2   force =     0.00000000    0.00000000    0.00000000
     atom   26 type  2   force =     0.00000000    0.00000000    0.00000000
     atom   27 type  2   force =     0.00000000    0.00000000    0.00000000
     atom   28 type  2   force =     0.00000000    0.00000000    0.00000000
     atom   29 type  2   force =     0.00000000    0.00000000    0.00000000
     atom   30 type  2   force =     0.00000000    0.00000000    0.00000000
     atom   31 type  2   force =     0.00000000    0.00000000    0.00000000
     atom   32 type  2   force =     0.00000000    0.00000000    0.00000000
     atom   33 type  2   force =     0.00000000    0.00000000    0.00000000
     atom   34 type  2   force =     0.00000000    0.00000000    0.00000000
     atom   35 type  2   force =     0.00000000    0.00000000    0.00000000
     atom   36 type  2   force =     0.00000000    0.00000000    0.00000000
     atom   37 type  2   force =     0.00000000    0.00000000    0.00000000
     atom   38 type  2   force =     0.00000000    0.00000000    0.00000000
     atom   39 type  2   force =     0.00000000    0.00000000    0.00000000
     atom   40 type  2   force =     0.00000000    0.00000000    0.00000000
     atom   41 type  2   force =     0.00000000    0.00000000    0.00000000
     atom   42 type  2   force =     0.00000000    0.00000000    0.00000000
     atom   43 type  2   force =     0.00000000    0.00000000    0.00000000
     atom   44 type  2   force =     0.00000000    0.00000000    0.00000000
     atom   45 type  2   force =     0.00000000    0.00000000    0.00000000
     atom   46 type  2   force =     0.00000000    0.00000000    0.00000000
     atom   47 type  2   force =     0.00000000    0.00000000    0.00000000
     atom   48 type  2   force =     0.00000000    0.00000000    0.00000000
     atom   49 type  2   force =     0.00000000    0.00000000    0.00000000
     atom   50 type  2   force =     0.00000000    0.00000000    0.00000000
     atom   51 type  2   force =     0.00000000    0.00000000    0.00000000
     atom   52 type  2   force =     0.00000000    0.00000000    0.00000000
     atom   53 type  2   force =     0.00000000    0.00000000    0.00000000
     atom   54 type  2   force =     0.00000000    0.00000000    0.00000000
     The SCF correction term to forces
     atom    1 type  1   force =    -0.00000235   -0.00000143   -0.00000265
     atom    2 type  1   force =     0.00000639   -0.00002690   -0.00000437
     atom    3 type  1   force =     0.00000797   -0.00001954   -0.00000275
     atom    4 type  1   force =    -0.00001298    0.00002557    0.00000763
     atom    5 type  1   force =    -0.00001203    0.00001970   -0.00000327
     atom    6 type  1   force =    -0.00002627   -0.00000151    0.00000033
     atom    7 type  1   force =    -0.00001762   -0.00000020    0.00000175
     atom    8 type  1   force =    -0.00000478   -0.00002027   -0.00000457
     atom    9 type  1   force =    -0.00000630   -0.00001517    0.00000045
     atom   10 type  1   force =     0.00000878    0.00000453    0.00001920
     atom   11 type  1   force =     0.00000285    0.00000232   -0.00001544
     atom   12 type  1   force =     0.00002871   -0.00000427    0.00000268
     atom   13 type  1   force =     0.00002103   -0.00000264   -0.00000401
     atom   14 type  1   force =    -0.00000266   -0.00000041   -0.00001877
     atom   15 type  1   force =    -0.00000198   -0.00000215    0.00001500
     atom   16 type  1   force =     0.00000684    0.00002451    0.00000983
     atom   17 type  1   force =     0.00000911    0.00002103   -0.00000581
     atom   18 type  2   force =    -0.00000651    0.00002611    0.00001064
     atom   19 type  2   force =    -0.00000434    0.00002097    0.00000585
     atom   20 type  2   force =     0.00001816   -0.00002135    0.00001300
     atom   21 type  2   force =     0.00001189   -0.00001240    0.00000779
     atom   22 type  2   force =     0.00000147    0.00000382    0.00001120
     atom   23 type  2   force =    -0.00000675   -0.00000895   -0.00000701
     atom   24 type  2   force =    -0.00001857    0.00001318    0.00000697
     atom   25 type  2   force =    -0.00002095    0.00002076    0.00000349
     atom   26 type  2   force =    -0.00002351   -0.00001692    0.00001461
     atom   27 type  2   force =    -0.00001741   -0.00001062    0.00000117
     atom   28 type  2   force =     0.00000137   -0.00001614    0.00000783
     atom   29 type  2   force =     0.00000588   -0.00002749    0.00000008
     atom   30 type  2   force =     0.00002372    0.00001459    0.00000442
     atom   31 type  2   force =     0.00002467    0.00001604    0.00000788
     atom   32 type  2   force =     0.00000256   -0.00000541    0.00001303
     atom   33 type  2   force =     0.00000003    0.00000212   -0.00001095
     atom   34 type  2   force =    -0.00000377    0.00000736    0.00001159
     atom   35 type  2   force =     0.00000084   -0.00000509   -0.00000498
     atom   36 type  2   force =     0.00001930    0.00000757   -0.00001305
     atom   37 type  2   force =     0.00001826    0.00001260   -0.00001708
     atom   38 type  2   force =     0.00002153   -0.00001913   -0.00000540
     atom   39 type  2   force =     0.00001252   -0.00001340   -0.00000727
     atom   40 type  2   force =    -0.00000540    0.00003281   -0.00000408
     atom   41 type  2   force =    -0.00000356    0.00002279   -0.00000663
     atom   42 type  2   force =    -0.00001404    0.00000717   -0.00001283
     atom   43 type  2   force =    -0.00002107    0.00001626   -0.00001138
     atom   44 type  2   force =     0.00000229   -0.00002590   -0.00001278
     atom   45 type  2   force =     0.00000144   -0.00003040   -0.00000935
     atom   46 type  2   force =     0.00000072    0.00000839    0.00000811
     atom   47 type  2   force =    -0.00000062    0.00000048   -0.00001063
     atom   48 type  2   force =     0.00000521   -0.00000710    0.00000372
     atom   49 type  2   force =     0.00000150    0.00001091   -0.00001137
     atom   50 type  2   force =    -0.00002265   -0.00001368   -0.00000852
     atom   51 type  2   force =    -0.00001824   -0.00001276    0.00000107
     atom   52 type  2   force =     0.00000284    0.00001205    0.00000299
     atom   53 type  2   force =     0.00000598   -0.00000136   -0.00000917
     atom   54 type  2   force =    -0.00000139   -0.00000484   -0.00000291

     Total force =     0.004085     Total SCF correction =     0.000165

     Computing stress (Cartesian axis) and pressure

     Non-local corr. energy    =      26.18681126 Ry

          total   stress  (Ry/bohr**3)                   (kbar)     P=       15.37
   0.00010454  -0.00000043   0.00000076           15.38       -0.06        0.11
  -0.00000043   0.00010407  -0.00000041           -0.06       15.31       -0.06
   0.00000076  -0.00000041   0.00010482            0.11       -0.06       15.42

     kinetic stress (kbar)  14868.56     -0.07      0.13
                               -0.07  14868.51     -0.06
                                0.13     -0.06  14875.62

     local   stress (kbar)  -7030.77      8.50     -7.17
                                8.50  -7020.40      4.26
                               -7.17      4.26    593.08

     nonloc. stress (kbar)   -874.94     -0.07      0.11
                               -0.07   -875.00     -0.05
                                0.11     -0.05   -880.61

     hartree stress (kbar)  11931.47     -3.33      2.62
                               -3.33  11927.40     -1.57
                                2.62     -1.57   8473.15

     exc-cor stress (kbar)   7008.28     -0.02      0.02
                               -0.02   7008.27     -0.01
                                0.02     -0.01   7007.79

     corecor stress (kbar) -11402.10      0.01     -0.00
                                0.01 -11402.09      0.00
                               -0.00      0.00 -11402.02

     ewald   stress (kbar) -14569.54     -5.09      4.42
                               -5.09 -14575.79     -2.64
                                4.42     -2.64 -18736.98

     hubbard stress (kbar)      0.00      0.00      0.00
                                0.00      0.00      0.00
                                0.00      0.00      0.00

     DFT-D   stress (kbar)      0.00      0.00      0.00
                                0.00      0.00      0.00
                                0.00      0.00      0.00

     XDM     stress (kbar)      0.00      0.00      0.00
                                0.00      0.00      0.00
                                0.00      0.00      0.00

     dft-nl  stress (kbar)     84.42      0.00     -0.00
                                0.00     84.42      0.00
                               -0.00      0.00     85.40

     TS-vdW  stress (kbar)      0.00      0.00      0.00
                                0.00      0.00      0.00
                                0.00      0.00      0.00

     MDB     stress (kbar)      0.00      0.00      0.00
                                0.00      0.00      0.00
                                0.00      0.00      0.00

     3D-RISM stress (kbar)      0.00      0.00      0.00
                                0.00      0.00      0.00
                                0.00      0.00      0.00

     Energy error            =      4.8E-05 Ry
     Gradient error          =      8.3E-04 Ry/Bohr

     bfgs converged in  26 scf cycles and  25 bfgs steps
     (criteria: energy <  1.0E-04 Ry, force <  1.0E-03 Ry/Bohr)

     End of BFGS Geometry Optimization

     Final energy             =  -36091.7564271604 Ry

     File ./PbI2.bfgs deleted, as requested
Begin final coordinates

ATOMIC_POSITIONS (angstrom)
Pb            2.3594461594        4.0860975335        7.3777402138
Pb            0.0740349521        8.0225943428       14.7474662775
Pb           -0.0070346789        8.1762728106        7.3698306316
Pb           -2.4337926471       12.3684016474       14.7496081801
Pb           -2.3437377997       12.2386718058        7.3861799292
Pb            6.9113433163        4.0750210894       14.7638349948
Pb            7.0847392154        4.0817244104        7.3852123694
Pb            4.6310592831        8.0209774649       14.7561416918
Pb            4.7206615855        8.1762052093        7.3775666816
Pb            2.3532766927       12.2358858306       14.7889297930
Pb            2.3658272857       12.2422995060        7.5162346482
Pb           11.9282531796        4.0765525712       14.7607259012
Pb           11.7713578028        4.0893870090        7.3687358374
Pb            9.4204596846        8.1557962992       14.7217005107
Pb            9.4194658992        8.1696665435        7.2390349635
Pb            7.1395085762       12.3652965880       14.7551174835
Pb            7.0678403938       12.2415721755        7.3774541733
I             2.3727249622        1.3701442394        5.5046050421
I             2.3482964128        0.8877583685       12.5901043804
I             0.0108953943        5.4434503699        5.4947610472
I            -0.4115932747        5.6594856804       12.5918145166
I            -2.3017286496        9.5698301219        5.4435872706
I            -2.3404326951        9.5312980579       12.9468556316
I             7.1505776540        1.3102259615        5.5732204256
I             7.0609070817        1.3695311582       12.8420932092
I             4.7235347687        5.4384846650        5.5084058347
I             5.1035367266        5.6551857469       12.5989449669
I             2.3570567967        9.6039795898        5.5667228819
I             2.3649177755        9.4963059845       12.8387201741
I            11.7039482803        1.3146035676        5.5666722036
I            11.7891731725        1.3661426602       12.8477273818
I             9.4196065379        5.3726679251        5.4424962447
I             9.4162049511        5.4209305071       12.9530108900
I             7.0011521289        9.5731050310        5.4416192960
I             7.0492286437        9.5211001638       12.9501340905
I            -0.4040532022        2.4784404710        2.1645049553
I             0.0003938982        2.7396431669        9.2506043874
I            -2.3442043227        6.7994896912        1.9131710605
I            -2.4402224392        6.8475883687        9.1819635973
I            -4.7109944802       10.8923389843        1.9074221020
I            -4.7132877190       10.7928574548        9.1883086442
I             5.1074200962        2.4730446459        2.1635790342
I             4.7095336534        2.7303819958        9.2605531571
I             2.3459091381        7.2479088627        2.1573677326
I             2.3482903191        6.8098886309        9.2469446490
I            -0.0132808821       10.8651264991        1.8019071990
I            -0.0563025034       10.8437987040        9.3127504552
I             9.4251372886        2.7380611930        1.8084336764
I             9.4390207503        2.7915755229        9.3116989694
I             7.0426255802        6.7957366757        1.9168763811
I             7.1386846693        6.8428409629        9.1886353537
I             4.7215906779       10.8656393076        1.8052879120
I             4.7901171686       10.8496753071        9.3136844191
I             2.3441547322        4.0598124531       14.7555533292
End final coordinates

     Writing all to output data dir ./PbI2.save/

     General routines

     Parallel routines

     PAW routines

   This run was terminated on:  18:59:29  14Feb2024

   JOB DONE.