     Program PWSCF v.7.1 starts on 19Feb2024 at 10:42:24

     Reading input from espresso.pwi
Warning: card &CELL ignored
Warning: card    CELL_DYNAMICS    = 'BFGS' ignored
Warning: card / ignored

     Current dimensions of program PWSCF are:
     Max number of different atomic species (ntypx) = 10
     Max number of k-points (npk) =  40000
     Max angular momentum in pseudopotentials (lmaxx) =  4
     file C.pbe-n-kjpaw_psl.1.0.0.UPF: wavefunction(s)  2S 2P renormalized

     IMPORTANT: XC functional enforced from input :
     Exchange-correlation= BEEF-VDW
                           (   1   4  43  14   2   0   0)
     Any further DFT definition will be discarded
     Please, verify this is what you really want

     R & G space division:  proc/nbgrp/npool/nimage =     256
     wavefunctions fft division:  task group distribution
                                  #TG    x Z-proc =       8     32
     Subspace diagonalization in iterative solution of the eigenvalue problem:
     a serial algorithm will be used

     Using Pencil Decomposition

     bravais-lattice index     =            1
     lattice parameter (alat)  =      27.0027  a.u.
     unit-cell volume          =   19688.9026 (a.u.)^3
     number of atoms/cell      =          511
     number of atomic types    =            1
     number of electrons       =      2044.00
     number of Kohn-Sham states=         1226
     kinetic-energy cutoff     =      70.0000  Ry
     charge density cutoff     =     350.0000  Ry
     scf convergence threshold =      1.0E-07
     mixing beta               =       0.7000
     number of iterations used =            8  plain     mixing
     Exchange-correlation= BEEF-VDW
                           (   1   4  43  14   2   0   0)

     celldm(1)=  27.002699  celldm(2)=   0.000000  celldm(3)=   0.000000
     celldm(4)=   0.000000  celldm(5)=   0.000000  celldm(6)=   0.000000

     crystal axes: (cart. coord. in units of alat)
               a(1) = (   1.000000   0.000000   0.000000 )
               a(2) = (   0.000000   1.000000   0.000000 )
               a(3) = (   0.000000   0.000000   1.000000 )

     reciprocal axes: (cart. coord. in units 2 pi/alat)
               b(1) = (  1.000000  0.000000  0.000000 )
               b(2) = (  0.000000  1.000000  0.000000 )
               b(3) = (  0.000000  0.000000  1.000000 )

     PseudoPot. # 1 for C  read from file:
     /trace/group/acmegroup/atimmins/packages/espresso/pseudo/psl_1.0.0/pslibrary.1.0.0/pbe/PSEUDOPOTENTIALS/C.pbe-n-kjpaw_psl.1.0.0.UPF
     MD5 check sum: 5459cf7f2c8c37df2f7cde8914797f4d
     Pseudo is Projector augmented-wave + core cor, Zval =  4.0
     Generated using 'atomic' code by A. Dal Corso  v.7.1
     Shape of augmentation charge: PSQ
     Using radial grid of 1073 points,  4 beta functions with:
                l(1) =   0
                l(2) =   0
                l(3) =   1
                l(4) =   1
     Q(r) pseudized with 0 coefficients

     atomic species   valence    mass     pseudopotential
        C              4.00    12.01100     C ( 1.00)

      6 Sym. Ops. (no inversion) found ( 4 have fractional translation)

                                    s                        frac. trans.

      isym =  1     identity

 cryst.   s( 1) = (     1          0          0      )
                  (     0          1          0      )
                  (     0          0          1      )

 cart.    s( 1) = (  1.0000000  0.0000000  0.0000000 )
                  (  0.0000000  1.0000000  0.0000000 )
                  (  0.0000000  0.0000000  1.0000000 )

      isym =  2     120 deg rotation - cart. axis [1,-1,1]

 cryst.   s( 2) = (     0          0          1      )    f =( -0.2500000 )
                  (    -1          0          0      )       ( -0.2500000 )
                  (     0         -1          0      )       (  0.0000000 )

 cart.    s( 2) = (  0.0000000 -1.0000000  0.0000000 )    f =( -0.2500000 )
                  (  0.0000000  0.0000000 -1.0000000 )       ( -0.2500000 )
                  (  1.0000000  0.0000000  0.0000000 )       (  0.0000000 )

      isym =  3     120 deg rotation - cart. axis [-1,1,-1]

[...]

      isym =  4     inv. 180 deg rotation - cart. axis [1,1,0]

[...]

 cryst.   s( 5) = (     0          0          1      )
                  (     0          1          0      )
                  (     1          0          0      )

 cart.    s( 5) = (  0.0000000  0.0000000  1.0000000 )
                  (  0.0000000  1.0000000  0.0000000 )
                  (  1.0000000  0.0000000  0.0000000 )

      isym =  6     inv. 180 deg rotation - cart. axis [0,1,1]

 cryst.   s( 6) = (     1          0          0      )    f =(  0.0000000 )
                  (     0          0         -1      )       ( -0.2500000 )
                  (     0         -1          0      )       ( -0.2500000 )

 cart.    s( 6) = (  1.0000000  0.0000000  0.0000000 )    f =(  0.0000000 )
                  (  0.0000000  0.0000000 -1.0000000 )       ( -0.2500000 )
                  (  0.0000000 -1.0000000  0.0000000 )       ( -0.2500000 )

     point group C_3v (3m)
     there are  3 classes
     the character table:

       E     2C3   3s_v
A_1    1.00  1.00  1.00
A_2    1.00  1.00 -1.00
E      2.00 -1.00  0.00

     the symmetry operations in each class and the name of the first element:

     E        1
          identity
     2C3      2    3
          120 deg rotation - cart. axis [1,-1,1]
     3s_v     4    5    6
          inv. 180 deg rotation - cart. axis [1,1,0]

   Cartesian axes

     site n.     atom                  positions (alat units)
         1           C   tau(   1) = (   0.0625015   0.1874985   0.3125015  )
         2           C   tau(   2) = (   0.0625015   0.1874985   0.5625015  )
         3           C   tau(   3) = (   0.0625015   0.1874985   0.8125015  )
         4           C   tau(   4) = (   0.0625015   0.4374985   0.0625015  )
         5           C   tau(   5) = (   0.0625015   0.4374985   0.3125015  )
         6           C   tau(   6) = (   0.0625015   0.4374985   0.5625015  )
         7           C   tau(   7) = (   0.0625015   0.4374985   0.8125015  )
         8           C   tau(   8) = (   0.0625015   0.6874985   0.0625015  )
         9           C   tau(   9) = (   0.0625015   0.6874985   0.3125015  )
        10           C   tau(  10) = (   0.0625015   0.6874985   0.5625015  )
        11           C   tau(  11) = (   0.0625015   0.6874985   0.8125015  )
        12           C   tau(  12) = (   0.0625015   0.9374985   0.0625015  )
        13           C   tau(  13) = (   0.0625015   0.9374985   0.3125015  )
        14           C   tau(  14) = (   0.0625015   0.9374985   0.5625015  )
        15           C   tau(  15) = (   0.0625015   0.9374985   0.8125015  )
        16           C   tau(  16) = (   0.3125015   0.1874985   0.0625015  )
        17           C   tau(  17) = (   0.3125015   0.1874985   0.3125015  )
        18           C   tau(  18) = (   0.3125015   0.1874985   0.5625015  )
        19           C   tau(  19) = (   0.3125015   0.1874985   0.8125015  )
        20           C   tau(  20) = (   0.3125015   0.4374985   0.0625015  )
        21           C   tau(  21) = (   0.3125015   0.4374985   0.3125015  )
        22           C   tau(  22) = (   0.3125015   0.4374985   0.5625015  )
        23           C   tau(  23) = (   0.3125015   0.4374985   0.8125015  )
        24           C   tau(  24) = (   0.3125015   0.6874985   0.0625015  )
        25           C   tau(  25) = (   0.3125015   0.6874985   0.3125015  )
        26           C   tau(  26) = (   0.3125015   0.6874985   0.5625015  )
        27           C   tau(  27) = (   0.3125015   0.6874985   0.8125015  )
        28           C   tau(  28) = (   0.3125015   0.9374985   0.0625015  )
        29           C   tau(  29) = (   0.3125015   0.9374985   0.3125015  )
        30           C   tau(  30) = (   0.3125015   0.9374985   0.5625015  )
        31           C   tau(  31) = (   0.3125015   0.9374985   0.8125015  )
        32           C   tau(  32) = (   0.5625015   0.1874985   0.0625015  )
        33           C   tau(  33) = (   0.5625015   0.1874985   0.3125015  )
        34           C   tau(  34) = (   0.5625015   0.1874985   0.5625015  )
        35           C   tau(  35) = (   0.5625015   0.1874985   0.8125015  )
        36           C   tau(  36) = (   0.5625015   0.4374985   0.0625015  )
        37           C   tau(  37) = (   0.5625015   0.4374985   0.3125015  )
        38           C   tau(  38) = (   0.5625015   0.4374985   0.5625015  )
        39           C   tau(  39) = (   0.5625015   0.4374985   0.8125015  )
        40           C   tau(  40) = (   0.5625015   0.6874985   0.0625015  )
        41           C   tau(  41) = (   0.5625015   0.6874985   0.3125015  )
        42           C   tau(  42) = (   0.5625015   0.6874985   0.5625015  )
        43           C   tau(  43) = (   0.5625015   0.6874985   0.8125015  )
        44           C   tau(  44) = (   0.5625015   0.9374985   0.0625015  )
        45           C   tau(  45) = (   0.5625015   0.9374985   0.3125015  )
        46           C   tau(  46) = (   0.5625015   0.9374985   0.5625015  )
        47           C   tau(  47) = (   0.5625015   0.9374985   0.8125015  )
        48           C   tau(  48) = (   0.8125015   0.1874985   0.0625015  )
        49           C   tau(  49) = (   0.8125015   0.1874985   0.3125015  )
        50           C   tau(  50) = (   0.8125015   0.1874985   0.5625015  )
        51           C   tau(  51) = (   0.8125015   0.1874985   0.8125015  )
        52           C   tau(  52) = (   0.8125015   0.4374985   0.0625015  )
        53           C   tau(  53) = (   0.8125015   0.4374985   0.3125015  )
        54           C   tau(  54) = (   0.8125015   0.4374985   0.5625015  )
        55           C   tau(  55) = (   0.8125015   0.4374985   0.8125015  )
        56           C   tau(  56) = (   0.8125015   0.6874985   0.0625015  )
        57           C   tau(  57) = (   0.8125015   0.6874985   0.3125015  )
        58           C   tau(  58) = (   0.8125015   0.6874985   0.5625015  )
        59           C   tau(  59) = (   0.8125015   0.6874985   0.8125015  )
        60           C   tau(  60) = (   0.8125015   0.9374985   0.0625015  )
[...]
       497           C   tau( 497) = (   0.8750000   0.1250000   0.3750000  )
       498           C   tau( 498) = (   0.8750000   0.1250000   0.6250000  )
       499           C   tau( 499) = (   0.8750000   0.1250000   0.8750000  )
       500           C   tau( 500) = (   0.8750000   0.3750000   0.1250000  )
       501           C   tau( 501) = (   0.8750000   0.3750000   0.3750000  )
       502           C   tau( 502) = (   0.8750000   0.3750000   0.6250000  )
       503           C   tau( 503) = (   0.8750000   0.3750000   0.8750000  )
       504           C   tau( 504) = (   0.8750000   0.6250000   0.1250000  )
       505           C   tau( 505) = (   0.8750000   0.6250000   0.3750000  )
       506           C   tau( 506) = (   0.8750000   0.6250000   0.6250000  )
       507           C   tau( 507) = (   0.8750000   0.6250000   0.8750000  )
[...]
     atom   25 type  1   force =     0.00000000    0.00000000    0.00000000
     atom   26 type  1   force =     0.00000000    0.00000000    0.00000000
     atom   27 type  1   force =     0.00000000    0.00000000    0.00000000
     atom   28 type  1   force =     0.00000000    0.00000000    0.00000000
     atom   29 type  1   force =     0.00000000    0.00000000    0.00000000
     atom   30 type  1   force =     0.00000000    0.00000000    0.00000000
     atom   31 type  1   force =     0.00000000    0.00000000    0.00000000
     atom   32 type  1   force =     0.00000000    0.00000000    0.00000000
     atom   33 type  1   force =     0.00000000    0.00000000    0.00000000
     atom   34 type  1   force =     0.00000000    0.00000000    0.00000000
     atom   35 type  1   force =     0.00000000    0.00000000    0.00000000
     atom   36 type  1   force =     0.00000000    0.00000000    0.00000000
     atom   37 type  1   force =     0.00000000    0.00000000    0.00000000
     atom   38 type  1   force =     0.00000000    0.00000000    0.00000000
     atom   39 type  1   force =     0.00000000    0.00000000    0.00000000
     atom   40 type  1   force =     0.00000000    0.00000000    0.00000000
     atom   41 type  1   force =     0.00000000    0.00000000    0.00000000
     atom   42 type  1   force =     0.00000000    0.00000000    0.00000000
     atom   43 type  1   force =     0.00000000    0.00000000    0.00000000
     atom   44 type  1   force =     0.00000000    0.00000000    0.00000000
     atom   45 type  1   force =     0.00000000    0.00000000    0.00000000
     atom   46 type  1   force =     0.00000000    0.00000000    0.00000000
     atom   47 type  1   force =     0.00000000    0.00000000    0.00000000
     atom   48 type  1   force =     0.00000000    0.00000000    0.00000000
     atom   49 type  1   force =     0.00000000    0.00000000    0.00000000
     atom   50 type  1   force =     0.00000000    0.00000000    0.00000000
     atom   51 type  1   force =     0.00000000    0.00000000    0.00000000
     atom   52 type  1   force =     0.00000000    0.00000000    0.00000000
     atom   53 type  1   force =     0.00000000    0.00000000    0.00000000
     atom   54 type  1   force =     0.00000000    0.00000000    0.00000000
     atom   55 type  1   force =     0.00000000    0.00000000    0.00000000
     atom   56 type  1   force =     0.00000000    0.00000000    0.00000000
     atom   57 type  1   force =     0.00000000    0.00000000    0.00000000
     atom   58 type  1   force =     0.00000000    0.00000000    0.00000000
     atom   59 type  1   force =     0.00000000    0.00000000    0.00000000
     atom   60 type  1   force =     0.00000000    0.00000000    0.00000000
[...]
     atom  497 type  1   force =     0.00000000    0.00000000    0.00000000
     atom  498 type  1   force =     0.00000000    0.00000000    0.00000000
     atom  499 type  1   force =     0.00000000    0.00000000    0.00000000
     atom  500 type  1   force =     0.00000000    0.00000000    0.00000000
     atom  501 type  1   force =     0.00000000    0.00000000    0.00000000
     atom  502 type  1   force =     0.00000000    0.00000000    0.00000000
     atom  503 type  1   force =     0.00000000    0.00000000    0.00000000
     atom  504 type  1   force =     0.00000000    0.00000000    0.00000000
     atom  505 type  1   force =     0.00000000    0.00000000    0.00000000
     atom  506 type  1   force =     0.00000000    0.00000000    0.00000000
     atom  507 type  1   force =     0.00000000    0.00000000    0.00000000
     atom  508 type  1   force =     0.00000000    0.00000000    0.00000000
     atom  509 type  1   force =     0.00000000    0.00000000    0.00000000
     atom  510 type  1   force =     0.00000000    0.00000000    0.00000000
     atom  511 type  1   force =     0.00000000    0.00000000    0.00000000
     The SCF correction term to forces
     atom    1 type  1   force =    -0.00000906    0.00000906   -0.00000238
     atom    2 type  1   force =    -0.00000652    0.00000652    0.00000683
     atom    3 type  1   force =    -0.00000687    0.00000687    0.00000592
     atom    4 type  1   force =    -0.00000687   -0.00000592   -0.00000687
     atom    5 type  1   force =    -0.00000697    0.00000150    0.00000175
     atom    6 type  1   force =    -0.00000685    0.00000405    0.00000668
     atom    7 type  1   force =    -0.00000613    0.00000152   -0.00000152
     atom    8 type  1   force =    -0.00000652   -0.00000683   -0.00000652
     atom    9 type  1   force =    -0.00000665   -0.00000716    0.00000355
     atom   10 type  1   force =    -0.00000734   -0.00000707    0.00000707
     atom   11 type  1   force =    -0.00000685   -0.00000668   -0.00000405
     atom   12 type  1   force =    -0.00000906    0.00000238   -0.00000906
     atom   13 type  1   force =    -0.00000748   -0.00000317    0.00000317
     atom   14 type  1   force =    -0.00000665   -0.00000355    0.00000716
     atom   15 type  1   force =    -0.00000697   -0.00000175   -0.00000150
     atom   16 type  1   force =    -0.00000238    0.00000906   -0.00000906
     atom   17 type  1   force =     0.00000317    0.00000748    0.00000317
     atom   18 type  1   force =     0.00000355    0.00000665    0.00000716
     atom   19 type  1   force =     0.00000175    0.00000697   -0.00000150
     atom   20 type  1   force =     0.00000175    0.00000150   -0.00000697
     atom   21 type  1   force =    -0.00000091   -0.00000062   -0.00000091
     atom   22 type  1   force =    -0.00000053   -0.00000059    0.00000854
     atom   23 type  1   force =     0.00000106    0.00000103   -0.00000103
     atom   24 type  1   force =     0.00000355   -0.00000716   -0.00000665
     atom   25 type  1   force =    -0.00000121   -0.00000525   -0.00000121
     atom   26 type  1   force =    -0.00000344   -0.00000711    0.00000711
     atom   27 type  1   force =    -0.00000053   -0.00000854    0.00000059
     atom   28 type  1   force =     0.00000317   -0.00000317   -0.00000748
     atom   29 type  1   force =     0.00000168   -0.00000168    0.00000168
     atom   30 type  1   force =    -0.00000121    0.00000121    0.00000525
     atom   31 type  1   force =    -0.00000091    0.00000091    0.00000062
     atom   32 type  1   force =     0.00000683    0.00000652   -0.00000652
     atom   33 type  1   force =     0.00000716    0.00000665    0.00000355
     atom   34 type  1   force =     0.00000707    0.00000734    0.00000707
     atom   35 type  1   force =     0.00000668    0.00000685   -0.00000405
     atom   36 type  1   force =     0.00000668    0.00000405   -0.00000685
     atom   37 type  1   force =     0.00000854   -0.00000059   -0.00000053
     atom   38 type  1   force =     0.00000724   -0.00000312    0.00000724
     atom   39 type  1   force =     0.00000575   -0.00000020    0.00000020
     atom   40 type  1   force =     0.00000707   -0.00000707   -0.00000734
     atom   41 type  1   force =     0.00000711   -0.00000711   -0.00000344
     atom   42 type  1   force =     0.00000762   -0.00000762    0.00000762
     atom   43 type  1   force =     0.00000724   -0.00000724    0.00000312
     atom   44 type  1   force =     0.00000716   -0.00000355   -0.00000665
     atom   45 type  1   force =     0.00000525    0.00000121   -0.00000121
     atom   46 type  1   force =     0.00000711    0.00000344    0.00000711
     atom   47 type  1   force =     0.00000854    0.00000053    0.00000059
     atom   48 type  1   force =     0.00000592    0.00000687   -0.00000687
     atom   49 type  1   force =    -0.00000150    0.00000697    0.00000175
     atom   50 type  1   force =    -0.00000405    0.00000685    0.00000668
     atom   51 type  1   force =    -0.00000152    0.00000613   -0.00000152
     atom   52 type  1   force =    -0.00000152    0.00000152   -0.00000613
     atom   53 type  1   force =    -0.00000103    0.00000103    0.00000106
     atom   54 type  1   force =     0.00000020   -0.00000020    0.00000575
     atom   55 type  1   force =    -0.00000026    0.00000026   -0.00000026
     atom   56 type  1   force =    -0.00000405   -0.00000668   -0.00000685
     atom   57 type  1   force =     0.00000059   -0.00000854   -0.00000053
     atom   58 type  1   force =     0.00000312   -0.00000724    0.00000724
     atom   59 type  1   force =     0.00000020   -0.00000575    0.00000020
     atom   60 type  1   force =    -0.00000150   -0.00000175   -0.00000697
[...]
     atom  497 type  1   force =    -0.00000587    0.00000541    0.00000214
     atom  498 type  1   force =    -0.00000669    0.00000472    0.00000700
     atom  499 type  1   force =    -0.00000125    0.00000451   -0.00000125
     atom  500 type  1   force =    -0.00000125    0.00000125   -0.00000451
     atom  501 type  1   force =    -0.00000526    0.00000526    0.00000182
     atom  502 type  1   force =    -0.00000426    0.00000426    0.00000627
     atom  503 type  1   force =    -0.00000364    0.00000364   -0.00000364
     atom  504 type  1   force =    -0.00000669   -0.00000700   -0.00000472
     atom  505 type  1   force =    -0.00000156   -0.00000885    0.00000280
     atom  506 type  1   force =     0.00000006   -0.00000610    0.00000610
     atom  507 type  1   force =    -0.00000426   -0.00000627   -0.00000426
     atom  508 type  1   force =    -0.00000587   -0.00000214   -0.00000541
     atom  509 type  1   force =    -0.00000172   -0.00000188    0.00000188
     atom  510 type  1   force =    -0.00000156   -0.00000280    0.00000885
     atom  511 type  1   force =    -0.00000526   -0.00000182   -0.00000526

     Total force =     0.004405     Total SCF correction =     0.000208

     Computing stress (Cartesian axis) and pressure

[...]

          total   stress  (Ry/bohr**3)                   (kbar)     P=        0.87
   0.00000592   0.00000002  -0.00000002            0.87        0.00       -0.00
   0.00000002   0.00000592   0.00000002            0.00        0.87        0.00
  -0.00000002   0.00000002   0.00000592           -0.00        0.00        0.87

     kinetic stress (kbar)  18958.17      0.00     -0.00
                                0.00  18958.17      0.00
                               -0.00      0.00  18958.17

     local   stress (kbar)  -3531.94      0.05     -0.05
                                0.05  -3531.94      0.05
                               -0.05      0.05  -3531.94

     nonloc. stress (kbar)   4316.45     -0.00      0.00
                               -0.00   4316.45     -0.00
                                0.00     -0.00   4316.45

     hartree stress (kbar)   1285.74     -0.02      0.02
                               -0.02   1285.74     -0.02
                                0.02     -0.02   1285.74

     exc-cor stress (kbar)   -412.74      0.00     -0.00
                                0.00   -412.74      0.00
                               -0.00      0.00   -412.74

     corecor stress (kbar)  -4426.45     -0.00      0.00
                               -0.00  -4426.45     -0.00
                                0.00     -0.00  -4426.45

     ewald   stress (kbar) -16213.18     -0.03      0.03
                               -0.03 -16213.18     -0.03
                                0.03     -0.03 -16213.18

     hubbard stress (kbar)      0.00      0.00      0.00
                                0.00      0.00      0.00
                                0.00      0.00      0.00

     DFT-D   stress (kbar)      0.00      0.00      0.00
                                0.00      0.00      0.00
                                0.00      0.00      0.00

     XDM     stress (kbar)      0.00      0.00      0.00
                                0.00      0.00      0.00
                                0.00      0.00      0.00

     dft-nl  stress (kbar)     24.81      0.00     -0.00
                                0.00     24.81      0.00
                               -0.00      0.00     24.81

     TS-vdW  stress (kbar)      0.00      0.00      0.00
                                0.00      0.00      0.00
                                0.00      0.00      0.00

     MDB     stress (kbar)      0.00      0.00      0.00
                                0.00      0.00      0.00
                                0.00      0.00      0.00

     3D-RISM stress (kbar)      0.00      0.00      0.00
                                0.00      0.00      0.00
                                0.00      0.00      0.00

[...]

     Non-local corr. energy    =      17.48208035 Ry

 BEEFens 2000 ensemble energies
             -0.309279543821849E+02
             -0.215386681763606E+03
             -0.764607916559816E+02
              0.845967760512241E+02
             -0.142467481230081E+03
             -0.199325381330154E+03
              0.118008008741264E+03
             -0.244987774309889E+02
              0.163737866762904E+03
             -0.268820442603953E+01
              0.665742784992665E+02
              0.333510989798026E+01
              0.919830487853926E+01
             -0.194484859416494E+02
              0.110838537937928E+03
             -0.829013399722830E+02
             -0.190201982024854E+03
             -0.527097398185232E+02
              0.429724030083800E+02
              0.462361356957649E+01
              0.227595482685632E+03
              0.206381720667311E+03
             -0.101391108088612E+03
              0.569520756731714E+02
             -0.258574659866504E+03
              0.208263809336731E+03
              0.745671495797839E+02
              0.219256328364307E+03
              0.138304059087804E+03
             -0.864016476492156E+02
              0.539684633193878E+02
             -0.112235709162342E+03
              0.328679064503518E+01
              0.110310051173684E+03
              0.142381754338074E+03
             -0.350291690398126E+02
              0.306866916262623E+03
             -0.107447330243730E+03
             -0.776707104920315E+02
              0.118933892890408E+03
              0.409381456761428E+02
              0.100106431157020E+03
             -0.174911967405822E+03
             -0.718822882952236E+01
              0.185380761217511E+03
              0.226136890103023E+03
             -0.204908662940832E+03
              0.169660339229934E+02
              0.807765591346558E+02
              0.188654509494552E+02
              0.988067665352580E+02
              0.198231189258727E+03
             -0.132819568057291E+03
             -0.139753302528239E+03
             -0.177121181869761E+03
             -0.488358009800500E+02
             -0.147870188368864E+03
              0.789536892681735E+01
             -0.393076193463914E+02
             -0.134155413579103E+03
[...]
              0.174014467513859E+03
              0.711506531763999E+02
              0.121294517633399E+03
             -0.173664922330937E+03
             -0.135321854728676E+03
             -0.550840528597003E+02
             -0.148829300849541E+03
              0.268256970334885E+03
              0.230109429348688E+03
              0.100000174958905E+03
              0.271271737250657E+03
             -0.145510351537904E+03
             -0.700015104045767E+02
             -0.722472621469643E+02
              0.214051228438423E+03

 BEEF-vdW xc energy contributions
            1 :    -2091.894967239891
            2 :     1845.694674976027
            3 :    -1421.141033380230
            4 :     928.3250976607385
            5 :    -479.6505461697484
            6 :     152.6971884981945
            7 :     29.23311554345491
            8 :    -92.92182007740166
            9 :     92.39941677061233
           10 :    -80.12402264976936
           11 :     85.75593662798974
           12 :    -110.5373980416712
           13 :     136.6371394646317
           14 :    -143.7273921611040
           15 :     122.8748221477044
           16 :    -81.00007554832564
           17 :     35.31491391185546
           18 :    -2.633471791348256
           19 :    -9.554707780901026
           20 :     5.448544701691389
           21 :     3.621392964059396
           22 :    -7.028076328543193
           23 :    0.9579703126937602
           24 :     10.50443489843246
           25 :    -19.22651938118224
           26 :     18.82400700172593
           27 :    -8.648353130526175
           28 :    -6.232403024177984
           29 :     18.57038128171462
           30 :    -23.42354282695760
           31 :    -273.6842122613280
           32 :    -198.5784613681494

     Writing all to output data dir ./diamond.save/

     General routines

     Parallel routines

     PAW routines

   This run was terminated on:  11:17:53  19Feb2024

   JOB DONE.