     Program PWSCF v.7.1 starts on 10Feb2024 at 12: 9:59

     Reading input from espresso.pwi
Warning: card &CELL ignored
Warning: card    CELL_DYNAMICS    = 'BFGS' ignored
Warning: card / ignored

     Current dimensions of program PWSCF are:
     Max number of different atomic species (ntypx) = 10
     Max number of k-points (npk) =  40000
     Max angular momentum in pseudopotentials (lmaxx) =  4
     file Pb.pbe-dn-kjpaw_psl.1.0.0.UPF: wavefunction(s)  6S 6P 5D renormalized
     file I.pbe-dn-kjpaw_psl.1.0.0.UPF: wavefunction(s)  5S 5P renormalized

     IMPORTANT: XC functional enforced from input :
     Exchange-correlation= BEEF-VDW
                           (   1   4  43  14   2   0   0)
     Any further DFT definition will be discarded
     Please, verify this is what you really want

     R & G space division:  proc/nbgrp/npool/nimage =     128
     Subspace diagonalization in iterative solution of the eigenvalue problem:
     a serial algorithm will be used

     Using Slab Decomposition

     bravais-lattice index     =            4
     lattice parameter (alat)  =      35.6120  a.u.
     unit-cell volume          =   30624.9051 (a.u.)^3
     number of atoms/cell      =           96
     number of atomic types    =            2
     number of electrons       =      1536.00
     number of Kohn-Sham states=          922
     kinetic-energy cutoff     =      70.0000  Ry
     charge density cutoff     =     350.0000  Ry
     scf convergence threshold =      1.0E-07
     mixing beta               =       0.7000
     number of iterations used =            8  plain     mixing
     energy convergence thresh.=      1.0E-04
     force convergence thresh. =      1.0E-03
     Exchange-correlation= BEEF-VDW
                           (   1   4  43  14   2   0   0)
     nstep                     =           50

     celldm(1)=  35.612033  celldm(2)=   0.000000  celldm(3)=   0.782986
     celldm(4)=   0.000000  celldm(5)=   0.000000  celldm(6)=   0.000000

     crystal axes: (cart. coord. in units of alat)
               a(1) = (   1.000000   0.000000   0.000000 )
               a(2) = (  -0.500000   0.866025   0.000000 )
               a(3) = (   0.000000   0.000000   0.782986 )

     reciprocal axes: (cart. coord. in units 2 pi/alat)
               b(1) = (  1.000000  0.577350 -0.000000 )
               b(2) = (  0.000000  1.154701  0.000000 )
               b(3) = (  0.000000 -0.000000  1.277163 )

     PseudoPot. # 1 for Pb read from file:
     /trace/group/acmegroup/atimmins/packages/espresso/pseudo/psl_1.0.0/pslibrary.1.0.0/pbe/PSEUDOPOTENTIALS/Pb.pbe-dn-kjpaw_psl.1.0.0.UPF
     MD5 check sum: 39ab5b8a6bbd56b7735ad9f188aac93a
     Pseudo is Projector augmented-wave + core cor, Zval = 14.0
     Generated using 'atomic' code by A. Dal Corso  v.7.1
     Shape of augmentation charge: PSQ
     Using radial grid of 1281 points,  6 beta functions with:
                l(1) =   0
                l(2) =   0
                l(3) =   1
                l(4) =   1
                l(5) =   2
                l(6) =   2
     Q(r) pseudized with 0 coefficients

     PseudoPot. # 2 for I  read from file:
     /trace/group/acmegroup/atimmins/packages/espresso/pseudo/psl_1.0.0/pslibrary.1.0.0/pbe/PSEUDOPOTENTIALS/I.pbe-dn-kjpaw_psl.1.0.0.UPF
     MD5 check sum: bfa8781bc1224d19af3f3980e3fab11e
     Pseudo is Projector augmented-wave + core cor, Zval = 17.0
     Generated using 'atomic' code by A. Dal Corso  v.7.1
     Shape of augmentation charge: PSQ
     Using radial grid of 1247 points,  6 beta functions with:
                l(1) =   0
                l(2) =   0
                l(3) =   1
                l(4) =   1
                l(5) =   2
                l(6) =   2
     Q(r) pseudized with 0 coefficients

     atomic species   valence    mass     pseudopotential
        Pb            14.00   207.20000     Pb( 1.00)
        I             17.00   126.90447     I ( 1.00)

     No symmetry found

                                    s                        frac. trans.

      isym =  1     identity

 cryst.   s( 1) = (     1          0          0      )
                  (     0          1          0      )
                  (     0          0          1      )

 cart.    s( 1) = (  1.0000000  0.0000000  0.0000000 )
                  (  0.0000000  1.0000000  0.0000000 )
                  (  0.0000000  0.0000000  1.0000000 )

     point group C_1 (1)
     there are  1 classes
     the character table:

       E
A      1.00

     the symmetry operations in each class and the name of the first element:

     E        1
          identity

   Cartesian axes

     site n.     atom                  positions (alat units)
         1           Pb  tau(   1) = (   0.1250085   0.2164873   0.7829825  )
         2           Pb  tau(   2) = (   0.1250034   0.2164918   0.3914896  )
         3           Pb  tau(   3) = (   0.0000077   0.4329926   0.7829784  )
         4           Pb  tau(   4) = (   0.0000026   0.4329971   0.3914855  )
         5           Pb  tau(   5) = (  -0.1249932   0.6494980   0.7829742  )
         6           Pb  tau(   6) = (  -0.1249983   0.6495025   0.3914814  )
         7           Pb  tau(   7) = (  -0.2499940   0.8660033   0.7829701  )
         8           Pb  tau(   8) = (  -0.2499991   0.8660078   0.3914773  )
         9           Pb  tau(   9) = (   0.3750085   0.2164863   0.7829857  )
        10           Pb  tau(  10) = (   0.3750034   0.2164908   0.3914929  )
        11           Pb  tau(  11) = (   0.2500077   0.4329916   0.7829816  )
        12           Pb  tau(  12) = (   0.2500026   0.4329962   0.3914888  )
        13           Pb  tau(  13) = (   0.1250068   0.6494970   0.7829775  )
        14           Pb  tau(  14) = (   0.1250017   0.6495015   0.3914847  )
        15           Pb  tau(  15) = (   0.0000060   0.8660024   0.7829734  )
        16           Pb  tau(  16) = (   0.0000009   0.8660069   0.3914805  )
        17           Pb  tau(  17) = (   0.6250085   0.2164853   0.7829890  )
        18           Pb  tau(  18) = (   0.6250034   0.2164898   0.3914962  )
        19           Pb  tau(  19) = (   0.5000077   0.4329907   0.7829849  )
        20           Pb  tau(  20) = (   0.5000026   0.4329952   0.3914920  )
        21           Pb  tau(  21) = (   0.3750068   0.6494960   0.7829808  )
        22           Pb  tau(  22) = (   0.3750017   0.6495006   0.3914879  )
        23           Pb  tau(  23) = (   0.2500060   0.8660014   0.7829766  )
        24           Pb  tau(  24) = (   0.2500009   0.8660059   0.3914838  )
        25           Pb  tau(  25) = (   0.8750085   0.2164844   0.7829923  )
        26           Pb  tau(  26) = (   0.8750034   0.2164889   0.3914994  )
        27           Pb  tau(  27) = (   0.7500077   0.4329897   0.7829881  )
        28           Pb  tau(  28) = (   0.7500026   0.4329942   0.3914953  )
        29           Pb  tau(  29) = (   0.6250068   0.6494951   0.7829840  )
        30           Pb  tau(  30) = (   0.6250017   0.6494996   0.3914912  )
        31           Pb  tau(  31) = (   0.5000060   0.8660004   0.7829799  )
        32           Pb  tau(  32) = (   0.5000009   0.8660050   0.3914870  )
        33           I   tau(  33) = (   0.1250054   0.0721550   0.2909325  )
        34           I   tau(  34) = (   0.1250105   0.0721505   0.6824253  )
        35           I   tau(  35) = (   0.0000045   0.2886603   0.2909283  )
        36           I   tau(  36) = (   0.0000096   0.2886558   0.6824212  )
        37           I   tau(  37) = (  -0.1249963   0.5051657   0.2909242  )
        38           I   tau(  38) = (  -0.1249912   0.5051612   0.6824171  )
        39           I   tau(  39) = (  -0.2499971   0.7216710   0.2909201  )
        40           I   tau(  40) = (  -0.2499920   0.7216665   0.6824129  )
        41           I   tau(  41) = (   0.3750054   0.0721540   0.2909357  )
        42           I   tau(  42) = (   0.3750105   0.0721495   0.6824286  )
        43           I   tau(  43) = (   0.2500045   0.2886594   0.2909316  )
        44           I   tau(  44) = (   0.2500096   0.2886548   0.6824244  )
        45           I   tau(  45) = (   0.1250037   0.5051647   0.2909275  )
        46           I   tau(  46) = (   0.1250088   0.5051602   0.6824203  )
        47           I   tau(  47) = (   0.0000029   0.7216701   0.2909233  )
        48           I   tau(  48) = (   0.0000080   0.7216656   0.6824162  )
        49           I   tau(  49) = (   0.6250054   0.0721530   0.2909390  )
        50           I   tau(  50) = (   0.6250105   0.0721485   0.6824318  )
        51           I   tau(  51) = (   0.5000045   0.2886584   0.2909348  )
        52           I   tau(  52) = (   0.5000096   0.2886539   0.6824277  )
        53           I   tau(  53) = (   0.3750037   0.5051638   0.2909307  )
        54           I   tau(  54) = (   0.3750088   0.5051592   0.6824236  )
        55           I   tau(  55) = (   0.2500029   0.7216691   0.2909266  )
        56           I   tau(  56) = (   0.2500080   0.7216646   0.6824194  )
        57           I   tau(  57) = (   0.8750054   0.0721521   0.2909422  )
        58           I   tau(  58) = (   0.8750105   0.0721476   0.6824351  )
        59           I   tau(  59) = (   0.7500045   0.2886574   0.2909381  )
        60           I   tau(  60) = (   0.7500096   0.2886529   0.6824310  )
[...]
        82           I   tau(  82) = (   0.5000034   0.1443233   0.4920548  )
        83           I   tau(  83) = (   0.3749975   0.3608332   0.1005579  )
        84           I   tau(  84) = (   0.3750026   0.3608286   0.4920507  )
        85           I   tau(  85) = (   0.2499966   0.5773385   0.1005537  )
        86           I   tau(  86) = (   0.2500017   0.5773340   0.4920466  )
        87           I   tau(  87) = (   0.1249958   0.7938439   0.1005496  )
        88           I   tau(  88) = (   0.1250009   0.7938394   0.4920425  )
        89           I   tau(  89) = (   0.7499983   0.1443268   0.1005653  )
        90           I   tau(  90) = (   0.7500034   0.1443223   0.4920581  )
        91           I   tau(  91) = (   0.6249975   0.3608322   0.1005611  )
        92           I   tau(  92) = (   0.6250026   0.3608277   0.4920540  )
        93           I   tau(  93) = (   0.4999966   0.5773376   0.1005570  )
        94           I   tau(  94) = (   0.5000017   0.5773330   0.4920499  )
        95           I   tau(  95) = (   0.3749958   0.7938429   0.1005529  )
        96           I   tau(  96) = (   0.3750009   0.7938384   0.4920457  )

   Crystallographic axes

     site n.     atom                  positions (cryst. coord.)
         1           Pb  tau(   1) = (  0.2499975  0.2499780  0.9999959  )
         2           Pb  tau(   2) = (  0.2499950  0.2499832  0.4999959  )
         3           Pb  tau(   3) = (  0.2499961  0.4999768  0.9999906  )
         4           Pb  tau(   4) = (  0.2499936  0.4999820  0.4999906  )
         5           Pb  tau(   5) = (  0.2499947  0.7499757  0.9999854  )
         6           Pb  tau(   6) = (  0.2499922  0.7499809  0.4999854  )
         7           Pb  tau(   7) = (  0.2499932  0.9999745  0.9999801  )
[...]
     atom   45 type  2   force =     0.00000000    0.00000000    0.00000000
     atom   46 type  2   force =     0.00000000    0.00000000    0.00000000
     atom   47 type  2   force =     0.00000000    0.00000000    0.00000000
     atom   48 type  2   force =     0.00000000    0.00000000    0.00000000
     atom   49 type  2   force =     0.00000000    0.00000000    0.00000000
     atom   50 type  2   force =     0.00000000    0.00000000    0.00000000
     atom   51 type  2   force =     0.00000000    0.00000000    0.00000000
     atom   52 type  2   force =     0.00000000    0.00000000    0.00000000
     atom   53 type  2   force =     0.00000000    0.00000000    0.00000000
     atom   54 type  2   force =     0.00000000    0.00000000    0.00000000
     atom   55 type  2   force =     0.00000000    0.00000000    0.00000000
     atom   56 type  2   force =     0.00000000    0.00000000    0.00000000
     atom   57 type  2   force =     0.00000000    0.00000000    0.00000000
     atom   58 type  2   force =     0.00000000    0.00000000    0.00000000
     atom   59 type  2   force =     0.00000000    0.00000000    0.00000000
     atom   60 type  2   force =     0.00000000    0.00000000    0.00000000
[...]
     atom   82 type  2   force =     0.00000000    0.00000000    0.00000000
     atom   83 type  2   force =     0.00000000    0.00000000    0.00000000
     atom   84 type  2   force =     0.00000000    0.00000000    0.00000000
     atom   85 type  2   force =     0.00000000    0.00000000    0.00000000
     atom   86 type  2   force =     0.00000000    0.00000000    0.00000000
     atom   87 type  2   force =     0.00000000    0.00000000    0.00000000
     atom   88 type  2   force =     0.00000000    0.00000000    0.00000000
     atom   89 type  2   force =     0.00000000    0.00000000    0.00000000
     atom   90 type  2   force =     0.00000000    0.00000000    0.00000000
     atom   91 type  2   force =     0.00000000    0.00000000    0.00000000
     atom   92 type  2   force =     0.00000000    0.00000000    0.00000000
     atom   93 type  2   force =     0.00000000    0.00000000    0.00000000
     atom   94 type  2   force =     0.00000000    0.00000000    0.00000000
     atom   95 type  2   force =     0.00000000    0.00000000    0.00000000
     atom   96 type  2   force =     0.00000000    0.00000000    0.00000000
     The SCF correction term to forces
     atom    1 type  1   force =    -0.00000482   -0.00000662   -0.00002029
     atom    2 type  1   force =    -0.00000432   -0.00000301    0.00002113
     atom    3 type  1   force =    -0.00000294    0.00000310   -0.00001866
     atom    4 type  1   force =    -0.00000240    0.00000780    0.00002083
     atom    5 type  1   force =     0.00000224    0.00000345   -0.00002043
     atom    6 type  1   force =     0.00000398    0.00000497    0.00002066
     atom    7 type  1   force =    -0.00000043   -0.00000760   -0.00002246
     atom    8 type  1   force =     0.00000161   -0.00000580    0.00001771
     atom    9 type  1   force =     0.00000502   -0.00000495   -0.00002001
     atom   10 type  1   force =     0.00000385   -0.00000376    0.00001884
     atom   11 type  1   force =     0.00000145    0.00000718   -0.00001909
     atom   12 type  1   force =    -0.00000023    0.00001163    0.00002033
     atom   13 type  1   force =     0.00000331    0.00000961   -0.00001990
     atom   14 type  1   force =     0.00000122    0.00000983    0.00002193
     atom   15 type  1   force =     0.00000711   -0.00000566   -0.00002384
     atom   16 type  1   force =     0.00000683   -0.00000618    0.00001652
     atom   17 type  1   force =     0.00000673   -0.00000693   -0.00001867
     atom   18 type  1   force =     0.00000514   -0.00000683    0.00001657
     atom   19 type  1   force =     0.00000478    0.00000397   -0.00001762
     atom   20 type  1   force =     0.00000284    0.00000564    0.00001827
     atom   21 type  1   force =    -0.00000038    0.00000981   -0.00001808
     atom   22 type  1   force =    -0.00000442    0.00000854    0.00001817
     atom   23 type  1   force =     0.00000134   -0.00000468   -0.00002142
     atom   24 type  1   force =    -0.00000224   -0.00000330    0.00001623
     atom   25 type  1   force =    -0.00000250   -0.00000770   -0.00001585
     atom   26 type  1   force =    -0.00000696   -0.00000697    0.00002090
     atom   27 type  1   force =     0.00000128   -0.00000135   -0.00001655
     atom   28 type  1   force =    -0.00000163    0.00000049    0.00001967
     atom   29 type  1   force =    -0.00000090    0.00000320   -0.00001627
     atom   30 type  1   force =    -0.00000282    0.00000243    0.00002083
     atom   31 type  1   force =    -0.00000534   -0.00000537   -0.00002005
     atom   32 type  1   force =    -0.00000912   -0.00000554    0.00001943
     atom   33 type  2   force =    -0.00000388   -0.00000797    0.00003219
     atom   34 type  2   force =    -0.00000489   -0.00000761    0.00000352
     atom   35 type  2   force =    -0.00000588   -0.00000161    0.00003470
     atom   36 type  2   force =    -0.00000333   -0.00000354    0.00000376
     atom   37 type  2   force =    -0.00000166    0.00000338    0.00003477
     atom   38 type  2   force =     0.00000180    0.00000576    0.00000151
     atom   39 type  2   force =     0.00000010   -0.00000113    0.00003383
     atom   40 type  2   force =     0.00000110    0.00000339    0.00000246
     atom   41 type  2   force =     0.00000738   -0.00000633    0.00003546
     atom   42 type  2   force =     0.00000362   -0.00000977    0.00000125
     atom   43 type  2   force =     0.00000354   -0.00000023    0.00003526
     atom   44 type  2   force =    -0.00000216   -0.00000208    0.00000248
     atom   45 type  2   force =     0.00000050    0.00000976    0.00003743
     atom   46 type  2   force =    -0.00000141    0.00001064   -0.00000189
     atom   47 type  2   force =     0.00000450    0.00000530    0.00003908
     atom   48 type  2   force =     0.00000280    0.00000414   -0.00000141
     atom   49 type  2   force =     0.00000489   -0.00000584    0.00003424
     atom   50 type  2   force =     0.00000391   -0.00001009    0.00000180
     atom   51 type  2   force =     0.00000666   -0.00000294    0.00003232
     atom   52 type  2   force =     0.00000217   -0.00000469    0.00000580
     atom   53 type  2   force =     0.00000172    0.00000936    0.00003382
     atom   54 type  2   force =    -0.00000273    0.00001032    0.00000296
     atom   55 type  2   force =     0.00000032    0.00000681    0.00003749
     atom   56 type  2   force =    -0.00000112    0.00000757    0.00000184
     atom   57 type  2   force =    -0.00000820   -0.00000774    0.00003287
     atom   58 type  2   force =    -0.00000302   -0.00000789    0.00000306
     atom   59 type  2   force =    -0.00000388   -0.00000529    0.00003191
     atom   60 type  2   force =     0.00000213   -0.00000486    0.00000558
[...]
     atom   82 type  2   force =     0.00000457   -0.00001085   -0.00000348
     atom   83 type  2   force =     0.00000523    0.00000281   -0.00003204
     atom   84 type  2   force =    -0.00000047    0.00000221   -0.00000481
     atom   85 type  2   force =     0.00000255    0.00001130   -0.00003386
     atom   86 type  2   force =    -0.00000352    0.00001209   -0.00000447
     atom   87 type  2   force =     0.00000542    0.00000243   -0.00003442
     atom   88 type  2   force =     0.00000209   -0.00000231   -0.00000276
     atom   89 type  2   force =     0.00000018   -0.00000633   -0.00003233
     atom   90 type  2   force =     0.00000058   -0.00000924   -0.00000454
     atom   91 type  2   force =     0.00000331   -0.00000077   -0.00003168
     atom   92 type  2   force =     0.00000282   -0.00000057   -0.00000894
     atom   93 type  2   force =     0.00000122    0.00000683   -0.00003274
     atom   94 type  2   force =    -0.00000111    0.00000799   -0.00000542
     atom   95 type  2   force =    -0.00000154    0.00000064   -0.00003550
     atom   96 type  2   force =    -0.00000471    0.00000048   -0.00000279

     Total force =     0.000126     Total SCF correction =     0.000236
     SCF correction compared to forces is large: reduce conv_thr to get better values

     Computing stress (Cartesian axis) and pressure

     Non-local corr. energy    =      46.02494074 Ry

          total   stress  (Ry/bohr**3)                   (kbar)     P=        1.58
   0.00001001  -0.00000000   0.00000000            1.47       -0.00        0.00
  -0.00000000   0.00001001  -0.00000000           -0.00        1.47       -0.00
   0.00000000  -0.00000000   0.00001213            0.00       -0.00        1.78

     kinetic stress (kbar)  14991.25      0.00      0.00
                                0.00  14991.25     -0.00
                                0.00     -0.00  15002.61

     local   stress (kbar)  -7556.83      0.06     -0.05
                                0.06  -7556.71      0.05
                               -0.05      0.05   1604.42

     nonloc. stress (kbar)  -1072.32     -0.00      0.00
                               -0.00  -1072.32     -0.00
                                0.00     -0.00  -1078.29

     hartree stress (kbar)  12058.20     -0.02      0.02
                               -0.02  12058.16     -0.02
                                0.02     -0.02   7930.56

     exc-cor stress (kbar)   6946.48     -0.00      0.00
                               -0.00   6946.48     -0.00
                                0.00     -0.00   6945.36

     corecor stress (kbar) -11310.03      0.00     -0.00
                                0.00 -11310.03      0.00
                               -0.00      0.00 -11310.03

     ewald   stress (kbar) -14138.56     -0.04      0.03
                               -0.04 -14138.63     -0.03
                                0.03     -0.03 -19177.48

     hubbard stress (kbar)      0.00      0.00      0.00
                                0.00      0.00      0.00
                                0.00      0.00      0.00

     DFT-D   stress (kbar)      0.00      0.00      0.00
                                0.00      0.00      0.00
                                0.00      0.00      0.00

     XDM     stress (kbar)      0.00      0.00      0.00
                                0.00      0.00      0.00
                                0.00      0.00      0.00

     dft-nl  stress (kbar)     83.28      0.00     -0.00
                                0.00     83.28      0.00
                               -0.00      0.00     84.65

     TS-vdW  stress (kbar)      0.00      0.00      0.00
                                0.00      0.00      0.00
                                0.00      0.00      0.00

     MDB     stress (kbar)      0.00      0.00      0.00
                                0.00      0.00      0.00
                                0.00      0.00      0.00

     3D-RISM stress (kbar)      0.00      0.00      0.00
                                0.00      0.00      0.00
                                0.00      0.00      0.00

     Energy error            =      4.8E-06 Ry
     Gradient error          =      1.9E-05 Ry/Bohr

     bfgs converged in   8 scf cycles and   7 bfgs steps
     (criteria: energy <  1.0E-04 Ry, force <  1.0E-03 Ry/Bohr)

     End of BFGS Geometry Optimization

     Final energy             =  -64756.2525049870 Ry

     File ./PbI2.bfgs deleted, as requested
Begin final coordinates

ATOMIC_POSITIONS (angstrom)
Pb            2.3557668397        4.0796995697       14.7553590301
Pb            2.3556747362        4.0797938130        7.3777433612
Pb            0.0001392100        8.1598225264       14.7552014221
Pb            0.0001024061        8.1599291568        7.3776051297
Pb           -2.3555132428       12.2398887641       14.7551513275
Pb           -2.3555582044       12.2399042873        7.3775446462
Pb           -4.7112539836       16.3198721858       14.7551905802
Pb           -4.7112733955       16.3198508250        7.3776218240
Pb            7.0670299379        4.0796799355       14.7554834138
Pb            7.0671005877        4.0797697765        7.3778094282
Pb            4.7113295375        8.1597908708       14.7553441643
Pb            4.7112769669        8.1598783990        7.3776676501
Pb            2.3556907067       12.2398385510       14.7552608666
Pb            2.3556238756       12.2398798904        7.3776264474
Pb            0.0001414361       16.3198724383       14.7553339680
Pb            0.0001644962       16.3199608433        7.3776652906
Pb           11.7783835993        4.0796085798       14.7555170951
Pb           11.7782722165        4.0796376609        7.3778073819
Pb            9.4226581116        8.1597750050       14.7554326809
Pb            9.4225957230        8.1598285816        7.3776493957
Pb            7.0670735028       12.2398681429       14.7553187074
Pb            7.0669969186       12.2398797878        7.3776671138
Pb            4.7113582505       16.3199866654       14.7553686059
Pb            4.7112114329       16.3200137212        7.3776917601
Pb           16.4894938870        4.0796240136       14.7554634894
Pb           16.4894481216        4.0796812709        7.3778078949
Pb           14.1339253555        8.1597240178       14.7553698135
Pb           14.1338705073        8.1598082608        7.3776462341
Pb           11.7782409144       12.2399199704       14.7553220272
Pb           11.7782028006       12.2398933423        7.3775840618
Pb            9.4226673103       16.3198168170       14.7553541062
Pb            9.4225679052       16.3198685669        7.3776556807
I             2.3556499486        1.3596597834        5.4934792701
I             2.3556179360        1.3596083724       12.8712319621
I             0.0000776018        5.4398999576        5.4935778053
I             0.0001083367        5.4397660021       12.8712779335
I            -2.3554671087        9.5199349990        5.4935076634
I            -2.3555190747        9.5198588784       12.8710848843
I            -4.7113296894       13.5999495988        5.4933662098
I            -4.7113449427       13.5999961074       12.8710391404
I             7.0670433158        1.3597174108        5.4935221115
I             7.0670580193        1.3597201189       12.8711537393
I             4.7113424027        5.4399011123        5.4935902042
I             4.7113945130        5.4398437575       12.8712290682
I             2.3556605328        9.5198793766        5.4934787310
I             2.3556963386        9.5198131315       12.8710524675
I             0.0000596809       13.5999534660        5.4934192571
I             0.0000899477       13.5999413148       12.8709855011
I            11.7783232980        1.3598483752        5.4936013300
I            11.7782379207        1.3597829816       12.8711895910
I             9.4226897315        5.4397808446        5.4936754092
I             9.4226652202        5.4397233873       12.8713492006
I             7.0669319306        9.5199073531        5.4936075611
I             7.0669757376        9.5197965970       12.8711750472
I             4.7113266345       13.5999597176        5.4935063386
I             4.7113496023       13.5999765245       12.8711679676
I            16.4893753241        1.3597476924        5.4936918071
I            16.4895326743        1.3597339107       12.8712446543
I            14.1337501868        5.4396170147        5.4938534034
I            14.1338713580        5.4396582430       12.8713133891
[...]
I             9.4227768242        2.7196817580        9.2618710843
I             7.0669133999        6.7998609750        1.8840937633
I             7.0669317671        6.7999088014        9.2618117572
I             4.7112344269       10.8798515976        1.8840241418
I             4.7112372279       10.8798704984        9.2616682580
I             2.3556662716       14.9600300789        1.8840036985
I             2.3556238527       14.9600605651        9.2616884961
I            14.1337907742        2.7196549816        1.8841975738
I            14.1337273589        2.7197246869        9.2618331192
I            11.7781942556        6.7997832962        1.8840959530
I            11.7782596971        6.7997950095        9.2617703176
I             9.4226172146       10.8800284926        1.8840661179
I             9.4226096516       10.8799485640        9.2617702034
I             7.0670735209       14.9599854808        1.8840162320
I             7.0670146477       14.9600174872        9.2617102665
End final coordinates

     Writing all to output data dir ./PbI2.save/

     General routines

     Parallel routines

     PAW routines

   This run was terminated on:  16: 7:24  10Feb2024

   JOB DONE.