     Program PWSCF v.7.1 starts on 26Mar2024 at 10:53: 7

     Reading input from espresso.pwi
Warning: card &CELL ignored
Warning: card    CELL_DYNAMICS    = 'BFGS' ignored
Warning: card / ignored

     Current dimensions of program PWSCF are:
     Max number of different atomic species (ntypx) = 10
     Max number of k-points (npk) =  40000
     Max angular momentum in pseudopotentials (lmaxx) =  4
     file Ga.pbe-dn-kjpaw_psl.1.0.0.UPF: wavefunction(s)  4S renormalized
     file N.pbe-n-kjpaw_psl.1.0.0.UPF: wavefunction(s)  2S renormalized

     IMPORTANT: XC functional enforced from input :
     Exchange-correlation= BEEF-VDW
                           (   1   4  43  14   2   0   0)
     Any further DFT definition will be discarded
     Please, verify this is what you really want

     K-points division:     npool     =       4
     R & G space division:  proc/nbgrp/npool/nimage =      64
     Subspace diagonalization in iterative solution of the eigenvalue problem:
     a serial algorithm will be used

     Using Slab Decomposition

     bravais-lattice index     =            4
     lattice parameter (alat)  =      30.6565  a.u.
     unit-cell volume          =   24400.9461 (a.u.)^3
     number of atoms/cell      =          300
     number of atomic types    =            2
     number of electrons       =      2692.00
     number of Kohn-Sham states=         1615
     kinetic-energy cutoff     =      70.0000  Ry
     charge density cutoff     =     350.0000  Ry
     scf convergence threshold =      1.0E-07
     mixing beta               =       0.7000
     number of iterations used =            8  plain     mixing
     energy convergence thresh.=      1.0E-04
     force convergence thresh. =      1.0E-03
     Exchange-correlation= BEEF-VDW
                           (   1   4  43  14   2   0   0)
     nstep                     =           50

     celldm(1)=  30.656540  celldm(2)=   0.000000  celldm(3)=   0.977927
     celldm(4)=   0.000000  celldm(5)=   0.000000  celldm(6)=   0.000000

     crystal axes: (cart. coord. in units of alat)
               a(1) = (   1.000000   0.000000   0.000000 )
               a(2) = (  -0.500000   0.866025   0.000000 )
               a(3) = (   0.000000   0.000000   0.977927 )

     reciprocal axes: (cart. coord. in units 2 pi/alat)
               b(1) = (  1.000000  0.577350 -0.000000 )
               b(2) = (  0.000000  1.154701  0.000000 )
               b(3) = (  0.000000 -0.000000  1.022571 )

     PseudoPot. # 1 for Ga read from file:
     /trace/group/acmegroup/atimmins/packages/espresso/pseudo/psl_1.0.0/pslibrary.1.0.0/pbe/PSEUDOPOTENTIALS/Ga.pbe-dn-kjpaw_psl.1.0.0.UPF
     MD5 check sum: cd2a01e492f15b435d17032472d8505c
     Pseudo is Projector augmented-wave + core cor, Zval = 13.0
     Generated using 'atomic' code by A. Dal Corso  v.7.1
     Shape of augmentation charge: PSQ
     Using radial grid of 1205 points,  6 beta functions with:
                l(1) =   0
                l(2) =   0
                l(3) =   1
                l(4) =   1
                l(5) =   2
                l(6) =   2
     Q(r) pseudized with 0 coefficients

     PseudoPot. # 2 for N  read from file:
     /trace/group/acmegroup/atimmins/packages/espresso/pseudo/psl_1.0.0/pslibrary.1.0.0/pbe/PSEUDOPOTENTIALS/N.pbe-n-kjpaw_psl.1.0.0.UPF
     MD5 check sum: f77f775694dac7e2c3fe1c82443d1a16
     Pseudo is Projector augmented-wave + core cor, Zval =  5.0
     Generated using 'atomic' code by A. Dal Corso  v.7.1
     Shape of augmentation charge: PSQ
     Using radial grid of 1085 points,  4 beta functions with:
                l(1) =   0
                l(2) =   0
                l(3) =   1
                l(4) =   1
     Q(r) pseudized with 0 coefficients

     atomic species   valence    mass     pseudopotential
        Ga            13.00    69.72300     Ga( 1.00)
        N              5.00    14.00700     N ( 1.00)

      2 Sym. Ops. (no inversion) found

                                    s                        frac. trans.

      isym =  1     identity

 cryst.   s( 1) = (     1          0          0      )
                  (     0          1          0      )
                  (     0          0          1      )

 cart.    s( 1) = (  1.0000000  0.0000000  0.0000000 )
                  (  0.0000000  1.0000000  0.0000000 )
                  (  0.0000000  0.0000000  1.0000000 )

      isym =  2     inv. 180 deg rotation - cryst. axis [0,1,0]

 cryst.   s( 2) = (     1          1          0      )
                  (     0         -1          0      )
                  (     0          0          1      )

 cart.    s( 2) = (  0.5000000  0.8660254  0.0000000 )
                  (  0.8660254 -0.5000000  0.0000000 )
                  (  0.0000000  0.0000000  1.0000000 )

     point group C_s (m)
     there are  2 classes
     the character table:

       E     s
A'     1.00  1.00
A''    1.00 -1.00

     the symmetry operations in each class and the name of the first element:

     E        1
          identity
     s        2
          inv. 180 deg rotation - cryst. axis [0,1,0]

   Cartesian axes

     site n.     atom                  positions (alat units)
         1           Ga  tau(   1) = (   0.1000001   0.0577350   0.4886906  )
         2           Ga  tau(   2) = (   0.1000001   0.0577350   0.8146665  )
         3           Ga  tau(   3) = (   0.0000001   0.2309401   0.1627148  )
         4           Ga  tau(   4) = (   0.0000001   0.2309401   0.4886906  )
         5           Ga  tau(   5) = (   0.0000001   0.2309401   0.8146665  )
         6           Ga  tau(   6) = (  -0.0999999   0.4041451   0.1627148  )
         7           Ga  tau(   7) = (  -0.0999999   0.4041451   0.4886906  )
         8           Ga  tau(   8) = (  -0.0999999   0.4041451   0.8146665  )
         9           Ga  tau(   9) = (  -0.1999999   0.5773502   0.1627148  )
        10           Ga  tau(  10) = (  -0.1999999   0.5773502   0.4886906  )
        11           Ga  tau(  11) = (  -0.1999999   0.5773502   0.8146665  )
        12           Ga  tau(  12) = (  -0.2999999   0.7505553   0.1627148  )
        13           Ga  tau(  13) = (  -0.2999999   0.7505553   0.4886906  )
        14           Ga  tau(  14) = (  -0.2999999   0.7505553   0.8146665  )
        15           Ga  tau(  15) = (   0.3000001   0.0577350   0.1627148  )
        16           Ga  tau(  16) = (   0.3000001   0.0577350   0.4886906  )
        17           Ga  tau(  17) = (   0.3000001   0.0577350   0.8146665  )
        18           Ga  tau(  18) = (   0.2000001   0.2309401   0.1627148  )
        19           Ga  tau(  19) = (   0.2000001   0.2309401   0.4886906  )
        20           Ga  tau(  20) = (   0.2000001   0.2309401   0.8146665  )
        21           Ga  tau(  21) = (   0.1000001   0.4041451   0.1627148  )
        22           Ga  tau(  22) = (   0.1000001   0.4041451   0.4886906  )
        23           Ga  tau(  23) = (   0.1000001   0.4041451   0.8146665  )
        24           Ga  tau(  24) = (   0.0000001   0.5773502   0.1627148  )
        25           Ga  tau(  25) = (   0.0000001   0.5773502   0.4886906  )
        26           Ga  tau(  26) = (   0.0000001   0.5773502   0.8146665  )
        27           Ga  tau(  27) = (  -0.0999999   0.7505553   0.1627148  )
        28           Ga  tau(  28) = (  -0.0999999   0.7505553   0.4886906  )
        29           Ga  tau(  29) = (  -0.0999999   0.7505553   0.8146665  )
        30           Ga  tau(  30) = (   0.5000001   0.0577350   0.1627148  )
        31           Ga  tau(  31) = (   0.5000001   0.0577350   0.4886906  )
        32           Ga  tau(  32) = (   0.5000001   0.0577350   0.8146665  )
        33           Ga  tau(  33) = (   0.4000001   0.2309401   0.1627148  )
        34           Ga  tau(  34) = (   0.4000001   0.2309401   0.4886906  )
        35           Ga  tau(  35) = (   0.4000001   0.2309401   0.8146665  )
        36           Ga  tau(  36) = (   0.3000001   0.4041451   0.1627148  )
        37           Ga  tau(  37) = (   0.3000001   0.4041451   0.4886906  )
        38           Ga  tau(  38) = (   0.3000001   0.4041451   0.8146665  )
        39           Ga  tau(  39) = (   0.2000001   0.5773502   0.1627148  )
        40           Ga  tau(  40) = (   0.2000001   0.5773502   0.4886906  )
        41           Ga  tau(  41) = (   0.2000001   0.5773502   0.8146665  )
        42           Ga  tau(  42) = (   0.1000001   0.7505553   0.1627148  )
        43           Ga  tau(  43) = (   0.1000001   0.7505553   0.4886906  )
        44           Ga  tau(  44) = (   0.1000001   0.7505553   0.8146665  )
        45           Ga  tau(  45) = (   0.7000001   0.0577350   0.1627148  )
        46           Ga  tau(  46) = (   0.7000001   0.0577350   0.4886906  )
        47           Ga  tau(  47) = (   0.7000001   0.0577350   0.8146665  )
        48           Ga  tau(  48) = (   0.6000001   0.2309401   0.1627148  )
        49           Ga  tau(  49) = (   0.6000001   0.2309401   0.4886906  )
        50           Ga  tau(  50) = (   0.6000001   0.2309401   0.8146665  )
        51           Ga  tau(  51) = (   0.5000001   0.4041451   0.1627148  )
        52           Ga  tau(  52) = (   0.5000001   0.4041451   0.4886906  )
        53           Ga  tau(  53) = (   0.5000001   0.4041451   0.8146665  )
        54           Ga  tau(  54) = (   0.4000001   0.5773502   0.1627148  )
        55           Ga  tau(  55) = (   0.4000001   0.5773502   0.4886906  )
        56           Ga  tau(  56) = (   0.4000001   0.5773502   0.8146665  )
        57           Ga  tau(  57) = (   0.3000001   0.7505553   0.1627148  )
        58           Ga  tau(  58) = (   0.3000001   0.7505553   0.4886906  )
        59           Ga  tau(  59) = (   0.3000001   0.7505553   0.8146665  )
        60           Ga  tau(  60) = (   0.9000001   0.0577350   0.1627148  )
[...]
       286           N   tau( 286) = (   0.7999999   0.1154701   0.4484898  )
       287           N   tau( 287) = (   0.7999999   0.1154701   0.7744656  )
       288           N   tau( 288) = (   0.6999999   0.2886752   0.1225140  )
       289           N   tau( 289) = (   0.6999999   0.2886752   0.4484898  )
       290           N   tau( 290) = (   0.6999999   0.2886752   0.7744656  )
       291           N   tau( 291) = (   0.5999999   0.4618803   0.1225140  )
       292           N   tau( 292) = (   0.5999999   0.4618803   0.4484898  )
       293           N   tau( 293) = (   0.5999999   0.4618803   0.7744656  )
       294           N   tau( 294) = (   0.4999999   0.6350854   0.1225140  )
       295           N   tau( 295) = (   0.4999999   0.6350854   0.4484898  )
       296           N   tau( 296) = (   0.4999999   0.6350854   0.7744656  )
       297           N   tau( 297) = (   0.3999999   0.8082905   0.1225140  )
       298           N   tau( 298) = (   0.3999999   0.8082905   0.4484898  )
       299           N   tau( 299) = (   0.3999999   0.8082905   0.7744656  )
       300           N   tau( 300) = (   0.1000001   0.0577350   0.1627148  )

   Crystallographic axes

     site n.     atom                  positions (cryst. coord.)
[...]
     atom   44 type  1   force =     0.00000000    0.00000000    0.00000000
     atom   45 type  1   force =     0.00000000    0.00000000    0.00000000
     atom   46 type  1   force =     0.00000000    0.00000000    0.00000000
     atom   47 type  1   force =     0.00000000    0.00000000    0.00000000
     atom   48 type  1   force =     0.00000000    0.00000000    0.00000000
     atom   49 type  1   force =     0.00000000    0.00000000    0.00000000
     atom   50 type  1   force =     0.00000000    0.00000000    0.00000000
     atom   51 type  1   force =     0.00000000    0.00000000    0.00000000
     atom   52 type  1   force =     0.00000000    0.00000000    0.00000000
     atom   53 type  1   force =     0.00000000    0.00000000    0.00000000
     atom   54 type  1   force =     0.00000000    0.00000000    0.00000000
     atom   55 type  1   force =     0.00000000    0.00000000    0.00000000
     atom   56 type  1   force =     0.00000000    0.00000000    0.00000000
     atom   57 type  1   force =     0.00000000    0.00000000    0.00000000
     atom   58 type  1   force =     0.00000000    0.00000000    0.00000000
     atom   59 type  1   force =     0.00000000    0.00000000    0.00000000
     atom   60 type  1   force =     0.00000000    0.00000000    0.00000000
[...]
     atom  286 type  2   force =     0.00000000    0.00000000    0.00000000
     atom  287 type  2   force =     0.00000000    0.00000000    0.00000000
     atom  288 type  2   force =     0.00000000    0.00000000    0.00000000
     atom  289 type  2   force =     0.00000000    0.00000000    0.00000000
     atom  290 type  2   force =     0.00000000    0.00000000    0.00000000
     atom  291 type  2   force =     0.00000000    0.00000000    0.00000000
     atom  292 type  2   force =     0.00000000    0.00000000    0.00000000
     atom  293 type  2   force =     0.00000000    0.00000000    0.00000000
     atom  294 type  2   force =     0.00000000    0.00000000    0.00000000
     atom  295 type  2   force =     0.00000000    0.00000000    0.00000000
     atom  296 type  2   force =     0.00000000    0.00000000    0.00000000
     atom  297 type  2   force =     0.00000000    0.00000000    0.00000000
     atom  298 type  2   force =     0.00000000    0.00000000    0.00000000
     atom  299 type  2   force =     0.00000000    0.00000000    0.00000000
     atom  300 type  2   force =     0.00000000    0.00000000    0.00000000
     The SCF correction term to forces
     atom    1 type  1   force =    -0.00000103   -0.00000060   -0.00001061
     atom    2 type  1   force =    -0.00000716   -0.00000413   -0.00001669
     atom    3 type  1   force =    -0.00002022   -0.00000225   -0.00001076
     atom    4 type  1   force =    -0.00000521    0.00000935    0.00002061
     atom    5 type  1   force =    -0.00000859    0.00000515   -0.00001507
     atom    6 type  1   force =     0.00000546   -0.00000186    0.00000685
     atom    7 type  1   force =     0.00000168   -0.00000007    0.00000393
     atom    8 type  1   force =     0.00000003    0.00000750   -0.00001625
     atom    9 type  1   force =     0.00000112    0.00000565    0.00000685
     atom   10 type  1   force =     0.00000078    0.00000149    0.00000393
     atom   11 type  1   force =     0.00000651   -0.00000373   -0.00001625
     atom   12 type  1   force =    -0.00001206   -0.00001638   -0.00001076
     atom   13 type  1   force =     0.00000549   -0.00000919    0.00002061
     atom   14 type  1   force =     0.00000017   -0.00001001   -0.00001507
     atom   15 type  1   force =    -0.00001290    0.00002188   -0.00001050
     atom   16 type  1   force =     0.00001289   -0.00000098    0.00001887
     atom   17 type  1   force =     0.00000939    0.00000458   -0.00001485
     atom   18 type  1   force =     0.00001249   -0.00002211   -0.00001050
     atom   19 type  1   force =     0.00000560    0.00001165    0.00001887
     atom   20 type  1   force =     0.00000866    0.00000584   -0.00001485
     atom   21 type  1   force =     0.00000074   -0.00000204    0.00000650
     atom   22 type  1   force =     0.00000062   -0.00000196   -0.00001420
     atom   23 type  1   force =     0.00000137    0.00001118   -0.00000831
     atom   24 type  1   force =     0.00000401    0.00000232    0.00000852
     atom   25 type  1   force =     0.00000719    0.00000415    0.00001268
     atom   26 type  1   force =     0.00000423    0.00000244   -0.00001163
     atom   27 type  1   force =    -0.00000139    0.00000166    0.00000650
     atom   28 type  1   force =    -0.00000139    0.00000151   -0.00001420
     atom   29 type  1   force =     0.00001036   -0.00000440   -0.00000831
     atom   30 type  1   force =    -0.00000496   -0.00000293    0.00000482
     atom   31 type  1   force =     0.00000344   -0.00000198    0.00000382
     atom   32 type  1   force =     0.00000835   -0.00000394   -0.00001489
     atom   33 type  1   force =    -0.00001164   -0.00000672    0.00000375
     atom   34 type  1   force =     0.00000231    0.00000133    0.00000041
     atom   35 type  1   force =     0.00000409    0.00000236   -0.00001612
     atom   36 type  1   force =    -0.00000502   -0.00000283    0.00000482
     atom   37 type  1   force =     0.00000001    0.00000397    0.00000382
     atom   38 type  1   force =     0.00000076    0.00000920   -0.00001489
     atom   39 type  1   force =     0.00000260    0.00000408    0.00000684
     atom   40 type  1   force =    -0.00000280    0.00000470    0.00001144
     atom   41 type  1   force =    -0.00000022    0.00000328   -0.00001305
     atom   42 type  1   force =     0.00000483    0.00000021    0.00000684
     atom   43 type  1   force =     0.00000267   -0.00000478    0.00001144
     atom   44 type  1   force =     0.00000273   -0.00000183   -0.00001305
     atom   45 type  1   force =     0.00000504   -0.00000525    0.00000626
     atom   46 type  1   force =     0.00000196   -0.00000234    0.00000313
     atom   47 type  1   force =    -0.00000430   -0.00000332   -0.00001437
     atom   48 type  1   force =    -0.00000045   -0.00000709    0.00001098
     atom   49 type  1   force =     0.00000182   -0.00000365    0.00001115
     atom   50 type  1   force =     0.00000182   -0.00000491   -0.00001557
     atom   51 type  1   force =    -0.00000636    0.00000316    0.00001098
     atom   52 type  1   force =    -0.00000225    0.00000340    0.00001115
     atom   53 type  1   force =    -0.00000334    0.00000403   -0.00001557
     atom   54 type  1   force =    -0.00000203    0.00000699    0.00000626
     atom   55 type  1   force =    -0.00000105    0.00000287    0.00000313
     atom   56 type  1   force =    -0.00000502   -0.00000207   -0.00001437
     atom   57 type  1   force =     0.00001824    0.00001053    0.00000293
     atom   58 type  1   force =     0.00000499    0.00000288   -0.00001588
     atom   59 type  1   force =    -0.00000798   -0.00000461   -0.00000859
     atom   60 type  1   force =     0.00000639    0.00002249   -0.00001172
[...]
     atom  286 type  2   force =    -0.00000056   -0.00000203    0.00000189
     atom  287 type  2   force =     0.00000029   -0.00000201   -0.00000339
     atom  288 type  2   force =     0.00000130   -0.00000250    0.00000283
     atom  289 type  2   force =    -0.00000025   -0.00000121    0.00000231
     atom  290 type  2   force =     0.00000000   -0.00000117   -0.00000484
     atom  291 type  2   force =    -0.00000152    0.00000238    0.00000283
     atom  292 type  2   force =    -0.00000117    0.00000039    0.00000231
     atom  293 type  2   force =    -0.00000101    0.00000059   -0.00000484
     atom  294 type  2   force =    -0.00000108    0.00000252    0.00000196
     atom  295 type  2   force =    -0.00000204    0.00000053    0.00000189
     atom  296 type  2   force =    -0.00000160    0.00000126   -0.00000339
     atom  297 type  2   force =    -0.00000031   -0.00000018    0.00000073
     atom  298 type  2   force =    -0.00000164   -0.00000095    0.00000161
     atom  299 type  2   force =    -0.00000112   -0.00000064   -0.00000273
     atom  300 type  2   force =    -0.00000066   -0.00000038    0.00000098

     Total force =     0.003694     Total SCF correction =     0.000191

     Computing stress (Cartesian axis) and pressure

     Non-local corr. energy    =      81.33730627 Ry

          total   stress  (Ry/bohr**3)                   (kbar)     P=       -1.33
  -0.00003413  -0.00000010  -0.00000005           -5.02       -0.01       -0.01
  -0.00000010  -0.00003402  -0.00000003           -0.01       -5.00       -0.00
  -0.00000005  -0.00000003   0.00004112           -0.01       -0.00        6.05

     kinetic stress (kbar)  18394.03     -0.02     -0.00
                               -0.02  18394.06     -0.00
                               -0.00     -0.00  18424.09

     local   stress (kbar)   5198.73     -0.95      0.38
                               -0.95   5199.64      0.22
                                0.38      0.22   3844.23

     nonloc. stress (kbar)     79.58     -0.00      0.01
                               -0.00     79.58      0.01
                                0.01      0.01     86.55

     hartree stress (kbar)  19558.38      0.35     -0.11
                                0.35  19557.97     -0.07
                               -0.11     -0.07  20193.04

     exc-cor stress (kbar)   5171.45      0.00     -0.00
                                0.00   5171.44     -0.00
                               -0.00     -0.00   5171.09

     corecor stress (kbar) -14024.51     -0.00      0.00
                               -0.00 -14024.51      0.00
                                0.00      0.00 -14024.47

     ewald   stress (kbar) -34543.81      0.62     -0.28
                                0.62 -34544.30     -0.16
                               -0.28     -0.16 -33848.99

     hubbard stress (kbar)      0.00      0.00      0.00
                                0.00      0.00      0.00
                                0.00      0.00      0.00

     DFT-D   stress (kbar)      0.00      0.00      0.00
                                0.00      0.00      0.00
                                0.00      0.00      0.00

     XDM     stress (kbar)      0.00      0.00      0.00
                                0.00      0.00      0.00
                                0.00      0.00      0.00

     dft-nl  stress (kbar)    161.13     -0.00      0.00
                               -0.00    161.13      0.00
                                0.00      0.00    160.51

     TS-vdW  stress (kbar)      0.00      0.00      0.00
                                0.00      0.00      0.00
                                0.00      0.00      0.00

     MDB     stress (kbar)      0.00      0.00      0.00
                                0.00      0.00      0.00
                                0.00      0.00      0.00

     3D-RISM stress (kbar)      0.00      0.00      0.00
                                0.00      0.00      0.00
                                0.00      0.00      0.00

     Energy error            =      2.5E-05 Ry
     Gradient error          =      9.4E-04 Ry/Bohr

     bfgs converged in  34 scf cycles and  32 bfgs steps
     (criteria: energy <  1.0E-04 Ry, force <  1.0E-03 Ry/Bohr)

     End of BFGS Geometry Optimization

     Final energy             =  -46588.5654480599 Ry

     File ./GaN.bfgs deleted, as requested
Begin final coordinates

ATOMIC_POSITIONS (angstrom)
Ga            1.6213555324        0.9360885822        7.8397822088
Ga            1.6205801526        0.9356409164       13.1193320227
Ga            0.0771750967        3.6818016706        2.6605577831
Ga           -0.0093880176        3.7581265785        7.9526506119
Ga           -0.0014626465        3.7430328483       13.1977372455
Ga           -1.6078130811        6.5345983557        2.6380881287
Ga           -1.6255638226        6.5580323656        7.9252054671
Ga           -1.6233005141        6.5555003597       13.2217787615
Ga           -3.2561481299        9.3895984082        2.6380881287
Ga           -3.2447290528        9.3625088102        7.9252054671
Ga           -3.2457901800        9.3657348958       13.2217787615
Ga           -4.8842484421       12.2752393178        2.6605577831
Ga           -4.8614306900       12.1621110079        7.9526506119
Ga           -4.8705395582       12.1765214457       13.1977372455
Ga            4.7686152668        0.9029460821        2.6604324118
Ga            4.8820390632        0.9389823203        7.9525198081
Ga            4.8636573765        0.9389448544       13.1979189655
Ga            3.1662831526        3.6782667145        2.6604324118
Ga            3.2542033485        3.7584764845        7.9525198081
Ga            3.2449800588        3.7425762098       13.1979189655
Ga            1.6227151995        6.5522359878        2.6458441320
Ga            1.6223857822        6.5567076178        7.9277869304
Ga            1.6225685035        6.5584941136       13.2158034905
Ga           -0.0022981478        9.3648762029        2.6407885542
Ga           -0.0001571428        9.3661123128        7.9288437994
Ga           -0.0007046491        9.3657962098       13.2149908088
Ga           -1.6256093522       12.1784991509        2.6458441320
Ga           -1.6219015157       12.1759780521        7.9277869304
Ga           -1.6202630043       12.1752430455       13.2158034905
Ga            8.0853504855        0.9346118130        2.6379105583
Ga            8.1141741371        0.9380158238        7.9254530588
Ga            8.1106809141        0.9376196260       13.2222449086
Ga            6.4667684200        3.7335890172        2.6440468553
Ga            6.4884698344        3.7461183347        7.9229297804
Ga            6.4913413827        3.7477762239       13.2188690412
Ga            4.8520740894        6.5348108063        2.6379105583
Ga            4.8694338750        6.5580708154        7.9254530588
Ga            4.8673441462        6.5552436944       13.2222449086
Ga            3.2482516605        9.3654659294        2.6409339124
Ga            3.2449988670        9.3660355996        7.9289496794
Ga            3.2456077424        9.3657625691       13.2153088876
Ga            1.6234874745       12.1796400501        2.6409339124
Ga            1.6223544265       12.1765382132        7.9289496794
Ga            1.6224224129       12.1772020300       13.2153088876
Ga           11.3842986419        0.9352165833        2.6378455652
Ga           11.3521479976        0.9378830334        7.9249115520
Ga           11.3555272309        0.9373336623       13.2217679300
Ga            9.7327467835        3.7452744790        2.6412281503
Ga            9.7332613464        3.7457581232        7.9260492377
Ga            9.7330288977        3.7472546771       13.2175184499
Ga            8.1098775085        6.5561665174        2.6412281503
Ga            8.1105536381        6.5563703199        7.9260492377
Ga            8.1117334673        6.5554207364       13.2175184499
Ga            6.5020719140        9.3914813303        2.6378455652
Ga            6.4883058054        9.3623048306        7.9249115520
Ga            6.4895196527        9.3655060179       13.2217679300
Ga            4.8730705863       12.1796716541        2.6452149116
Ga            4.8664058282       12.1758237542        7.9275176406
Ga            4.8649618045       12.1749900467       13.2162444587
Ga           14.7000286863        0.9052791487        2.6595821382
[...]
N            12.9689631710        1.8717251991        7.2708649602
N            12.9733052097        1.8759729711       12.5688368479
N            11.3680648822        4.6757783703        1.9897363983
N            11.3549194418        4.6836605738        7.2739853234
N            11.3547576499        4.6836685590       12.5645003688
N             9.7333729722        7.5071478133        1.9897363983
N             9.7336264404        7.4918224263        7.2739853234
N             9.7335524599        7.4916783178       12.5645003688
N             8.1402282766       10.3808657060        1.9912087451
N             8.1054408369       10.2955929859        7.2708649602
N             8.1112905347       10.2972294157       12.5688368479
N             6.4956341301       13.1164633027        1.9758171321
N             6.4888935738       13.1125716408        7.2831970060
N             6.4857276976       13.1107438213       12.5690552356
N             1.6234576979        0.9373022679        2.4087194704
End final coordinates

     Writing all to output data dir ./GaN.save/

     General routines

     Parallel routines

     PAW routines

   This run was terminated on:   2:40:24  27Mar2024

   JOB DONE.