     Program PWSCF v.7.1 starts on  9Mar2024 at  9:34: 7

     Reading input from espresso.pwi
Warning: card &CELL ignored
Warning: card    CELL_DYNAMICS    = 'BFGS' ignored
Warning: card / ignored

     Current dimensions of program PWSCF are:
     Max number of different atomic species (ntypx) = 10
     Max number of k-points (npk) =  40000
     Max angular momentum in pseudopotentials (lmaxx) =  4
     file Ga.pbe-dn-kjpaw_psl.1.0.0.UPF: wavefunction(s)  4S renormalized
     file N.pbe-n-kjpaw_psl.1.0.0.UPF: wavefunction(s)  2S renormalized

     IMPORTANT: XC functional enforced from input :
     Exchange-correlation= BEEF-VDW
                           (   1   4  43  14   2   0   0)
     Any further DFT definition will be discarded
     Please, verify this is what you really want

     K-points division:     npool     =       4
     R & G space division:  proc/nbgrp/npool/nimage =      64
     Subspace diagonalization in iterative solution of the eigenvalue problem:
     a serial algorithm will be used

     Using Slab Decomposition

     bravais-lattice index     =            4
     lattice parameter (alat)  =      30.6565  a.u.
     unit-cell volume          =   24400.9461 (a.u.)^3
     number of atoms/cell      =          300
     number of atomic types    =            2
     number of electrons       =      2692.00
     number of Kohn-Sham states=         1615
     kinetic-energy cutoff     =      70.0000  Ry
     charge density cutoff     =     350.0000  Ry
     scf convergence threshold =      1.0E-07
     mixing beta               =       0.7000
     number of iterations used =            8  plain     mixing
     energy convergence thresh.=      1.0E-04
     force convergence thresh. =      1.0E-03
     Exchange-correlation= BEEF-VDW
                           (   1   4  43  14   2   0   0)
     nstep                     =           50

     celldm(1)=  30.656540  celldm(2)=   0.000000  celldm(3)=   0.977927
     celldm(4)=   0.000000  celldm(5)=   0.000000  celldm(6)=   0.000000

     crystal axes: (cart. coord. in units of alat)
               a(1) = (   1.000000   0.000000   0.000000 )
               a(2) = (  -0.500000   0.866025   0.000000 )
               a(3) = (   0.000000   0.000000   0.977927 )

     reciprocal axes: (cart. coord. in units 2 pi/alat)
               b(1) = (  1.000000  0.577350 -0.000000 )
               b(2) = (  0.000000  1.154701  0.000000 )
               b(3) = (  0.000000 -0.000000  1.022571 )

     PseudoPot. # 1 for Ga read from file:
     /trace/group/acmegroup/atimmins/packages/espresso/pseudo/psl_1.0.0/pslibrary.1.0.0/pbe/PSEUDOPOTENTIALS/Ga.pbe-dn-kjpaw_psl.1.0.0.UPF
     MD5 check sum: cd2a01e492f15b435d17032472d8505c
     Pseudo is Projector augmented-wave + core cor, Zval = 13.0
     Generated using 'atomic' code by A. Dal Corso  v.7.1
     Shape of augmentation charge: PSQ
     Using radial grid of 1205 points,  6 beta functions with:
                l(1) =   0
                l(2) =   0
                l(3) =   1
                l(4) =   1
                l(5) =   2
                l(6) =   2
     Q(r) pseudized with 0 coefficients

     PseudoPot. # 2 for N  read from file:
     /trace/group/acmegroup/atimmins/packages/espresso/pseudo/psl_1.0.0/pslibrary.1.0.0/pbe/PSEUDOPOTENTIALS/N.pbe-n-kjpaw_psl.1.0.0.UPF
     MD5 check sum: f77f775694dac7e2c3fe1c82443d1a16
     Pseudo is Projector augmented-wave + core cor, Zval =  5.0
     Generated using 'atomic' code by A. Dal Corso  v.7.1
     Shape of augmentation charge: PSQ
     Using radial grid of 1085 points,  4 beta functions with:
                l(1) =   0
                l(2) =   0
                l(3) =   1
                l(4) =   1
     Q(r) pseudized with 0 coefficients

     atomic species   valence    mass     pseudopotential
        Ga            13.00    69.72300     Ga( 1.00)
        N              5.00    14.00700     N ( 1.00)

      2 Sym. Ops. (no inversion) found

                                    s                        frac. trans.

      isym =  1     identity

 cryst.   s( 1) = (     1          0          0      )
                  (     0          1          0      )
                  (     0          0          1      )

 cart.    s( 1) = (  1.0000000  0.0000000  0.0000000 )
                  (  0.0000000  1.0000000  0.0000000 )
                  (  0.0000000  0.0000000  1.0000000 )

      isym =  2     inv. 180 deg rotation - cryst. axis [0,1,0]

 cryst.   s( 2) = (     1          1          0      )
                  (     0         -1          0      )
                  (     0          0          1      )

 cart.    s( 2) = (  0.5000000  0.8660254  0.0000000 )
                  (  0.8660254 -0.5000000  0.0000000 )
                  (  0.0000000  0.0000000  1.0000000 )

     point group C_s (m)
     there are  2 classes
     the character table:

       E     s
A'     1.00  1.00
A''    1.00 -1.00

     the symmetry operations in each class and the name of the first element:

     E        1
          identity
     s        2
          inv. 180 deg rotation - cryst. axis [0,1,0]

   Cartesian axes

     site n.     atom                  positions (alat units)
         1           Ga  tau(   1) = (   0.1000001   0.0577350   0.4886906  )
         2           Ga  tau(   2) = (   0.1000001   0.0577350   0.8146665  )
         3           Ga  tau(   3) = (   0.0000001   0.2309401   0.1627148  )
         4           Ga  tau(   4) = (   0.0000001   0.2309401   0.4886906  )
         5           Ga  tau(   5) = (   0.0000001   0.2309401   0.8146665  )
         6           Ga  tau(   6) = (  -0.0999999   0.4041451   0.1627148  )
         7           Ga  tau(   7) = (  -0.0999999   0.4041451   0.4886906  )
         8           Ga  tau(   8) = (  -0.0999999   0.4041451   0.8146665  )
         9           Ga  tau(   9) = (  -0.1999999   0.5773502   0.1627148  )
        10           Ga  tau(  10) = (  -0.1999999   0.5773502   0.4886906  )
        11           Ga  tau(  11) = (  -0.1999999   0.5773502   0.8146665  )
        12           Ga  tau(  12) = (  -0.2999999   0.7505553   0.1627148  )
        13           Ga  tau(  13) = (  -0.2999999   0.7505553   0.4886906  )
        14           Ga  tau(  14) = (  -0.2999999   0.7505553   0.8146665  )
        15           Ga  tau(  15) = (   0.3000001   0.0577350   0.1627148  )
        16           Ga  tau(  16) = (   0.3000001   0.0577350   0.4886906  )
        17           Ga  tau(  17) = (   0.3000001   0.0577350   0.8146665  )
        18           Ga  tau(  18) = (   0.2000001   0.2309401   0.1627148  )
        19           Ga  tau(  19) = (   0.2000001   0.2309401   0.4886906  )
        20           Ga  tau(  20) = (   0.2000001   0.2309401   0.8146665  )
        21           Ga  tau(  21) = (   0.1000001   0.4041451   0.1627148  )
        22           Ga  tau(  22) = (   0.1000001   0.4041451   0.4886906  )
        23           Ga  tau(  23) = (   0.1000001   0.4041451   0.8146665  )
        24           Ga  tau(  24) = (   0.0000001   0.5773502   0.1627148  )
        25           Ga  tau(  25) = (   0.0000001   0.5773502   0.4886906  )
        26           Ga  tau(  26) = (   0.0000001   0.5773502   0.8146665  )
        27           Ga  tau(  27) = (  -0.0999999   0.7505553   0.1627148  )
        28           Ga  tau(  28) = (  -0.0999999   0.7505553   0.4886906  )
        29           Ga  tau(  29) = (  -0.0999999   0.7505553   0.8146665  )
        30           Ga  tau(  30) = (   0.5000001   0.0577350   0.1627148  )
        31           Ga  tau(  31) = (   0.5000001   0.0577350   0.4886906  )
        32           Ga  tau(  32) = (   0.5000001   0.0577350   0.8146665  )
        33           Ga  tau(  33) = (   0.4000001   0.2309401   0.1627148  )
        34           Ga  tau(  34) = (   0.4000001   0.2309401   0.4886906  )
        35           Ga  tau(  35) = (   0.4000001   0.2309401   0.8146665  )
        36           Ga  tau(  36) = (   0.3000001   0.4041451   0.1627148  )
        37           Ga  tau(  37) = (   0.3000001   0.4041451   0.4886906  )
        38           Ga  tau(  38) = (   0.3000001   0.4041451   0.8146665  )
        39           Ga  tau(  39) = (   0.2000001   0.5773502   0.1627148  )
        40           Ga  tau(  40) = (   0.2000001   0.5773502   0.4886906  )
        41           Ga  tau(  41) = (   0.2000001   0.5773502   0.8146665  )
        42           Ga  tau(  42) = (   0.1000001   0.7505553   0.1627148  )
        43           Ga  tau(  43) = (   0.1000001   0.7505553   0.4886906  )
        44           Ga  tau(  44) = (   0.1000001   0.7505553   0.8146665  )
        45           Ga  tau(  45) = (   0.7000001   0.0577350   0.1627148  )
        46           Ga  tau(  46) = (   0.7000001   0.0577350   0.4886906  )
        47           Ga  tau(  47) = (   0.7000001   0.0577350   0.8146665  )
        48           Ga  tau(  48) = (   0.6000001   0.2309401   0.1627148  )
        49           Ga  tau(  49) = (   0.6000001   0.2309401   0.4886906  )
        50           Ga  tau(  50) = (   0.6000001   0.2309401   0.8146665  )
        51           Ga  tau(  51) = (   0.5000001   0.4041451   0.1627148  )
        52           Ga  tau(  52) = (   0.5000001   0.4041451   0.4886906  )
        53           Ga  tau(  53) = (   0.5000001   0.4041451   0.8146665  )
        54           Ga  tau(  54) = (   0.4000001   0.5773502   0.1627148  )
        55           Ga  tau(  55) = (   0.4000001   0.5773502   0.4886906  )
        56           Ga  tau(  56) = (   0.4000001   0.5773502   0.8146665  )
        57           Ga  tau(  57) = (   0.3000001   0.7505553   0.1627148  )
        58           Ga  tau(  58) = (   0.3000001   0.7505553   0.4886906  )
        59           Ga  tau(  59) = (   0.3000001   0.7505553   0.8146665  )
        60           Ga  tau(  60) = (   0.9000001   0.0577350   0.1627148  )
[...]
       286           N   tau( 286) = (   0.7999999   0.1154701   0.4484898  )
       287           N   tau( 287) = (   0.7999999   0.1154701   0.7744656  )
       288           N   tau( 288) = (   0.6999999   0.2886752   0.1225140  )
       289           N   tau( 289) = (   0.6999999   0.2886752   0.4484898  )
       290           N   tau( 290) = (   0.6999999   0.2886752   0.7744656  )
       291           N   tau( 291) = (   0.5999999   0.4618803   0.1225140  )
       292           N   tau( 292) = (   0.5999999   0.4618803   0.4484898  )
       293           N   tau( 293) = (   0.5999999   0.4618803   0.7744656  )
       294           N   tau( 294) = (   0.4999999   0.6350854   0.1225140  )
       295           N   tau( 295) = (   0.4999999   0.6350854   0.4484898  )
       296           N   tau( 296) = (   0.4999999   0.6350854   0.7744656  )
       297           N   tau( 297) = (   0.3999999   0.8082905   0.1225140  )
       298           N   tau( 298) = (   0.3999999   0.8082905   0.4484898  )
       299           N   tau( 299) = (   0.3999999   0.8082905   0.7744656  )
       300           N   tau( 300) = (   0.1000001   0.0577350   0.1627148  )

   Crystallographic axes

     site n.     atom                  positions (cryst. coord.)
[...]
     atom   52 type  1   force =     0.00000000    0.00000000    0.00000000
     atom   53 type  1   force =     0.00000000    0.00000000    0.00000000
     atom   54 type  1   force =     0.00000000    0.00000000    0.00000000
     atom   55 type  1   force =     0.00000000    0.00000000    0.00000000
     atom   56 type  1   force =     0.00000000    0.00000000    0.00000000
     atom   57 type  1   force =     0.00000000    0.00000000    0.00000000
     atom   58 type  1   force =     0.00000000    0.00000000    0.00000000
     atom   59 type  1   force =     0.00000000    0.00000000    0.00000000
     atom   60 type  1   force =     0.00000000    0.00000000    0.00000000
[...]
     atom  286 type  2   force =     0.00000000    0.00000000    0.00000000
     atom  287 type  2   force =     0.00000000    0.00000000    0.00000000
     atom  288 type  2   force =     0.00000000    0.00000000    0.00000000
     atom  289 type  2   force =     0.00000000    0.00000000    0.00000000
     atom  290 type  2   force =     0.00000000    0.00000000    0.00000000
     atom  291 type  2   force =     0.00000000    0.00000000    0.00000000
     atom  292 type  2   force =     0.00000000    0.00000000    0.00000000
     atom  293 type  2   force =     0.00000000    0.00000000    0.00000000
     atom  294 type  2   force =     0.00000000    0.00000000    0.00000000
     atom  295 type  2   force =     0.00000000    0.00000000    0.00000000
     atom  296 type  2   force =     0.00000000    0.00000000    0.00000000
     atom  297 type  2   force =     0.00000000    0.00000000    0.00000000
     atom  298 type  2   force =     0.00000000    0.00000000    0.00000000
     atom  299 type  2   force =     0.00000000    0.00000000    0.00000000
     atom  300 type  2   force =     0.00000000    0.00000000    0.00000000
     The SCF correction term to forces
     atom    1 type  1   force =     0.00000049    0.00000028    0.00002505
     atom    2 type  1   force =     0.00000081    0.00000047    0.00006167
     atom    3 type  1   force =    -0.00006010    0.00002888   -0.00003741
     atom    4 type  1   force =    -0.00000155    0.00001167    0.00002190
     atom    5 type  1   force =    -0.00000175    0.00000122   -0.00001231
     atom    6 type  1   force =     0.00000121    0.00001126    0.00000236
     atom    7 type  1   force =    -0.00000218   -0.00000147    0.00002111
     atom    8 type  1   force =     0.00000335   -0.00000545   -0.00001727
     atom    9 type  1   force =     0.00001035   -0.00000458    0.00000236
     atom   10 type  1   force =    -0.00000236   -0.00000116    0.00002111
     atom   11 type  1   force =    -0.00000305    0.00000563   -0.00001727
     atom   12 type  1   force =    -0.00000504   -0.00006649   -0.00003741
     atom   13 type  1   force =     0.00000933   -0.00000718    0.00002190
     atom   14 type  1   force =     0.00000018   -0.00000212   -0.00001231
     atom   15 type  1   force =     0.00005828    0.00004214   -0.00003707
     atom   16 type  1   force =     0.00001103   -0.00000440    0.00002303
     atom   17 type  1   force =     0.00000166    0.00000186   -0.00001038
     atom   18 type  1   force =     0.00006564    0.00002940   -0.00003707
     atom   19 type  1   force =     0.00000171    0.00001175    0.00002303
     atom   20 type  1   force =     0.00000244    0.00000051   -0.00001038
     atom   21 type  1   force =    -0.00000049   -0.00003349   -0.00000887
     atom   22 type  1   force =     0.00000019    0.00000102    0.00002228
     atom   23 type  1   force =    -0.00000005   -0.00000722   -0.00001738
     atom   24 type  1   force =    -0.00001071   -0.00000619   -0.00000369
     atom   25 type  1   force =    -0.00000399   -0.00000230    0.00002652
     atom   26 type  1   force =    -0.00000131   -0.00000076   -0.00002437
     atom   27 type  1   force =    -0.00002925    0.00001632   -0.00000887
     atom   28 type  1   force =     0.00000098   -0.00000034    0.00002228
     atom   29 type  1   force =    -0.00000628    0.00000357   -0.00001738
     atom   30 type  1   force =     0.00000802   -0.00000614    0.00000231
     atom   31 type  1   force =    -0.00000056    0.00000211    0.00002100
     atom   32 type  1   force =    -0.00000728   -0.00000011   -0.00001741
     atom   33 type  1   force =    -0.00000765   -0.00000442   -0.00000344
     atom   34 type  1   force =    -0.00000500   -0.00000289    0.00001800
     atom   35 type  1   force =    -0.00000820   -0.00000473   -0.00001350
     atom   36 type  1   force =    -0.00000131    0.00001001    0.00000231
     atom   37 type  1   force =     0.00000154   -0.00000154    0.00002100
     atom   38 type  1   force =    -0.00000373   -0.00000625   -0.00001741
     atom   39 type  1   force =     0.00000975   -0.00000608   -0.00000467
     atom   40 type  1   force =     0.00000417   -0.00000253    0.00002623
     atom   41 type  1   force =     0.00000090   -0.00000061   -0.00002495
     atom   42 type  1   force =    -0.00000039    0.00001148   -0.00000467
     atom   43 type  1   force =    -0.00000010    0.00000488    0.00002623
     atom   44 type  1   force =    -0.00000008    0.00000109   -0.00002495
     atom   45 type  1   force =    -0.00000867   -0.00000560    0.00000295
     atom   46 type  1   force =     0.00000023    0.00000195    0.00002134
     atom   47 type  1   force =     0.00000678   -0.00000040   -0.00001692
     atom   48 type  1   force =    -0.00000040   -0.00001583   -0.00000101
     atom   49 type  1   force =    -0.00000027   -0.00000182    0.00002332
     atom   50 type  1   force =    -0.00000041   -0.00000066   -0.00002367
     atom   51 type  1   force =    -0.00001391    0.00000757   -0.00000101
     atom   52 type  1   force =    -0.00000171    0.00000068    0.00002332
     atom   53 type  1   force =    -0.00000078   -0.00000002   -0.00002367
     atom   54 type  1   force =    -0.00000919   -0.00000471    0.00000295
     atom   55 type  1   force =     0.00000180   -0.00000078    0.00002134
     atom   56 type  1   force =     0.00000304    0.00000607   -0.00001692
     atom   57 type  1   force =     0.00002911    0.00001680   -0.00000978
     atom   58 type  1   force =    -0.00000058   -0.00000033    0.00002224
     atom   59 type  1   force =     0.00000610    0.00000352   -0.00001752
     atom   60 type  1   force =    -0.00005565    0.00003952   -0.00003537
[...]
     atom  286 type  2   force =     0.00000188    0.00000202    0.00000944
     atom  287 type  2   force =     0.00000129   -0.00000134   -0.00000315
     atom  288 type  2   force =     0.00000818   -0.00000429   -0.00000526
     atom  289 type  2   force =     0.00000141   -0.00000031    0.00001103
     atom  290 type  2   force =    -0.00000032    0.00000086   -0.00000857
     atom  291 type  2   force =     0.00000037    0.00000923   -0.00000526
     atom  292 type  2   force =     0.00000044    0.00000138    0.00001103
     atom  293 type  2   force =     0.00000058   -0.00000071   -0.00000857
     atom  294 type  2   force =     0.00000772    0.00000838   -0.00000625
     atom  295 type  2   force =     0.00000269    0.00000062    0.00000944
     atom  296 type  2   force =    -0.00000052    0.00000179   -0.00000315
     atom  297 type  2   force =     0.00000642    0.00000371   -0.00000691
     atom  298 type  2   force =     0.00000482    0.00000278    0.00000714
     atom  299 type  2   force =    -0.00000138   -0.00000079   -0.00000136
     atom  300 type  2   force =     0.00000115    0.00000066   -0.00000440

     Total force =     0.019529     Total SCF correction =     0.000374

     Computing stress (Cartesian axis) and pressure

[...]

          total   stress  (Ry/bohr**3)                   (kbar)     P=       -0.62
  -0.00000937  -0.00000003   0.00000002           -1.38       -0.00        0.00
  -0.00000003  -0.00000934   0.00000001           -0.00       -1.37        0.00
   0.00000002   0.00000001   0.00000601            0.00        0.00        0.88

     kinetic stress (kbar)  18408.65     -0.01      0.00
                               -0.01  18408.65      0.00
                                0.00      0.00  18404.39

     local   stress (kbar)   5306.64      0.42     -0.27
                                0.42   5305.98     -0.16
                               -0.27     -0.16   3639.76

     nonloc. stress (kbar)     74.19      0.01     -0.00
                                0.01     74.18     -0.00
                               -0.00     -0.00     85.03

     hartree stress (kbar)  19516.39     -0.17      0.10
                               -0.17  19516.58      0.06
                                0.10      0.06  20275.70

     exc-cor stress (kbar)   5171.54     -0.00      0.00
                               -0.00   5171.54      0.00
                                0.00      0.00   5171.88

     corecor stress (kbar) -14024.58      0.00     -0.00
                                0.00 -14024.58     -0.00
                               -0.00     -0.00 -14024.04

     ewald   stress (kbar) -34615.43     -0.25      0.17
                               -0.25 -34614.91      0.10
                                0.17      0.10 -33712.15

     hubbard stress (kbar)      0.00      0.00      0.00
                                0.00      0.00      0.00
                                0.00      0.00      0.00

     DFT-D   stress (kbar)      0.00      0.00      0.00
                                0.00      0.00      0.00
                                0.00      0.00      0.00

     XDM     stress (kbar)      0.00      0.00      0.00
                                0.00      0.00      0.00
                                0.00      0.00      0.00

     dft-nl  stress (kbar)    161.20      0.00     -0.00
                                0.00    161.20     -0.00
                               -0.00     -0.00    160.32

     TS-vdW  stress (kbar)      0.00      0.00      0.00
                                0.00      0.00      0.00
                                0.00      0.00      0.00

     MDB     stress (kbar)      0.00      0.00      0.00
                                0.00      0.00      0.00
                                0.00      0.00      0.00

     3D-RISM stress (kbar)      0.00      0.00      0.00
                                0.00      0.00      0.00
                                0.00      0.00      0.00

     Energy error            =      5.6E-04 Ry
     Gradient error          =      3.8E-03 Ry/Bohr

     number of scf cycles    =   5
     number of bfgs steps    =   4

     energy             old  =  -46588.5399799264 Ry
     energy             new  =  -46588.5405427270 Ry

     CASE: energy            _new < energy            _old

     new trust radius        =       0.0200196387 bohr
     new conv_thr            =       0.0000000038 Ry

ATOMIC_POSITIONS (angstrom)
Ga            1.6217474279        0.9363148431        7.9231937174
Ga            1.6217396352        0.9363103440       13.2074695466
Ga            0.0269675911        3.7336591096        2.6516864892
Ga            0.0005146473        3.7442350791        7.9249500814
Ga            0.0001238863        3.7447282214       13.2188050684
Ga           -1.6202872025        6.5523931396        2.6397251966
Ga           -1.6225485045        6.5560091341        7.9281784983
Ga           -1.6224705506        6.5560185886       13.2164289561
Ga           -3.2469744557        9.3698981103        2.6397251966
Ga           -3.2449735636        9.3661317680        7.9281784983
Ga           -3.2449263989        9.3661945509       13.2164289561
Ga           -4.8644423353       12.2058296230        2.6516864892
Ga           -4.8685097490       12.1776327169        7.9249500814
Ga           -4.8682780557       12.1770477369       13.2188050684
Ga            4.8415321448        0.9185124578        2.6513577154
Ga            4.8648861501        0.9367679471        7.9245537039
Ga            4.8654905833        0.9368984500       13.2184813419
Ga            3.2162224684        3.7336313955        2.6513577154
Ga            3.2437091885        3.7447288126        7.9245537039
Ga            3.2441244239        3.7451870157       13.2184813419
Ga            1.6225542734        6.5584875766        2.6402808533
Ga            1.6225263243        6.5563059669        7.9282144684
Ga            1.6225287284        6.5559087419       13.2165699469
Ga            0.0000607776        9.3662381292        2.6394805574
Ga           -0.0000078615        9.3661985004        7.9279031876
Ga            0.0000184498        9.3662136912       13.2160926908
Ga           -1.6202757805       12.1752339905        2.6402808533
Ga           -1.6221790845       12.1763005907        7.9282144684
Ga           -1.6225218894       12.1765012852       13.2165699469
Ga            8.1070756981        0.9364204997        2.6395614982
Ga            8.1113671485        0.9365123644        7.9280411453
Ga            8.1113339641        0.9364436384       13.2163030248
Ga            6.4858388014        3.7445993071        2.6393074699
Ga            6.4894882405        3.7467063117        7.9282038981
Ga            6.4897380723        3.7468505522       13.2166057801
Ga            4.8645030644        6.5527210490        2.6395614982
Ga            4.8667283467        6.5563916216        7.9280411453
Ga            4.8666522360        6.5563972462       13.2163030248
Ga            3.2448957702        9.3661726354        2.6397427123
Ga            3.2449552621        9.3661414894        7.9281615953
Ga            3.2449349524        9.3661552220       13.2163540345
Ga            1.6224215546       12.1763804109        2.6397427123
Ga            1.6224243274       12.1764475055        7.9281615953
Ga            1.6224260652       12.1764230505       13.2163540345
Ga           11.3598678827        0.9359483151        2.6395671398
Ga           11.3555857911        0.9361196902        7.9280182735
Ga           11.3556211806        0.9360433064       13.2162693131
Ga            9.7331710344        3.7468953678        2.6400489533
Ga            9.7331774094        3.7468246690        7.9282716394
Ga            9.7331767098        3.7468457986       13.2164611169
Ga            8.1114933648        6.5557234851        2.6400489533
Ga            8.1114353254        6.5557643554        7.9282716394
Ga            8.1114532743        6.5557531848       13.2164611169
Ga            6.4904902327        9.3699578064        2.6395671398
Ga            6.4884976021        9.3661637187        7.9280182735
Ga            6.4884491465        9.3662325588       13.2162693131
Ga            4.8646392567       12.1748038237        2.6404897810
Ga            4.8665209808       12.1758902376        7.9284496357
Ga            4.8668724339       12.1760931492       13.2167983925
Ga           14.6256370317        0.9192056504        2.6512681128
[...]
N            12.9780819024        1.8731297685        7.2753540059
N            12.9787488220        1.8729277668       12.5645231432
N            11.3564609499        4.6828462371        1.9873873125
N            11.3558487555        4.6831953809        7.2755701409
N            11.3558120356        4.6832172300       12.5635149524
N             9.7336919583        7.4935645798        1.9873873125
N             9.7336882285        7.4928598320        7.2755701409
N             9.7336887903        7.4928171071       12.5635149524
N             8.1155739262       10.3182435593        1.9904423213
N             8.1112165953       10.3027877542        7.2753540059
N             8.1113751165       10.3034663243       12.5645231432
N             6.4845048461       13.1100378077        1.9866505996
N             6.4880188852       13.1120666391        7.2752457494
N             6.4893977323       13.1128627169       12.5640871015
N             1.6223201185        0.9366454862        2.6422024624

     Writing config-only to output data dir ./GaN.save/
     NEW-OLD atomic charge density approx. for the potential

     Check: negative core charge=   -0.000003

[...]

     Self-consistent Calculation

[...]

     iteration #  8     ecut=    70.00 Ry     beta= 0.70
     Davidson diagonalization with overlap

     ethr =  1.05E-09,  avg # of iterations = 17.0

     Non-local corr. energy    =      81.34206784 Ry

     total energy              =  -46588.54104534 Ry
     estimated scf accuracy    <       0.00000324 Ry

     Program stopped by user request
     Calculation stopped in scf loop at iteration #     8

     Writing config to output data dir ./GaN.save/

     General routines

     Parallel routines

     PAW routines

   This run was terminated on:   9: 4:46  11Mar2024

   JOB DONE.