     Program PWSCF v.7.1 starts on 27Mar2024 at  9:49:40

     Reading input from espresso.pwi
Warning: card &CELL ignored
Warning: card    CELL_DYNAMICS    = 'BFGS' ignored
Warning: card / ignored

     Current dimensions of program PWSCF are:
     Max number of different atomic species (ntypx) = 10
     Max number of k-points (npk) =  40000
     Max angular momentum in pseudopotentials (lmaxx) =  4
     file Ga.pbe-dn-kjpaw_psl.1.0.0.UPF: wavefunction(s)  4S renormalized
     file N.pbe-n-kjpaw_psl.1.0.0.UPF: wavefunction(s)  2S renormalized

     IMPORTANT: XC functional enforced from input :
     Exchange-correlation= BEEF-VDW
                           (   1   4  43  14   2   0   0)
     Any further DFT definition will be discarded
     Please, verify this is what you really want

     K-points division:     npool     =       4
     R & G space division:  proc/nbgrp/npool/nimage =      64
     Subspace diagonalization in iterative solution of the eigenvalue problem:
     a serial algorithm will be used

     Using Slab Decomposition

     bravais-lattice index     =            4
     lattice parameter (alat)  =      30.6565  a.u.
     unit-cell volume          =   24400.9461 (a.u.)^3
     number of atoms/cell      =          300
     number of atomic types    =            2
     number of electrons       =      2692.00
     number of Kohn-Sham states=         1615
     kinetic-energy cutoff     =      70.0000  Ry
     charge density cutoff     =     350.0000  Ry
     scf convergence threshold =      1.0E-07
     mixing beta               =       0.7000
     number of iterations used =            8  plain     mixing
     Exchange-correlation= BEEF-VDW
                           (   1   4  43  14   2   0   0)

     celldm(1)=  30.656540  celldm(2)=   0.000000  celldm(3)=   0.977927
     celldm(4)=   0.000000  celldm(5)=   0.000000  celldm(6)=   0.000000

     crystal axes: (cart. coord. in units of alat)
               a(1) = (   1.000000   0.000000   0.000000 )
               a(2) = (  -0.500000   0.866025   0.000000 )
               a(3) = (   0.000000   0.000000   0.977927 )

     reciprocal axes: (cart. coord. in units 2 pi/alat)
               b(1) = (  1.000000  0.577350 -0.000000 )
               b(2) = (  0.000000  1.154701  0.000000 )
               b(3) = (  0.000000 -0.000000  1.022571 )

     PseudoPot. # 1 for Ga read from file:
     /trace/group/acmegroup/atimmins/packages/espresso/pseudo/psl_1.0.0/pslibrary.1.0.0/pbe/PSEUDOPOTENTIALS/Ga.pbe-dn-kjpaw_psl.1.0.0.UPF
     MD5 check sum: cd2a01e492f15b435d17032472d8505c
     Pseudo is Projector augmented-wave + core cor, Zval = 13.0
     Generated using 'atomic' code by A. Dal Corso  v.7.1
     Shape of augmentation charge: PSQ
     Using radial grid of 1205 points,  6 beta functions with:
                l(1) =   0
                l(2) =   0
                l(3) =   1
                l(4) =   1
                l(5) =   2
                l(6) =   2
     Q(r) pseudized with 0 coefficients

     PseudoPot. # 2 for N  read from file:
     /trace/group/acmegroup/atimmins/packages/espresso/pseudo/psl_1.0.0/pslibrary.1.0.0/pbe/PSEUDOPOTENTIALS/N.pbe-n-kjpaw_psl.1.0.0.UPF
     MD5 check sum: f77f775694dac7e2c3fe1c82443d1a16
     Pseudo is Projector augmented-wave + core cor, Zval =  5.0
     Generated using 'atomic' code by A. Dal Corso  v.7.1
     Shape of augmentation charge: PSQ
     Using radial grid of 1085 points,  4 beta functions with:
                l(1) =   0
                l(2) =   0
                l(3) =   1
                l(4) =   1
     Q(r) pseudized with 0 coefficients

     atomic species   valence    mass     pseudopotential
        Ga            13.00    69.72300     Ga( 1.00)
        N              5.00    14.00700     N ( 1.00)

      2 Sym. Ops. (no inversion) found

                                    s                        frac. trans.

      isym =  1     identity

 cryst.   s( 1) = (     1          0          0      )
                  (     0          1          0      )
                  (     0          0          1      )

 cart.    s( 1) = (  1.0000000  0.0000000  0.0000000 )
                  (  0.0000000  1.0000000  0.0000000 )
                  (  0.0000000  0.0000000  1.0000000 )

      isym =  2     inv. 180 deg rotation - cryst. axis [0,1,0]

 cryst.   s( 2) = (     1          1          0      )
                  (     0         -1          0      )
                  (     0          0          1      )

 cart.    s( 2) = (  0.5000000  0.8660254  0.0000000 )
                  (  0.8660254 -0.5000000  0.0000000 )
                  (  0.0000000  0.0000000  1.0000000 )

     point group C_s (m)
     there are  2 classes
     the character table:

       E     s
A'     1.00  1.00
A''    1.00 -1.00

     the symmetry operations in each class and the name of the first element:

     E        1
          identity
     s        2
          inv. 180 deg rotation - cryst. axis [0,1,0]

   Cartesian axes

     site n.     atom                  positions (alat units)
         1           Ga  tau(   1) = (   0.1000001   0.0577350   0.4886906  )
         2           Ga  tau(   2) = (   0.1000001   0.0577350   0.8146665  )
         3           Ga  tau(   3) = (   0.0000001   0.2309401   0.1627148  )
         4           Ga  tau(   4) = (   0.0000001   0.2309401   0.4886906  )
         5           Ga  tau(   5) = (   0.0000001   0.2309401   0.8146665  )
         6           Ga  tau(   6) = (  -0.0999999   0.4041451   0.1627148  )
         7           Ga  tau(   7) = (  -0.0999999   0.4041451   0.4886906  )
         8           Ga  tau(   8) = (  -0.0999999   0.4041451   0.8146665  )
         9           Ga  tau(   9) = (  -0.1999999   0.5773502   0.1627148  )
        10           Ga  tau(  10) = (  -0.1999999   0.5773502   0.4886906  )
        11           Ga  tau(  11) = (  -0.1999999   0.5773502   0.8146665  )
        12           Ga  tau(  12) = (  -0.2999999   0.7505553   0.1627148  )
        13           Ga  tau(  13) = (  -0.2999999   0.7505553   0.4886906  )
        14           Ga  tau(  14) = (  -0.2999999   0.7505553   0.8146665  )
        15           Ga  tau(  15) = (   0.3000001   0.0577350   0.1627148  )
        16           Ga  tau(  16) = (   0.3000001   0.0577350   0.4886906  )
        17           Ga  tau(  17) = (   0.3000001   0.0577350   0.8146665  )
        18           Ga  tau(  18) = (   0.2000001   0.2309401   0.1627148  )
        19           Ga  tau(  19) = (   0.2000001   0.2309401   0.4886906  )
        20           Ga  tau(  20) = (   0.2000001   0.2309401   0.8146665  )
        21           Ga  tau(  21) = (   0.1000001   0.4041451   0.1627148  )
        22           Ga  tau(  22) = (   0.1000001   0.4041451   0.4886906  )
        23           Ga  tau(  23) = (   0.1000001   0.4041451   0.8146665  )
        24           Ga  tau(  24) = (   0.0000001   0.5773502   0.1627148  )
        25           Ga  tau(  25) = (   0.0000001   0.5773502   0.4886906  )
        26           Ga  tau(  26) = (   0.0000001   0.5773502   0.8146665  )
        27           Ga  tau(  27) = (  -0.0999999   0.7505553   0.1627148  )
        28           Ga  tau(  28) = (  -0.0999999   0.7505553   0.4886906  )
        29           Ga  tau(  29) = (  -0.0999999   0.7505553   0.8146665  )
        30           Ga  tau(  30) = (   0.5000001   0.0577350   0.1627148  )
        31           Ga  tau(  31) = (   0.5000001   0.0577350   0.4886906  )
        32           Ga  tau(  32) = (   0.5000001   0.0577350   0.8146665  )
        33           Ga  tau(  33) = (   0.4000001   0.2309401   0.1627148  )
        34           Ga  tau(  34) = (   0.4000001   0.2309401   0.4886906  )
        35           Ga  tau(  35) = (   0.4000001   0.2309401   0.8146665  )
        36           Ga  tau(  36) = (   0.3000001   0.4041451   0.1627148  )
        37           Ga  tau(  37) = (   0.3000001   0.4041451   0.4886906  )
        38           Ga  tau(  38) = (   0.3000001   0.4041451   0.8146665  )
        39           Ga  tau(  39) = (   0.2000001   0.5773502   0.1627148  )
        40           Ga  tau(  40) = (   0.2000001   0.5773502   0.4886906  )
        41           Ga  tau(  41) = (   0.2000001   0.5773502   0.8146665  )
        42           Ga  tau(  42) = (   0.1000001   0.7505553   0.1627148  )
        43           Ga  tau(  43) = (   0.1000001   0.7505553   0.4886906  )
        44           Ga  tau(  44) = (   0.1000001   0.7505553   0.8146665  )
        45           Ga  tau(  45) = (   0.7000001   0.0577350   0.1627148  )
        46           Ga  tau(  46) = (   0.7000001   0.0577350   0.4886906  )
        47           Ga  tau(  47) = (   0.7000001   0.0577350   0.8146665  )
        48           Ga  tau(  48) = (   0.6000001   0.2309401   0.1627148  )
        49           Ga  tau(  49) = (   0.6000001   0.2309401   0.4886906  )
        50           Ga  tau(  50) = (   0.6000001   0.2309401   0.8146665  )
        51           Ga  tau(  51) = (   0.5000001   0.4041451   0.1627148  )
        52           Ga  tau(  52) = (   0.5000001   0.4041451   0.4886906  )
        53           Ga  tau(  53) = (   0.5000001   0.4041451   0.8146665  )
        54           Ga  tau(  54) = (   0.4000001   0.5773502   0.1627148  )
        55           Ga  tau(  55) = (   0.4000001   0.5773502   0.4886906  )
        56           Ga  tau(  56) = (   0.4000001   0.5773502   0.8146665  )
        57           Ga  tau(  57) = (   0.3000001   0.7505553   0.1627148  )
        58           Ga  tau(  58) = (   0.3000001   0.7505553   0.4886906  )
        59           Ga  tau(  59) = (   0.3000001   0.7505553   0.8146665  )
        60           Ga  tau(  60) = (   0.9000001   0.0577350   0.1627148  )
[...]
       286           N   tau( 286) = (   0.7999999   0.1154701   0.4484898  )
       287           N   tau( 287) = (   0.7999999   0.1154701   0.7744656  )
       288           N   tau( 288) = (   0.6999999   0.2886752   0.1225140  )
       289           N   tau( 289) = (   0.6999999   0.2886752   0.4484898  )
       290           N   tau( 290) = (   0.6999999   0.2886752   0.7744656  )
       291           N   tau( 291) = (   0.5999999   0.4618803   0.1225140  )
       292           N   tau( 292) = (   0.5999999   0.4618803   0.4484898  )
       293           N   tau( 293) = (   0.5999999   0.4618803   0.7744656  )
       294           N   tau( 294) = (   0.4999999   0.6350854   0.1225140  )
       295           N   tau( 295) = (   0.4999999   0.6350854   0.4484898  )
       296           N   tau( 296) = (   0.4999999   0.6350854   0.7744656  )
       297           N   tau( 297) = (   0.3999999   0.8082905   0.1225140  )
       298           N   tau( 298) = (   0.3999999   0.8082905   0.4484898  )
       299           N   tau( 299) = (   0.3999999   0.8082905   0.7744656  )
       300           N   tau( 300) = (   0.1000001   0.0577350   0.1627148  )

   Crystallographic axes

     site n.     atom                  positions (cryst. coord.)
         1           Ga  tau(   1) = (  0.1333334  0.0666666  0.4997208  )
         2           Ga  tau(   2) = (  0.1333334  0.0666666  0.8330541  )
[...]
     atom   26 type  1   force =     0.00000000    0.00000000    0.00000000
     atom   27 type  1   force =     0.00000000    0.00000000    0.00000000
     atom   28 type  1   force =     0.00000000    0.00000000    0.00000000
     atom   29 type  1   force =     0.00000000    0.00000000    0.00000000
     atom   30 type  1   force =     0.00000000    0.00000000    0.00000000
     atom   31 type  1   force =     0.00000000    0.00000000    0.00000000
     atom   32 type  1   force =     0.00000000    0.00000000    0.00000000
     atom   33 type  1   force =     0.00000000    0.00000000    0.00000000
     atom   34 type  1   force =     0.00000000    0.00000000    0.00000000
     atom   35 type  1   force =     0.00000000    0.00000000    0.00000000
     atom   36 type  1   force =     0.00000000    0.00000000    0.00000000
     atom   37 type  1   force =     0.00000000    0.00000000    0.00000000
     atom   38 type  1   force =     0.00000000    0.00000000    0.00000000
     atom   39 type  1   force =     0.00000000    0.00000000    0.00000000
     atom   40 type  1   force =     0.00000000    0.00000000    0.00000000
     atom   41 type  1   force =     0.00000000    0.00000000    0.00000000
     atom   42 type  1   force =     0.00000000    0.00000000    0.00000000
     atom   43 type  1   force =     0.00000000    0.00000000    0.00000000
     atom   44 type  1   force =     0.00000000    0.00000000    0.00000000
     atom   45 type  1   force =     0.00000000    0.00000000    0.00000000
     atom   46 type  1   force =     0.00000000    0.00000000    0.00000000
     atom   47 type  1   force =     0.00000000    0.00000000    0.00000000
     atom   48 type  1   force =     0.00000000    0.00000000    0.00000000
     atom   49 type  1   force =     0.00000000    0.00000000    0.00000000
     atom   50 type  1   force =     0.00000000    0.00000000    0.00000000
     atom   51 type  1   force =     0.00000000    0.00000000    0.00000000
     atom   52 type  1   force =     0.00000000    0.00000000    0.00000000
     atom   53 type  1   force =     0.00000000    0.00000000    0.00000000
     atom   54 type  1   force =     0.00000000    0.00000000    0.00000000
     atom   55 type  1   force =     0.00000000    0.00000000    0.00000000
     atom   56 type  1   force =     0.00000000    0.00000000    0.00000000
     atom   57 type  1   force =     0.00000000    0.00000000    0.00000000
     atom   58 type  1   force =     0.00000000    0.00000000    0.00000000
     atom   59 type  1   force =     0.00000000    0.00000000    0.00000000
     atom   60 type  1   force =     0.00000000    0.00000000    0.00000000
[...]
     atom  286 type  2   force =     0.00000000    0.00000000    0.00000000
     atom  287 type  2   force =     0.00000000    0.00000000    0.00000000
     atom  288 type  2   force =     0.00000000    0.00000000    0.00000000
     atom  289 type  2   force =     0.00000000    0.00000000    0.00000000
     atom  290 type  2   force =     0.00000000    0.00000000    0.00000000
     atom  291 type  2   force =     0.00000000    0.00000000    0.00000000
     atom  292 type  2   force =     0.00000000    0.00000000    0.00000000
     atom  293 type  2   force =     0.00000000    0.00000000    0.00000000
     atom  294 type  2   force =     0.00000000    0.00000000    0.00000000
     atom  295 type  2   force =     0.00000000    0.00000000    0.00000000
     atom  296 type  2   force =     0.00000000    0.00000000    0.00000000
     atom  297 type  2   force =     0.00000000    0.00000000    0.00000000
     atom  298 type  2   force =     0.00000000    0.00000000    0.00000000
     atom  299 type  2   force =     0.00000000    0.00000000    0.00000000
     atom  300 type  2   force =     0.00000000    0.00000000    0.00000000
     The SCF correction term to forces
     atom    1 type  1   force =     0.00001204    0.00000695   -0.00000451
     atom    2 type  1   force =     0.00001007    0.00000581    0.00001665
     atom    3 type  1   force =    -0.00000690    0.00002300   -0.00001941
     atom    4 type  1   force =     0.00000202    0.00001248    0.00000031
     atom    5 type  1   force =    -0.00000080    0.00001272    0.00001637
     atom    6 type  1   force =    -0.00001882    0.00000268   -0.00003086
     atom    7 type  1   force =    -0.00000528   -0.00000230   -0.00001093
     atom    8 type  1   force =    -0.00001238    0.00000476    0.00003394
     atom    9 type  1   force =    -0.00000709   -0.00001764   -0.00003086
     atom   10 type  1   force =    -0.00000464   -0.00000342   -0.00001093
     atom   11 type  1   force =    -0.00000207   -0.00001310    0.00003394
     atom   12 type  1   force =     0.00001648   -0.00001747   -0.00001941
     atom   13 type  1   force =     0.00001182   -0.00000449    0.00000031
     atom   14 type  1   force =     0.00001062   -0.00000705    0.00001637
     atom   15 type  1   force =     0.00000852    0.00000383   -0.00002029
     atom   16 type  1   force =     0.00000422    0.00000215    0.00000173
     atom   17 type  1   force =     0.00000666    0.00000590    0.00001495
     atom   18 type  1   force =     0.00000758    0.00000546   -0.00002029
     atom   19 type  1   force =     0.00000397    0.00000258    0.00000173
     atom   20 type  1   force =     0.00000844    0.00000281    0.00001495
     atom   21 type  1   force =    -0.00000778   -0.00001318   -0.00002907
     atom   22 type  1   force =    -0.00000586   -0.00001577   -0.00001126
     atom   23 type  1   force =    -0.00000464   -0.00000506    0.00002881
     atom   24 type  1   force =    -0.00002096   -0.00001210   -0.00003064
     atom   25 type  1   force =    -0.00001484   -0.00000857    0.00000034
     atom   26 type  1   force =    -0.00001669   -0.00000963    0.00003232
     atom   27 type  1   force =    -0.00001530   -0.00000015   -0.00002907
     atom   28 type  1   force =    -0.00001659    0.00000281   -0.00001126
     atom   29 type  1   force =    -0.00000671   -0.00000149    0.00002881
     atom   30 type  1   force =    -0.00000768    0.00001507   -0.00003114
     atom   31 type  1   force =    -0.00001477    0.00000921   -0.00000624
     atom   32 type  1   force =    -0.00000591    0.00001293    0.00003190
     atom   33 type  1   force =     0.00001143    0.00000660   -0.00003049
     atom   34 type  1   force =    -0.00000335   -0.00000193   -0.00001037
     atom   35 type  1   force =     0.00000800    0.00000462    0.00002941
     atom   36 type  1   force =     0.00000921   -0.00001418   -0.00003114
     atom   37 type  1   force =     0.00000059   -0.00001739   -0.00000624
     atom   38 type  1   force =     0.00000824   -0.00001159    0.00003190
     atom   39 type  1   force =    -0.00000211   -0.00001485   -0.00002981
     atom   40 type  1   force =    -0.00000593   -0.00001368    0.00000207
     atom   41 type  1   force =    -0.00000352   -0.00001561    0.00003173
     atom   42 type  1   force =    -0.00001392    0.00000560   -0.00002981
     atom   43 type  1   force =    -0.00001481    0.00000170    0.00000207
     atom   44 type  1   force =    -0.00001528    0.00000476    0.00003173
     atom   45 type  1   force =    -0.00001104    0.00002283   -0.00002782
     atom   46 type  1   force =    -0.00000343    0.00001653   -0.00000808
     atom   47 type  1   force =    -0.00001379    0.00001965    0.00003418
     atom   48 type  1   force =    -0.00000082    0.00002078   -0.00003516
     atom   49 type  1   force =    -0.00000228    0.00001035   -0.00001044
     atom   50 type  1   force =    -0.00000346    0.00001190    0.00004236
     atom   51 type  1   force =     0.00001758   -0.00001110   -0.00003516
     atom   52 type  1   force =     0.00000782   -0.00000715   -0.00001044
     atom   53 type  1   force =     0.00000857   -0.00000894    0.00004236
     atom   54 type  1   force =     0.00001425   -0.00002098   -0.00002782
     atom   55 type  1   force =     0.00001260   -0.00001124   -0.00000808
     atom   56 type  1   force =     0.00001012   -0.00002177    0.00003418
     atom   57 type  1   force =     0.00001028    0.00000594   -0.00002618
     atom   58 type  1   force =     0.00000759    0.00000438   -0.00001123
     atom   59 type  1   force =    -0.00000268   -0.00000155    0.00003046
     atom   60 type  1   force =    -0.00000063    0.00001701   -0.00001816
[...]
     atom  286 type  2   force =     0.00000101    0.00000834   -0.00000684
     atom  287 type  2   force =    -0.00000139    0.00000870    0.00001488
     atom  288 type  2   force =    -0.00000428    0.00000959   -0.00001186
     atom  289 type  2   force =     0.00000044    0.00000551   -0.00000876
     atom  290 type  2   force =    -0.00000067    0.00000535    0.00002085
     atom  291 type  2   force =     0.00000617   -0.00000850   -0.00001186
     atom  292 type  2   force =     0.00000499   -0.00000237   -0.00000876
     atom  293 type  2   force =     0.00000430   -0.00000326    0.00002085
     atom  294 type  2   force =     0.00000546   -0.00001061   -0.00000895
     atom  295 type  2   force =     0.00000773   -0.00000329   -0.00000684
     atom  296 type  2   force =     0.00000684   -0.00000556    0.00001488
     atom  297 type  2   force =     0.00000041    0.00000024   -0.00000635
     atom  298 type  2   force =     0.00000538    0.00000311   -0.00000586
     atom  299 type  2   force =     0.00000418    0.00000241    0.00001208
     atom  300 type  2   force =     0.00000358    0.00000207   -0.00000606

     Total force =     0.003739     Total SCF correction =     0.000407
     SCF correction compared to forces is large: reduce conv_thr to get better values

     Computing stress (Cartesian axis) and pressure

[...]

          total   stress  (Ry/bohr**3)                   (kbar)     P=       -1.33
  -0.00003413  -0.00000010  -0.00000005           -5.02       -0.01       -0.01
  -0.00000010  -0.00003402  -0.00000003           -0.01       -5.00       -0.00
  -0.00000005  -0.00000003   0.00004112           -0.01       -0.00        6.05

     kinetic stress (kbar)  18394.03     -0.02     -0.00
                               -0.02  18394.06     -0.00
                               -0.00     -0.00  18424.09

     local   stress (kbar)   5198.73     -0.95      0.38
                               -0.95   5199.64      0.22
                                0.38      0.22   3844.23

     nonloc. stress (kbar)     79.58     -0.00      0.01
                               -0.00     79.58      0.01
                                0.01      0.01     86.55

     hartree stress (kbar)  19558.38      0.35     -0.11
                                0.35  19557.97     -0.07
                               -0.11     -0.07  20193.04

     exc-cor stress (kbar)   5171.45      0.00     -0.00
                                0.00   5171.44     -0.00
                               -0.00     -0.00   5171.09

     corecor stress (kbar) -14024.51     -0.00      0.00
                               -0.00 -14024.51      0.00
                                0.00      0.00 -14024.47

     ewald   stress (kbar) -34543.81      0.62     -0.28
                                0.62 -34544.30     -0.16
                               -0.28     -0.16 -33848.99

     hubbard stress (kbar)      0.00      0.00      0.00
                                0.00      0.00      0.00
                                0.00      0.00      0.00

     DFT-D   stress (kbar)      0.00      0.00      0.00
                                0.00      0.00      0.00
                                0.00      0.00      0.00

     XDM     stress (kbar)      0.00      0.00      0.00
                                0.00      0.00      0.00
                                0.00      0.00      0.00

     dft-nl  stress (kbar)    161.13     -0.00      0.00
                               -0.00    161.13      0.00
                                0.00      0.00    160.51

     TS-vdW  stress (kbar)      0.00      0.00      0.00
                                0.00      0.00      0.00
                                0.00      0.00      0.00

     MDB     stress (kbar)      0.00      0.00      0.00
                                0.00      0.00      0.00
                                0.00      0.00      0.00

     3D-RISM stress (kbar)      0.00      0.00      0.00
                                0.00      0.00      0.00
                                0.00      0.00      0.00

[...]

     Non-local corr. energy    =      81.33730701 Ry

 BEEFens 2000 ensemble energies
             -0.658704387135199E+02
             -0.592637579740131E+03
             -0.254834790107113E+03
              0.208601904754507E+03
             -0.425999979416707E+03
             -0.547990079361658E+03
              0.281662360613842E+03
             -0.297858918209577E+02
              0.469382548542755E+03
             -0.202514165835100E+02
              0.230192878284858E+03
              0.952667811963136E+01
              0.952375609411752E+01
             -0.201728758567560E+02
              0.307207921970238E+03
             -0.223724608283781E+03
             -0.461185872180856E+03
             -0.150681194382440E+03
              0.112557420034201E+03
             -0.100807158942926E+02
              0.672889761869027E+03
              0.572756259981283E+03
             -0.327725338322435E+03
              0.118805781959137E+03
             -0.718817446102915E+03
              0.576369817804054E+03
              0.188278377960093E+03
              0.560450410207821E+03
              0.368219445782442E+03
             -0.179315713657075E+03
              0.135675548822685E+03
             -0.264911655727048E+03
              0.739568355744140E+02
              0.360158293231212E+03
              0.382068872826437E+03
             -0.137923144298921E+03
              0.848600021851865E+03
             -0.322008555788907E+03
             -0.231839969777163E+03
              0.340089245377206E+03
              0.152055539832434E+03
              0.254584886543357E+03
             -0.485187017479104E+03
             -0.136120790536743E+02
              0.476344993256250E+03
              0.618682864853402E+03
             -0.615802418732783E+03
              0.438905661210755E+02
              0.232229835575562E+03
              0.112928781299579E+03
              0.257602658090402E+03
              0.545522310622424E+03
             -0.329784457732777E+03
             -0.361519566534445E+03
             -0.470022729967800E+03
             -0.728421451477284E+02
             -0.428712770089599E+03
              0.419326792761694E+02
             -0.794474307463365E+02
             -0.334193030998845E+03
[...]
              0.417152126214563E+03
              0.230300155456874E+03
              0.292774727427739E+03
             -0.473047256091034E+03
             -0.452689547627379E+03
             -0.114618733374374E+03
             -0.443824161612538E+03
              0.710695173744948E+03
              0.609128475125848E+03
              0.291056737629044E+03
              0.788099550014423E+03
             -0.410197293042365E+03
             -0.167203653951530E+03
             -0.232491848459405E+03
              0.651821559331659E+03

 BEEF-vdW xc energy contributions
            1 :    -5974.221516697749
            2 :     5380.691124150101
            3 :    -4386.347036426612
            4 :     3282.285472911184
            5 :    -2324.618033537496
            6 :     1637.060104403302
            7 :    -1197.146486161450
            8 :     899.5367798417410
            9 :    -645.4077275292912
           10 :     399.7945469849910
           11 :    -189.3996476064276
           12 :     57.02014077173226
           13 :    -14.51344724033879
           14 :     29.12786923949261
           15 :    -47.71009964702898
           16 :     34.53641792736562
           17 :     8.173222093819277
           18 :    -50.66989846301840
           19 :     65.25252172485671
           20 :    -49.89402060950852
           21 :     28.24760383874036
           22 :    -28.62777661167092
           23 :     60.70967027143706
           24 :    -108.6498409945179
           25 :     144.7008989025508
           26 :    -150.9349003162697
           27 :     131.4268542113496
           28 :    -106.3024935929743
           29 :     94.06585751586317
           30 :    -97.26982791919909
           31 :    -512.3046862183364
           32 :    -351.0359196022946

     Writing all to output data dir ./GaN.save/

     General routines

     Parallel routines

     PAW routines

   This run was terminated on:  11: 7:14  27Mar2024

   JOB DONE.