     Program PWSCF v.7.1 starts on 18Mar2024 at 22:59:31

     Reading input from espresso.pwi
Warning: card &CELL ignored
Warning: card    CELL_DYNAMICS    = 'BFGS' ignored
Warning: card / ignored

     Current dimensions of program PWSCF are:
     Max number of different atomic species (ntypx) = 10
     Max number of k-points (npk) =  40000
     Max angular momentum in pseudopotentials (lmaxx) =  4
     file Ga.pbe-dn-kjpaw_psl.1.0.0.UPF: wavefunction(s)  4S renormalized
     file N.pbe-n-kjpaw_psl.1.0.0.UPF: wavefunction(s)  2S renormalized

     IMPORTANT: XC functional enforced from input :
     Exchange-correlation= BEEF-VDW
                           (   1   4  43  14   2   0   0)
     Any further DFT definition will be discarded
     Please, verify this is what you really want

     K-points division:     npool     =       4
     R & G space division:  proc/nbgrp/npool/nimage =      64
     Subspace diagonalization in iterative solution of the eigenvalue problem:
     a serial algorithm will be used

     Using Slab Decomposition

     bravais-lattice index     =            4
     lattice parameter (alat)  =      30.6565  a.u.
     unit-cell volume          =   24400.9461 (a.u.)^3
     number of atoms/cell      =          300
     number of atomic types    =            2
     number of electrons       =      2692.00
     number of Kohn-Sham states=         1615
     kinetic-energy cutoff     =      70.0000  Ry
     charge density cutoff     =     350.0000  Ry
     scf convergence threshold =      1.0E-07
     mixing beta               =       0.7000
     number of iterations used =            8  plain     mixing
     energy convergence thresh.=      1.0E-04
     force convergence thresh. =      1.0E-03
     Exchange-correlation= BEEF-VDW
                           (   1   4  43  14   2   0   0)
     nstep                     =           50

     celldm(1)=  30.656540  celldm(2)=   0.000000  celldm(3)=   0.977927
     celldm(4)=   0.000000  celldm(5)=   0.000000  celldm(6)=   0.000000

     crystal axes: (cart. coord. in units of alat)
               a(1) = (   1.000000   0.000000   0.000000 )
               a(2) = (  -0.500000   0.866025   0.000000 )
               a(3) = (   0.000000   0.000000   0.977927 )

     reciprocal axes: (cart. coord. in units 2 pi/alat)
               b(1) = (  1.000000  0.577350 -0.000000 )
               b(2) = (  0.000000  1.154701  0.000000 )
               b(3) = (  0.000000 -0.000000  1.022571 )

     PseudoPot. # 1 for Ga read from file:
     /trace/group/acmegroup/atimmins/packages/espresso/pseudo/psl_1.0.0/pslibrary.1.0.0/pbe/PSEUDOPOTENTIALS/Ga.pbe-dn-kjpaw_psl.1.0.0.UPF
     MD5 check sum: cd2a01e492f15b435d17032472d8505c
     Pseudo is Projector augmented-wave + core cor, Zval = 13.0
     Generated using 'atomic' code by A. Dal Corso  v.7.1
     Shape of augmentation charge: PSQ
     Using radial grid of 1205 points,  6 beta functions with:
                l(1) =   0
                l(2) =   0
                l(3) =   1
                l(4) =   1
                l(5) =   2
                l(6) =   2
     Q(r) pseudized with 0 coefficients

     PseudoPot. # 2 for N  read from file:
     /trace/group/acmegroup/atimmins/packages/espresso/pseudo/psl_1.0.0/pslibrary.1.0.0/pbe/PSEUDOPOTENTIALS/N.pbe-n-kjpaw_psl.1.0.0.UPF
     MD5 check sum: f77f775694dac7e2c3fe1c82443d1a16
     Pseudo is Projector augmented-wave + core cor, Zval =  5.0
     Generated using 'atomic' code by A. Dal Corso  v.7.1
     Shape of augmentation charge: PSQ
     Using radial grid of 1085 points,  4 beta functions with:
                l(1) =   0
                l(2) =   0
                l(3) =   1
                l(4) =   1
     Q(r) pseudized with 0 coefficients

     atomic species   valence    mass     pseudopotential
        Ga            13.00    69.72300     Ga( 1.00)
        N              5.00    14.00700     N ( 1.00)

      2 Sym. Ops. (no inversion) found

                                    s                        frac. trans.

      isym =  1     identity

 cryst.   s( 1) = (     1          0          0      )
                  (     0          1          0      )
                  (     0          0          1      )

 cart.    s( 1) = (  1.0000000  0.0000000  0.0000000 )
                  (  0.0000000  1.0000000  0.0000000 )
                  (  0.0000000  0.0000000  1.0000000 )

      isym =  2     inv. 180 deg rotation - cryst. axis [0,1,0]

 cryst.   s( 2) = (     1          1          0      )
                  (     0         -1          0      )
                  (     0          0          1      )

 cart.    s( 2) = (  0.5000000  0.8660254  0.0000000 )
                  (  0.8660254 -0.5000000  0.0000000 )
                  (  0.0000000  0.0000000  1.0000000 )

     point group C_s (m)
     there are  2 classes
     the character table:

       E     s
A'     1.00  1.00
A''    1.00 -1.00

     the symmetry operations in each class and the name of the first element:

     E        1
          identity
     s        2
          inv. 180 deg rotation - cryst. axis [0,1,0]

   Cartesian axes

     site n.     atom                  positions (alat units)
         1           Ga  tau(   1) = (   0.1000001   0.0577350   0.4886906  )
         2           Ga  tau(   2) = (   0.1000001   0.0577350   0.8146665  )
         3           Ga  tau(   3) = (   0.0000001   0.2309401   0.1627148  )
         4           Ga  tau(   4) = (   0.0000001   0.2309401   0.4886906  )
         5           Ga  tau(   5) = (   0.0000001   0.2309401   0.8146665  )
         6           Ga  tau(   6) = (  -0.0999999   0.4041451   0.1627148  )
         7           Ga  tau(   7) = (  -0.0999999   0.4041451   0.4886906  )
         8           Ga  tau(   8) = (  -0.0999999   0.4041451   0.8146665  )
         9           Ga  tau(   9) = (  -0.1999999   0.5773502   0.1627148  )
        10           Ga  tau(  10) = (  -0.1999999   0.5773502   0.4886906  )
        11           Ga  tau(  11) = (  -0.1999999   0.5773502   0.8146665  )
        12           Ga  tau(  12) = (  -0.2999999   0.7505553   0.1627148  )
        13           Ga  tau(  13) = (  -0.2999999   0.7505553   0.4886906  )
        14           Ga  tau(  14) = (  -0.2999999   0.7505553   0.8146665  )
        15           Ga  tau(  15) = (   0.3000001   0.0577350   0.1627148  )
        16           Ga  tau(  16) = (   0.3000001   0.0577350   0.4886906  )
        17           Ga  tau(  17) = (   0.3000001   0.0577350   0.8146665  )
        18           Ga  tau(  18) = (   0.2000001   0.2309401   0.1627148  )
        19           Ga  tau(  19) = (   0.2000001   0.2309401   0.4886906  )
        20           Ga  tau(  20) = (   0.2000001   0.2309401   0.8146665  )
        21           Ga  tau(  21) = (   0.1000001   0.4041451   0.1627148  )
        22           Ga  tau(  22) = (   0.1000001   0.4041451   0.4886906  )
        23           Ga  tau(  23) = (   0.1000001   0.4041451   0.8146665  )
        24           Ga  tau(  24) = (   0.0000001   0.5773502   0.1627148  )
        25           Ga  tau(  25) = (   0.0000001   0.5773502   0.4886906  )
        26           Ga  tau(  26) = (   0.0000001   0.5773502   0.8146665  )
        27           Ga  tau(  27) = (  -0.0999999   0.7505553   0.1627148  )
        28           Ga  tau(  28) = (  -0.0999999   0.7505553   0.4886906  )
        29           Ga  tau(  29) = (  -0.0999999   0.7505553   0.8146665  )
        30           Ga  tau(  30) = (   0.5000001   0.0577350   0.1627148  )
        31           Ga  tau(  31) = (   0.5000001   0.0577350   0.4886906  )
        32           Ga  tau(  32) = (   0.5000001   0.0577350   0.8146665  )
        33           Ga  tau(  33) = (   0.4000001   0.2309401   0.1627148  )
        34           Ga  tau(  34) = (   0.4000001   0.2309401   0.4886906  )
        35           Ga  tau(  35) = (   0.4000001   0.2309401   0.8146665  )
        36           Ga  tau(  36) = (   0.3000001   0.4041451   0.1627148  )
        37           Ga  tau(  37) = (   0.3000001   0.4041451   0.4886906  )
        38           Ga  tau(  38) = (   0.3000001   0.4041451   0.8146665  )
        39           Ga  tau(  39) = (   0.2000001   0.5773502   0.1627148  )
        40           Ga  tau(  40) = (   0.2000001   0.5773502   0.4886906  )
        41           Ga  tau(  41) = (   0.2000001   0.5773502   0.8146665  )
        42           Ga  tau(  42) = (   0.1000001   0.7505553   0.1627148  )
        43           Ga  tau(  43) = (   0.1000001   0.7505553   0.4886906  )
        44           Ga  tau(  44) = (   0.1000001   0.7505553   0.8146665  )
        45           Ga  tau(  45) = (   0.7000001   0.0577350   0.1627148  )
        46           Ga  tau(  46) = (   0.7000001   0.0577350   0.4886906  )
        47           Ga  tau(  47) = (   0.7000001   0.0577350   0.8146665  )
        48           Ga  tau(  48) = (   0.6000001   0.2309401   0.1627148  )
        49           Ga  tau(  49) = (   0.6000001   0.2309401   0.4886906  )
        50           Ga  tau(  50) = (   0.6000001   0.2309401   0.8146665  )
        51           Ga  tau(  51) = (   0.5000001   0.4041451   0.1627148  )
        52           Ga  tau(  52) = (   0.5000001   0.4041451   0.4886906  )
        53           Ga  tau(  53) = (   0.5000001   0.4041451   0.8146665  )
        54           Ga  tau(  54) = (   0.4000001   0.5773502   0.1627148  )
        55           Ga  tau(  55) = (   0.4000001   0.5773502   0.4886906  )
        56           Ga  tau(  56) = (   0.4000001   0.5773502   0.8146665  )
        57           Ga  tau(  57) = (   0.3000001   0.7505553   0.1627148  )
        58           Ga  tau(  58) = (   0.3000001   0.7505553   0.4886906  )
        59           Ga  tau(  59) = (   0.3000001   0.7505553   0.8146665  )
        60           Ga  tau(  60) = (   0.9000001   0.0577350   0.1627148  )
[...]
       286           N   tau( 286) = (   0.7999999   0.1154701   0.4484898  )
       287           N   tau( 287) = (   0.7999999   0.1154701   0.7744656  )
       288           N   tau( 288) = (   0.6999999   0.2886752   0.1225140  )
       289           N   tau( 289) = (   0.6999999   0.2886752   0.4484898  )
       290           N   tau( 290) = (   0.6999999   0.2886752   0.7744656  )
       291           N   tau( 291) = (   0.5999999   0.4618803   0.1225140  )
       292           N   tau( 292) = (   0.5999999   0.4618803   0.4484898  )
       293           N   tau( 293) = (   0.5999999   0.4618803   0.7744656  )
       294           N   tau( 294) = (   0.4999999   0.6350854   0.1225140  )
       295           N   tau( 295) = (   0.4999999   0.6350854   0.4484898  )
       296           N   tau( 296) = (   0.4999999   0.6350854   0.7744656  )
       297           N   tau( 297) = (   0.3999999   0.8082905   0.1225140  )
       298           N   tau( 298) = (   0.3999999   0.8082905   0.4484898  )
       299           N   tau( 299) = (   0.3999999   0.8082905   0.7744656  )
       300           N   tau( 300) = (   0.1000001   0.0577350   0.1627148  )

   Crystallographic axes

     site n.     atom                  positions (cryst. coord.)
[...]
     atom   55 type  1   force =     0.00000000    0.00000000    0.00000000
     atom   56 type  1   force =     0.00000000    0.00000000    0.00000000
     atom   57 type  1   force =     0.00000000    0.00000000    0.00000000
     atom   58 type  1   force =     0.00000000    0.00000000    0.00000000
     atom   59 type  1   force =     0.00000000    0.00000000    0.00000000
     atom   60 type  1   force =     0.00000000    0.00000000    0.00000000
[...]
     atom  286 type  2   force =     0.00000000    0.00000000    0.00000000
     atom  287 type  2   force =     0.00000000    0.00000000    0.00000000
     atom  288 type  2   force =     0.00000000    0.00000000    0.00000000
     atom  289 type  2   force =     0.00000000    0.00000000    0.00000000
     atom  290 type  2   force =     0.00000000    0.00000000    0.00000000
     atom  291 type  2   force =     0.00000000    0.00000000    0.00000000
     atom  292 type  2   force =     0.00000000    0.00000000    0.00000000
     atom  293 type  2   force =     0.00000000    0.00000000    0.00000000
     atom  294 type  2   force =     0.00000000    0.00000000    0.00000000
     atom  295 type  2   force =     0.00000000    0.00000000    0.00000000
     atom  296 type  2   force =     0.00000000    0.00000000    0.00000000
     atom  297 type  2   force =     0.00000000    0.00000000    0.00000000
     atom  298 type  2   force =     0.00000000    0.00000000    0.00000000
     atom  299 type  2   force =     0.00000000    0.00000000    0.00000000
     atom  300 type  2   force =     0.00000000    0.00000000    0.00000000
     The SCF correction term to forces
     atom    1 type  1   force =    -0.00000012   -0.00000007   -0.00002508
     atom    2 type  1   force =    -0.00001421   -0.00000821    0.00002495
     atom    3 type  1   force =    -0.00002952    0.00000720   -0.00000067
     atom    4 type  1   force =    -0.00000641    0.00000274   -0.00000261
     atom    5 type  1   force =    -0.00000668   -0.00000399    0.00002581
     atom    6 type  1   force =    -0.00002144    0.00000885   -0.00001960
     atom    7 type  1   force =    -0.00001643    0.00000761   -0.00000668
     atom    8 type  1   force =    -0.00000628   -0.00000278    0.00003272
     atom    9 type  1   force =    -0.00000306   -0.00002299   -0.00001960
     atom   10 type  1   force =    -0.00000162   -0.00001803   -0.00000668
     atom   11 type  1   force =    -0.00000555   -0.00000405    0.00003272
     atom   12 type  1   force =    -0.00000853   -0.00002916   -0.00000067
     atom   13 type  1   force =    -0.00000084   -0.00000692   -0.00000261
     atom   14 type  1   force =    -0.00000679   -0.00000379    0.00002581
     atom   15 type  1   force =     0.00001616   -0.00004177    0.00002021
     atom   16 type  1   force =     0.00000891    0.00000670    0.00001178
     atom   17 type  1   force =    -0.00000272   -0.00001029    0.00000533
     atom   18 type  1   force =    -0.00002809    0.00003488    0.00002021
     atom   19 type  1   force =     0.00001026    0.00000437    0.00001178
     atom   20 type  1   force =    -0.00001027    0.00000279    0.00000533
     atom   21 type  1   force =    -0.00001723    0.00003104   -0.00001375
     atom   22 type  1   force =     0.00000176    0.00001321    0.00000790
     atom   23 type  1   force =    -0.00000527   -0.00000318    0.00001407
     atom   24 type  1   force =    -0.00000313   -0.00000181   -0.00003500
     atom   25 type  1   force =    -0.00000116   -0.00000067    0.00000076
     atom   26 type  1   force =    -0.00000310   -0.00000179    0.00002534
     atom   27 type  1   force =     0.00001827   -0.00003045   -0.00001375
     atom   28 type  1   force =     0.00001232   -0.00000508    0.00000790
     atom   29 type  1   force =    -0.00000539   -0.00000297    0.00001407
     atom   30 type  1   force =     0.00003986   -0.00000634   -0.00001159
     atom   31 type  1   force =     0.00001120    0.00001397    0.00000287
     atom   32 type  1   force =     0.00000765    0.00000102    0.00001670
     atom   33 type  1   force =     0.00005097    0.00002943   -0.00000605
     atom   34 type  1   force =     0.00002042    0.00001179    0.00000395
     atom   35 type  1   force =     0.00000846    0.00000489    0.00000666
     atom   36 type  1   force =     0.00001444    0.00003769   -0.00001159
     atom   37 type  1   force =     0.00001770    0.00000272    0.00000287
     atom   38 type  1   force =     0.00000471    0.00000611    0.00001670
     atom   39 type  1   force =     0.00000344    0.00001418   -0.00003570
     atom   40 type  1   force =    -0.00000094   -0.00000410   -0.00000187
     atom   41 type  1   force =     0.00000329    0.00000315    0.00002862
     atom   42 type  1   force =     0.00001399   -0.00000411   -0.00003570
     atom   43 type  1   force =    -0.00000402    0.00000124   -0.00000187
     atom   44 type  1   force =     0.00000438    0.00000128    0.00002862
     atom   45 type  1   force =     0.00000574    0.00000102   -0.00002056
     atom   46 type  1   force =    -0.00001807    0.00001343   -0.00001091
     atom   47 type  1   force =     0.00000713    0.00000250    0.00003711
     atom   48 type  1   force =     0.00002487    0.00003120   -0.00001976
     atom   49 type  1   force =    -0.00000461    0.00001360   -0.00001194
     atom   50 type  1   force =     0.00000711    0.00000900    0.00002692
     atom   51 type  1   force =     0.00003945    0.00000594   -0.00001976
     atom   52 type  1   force =     0.00000947   -0.00001079   -0.00001194
     atom   53 type  1   force =     0.00001135    0.00000166    0.00002692
     atom   54 type  1   force =     0.00000375    0.00000446   -0.00002056
     atom   55 type  1   force =     0.00000259   -0.00002236   -0.00001091
     atom   56 type  1   force =     0.00000573    0.00000493    0.00003711
     atom   57 type  1   force =    -0.00000326   -0.00000188   -0.00002193
     atom   58 type  1   force =    -0.00001258   -0.00000726   -0.00000878
     atom   59 type  1   force =     0.00001150    0.00000664    0.00003721
     atom   60 type  1   force =    -0.00001117   -0.00001824   -0.00000837
[...]
     atom  286 type  2   force =    -0.00000931    0.00000419   -0.00000542
     atom  287 type  2   force =     0.00000095   -0.00000132    0.00001769
     atom  288 type  2   force =    -0.00000435    0.00000582   -0.00000855
     atom  289 type  2   force =    -0.00000798    0.00000435   -0.00000795
     atom  290 type  2   force =    -0.00000249    0.00000185    0.00001338
     atom  291 type  2   force =     0.00000287   -0.00000668   -0.00000855
     atom  292 type  2   force =    -0.00000023   -0.00000909   -0.00000795
     atom  293 type  2   force =     0.00000036   -0.00000309    0.00001338
     atom  294 type  2   force =    -0.00000508   -0.00000390   -0.00000982
     atom  295 type  2   force =    -0.00000103   -0.00001016   -0.00000542
     atom  296 type  2   force =    -0.00000066    0.00000148    0.00001769
     atom  297 type  2   force =     0.00000200    0.00000115   -0.00000301
     atom  298 type  2   force =    -0.00000168   -0.00000097   -0.00001003
     atom  299 type  2   force =     0.00000210    0.00000121    0.00002055
     atom  300 type  2   force =    -0.00003780   -0.00002182    0.00003450

     Total force =     0.063491     Total SCF correction =     0.000452

     Computing stress (Cartesian axis) and pressure

[...]

          total   stress  (Ry/bohr**3)                   (kbar)     P=       -0.77
  -0.00002974  -0.00000175   0.00000065           -4.38       -0.26        0.10
  -0.00000175  -0.00002773   0.00000037           -0.26       -4.08        0.06
   0.00000065   0.00000037   0.00004171            0.10        0.06        6.14

     kinetic stress (kbar)  18399.03     -0.56     -0.02
                               -0.56  18399.67     -0.01
                               -0.02     -0.01  18423.26

     local   stress (kbar)   5240.96    -12.32      4.60
                              -12.32   5255.01      2.66
                                4.60      2.66   3746.42

     nonloc. stress (kbar)     75.86     -0.10      0.11
                               -0.10     75.98      0.06
                                0.11      0.06     82.44

     hartree stress (kbar)  19542.64      4.19     -1.34
                                4.19  19537.80     -0.77
                               -1.34     -0.77  20231.71

     exc-cor stress (kbar)   5171.46      0.06     -0.03
                                0.06   5171.39     -0.02
                               -0.03     -0.02   5171.40

     corecor stress (kbar) -14024.47     -0.00      0.01
                               -0.00 -14024.47      0.00
                                0.01      0.00 -14024.37

     ewald   stress (kbar) -34571.02      8.50     -3.23
                                8.50 -34580.61     -1.86
                               -3.23     -1.86 -33785.15

     hubbard stress (kbar)      0.00      0.00      0.00
                                0.00      0.00      0.00
                                0.00      0.00      0.00

     DFT-D   stress (kbar)      0.00      0.00      0.00
                                0.00      0.00      0.00
                                0.00      0.00      0.00

     XDM     stress (kbar)      0.00      0.00      0.00
                                0.00      0.00      0.00
                                0.00      0.00      0.00

     dft-nl  stress (kbar)    161.16     -0.01      0.01
                               -0.01    161.17      0.00
                                0.01      0.00    160.43

     TS-vdW  stress (kbar)      0.00      0.00      0.00
                                0.00      0.00      0.00
                                0.00      0.00      0.00

     MDB     stress (kbar)      0.00      0.00      0.00
                                0.00      0.00      0.00
                                0.00      0.00      0.00

     3D-RISM stress (kbar)      0.00      0.00      0.00
                                0.00      0.00      0.00
                                0.00      0.00      0.00

     Energy error            =      3.4E-03 Ry
     Gradient error          =      1.7E-02 Ry/Bohr

     number of scf cycles    =  20
     number of bfgs steps    =  19

     energy             old  =  -46588.5467049228 Ry
     energy             new  =  -46588.5501334266 Ry

     CASE: energy            _new < energy            _old

     new trust radius        =       0.3370959162 bohr
     new conv_thr            =       0.0000000168 Ry

ATOMIC_POSITIONS (angstrom)
Ga            1.6205807069        0.9356412364        7.8568206999
Ga            1.6195152379        0.9350260876       13.1546401960
Ga            0.0787155536        3.6915045699        2.6719000347
Ga           -0.0071110658        3.7582472508        7.9304372803
Ga            0.0076684450        3.7327962852       13.1940503645
Ga           -1.6105290375        6.5483469184        2.6385263770
Ga           -1.6277076667        6.5541983890        7.9270856997
Ga           -1.6221853363        6.5469449866       13.2295310173
Ga           -3.2455995035        9.3803720396        2.6385263770
Ga           -3.2491212960        9.3625691750        7.9270856997
Ga           -3.2526417616        9.3709783547       13.2295310173
Ga           -4.8750752564       12.2717219430        2.6719000347
Ga           -4.8601877089       12.1640225698        7.9304372803
Ga           -4.8748391362       12.1895474844       13.1940503645
Ga            4.7792413056        0.8939272414        2.6733184770
Ga            4.8816335385        0.9364583708        7.9299570285
Ga            4.8490612890        0.9362690562       13.1953511530
Ga            3.1637856268        3.6919785544        2.6733184770
Ga            3.2518147818        3.7593872646        7.9299570285
Ga            3.2353647058        3.7312735263       13.1953511530
Ga            1.6241815953        6.5611602276        2.6511826491
Ga            1.6231954582        6.5532715328        7.9401965035
Ga            1.6230828112        6.5407005800       13.2054093441
Ga            0.0001038166        9.3662629778        2.6320228034
Ga           -0.0027562645        9.3646117091        7.9313014586
Ga           -0.0036025195        9.3641231236       13.2156034196
Ga           -1.6171475359       12.1753069671        2.6511826491
Ga           -1.6244724145       12.1783972946        7.9401965035
Ga           -1.6354155026       12.1845852158       13.2054093441
Ga            8.0993846639        0.9301643735        2.6386455862
Ga            8.1118814853        0.9422737612        7.9259624862
Ga            8.1033355792        0.9416330177       13.2294702639
Ga            6.4871293544        3.7453444082        2.6520058462
Ga            6.4854990226        3.7444031357        7.9198860430
Ga            6.4774324909        3.7397459215       13.2253623421
Ga            4.8552395830        6.5491884810        2.6386455862
Ga            4.8719750311        6.5539563519        7.9259624862
Ga            4.8671471779        6.5468757520       13.2294702639
Ga            3.2456892322        9.3656510178        2.6323967876
Ga            3.2482047852        9.3642651344        7.9317227551
Ga            3.2491390261        9.3640377973       13.2161137969
Ga            1.6223665515       12.1773283780        2.6323967876
Ga            1.6224241178       12.1801998524        7.9317227551
Ga            1.6226943586       12.1811225974       13.2161137969
Ga           11.3674697717        0.9289207915        2.6387469595
Ga           11.3540637414        0.9413849606        7.9267780490
Ga           11.3634103709        0.9402484427       13.2281330832
Ga            9.7329824514        3.7478840512        2.6335930192
Ga            9.7323776065        3.7442764145        7.9232298841
Ga            9.7325200625        3.7471172213       13.2245196549
Ga            8.1122552982        6.5550658257        2.6335930192
Ga            8.1088285707        6.5563458330        7.9232298841
Ga            8.1113600096        6.5550488002       13.2245196549
Ga            6.4882051632        9.3800549971        2.6387469595
Ga            6.4922964351        9.3622129497        7.9267780490
Ga            6.4959854966        9.3708756272       13.2281330832
Ga            4.8617933368       12.1731607311        2.6518390731
Ga            4.8690155415       12.1773304729        7.9400023735
Ga            4.8810136710       12.1842575962       13.2061400419
Ga           14.6908343415        0.8969837153        2.6708893129
[...]
N            12.9651733849        1.8735366633        7.2590388964
N            12.9887380695        1.8711335801       12.5707620633
N            11.3572997486        4.6826805256        1.9887587206
N            11.3555692772        4.6832941888        7.2670411924
N            11.3663196187        4.6771827439       12.5756353918
N             9.7339678472        7.4943738565        1.9887587206
N             9.7336340594        7.4925683927        7.2670411924
N             9.7337165637        7.5049341840       12.5756353918
N             8.1331404562       10.3665944324        2.0026711271
N             8.1051147178       10.2914052027        7.2590388964
N             8.1148159290       10.3130143598       12.5707620633
N             6.4851829602       13.1104293170        1.9939021967
N             6.4788705112       13.1067848228        7.2578846972
N             6.4993945230       13.1186343666       12.5514994966
N             1.6653676779        0.9614990062        2.3924613204

     Writing config-only to output data dir ./GaN.save/
     NEW-OLD atomic charge density approx. for the potential

     Check: negative core charge=   -0.000003

[...]

     Self-consistent Calculation

[...]

     c_bands:  1 eigenvalues not converged
     c_bands:  1 eigenvalues not converged
     ethr =  1.00E-06,  avg # of iterations = 20.0

[...]

     ethr =  1.71E-10,  avg # of iterations = 16.3

     Non-local corr. energy    =      81.33922449 Ry

     total energy              =  -46588.54945235 Ry
     estimated scf accuracy    <       0.00000090 Ry

     iteration # 13     ecut=    70.00 Ry     beta= 0.70
     Davidson diagonalization with overlap

     max_seconds     =  154800.00
     Calculation stopped in k-point loop, point #     1
     Calculation stopped in scf loop at iteration #    12

     Writing config to output data dir ./GaN.save/

     General routines

     Parallel routines

     PAW routines

   This run was terminated on:  18:10: 8  20Mar2024

   JOB DONE.