     Program PWSCF v.7.1 starts on 13Apr2024 at  7:27:15

     Reading input from espresso.pwi
Warning: card &CELL ignored
Warning: card    CELL_DYNAMICS    = 'BFGS' ignored
Warning: card / ignored

     Current dimensions of program PWSCF are:
     Max number of different atomic species (ntypx) = 10
     Max number of k-points (npk) =  40000
     Max angular momentum in pseudopotentials (lmaxx) =  4
     file Ga.pbe-dn-kjpaw_psl.1.0.0.UPF: wavefunction(s)  4S renormalized
     file N.pbe-n-kjpaw_psl.1.0.0.UPF: wavefunction(s)  2S renormalized

     IMPORTANT: XC functional enforced from input :
     Exchange-correlation= BEEF-VDW
                           (   1   4  43  14   2   0   0)
     Any further DFT definition will be discarded
     Please, verify this is what you really want

     K-points division:     npool     =       2
     R & G space division:  proc/nbgrp/npool/nimage =      64
     Subspace diagonalization in iterative solution of the eigenvalue problem:
     a serial algorithm will be used

     Using Slab Decomposition

     bravais-lattice index     =            4
     lattice parameter (alat)  =      24.5252  a.u.
     unit-cell volume          =   15616.6055 (a.u.)^3
     number of atoms/cell      =          192
     number of atomic types    =            2
     number of electrons       =      1738.00
     number of Kohn-Sham states=         1043
     kinetic-energy cutoff     =      70.0000  Ry
     charge density cutoff     =     350.0000  Ry
     scf convergence threshold =      1.0E-07
     mixing beta               =       0.7000
     number of iterations used =            8  plain     mixing
     energy convergence thresh.=      1.0E-04
     force convergence thresh. =      1.0E-03
     Exchange-correlation= BEEF-VDW
                           (   1   4  43  14   2   0   0)
     nstep                     =           50

     celldm(1)=  24.525232  celldm(2)=   0.000000  celldm(3)=   1.222409
     celldm(4)=   0.000000  celldm(5)=   0.000000  celldm(6)=   0.000000

     crystal axes: (cart. coord. in units of alat)
               a(1) = (   1.000000   0.000000   0.000000 )
               a(2) = (  -0.500000   0.866025   0.000000 )
               a(3) = (   0.000000   0.000000   1.222409 )

     reciprocal axes: (cart. coord. in units 2 pi/alat)
               b(1) = (  1.000000  0.577350 -0.000000 )
               b(2) = (  0.000000  1.154701  0.000000 )
               b(3) = (  0.000000 -0.000000  0.818057 )

     PseudoPot. # 1 for Ga read from file:
     //group///packages/espresso/pseudo/psl_1.0.0/pslibrary.1.0.0/pbe/PSEUDOPOTENTIALS/Ga.pbe-dn-kjpaw_psl.1.0.0.UPF
     MD5 check sum: cd2a01e492f15b435d17032472d8505c
     Pseudo is Projector augmented-wave + core cor, Zval = 13.0
     Generated using 'atomic' code by A. Dal Corso  v.7.1
     Shape of augmentation charge: PSQ
     Using radial grid of 1205 points,  6 beta functions with:
                l(1) =   0
                l(2) =   0
                l(3) =   1
                l(4) =   1
                l(5) =   2
                l(6) =   2
     Q(r) pseudized with 0 coefficients

     PseudoPot. # 2 for N  read from file:
     //group///packages/espresso/pseudo/psl_1.0.0/pslibrary.1.0.0/pbe/PSEUDOPOTENTIALS/N.pbe-n-kjpaw_psl.1.0.0.UPF
     MD5 check sum: f77f775694dac7e2c3fe1c82443d1a16
     Pseudo is Projector augmented-wave + core cor, Zval =  5.0
     Generated using 'atomic' code by A. Dal Corso  v.7.1
     Shape of augmentation charge: PSQ
     Using radial grid of 1085 points,  4 beta functions with:
                l(1) =   0
                l(2) =   0
                l(3) =   1
                l(4) =   1
     Q(r) pseudized with 0 coefficients

     atomic species   valence    mass     pseudopotential
        Ga            13.00    69.72300     Ga( 1.00)
        N              5.00    14.00700     N ( 1.00)

      6 Sym. Ops. (no inversion) found ( 4 have fractional translation)

                                    s                        frac. trans.

      isym =  1     identity

 cryst.   s( 1) = (     1          0          0      )
                  (     0          1          0      )
                  (     0          0          1      )

 cart.    s( 1) = (  1.0000000  0.0000000  0.0000000 )
                  (  0.0000000  1.0000000  0.0000000 )
                  (  0.0000000  0.0000000  1.0000000 )

      isym =  2     120 deg rotation - cryst. axis [0,0,1]

 cryst.   s( 2) = (     0          1          0      )    f =( -0.2500000 )
                  (    -1         -1          0      )       (  0.0000002 )
                  (     0          0          1      )       (  0.0000000 )

 cart.    s( 2) = ( -0.5000000 -0.8660254  0.0000000 )    f =( -0.2500001 )
                  (  0.8660254 -0.5000000  0.0000000 )       (  0.0000002 )
                  (  0.0000000  0.0000000  1.0000000 )       (  0.0000000 )

      isym =  3     120 deg rotation - cryst. axis [0,0,-1]

[...]

      isym =  4     inv. 180 deg rotation - cart. axis [1,0,0]

[...]

      isym =  5     inv. 180 deg rotation - cryst. axis [0,1,0]

 cryst.   s( 5) = (     1          1          0      )
                  (     0         -1          0      )
                  (     0          0          1      )

 cart.    s( 5) = (  0.5000000  0.8660254  0.0000000 )
                  (  0.8660254 -0.5000000  0.0000000 )
                  (  0.0000000  0.0000000  1.0000000 )

      isym =  6     inv. 180 deg rotation - cryst. axis [1,1,0]

 cryst.   s( 6) = (     0         -1          0      )    f =( -0.2500000 )
                  (    -1          0          0      )       ( -0.2500000 )
                  (     0          0          1      )       (  0.0000000 )

 cart.    s( 6) = (  0.5000000 -0.8660254  0.0000000 )    f =( -0.1250000 )
                  ( -0.8660254 -0.5000000  0.0000000 )       ( -0.2165064 )
                  (  0.0000000  0.0000000  1.0000000 )       (  0.0000000 )

     point group C_3v (3m)
     there are  3 classes
     the character table:

       E     2C3   3s_v
A_1    1.00  1.00  1.00
A_2    1.00  1.00 -1.00
E      2.00 -1.00  0.00

     the symmetry operations in each class and the name of the first element:

     E        1
          identity
     2C3      2    3
          120 deg rotation - cryst. axis [0,0,1]
     3s_v     4    5    6
          inv. 180 deg rotation - cart. axis [1,0,0]

   Cartesian axes

     site n.     atom                  positions (alat units)
         1           Ga  tau(   1) = (   0.1250001   0.0721687   0.2033935  )
         2           Ga  tau(   2) = (   0.1250001   0.0721687   0.6108633  )
         3           Ga  tau(   3) = (   0.1250001   0.0721687   1.0183331  )
         4           Ga  tau(   4) = (   0.0000001   0.2886751   0.2033935  )
         5           Ga  tau(   5) = (   0.0000001   0.2886751   0.6108633  )
         6           Ga  tau(   6) = (   0.0000001   0.2886751   1.0183331  )
         7           Ga  tau(   7) = (  -0.1249999   0.5051814   0.2033935  )
         8           Ga  tau(   8) = (  -0.1249999   0.5051814   0.6108633  )
         9           Ga  tau(   9) = (  -0.1249999   0.5051814   1.0183331  )
        10           Ga  tau(  10) = (  -0.2499999   0.7216878   0.2033935  )
        11           Ga  tau(  11) = (  -0.2499999   0.7216878   0.6108633  )
        12           Ga  tau(  12) = (  -0.2499999   0.7216878   1.0183331  )
        13           Ga  tau(  13) = (   0.3750001   0.0721687   0.2033935  )
        14           Ga  tau(  14) = (   0.3750001   0.0721687   0.6108633  )
        15           Ga  tau(  15) = (   0.3750001   0.0721687   1.0183331  )
        16           Ga  tau(  16) = (   0.2500001   0.2886751   0.2033935  )
        17           Ga  tau(  17) = (   0.2500001   0.2886751   0.6108633  )
        18           Ga  tau(  18) = (   0.2500001   0.2886751   1.0183331  )
        19           Ga  tau(  19) = (   0.1250001   0.5051814   0.2033935  )
        20           Ga  tau(  20) = (   0.1250001   0.5051814   0.6108633  )
        21           Ga  tau(  21) = (   0.1250001   0.5051814   1.0183331  )
        22           Ga  tau(  22) = (   0.0000001   0.7216878   0.2033935  )
        23           Ga  tau(  23) = (   0.0000001   0.7216878   0.6108633  )
        24           Ga  tau(  24) = (   0.0000001   0.7216878   1.0183331  )
        25           Ga  tau(  25) = (   0.6250001   0.0721687   0.2033935  )
        26           Ga  tau(  26) = (   0.6250001   0.0721687   0.6108633  )
        27           Ga  tau(  27) = (   0.6250001   0.0721687   1.0183331  )
        28           Ga  tau(  28) = (   0.5000001   0.2886751   0.2033935  )
        29           Ga  tau(  29) = (   0.5000001   0.2886751   0.6108633  )
        30           Ga  tau(  30) = (   0.5000001   0.2886751   1.0183331  )
        31           Ga  tau(  31) = (   0.3750001   0.5051814   0.2033935  )
        32           Ga  tau(  32) = (   0.3750001   0.5051814   0.6108633  )
        33           Ga  tau(  33) = (   0.3750001   0.5051814   1.0183331  )
        34           Ga  tau(  34) = (   0.2500001   0.7216878   0.2033935  )
        35           Ga  tau(  35) = (   0.2500001   0.7216878   0.6108633  )
        36           Ga  tau(  36) = (   0.2500001   0.7216878   1.0183331  )
        37           Ga  tau(  37) = (   0.8750001   0.0721687   0.2033935  )
        38           Ga  tau(  38) = (   0.8750001   0.0721687   0.6108633  )
        39           Ga  tau(  39) = (   0.8750001   0.0721687   1.0183331  )
        40           Ga  tau(  40) = (   0.7500001   0.2886751   0.2033935  )
        41           Ga  tau(  41) = (   0.7500001   0.2886751   0.6108633  )
        42           Ga  tau(  42) = (   0.7500001   0.2886751   1.0183331  )
        43           Ga  tau(  43) = (   0.6250001   0.5051814   0.2033935  )
        44           Ga  tau(  44) = (   0.6250001   0.5051814   0.6108633  )
        45           Ga  tau(  45) = (   0.6250001   0.5051814   1.0183331  )
        46           Ga  tau(  46) = (   0.5000001   0.7216878   0.2033935  )
        47           Ga  tau(  47) = (   0.5000001   0.7216878   0.6108633  )
        48           Ga  tau(  48) = (   0.5000001   0.7216878   1.0183331  )
        49           Ga  tau(  49) = (  -0.0000002   0.1443377   0.4071284  )
        50           Ga  tau(  50) = (  -0.0000002   0.1443377   0.8145982  )
        51           Ga  tau(  51) = (  -0.0000002   0.1443377   1.2220680  )
        52           Ga  tau(  52) = (  -0.1250002   0.3608440   0.4071284  )
        53           Ga  tau(  53) = (  -0.1250002   0.3608440   0.8145982  )
        54           Ga  tau(  54) = (  -0.1250002   0.3608440   1.2220680  )
        55           Ga  tau(  55) = (  -0.2500002   0.5773504   0.4071284  )
        56           Ga  tau(  56) = (  -0.2500002   0.5773504   0.8145982  )
        57           Ga  tau(  57) = (  -0.2500002   0.5773504   1.2220680  )
        58           Ga  tau(  58) = (  -0.3750001   0.7938567   0.4071284  )
        59           Ga  tau(  59) = (  -0.3750001   0.7938567   0.8145982  )
        60           Ga  tau(  60) = (  -0.3750001   0.7938567   1.2220680  )
[...]
[...]
     atom   44 type  1   force =     0.00000000    0.00000000    0.00000000
     atom   45 type  1   force =     0.00000000    0.00000000    0.00000000
     atom   46 type  1   force =     0.00000000    0.00000000    0.00000000
     atom   47 type  1   force =     0.00000000    0.00000000    0.00000000
     atom   48 type  1   force =     0.00000000    0.00000000    0.00000000
     atom   49 type  1   force =     0.00000000    0.00000000    0.00000000
     atom   50 type  1   force =     0.00000000    0.00000000    0.00000000
     atom   51 type  1   force =     0.00000000    0.00000000    0.00000000
     atom   52 type  1   force =     0.00000000    0.00000000    0.00000000
     atom   53 type  1   force =     0.00000000    0.00000000    0.00000000
     atom   54 type  1   force =     0.00000000    0.00000000    0.00000000
     atom   55 type  1   force =     0.00000000    0.00000000    0.00000000
     atom   56 type  1   force =     0.00000000    0.00000000    0.00000000
     atom   57 type  1   force =     0.00000000    0.00000000    0.00000000
     atom   58 type  1   force =     0.00000000    0.00000000    0.00000000
     atom   59 type  1   force =     0.00000000    0.00000000    0.00000000
     atom   60 type  1   force =     0.00000000    0.00000000    0.00000000
[...]
     atom  178 type  2   force =     0.00000000    0.00000000    0.00000000
     atom  179 type  2   force =     0.00000000    0.00000000    0.00000000
     atom  180 type  2   force =     0.00000000    0.00000000    0.00000000
     atom  181 type  2   force =     0.00000000    0.00000000    0.00000000
     atom  182 type  2   force =     0.00000000    0.00000000    0.00000000
     atom  183 type  2   force =     0.00000000    0.00000000    0.00000000
     atom  184 type  2   force =     0.00000000    0.00000000    0.00000000
     atom  185 type  2   force =     0.00000000    0.00000000    0.00000000
     atom  186 type  2   force =     0.00000000    0.00000000    0.00000000
     atom  187 type  2   force =     0.00000000    0.00000000    0.00000000
     atom  188 type  2   force =     0.00000000    0.00000000    0.00000000
     atom  189 type  2   force =     0.00000000    0.00000000    0.00000000
     atom  190 type  2   force =     0.00000000    0.00000000    0.00000000
     atom  191 type  2   force =     0.00000000    0.00000000    0.00000000
     atom  192 type  1   force =     0.00000000    0.00000000    0.00000000
     The SCF correction term to forces
     atom    1 type  1   force =    -0.00000000    0.00000000    0.00000638
     atom    2 type  1   force =    -0.00000000    0.00000000   -0.00000056
     atom    3 type  1   force =     0.00000000    0.00000000   -0.00001022
     atom    4 type  1   force =    -0.00000520    0.00000657   -0.00000045
     atom    5 type  1   force =    -0.00000300    0.00000090    0.00000629
     atom    6 type  1   force =     0.00000099    0.00000067   -0.00000912
     atom    7 type  1   force =    -0.00000287   -0.00000166    0.00000369
     atom    8 type  1   force =    -0.00000264   -0.00000153    0.00000704
     atom    9 type  1   force =     0.00000306    0.00000177   -0.00000731
     atom   10 type  1   force =     0.00000309   -0.00000779   -0.00000045
     atom   11 type  1   force =    -0.00000072   -0.00000305    0.00000629
     atom   12 type  1   force =     0.00000107    0.00000053   -0.00000912
     atom   13 type  1   force =     0.00000829    0.00000122   -0.00000045
     atom   14 type  1   force =     0.00000228    0.00000214    0.00000629
     atom   15 type  1   force =     0.00000008   -0.00000119   -0.00000912
     atom   16 type  1   force =     0.00000520    0.00000657   -0.00000045
     atom   17 type  1   force =     0.00000300    0.00000090    0.00000629
     atom   18 type  1   force =    -0.00000099    0.00000067   -0.00000912
     atom   19 type  1   force =     0.00000000    0.00000154    0.00000146
     atom   20 type  1   force =     0.00000000   -0.00000005    0.00000701
     atom   21 type  1   force =    -0.00000000    0.00000214   -0.00000710
     atom   22 type  1   force =     0.00000133   -0.00000077    0.00000146
     atom   23 type  1   force =    -0.00000005    0.00000003    0.00000701
     atom   24 type  1   force =     0.00000185   -0.00000107   -0.00000710
     atom   25 type  1   force =    -0.00000000    0.00000332    0.00000369
     atom   26 type  1   force =    -0.00000000    0.00000305    0.00000704
     atom   27 type  1   force =    -0.00000000   -0.00000353   -0.00000731
     atom   28 type  1   force =     0.00000490    0.00000283    0.00000555
     atom   29 type  1   force =     0.00000323    0.00000186    0.00000632
     atom   30 type  1   force =    -0.00000010   -0.00000006   -0.00000666
     atom   31 type  1   force =     0.00000287   -0.00000166    0.00000369
     atom   32 type  1   force =     0.00000264   -0.00000153    0.00000704
     atom   33 type  1   force =    -0.00000306    0.00000177   -0.00000731
     atom   34 type  1   force =    -0.00000133   -0.00000077    0.00000146
     atom   35 type  1   force =     0.00000005    0.00000003    0.00000701
     atom   36 type  1   force =    -0.00000185   -0.00000107   -0.00000710
     atom   37 type  1   force =    -0.00000829    0.00000122   -0.00000045
     atom   38 type  1   force =    -0.00000228    0.00000214    0.00000629
     atom   39 type  1   force =    -0.00000008   -0.00000119   -0.00000912
     atom   40 type  1   force =    -0.00000490    0.00000283    0.00000555
     atom   41 type  1   force =    -0.00000323    0.00000186    0.00000632
     atom   42 type  1   force =     0.00000010   -0.00000006   -0.00000666
     atom   43 type  1   force =     0.00000000   -0.00000566    0.00000555
     atom   44 type  1   force =    -0.00000000   -0.00000373    0.00000632
     atom   45 type  1   force =    -0.00000000    0.00000011   -0.00000666
     atom   46 type  1   force =    -0.00000309   -0.00000779   -0.00000045
     atom   47 type  1   force =     0.00000072   -0.00000305    0.00000629
     atom   48 type  1   force =    -0.00000107    0.00000053   -0.00000912
     atom   49 type  1   force =    -0.00000972    0.00000561    0.00000703
     atom   50 type  1   force =     0.00000155   -0.00000089   -0.00000465
     atom   51 type  1   force =    -0.00000123    0.00000071   -0.00000576
     atom   52 type  1   force =    -0.00000381    0.00000138    0.00000644
     atom   53 type  1   force =     0.00000173   -0.00000070   -0.00000307
     atom   54 type  1   force =    -0.00000115    0.00000186   -0.00000447
     atom   55 type  1   force =    -0.00000071   -0.00000399    0.00000644
     atom   56 type  1   force =     0.00000026    0.00000185   -0.00000307
     atom   57 type  1   force =     0.00000104   -0.00000193   -0.00000447
     atom   58 type  1   force =    -0.00000000   -0.00001123    0.00000703
     atom   59 type  1   force =     0.00000000    0.00000179   -0.00000465
     atom   60 type  1   force =    -0.00000000   -0.00000142   -0.00000576
[...]
     atom  178 type  2   force =     0.00000000    0.00000184    0.00000299
     atom  179 type  2   force =     0.00000000   -0.00000066   -0.00000299
     atom  180 type  2   force =    -0.00000146    0.00000108    0.00000099
     atom  181 type  2   force =    -0.00000159    0.00000190    0.00000242
     atom  182 type  2   force =    -0.00000039   -0.00000061   -0.00000367
     atom  183 type  2   force =     0.00000000   -0.00000000    0.00000172
     atom  184 type  2   force =     0.00000000   -0.00000000    0.00000140
     atom  185 type  2   force =    -0.00000000    0.00000000   -0.00000262
     atom  186 type  2   force =     0.00000020   -0.00000180    0.00000099
     atom  187 type  2   force =     0.00000085   -0.00000233    0.00000242
     atom  188 type  2   force =    -0.00000072   -0.00000004   -0.00000367
     atom  189 type  2   force =    -0.00000162   -0.00000093    0.00000042
     atom  190 type  2   force =     0.00000008    0.00000005    0.00000410
     atom  191 type  2   force =    -0.00000113   -0.00000065   -0.00000428
     atom  192 type  1   force =     0.00000000   -0.00000000    0.00001435

     Total force =     0.003226     Total SCF correction =     0.000075

     Computing stress (Cartesian axis) and pressure

     Non-local corr. energy    =      52.68149889 Ry

          total   stress  (Ry/bohr**3)                   (kbar)     P=       39.14
   0.00025745  -0.00000000   0.00000000           37.87       -0.00        0.00
   0.00000000   0.00025745  -0.00000000            0.00       37.87       -0.00
   0.00000000  -0.00000000   0.00028325            0.00       -0.00       41.67

     kinetic stress (kbar)  18509.91      0.00      0.00
                                0.00  18509.91      0.00
                                0.00      0.00  18507.58

     local   stress (kbar)   5639.13     -0.07     -0.00
                               -0.07   5639.03      0.00
                               -0.00      0.00   3815.98

     nonloc. stress (kbar)     82.96      0.00      0.00
                                0.00     82.96      0.00
                                0.00      0.00     91.46

     hartree stress (kbar)  19744.22     -0.00     -0.00
                               -0.00  19744.22      0.00
                               -0.00      0.00  20562.55

     exc-cor stress (kbar)   5287.27      0.00     -0.00
                                0.00   5287.28      0.00
                               -0.00      0.00   5287.97

     corecor stress (kbar) -14245.12     -0.00     -0.00
                               -0.00 -14245.12      0.00
                               -0.00      0.00 -14244.68

     ewald   stress (kbar) -35143.92      0.10      0.00
                                0.10 -35143.80     -0.00
                                0.00     -0.00 -34141.61

     hubbard stress (kbar)      0.00      0.00      0.00
                                0.00      0.00      0.00
                                0.00      0.00      0.00

     DFT-D   stress (kbar)      0.00      0.00      0.00
                                0.00      0.00      0.00
                                0.00      0.00      0.00

     XDM     stress (kbar)      0.00      0.00      0.00
                                0.00      0.00      0.00
                                0.00      0.00      0.00

     dft-nl  stress (kbar)    163.41     -0.00     -0.00
                               -0.00    163.41     -0.00
                               -0.00     -0.00    162.43

     TS-vdW  stress (kbar)      0.00      0.00      0.00
                                0.00      0.00      0.00
                                0.00      0.00      0.00

     MDB     stress (kbar)      0.00      0.00      0.00
                                0.00      0.00      0.00
                                0.00      0.00      0.00

     3D-RISM stress (kbar)      0.00      0.00      0.00
                                0.00      0.00      0.00
                                0.00      0.00      0.00

     Energy error            =      2.5E-05 Ry
     Gradient error          =      9.7E-04 Ry/Bohr

     bfgs converged in  12 scf cycles and  11 bfgs steps
     (criteria: energy <  1.0E-04 Ry, force <  1.0E-03 Ry/Bohr)

     End of BFGS Geometry Optimization

     Final energy             =  -30232.2688019773 Ry

     File ./GaN.bfgs deleted, as requested
Begin final coordinates

ATOMIC_POSITIONS (angstrom)
Ga            1.6222756606        0.9366198184        2.3742509203
Ga            1.6222756606        0.9366198184        7.8295250930
Ga            1.6222756606        0.9366198184       13.1839794061
Ga           -0.0039759634        3.7216094145        2.6445573397
Ga           -0.0083466788        3.7728533088        7.9688789641
Ga           -0.0008266079        3.7556121055       13.1895179977
Ga           -1.6263466315        6.5539904718        2.6405792300
Ga           -1.6204086901        6.5574187438        7.9381345089
Ga           -1.6202416707        6.5575151725       13.2283730749
Ga           -3.2680752462        9.3751952132        2.6445573397
Ga           -3.2258820896        9.3457881155        7.9688789641
Ga           -3.2370533742        9.3609212896       13.1895179977
Ga            4.8472732120        0.9525002398        2.6445573397
Ga            4.8938370840        0.9306634432        7.9688789641
Ga            4.8751457285        0.9327714724       13.1895179977
Ga            3.2485272846        3.7216094145        2.6445573397
Ga            3.2528980000        3.7728533088        7.9688789641
Ga            3.2453779291        3.7556121055       13.1895179977
Ga            1.6222756606        6.5439357494        2.6535795457
Ga            1.6222756606        6.5569639339        7.9153548402
Ga            1.6222756606        6.5607949117       13.2324768175
Ga           -0.0107431304        9.3724072652        2.6535795457
Ga            0.0005396083        9.3658931730        7.9153548402
Ga            0.0038573324        9.3639776840       13.2324768175
Ga            8.1113724947        0.9413239240        2.6405792300
Ga            8.1113724947        0.9344673799        7.9381345089
Ga            8.1113724947        0.9342745225       13.2283730749
Ga            6.4860081093        3.7446970570        2.6396665928
Ga            6.4913432411        3.7477772968        7.9354480208
Ga            6.4917546808        3.7480148417       13.2257064163
Ga            4.8708979527        6.5539904718        2.6405792300
Ga            4.8649600113        6.5574187438        7.9381345089
Ga            4.8647929919        6.5575151725       13.2283730749
Ga            3.2552944516        9.3724072652        2.6535795457
Ga            3.2440117129        9.3658931730        7.9153548402
Ga            3.2406939888        9.3639776840       13.2324768175
Ga           11.3754717774        0.9525002398        2.6445573397
Ga           11.3289079054        0.9306634432        7.9688789641
Ga           11.3475992610        0.9327714724       13.1895179977
Ga            9.7367368802        3.7446970570        2.6396665928
Ga            9.7314017483        3.7477772968        7.9354480208
Ga            9.7309903086        3.7480148417       13.2257064163
Ga            8.1113724947        6.5599107535        2.6396665928
Ga            8.1113724947        6.5537502739        7.9354480208
Ga            8.1113724947        6.5532751843       13.2257064163
Ga            6.5126265674        9.3751952132        2.6445573397
Ga            6.4704334108        9.3457881155        7.9688789641
Ga            6.4816046954        9.3609212896       13.1895179977
Ga           -0.1757594836        1.9747160973        5.3823502652
Ga            0.0056761102        1.8699642084       10.5438910993
Ga           -0.0312512916        1.8912842537       15.7743056321
Ga           -1.6489205801        4.7201011280        5.2925522303
Ga           -1.6288854157        4.6887699505       10.5835624736
Ga           -1.6192943725        4.6826871992       15.8640245466
Ga           -3.2258319590        7.4513917553        5.2925522303
Ga           -3.2429479725        7.4844083054       10.5835624736
Ga           -3.2434202681        7.4957557681       15.8640245466
Ga           -4.8668245904       10.0998792041        5.3823502652
Ga           -4.8668245904       10.3093829819       10.5438910993
Ga           -4.8668245904       10.2667428912       15.7743056321
[...]
N             1.6222722437       10.3048423003        7.2740029534
N             1.6222722437       10.3010909944       12.5681008296
N             9.7284674078        1.8742542210        1.9801641520
N             9.7185405888        1.8770036257        7.2913703808
N             9.7230110855        1.8792433908       12.5663007900
N             8.1113690779        4.6831037996        1.9895790356
N             8.1113690779        4.6831037996        7.2815532902
N             8.1113690779        4.6831037996       12.5683363326
N             6.4873831524        7.4879768231        1.9801641520
N             6.4848007972        7.4780052433        7.2913703808
N             6.4889757391        7.4807569245       12.5663007900
N             4.8747468202       10.3074026759        1.9858600616
N             4.8683830180       10.3037285330        7.2876953689
N             4.8533660562       10.2950584861       12.5610453021
Ga            1.6222756606        0.9366198184        4.5964431708
End final coordinates

     Writing all to output data dir ./GaN.save/

     General routines

     Parallel routines

     PAW routines

   This run was terminated on:   5:48:45  14Apr2024

   JOB DONE.