     Program PWSCF v.7.1 starts on 28Mar2024 at 10:48:58

     Reading input from espresso.pwi
Warning: card &CELL ignored
Warning: card    CELL_DYNAMICS    = 'BFGS' ignored
Warning: card / ignored

     Current dimensions of program PWSCF are:
     Max number of different atomic species (ntypx) = 10
     Max number of k-points (npk) =  40000
     Max angular momentum in pseudopotentials (lmaxx) =  4
     file Pb.pbe-dn-kjpaw_psl.1.0.0.UPF: wavefunction(s)  6S 6P 5D renormalized
     file I.pbe-dn-kjpaw_psl.1.0.0.UPF: wavefunction(s)  5S 5P renormalized

     IMPORTANT: XC functional enforced from input :
     Exchange-correlation= BEEF-VDW
                           (   1   4  43  14   2   0   0)
     Any further DFT definition will be discarded
     Please, verify this is what you really want

     R & G space division:  proc/nbgrp/npool/nimage =      20
     Subspace diagonalization in iterative solution of the eigenvalue problem:
     a serial algorithm will be used

     Using Slab Decomposition

     bravais-lattice index     =            4
     lattice parameter (alat)  =      17.8060  a.u.
     unit-cell volume          =    7656.2263 (a.u.)^3
     number of atoms/cell      =           24
     number of atomic types    =            2
     number of electrons       =       378.00
     number of Kohn-Sham states=          227
     kinetic-energy cutoff     =      70.0000  Ry
     charge density cutoff     =     350.0000  Ry
     scf convergence threshold =      1.0E-07
     mixing beta               =       0.7000
     number of iterations used =            8  plain     mixing
     energy convergence thresh.=      1.0E-04
     force convergence thresh. =      1.0E-03
     Exchange-correlation= BEEF-VDW
                           (   1   4  43  14   2   0   0)
     nstep                     =           50

     celldm(1)=  17.806016  celldm(2)=   0.000000  celldm(3)=   1.565971
     celldm(4)=   0.000000  celldm(5)=   0.000000  celldm(6)=   0.000000

     crystal axes: (cart. coord. in units of alat)
               a(1) = (   1.000000   0.000000   0.000000 )
               a(2) = (  -0.500000   0.866025   0.000000 )
               a(3) = (   0.000000   0.000000   1.565971 )

     reciprocal axes: (cart. coord. in units 2 pi/alat)
               b(1) = (  1.000000  0.577350 -0.000000 )
               b(2) = (  0.000000  1.154701  0.000000 )
               b(3) = (  0.000000 -0.000000  0.638581 )

     PseudoPot. # 1 for Pb read from file:
     /trace/group/acmegroup/atimmins/packages/espresso/pseudo/psl_1.0.0/pslibrary.1.0.0/pbe/PSEUDOPOTENTIALS/Pb.pbe-dn-kjpaw_psl.1.0.0.UPF
     MD5 check sum: 39ab5b8a6bbd56b7735ad9f188aac93a
     Pseudo is Projector augmented-wave + core cor, Zval = 14.0
     Generated using 'atomic' code by A. Dal Corso  v.7.1
     Shape of augmentation charge: PSQ
     Using radial grid of 1281 points,  6 beta functions with:
                l(1) =   0
                l(2) =   0
                l(3) =   1
                l(4) =   1
                l(5) =   2
                l(6) =   2
     Q(r) pseudized with 0 coefficients

     PseudoPot. # 2 for I  read from file:
     /trace/group/acmegroup/atimmins/packages/espresso/pseudo/psl_1.0.0/pslibrary.1.0.0/pbe/PSEUDOPOTENTIALS/I.pbe-dn-kjpaw_psl.1.0.0.UPF
     MD5 check sum: bfa8781bc1224d19af3f3980e3fab11e
     Pseudo is Projector augmented-wave + core cor, Zval = 17.0
     Generated using 'atomic' code by A. Dal Corso  v.7.1
     Shape of augmentation charge: PSQ
     Using radial grid of 1247 points,  6 beta functions with:
                l(1) =   0
                l(2) =   0
                l(3) =   1
                l(4) =   1
                l(5) =   2
                l(6) =   2
     Q(r) pseudized with 0 coefficients

     atomic species   valence    mass     pseudopotential
        Pb            14.00   207.20000     Pb( 1.00)
        I             17.00   126.90447     I ( 1.00)

     No symmetry found

                                    s                        frac. trans.

      isym =  1     identity

 cryst.   s( 1) = (     1          0          0      )
                  (     0          1          0      )
                  (     0          0          1      )

 cart.    s( 1) = (  1.0000000  0.0000000  0.0000000 )
                  (  0.0000000  1.0000000  0.0000000 )
                  (  0.0000000  0.0000000  1.0000000 )

     point group C_1 (1)
     there are  1 classes
     the character table:

       E
A      1.00

     the symmetry operations in each class and the name of the first element:

     E        1
          identity

   Cartesian axes

     site n.     atom                  positions (alat units)
         1           Pb  tau(   1) = (   0.2500170   0.4329745   1.5659650  )
         2           Pb  tau(   2) = (   0.2500068   0.4329836   0.7829793  )
         3           Pb  tau(   3) = (   0.0000153   0.8659852   1.5659567  )
         4           Pb  tau(   4) = (   0.0000051   0.8659943   0.7829710  )
         5           Pb  tau(   5) = (   0.7500170   0.4329726   1.5659715  )
         6           Pb  tau(   6) = (   0.7500068   0.4329816   0.7829858  )
         7           Pb  tau(   7) = (   0.5000153   0.8659833   1.5659633  )
         8           Pb  tau(   8) = (   0.5000051   0.8659923   0.7829776  )
         9           I   tau(   9) = (   0.2500209   0.1443009   1.3648506  )
        10           I   tau(  10) = (   0.0000091   0.5773207   0.5818567  )
        11           I   tau(  11) = (   0.0000193   0.5773116   1.3648424  )
        12           I   tau(  12) = (   0.7500107   0.1443080   0.5818714  )
        13           I   tau(  13) = (   0.7500209   0.1442990   1.3648571  )
        14           I   tau(  14) = (   0.5000091   0.5773187   0.5818632  )
        15           I   tau(  15) = (   0.5000193   0.5773097   1.3648489  )
        16           I   tau(  16) = (  -0.0000034   0.2886595   0.2011110  )
        17           I   tau(  17) = (   0.0000068   0.2886504   0.9840967  )
        18           I   tau(  18) = (  -0.2500051   0.7216702   0.2011027  )
        19           I   tau(  19) = (  -0.2499949   0.7216611   0.9840884  )
        20           I   tau(  20) = (   0.4999966   0.2886575   0.2011175  )
        21           I   tau(  21) = (   0.5000068   0.2886485   0.9841032  )
        22           I   tau(  22) = (   0.2499949   0.7216682   0.2011092  )
        23           I   tau(  23) = (   0.2500051   0.7216592   0.9840949  )
        24           Pb  tau(  24) = (   0.2500107   0.1443099   0.5818649  )

   Crystallographic axes

     site n.     atom                  positions (cryst. coord.)
         1           Pb  tau(   1) = (  0.4999949  0.4999559  0.9999959  )
         2           Pb  tau(   2) = (  0.4999900  0.4999663  0.4999959  )
         3           Pb  tau(   3) = (  0.4999921  0.9999536  0.9999906  )
         4           Pb  tau(   4) = (  0.4999871  0.9999640  0.4999906  )
         5           Pb  tau(   5) = (  0.9999938  0.4999537  1.0000001  )
         6           Pb  tau(   6) = (  0.9999888  0.4999641  0.5000001  )
         7           Pb  tau(   7) = (  0.9999910  0.9999514  0.9999948  )
         8           Pb  tau(   8) = (  0.9999860  0.9999618  0.4999948  )
         9           I   tau(   9) = (  0.3333331  0.1666243  0.8715680  )
        10           I   tau(  10) = (  0.3333253  0.6666325  0.3715628  )
        11           I   tau(  11) = (  0.3333303  0.6666220  0.8715628  )
        12           I   tau(  12) = (  0.8333270  0.1666326  0.3715722  )
        13           I   tau(  13) = (  0.8333320  0.1666221  0.8715722  )
        14           I   tau(  14) = (  0.8333242  0.6666303  0.3715669  )
        15           I   tau(  15) = (  0.8333292  0.6666198  0.8715669  )
        16           I   tau(  16) = (  0.1666542  0.3333152  0.1284257  )
        17           I   tau(  17) = (  0.1666592  0.3333048  0.6284257  )
        18           I   tau(  18) = (  0.1666514  0.8333129  0.1284204  )
        19           I   tau(  19) = (  0.1666564  0.8333025  0.6284204  )
        20           I   tau(  20) = (  0.6666531  0.3333130  0.1284299  )
        21           I   tau(  21) = (  0.6666581  0.3333026  0.6284299  )
        22           I   tau(  22) = (  0.6666503  0.8333107  0.1284246  )
        23           I   tau(  23) = (  0.6666553  0.8333003  0.6284246  )
        24           Pb  tau(  24) = (  0.3333281  0.1666348  0.3715680  )

     number of k points=     4  Gaussian smearing, width (Ry)=  0.0100
                       cart. coord. in units 2pi/alat
        k(    1) = (   0.0000000   0.0000000   0.0000000), wk =   0.5000000
        k(    2) = (   0.0000000  -0.5773503   0.0000000), wk =   0.5000000
        k(    3) = (   0.5000000  -0.2886751   0.0000000), wk =   0.5000000
        k(    4) = (  -0.5000000  -0.2886751   0.0000000), wk =   0.5000000

                       cryst. coord.
        k(    1) = (   0.0000000   0.0000000   0.0000000), wk =   0.5000000
        k(    2) = (   0.0000000  -0.5000000   0.0000000), wk =   0.5000000
        k(    3) = (   0.5000000  -0.5000000   0.0000000), wk =   0.5000000
        k(    4) = (  -0.5000000  -0.0000000   0.0000000), wk =   0.5000000

     Atomic positions and unit cell read from directory:
     ./PbI2.save/
     Atomic positions from file used, from input discarded

     Check: negative core charge=   -0.000001

     The initial density is read from file :
     ./PbI2.save/charge-density

     starting charge     379.0000, renormalised to     378.0000

     %%%%%%%%%%%%%%%%%%%%%%%%%%%%%%%%%%%%%%%%%%%%%%%%%%%%%%%%%%%%%%%%%%%%%%%%
     %                                                                      %
     % You are using vdW-DF, which was implemented by the Thonhauser group. %
     % Please cite the following two papers that made this development      %
     % possible and the two reviews that describe the various versions:     %
     %                                                                      %
     %   T. Thonhauser et al., PRL 115, 136402 (2015).                      %
     %   T. Thonhauser et al., PRB 76, 125112 (2007).                       %
     %   K. Berland et al., Rep. Prog. Phys. 78, 066501 (2015).             %
     %   D.C. Langreth et al., J. Phys.: Condens. Matter 21, 084203 (2009). %
     %                                                                      %
     % If you are calculating stress with vdW-DF, please also cite:         %
     %                                                                      %
     %   R. Sabatini et al., J. Phys.: Condens. Matter 24, 424209 (2012).   %
     %                                                                      %
     %%%%%%%%%%%%%%%%%%%%%%%%%%%%%%%%%%%%%%%%%%%%%%%%%%%%%%%%%%%%%%%%%%%%%%%%

     %%%%%%%%%%%%%%%%%%%%%%%%%%%%%%%%%%%%%%%%%%%%%%%%%%%%%%%%%%%%%%%%%%%%%%%%
     %                                                                      %
     %  vdW-DF NEWS:                                                        %
     %                                                                      %
     %  * vdW-DF3 is now available. DOI: 10.1021/acs.jctc.0c00471           %
[...]
     atom   19 type  2   force =     0.00000055   -0.00047108   -0.00020689
     atom   20 type  2   force =    -0.00032679   -0.00018954    0.00052181
     atom   21 type  2   force =     0.00040868    0.00023571   -0.00020714
     atom   22 type  2   force =    -0.00000000   -0.00000011   -0.00054265
     atom   23 type  2   force =    -0.00000351    0.00000172   -0.00032874
     atom   24 type  1   force =     0.00000190   -0.00000079   -0.00055140
     The non-local contrib.  to forces
     atom    1 type  1   force =    -0.00000576    0.02052565   -0.03072640
     atom    2 type  1   force =    -0.00001213    0.07819240    0.08206089
     atom    3 type  1   force =     0.01778396   -0.01025189   -0.03067508
     atom    4 type  1   force =     0.06774543   -0.03908654    0.08210470
     atom    5 type  1   force =    -0.00000133    0.00000471   -0.21742121
     atom    6 type  1   force =    -0.00000977    0.00002839   -0.00763226
     atom    7 type  1   force =    -0.01778658   -0.01024736   -0.03068636
     atom    8 type  1   force =    -0.06774755   -0.03907241    0.08208466
     atom    9 type  2   force =     0.00000173   -0.00001313    0.26672309
     atom   10 type  2   force =    -0.00568636   -0.00329240    0.23863744
     atom   11 type  2   force =    -0.03203744   -0.01848319    0.29102462
     atom   12 type  2   force =     0.00000223    0.00656233    0.23864389
     atom   13 type  2   force =    -0.00000082    0.03698036    0.29102674
     atom   14 type  2   force =     0.00569319   -0.00329434    0.23863622
     atom   15 type  2   force =     0.03203939   -0.01848513    0.29102397
     atom   16 type  2   force =     0.20631021   -0.11909525   -0.09662539
     atom   17 type  2   force =     0.00405899   -0.00235653   -0.23898391
     atom   18 type  2   force =    -0.00000584    0.23821334   -0.09662034
     atom   19 type  2   force =     0.00000285    0.00468629   -0.23898009
     atom   20 type  2   force =    -0.20630876   -0.11908744   -0.09663127
     atom   21 type  2   force =    -0.00405489   -0.00235673   -0.23898369
     atom   22 type  2   force =     0.00000248   -0.00001584   -0.27137704
     atom   23 type  2   force =     0.00000771   -0.00000170   -0.33516021
     atom   24 type  1   force =    -0.00000261   -0.00000233   -0.29008222
     The ionic contribution  to forces
     atom    1 type  1   force =     0.00034776    0.63311252    0.63242255
     atom    2 type  1   force =     0.00040734   -7.36847632   -5.53867533
     atom    3 type  1   force =     0.54685213   -0.31687876    0.62815585
     atom    4 type  1   force =    -6.38235524    3.68413281   -5.53953941
     atom    5 type  1   force =    -0.00014641    0.00071335    5.20557547
     atom    6 type  1   force =     0.00009332   -0.00060874   -3.09362837
     atom    7 type  1   force =    -0.54688485   -0.31728020    0.62881780
     atom    8 type  1   force =     6.38230939    3.68360024   -5.53861399
     atom    9 type  2   force =     0.00029955   -0.00113347  -14.75837439
     atom   10 type  2   force =    -0.86668804   -0.50058230  -13.47213829
     atom   11 type  2   force =     0.77172753    0.44659142  -13.14435941
     atom   12 type  2   force =    -0.00027050    1.00164473  -13.47165471
     atom   13 type  2   force =    -0.00019063   -0.89159082  -13.14453704
     atom   14 type  2   force =     0.86649202   -0.50077412  -13.47227826
     atom   15 type  2   force =    -0.77186038    0.44644312  -13.14441531
     atom   16 type  2   force =    -8.07561477    4.66393078   13.10434336
     atom   17 type  2   force =     1.77515372   -1.02461955    7.05045390
     atom   18 type  2   force =    -0.00010232   -9.32618661   13.10364704
     atom   19 type  2   force =    -0.00009470    2.04993464    7.05164283
     atom   20 type  2   force =     8.07546545    4.66396369   13.10476319
     atom   21 type  2   force =    -1.77534122   -1.02463994    7.05064308
     atom   22 type  2   force =     0.00026128   -0.00165948   17.55382019
     atom   23 type  2   force =    -0.00016762   -0.00043400   11.06154804
     atom   24 type  1   force =     0.00030719    0.00079702   18.14238122
     The local contribution  to forces
     atom    1 type  1   force =    -0.00034256   -0.65360254   -0.60244870
     atom    2 type  1   force =    -0.00039524    7.29128996    5.45898721
     atom    3 type  1   force =    -0.56460368    0.32711224   -0.59823254
     atom    4 type  1   force =     6.31548662   -3.64555260    5.45981020
     atom    5 type  1   force =     0.00014903   -0.00072014   -4.99191374
     atom    6 type  1   force =    -0.00008268    0.00057807    3.10217388
     atom    7 type  1   force =     0.56463911    0.32750973   -0.59888385
     atom    8 type  1   force =    -6.31543460   -3.64503181    5.45890180
     atom    9 type  2   force =    -0.00030102    0.00114386   14.49736645
     atom   10 type  2   force =     0.87262742    0.50402178   13.23842681
     atom   11 type  2   force =    -0.74011179   -0.42835085   12.85906339
     atom   12 type  2   force =     0.00026738   -1.00849752   13.23793681
     atom   13 type  2   force =     0.00019188    0.85509847   12.85924128
     atom   14 type  2   force =    -0.87243925    0.50421485   13.23856773
     atom   15 type  2   force =     0.74024188   -0.42819965   12.85911901
     atom   16 type  2   force =     7.87415831   -4.54763552  -13.00936078
     atom   17 type  2   force =    -1.77950073    1.02714123   -6.81668377
     atom   18 type  2   force =     0.00010768    9.09357801  -13.00867070
     atom   19 type  2   force =     0.00009291   -2.05495049   -6.81787603
     atom   20 type  2   force =    -7.87401291   -4.54767677  -13.00977322
     atom   21 type  2   force =     1.77968375    1.02716017   -6.81687294
     atom   22 type  2   force =    -0.00026317    0.00167263  -17.28870517
     atom   23 type  2   force =     0.00015742    0.00043536  -10.73411893
     atom   24 type  1   force =    -0.00030230   -0.00079599  -17.85935309
     The core correction contribution to forces
     atom    1 type  1   force =     0.00000014   -0.00028757    0.00051238
     atom    2 type  1   force =     0.00000016   -0.00167314   -0.00192630
     atom    3 type  1   force =    -0.00024918    0.00014348    0.00051142
     atom    4 type  1   force =    -0.00145039    0.00083702   -0.00192756
     atom    5 type  1   force =    -0.00000007    0.00000009    0.00448483
     atom    6 type  1   force =     0.00000003   -0.00000018    0.00003218
     atom    7 type  1   force =     0.00024926    0.00014336    0.00051165
     atom    8 type  1   force =     0.00144978    0.00083646   -0.00192684
     atom    9 type  2   force =    -0.00000052    0.00000203   -0.00584261
     atom   10 type  2   force =     0.00012405    0.00006908   -0.00513081
     atom   11 type  2   force =     0.00070142    0.00040118   -0.00629112
     atom   12 type  2   force =     0.00000110   -0.00014274   -0.00513147
     atom   13 type  2   force =     0.00000064   -0.00080805   -0.00629215
     atom   14 type  2   force =    -0.00012313    0.00006980   -0.00513088
     atom   15 type  2   force =    -0.00070111    0.00040176   -0.00629112
     atom   16 type  2   force =    -0.00454562    0.00262058    0.00215711
     atom   17 type  2   force =    -0.00012033    0.00007033    0.00496001
     atom   18 type  2   force =     0.00000096   -0.00524605    0.00215710
     atom   19 type  2   force =    -0.00000047   -0.00014165    0.00495963
     atom   20 type  2   force =     0.00454594    0.00261965    0.00215724
     atom   21 type  2   force =     0.00012082    0.00007112    0.00495981
     atom   22 type  2   force =    -0.00000052    0.00000209    0.00569727
     atom   23 type  2   force =    -0.00000061    0.00000162    0.00738318
     atom   24 type  1   force =    -0.00000010    0.00000017    0.00648065
     The Hubbard contrib.    to forces
     atom    1 type  1   force =     0.00000000    0.00000000    0.00000000
     atom    2 type  1   force =     0.00000000    0.00000000    0.00000000
     atom    3 type  1   force =     0.00000000    0.00000000    0.00000000
     atom    4 type  1   force =     0.00000000    0.00000000    0.00000000
     atom    5 type  1   force =     0.00000000    0.00000000    0.00000000
     atom    6 type  1   force =     0.00000000    0.00000000    0.00000000
     atom    7 type  1   force =     0.00000000    0.00000000    0.00000000
     atom    8 type  1   force =     0.00000000    0.00000000    0.00000000
     atom    9 type  2   force =     0.00000000    0.00000000    0.00000000
     atom   10 type  2   force =     0.00000000    0.00000000    0.00000000
     atom   11 type  2   force =     0.00000000    0.00000000    0.00000000
     atom   12 type  2   force =     0.00000000    0.00000000    0.00000000
     atom   13 type  2   force =     0.00000000    0.00000000    0.00000000
     atom   14 type  2   force =     0.00000000    0.00000000    0.00000000
     atom   15 type  2   force =     0.00000000    0.00000000    0.00000000
     atom   16 type  2   force =     0.00000000    0.00000000    0.00000000
     atom   17 type  2   force =     0.00000000    0.00000000    0.00000000
     atom   18 type  2   force =     0.00000000    0.00000000    0.00000000
     atom   19 type  2   force =     0.00000000    0.00000000    0.00000000
     atom   20 type  2   force =     0.00000000    0.00000000    0.00000000
     atom   21 type  2   force =     0.00000000    0.00000000    0.00000000
     atom   22 type  2   force =     0.00000000    0.00000000    0.00000000
     atom   23 type  2   force =     0.00000000    0.00000000    0.00000000
     atom   24 type  1   force =     0.00000000    0.00000000    0.00000000
     The SCF correction term to forces
     atom    1 type  1   force =     0.00000040   -0.00000980    0.00000853
     atom    2 type  1   force =     0.00000002    0.00001444   -0.00000400
     atom    3 type  1   force =    -0.00000852    0.00000502    0.00000869
     atom    4 type  1   force =     0.00001258   -0.00000730   -0.00000396
     atom    5 type  1   force =    -0.00000034    0.00000021   -0.00001312
     atom    6 type  1   force =     0.00000008    0.00000016    0.00001115
     atom    7 type  1   force =     0.00000856    0.00000470    0.00000895
     atom    8 type  1   force =    -0.00001236   -0.00000713   -0.00000420
     atom    9 type  2   force =     0.00000030    0.00000039    0.00003264
     atom   10 type  2   force =     0.00002597    0.00001499   -0.00000003
     atom   11 type  2   force =    -0.00000536   -0.00000285    0.00001782
     atom   12 type  2   force =    -0.00000000   -0.00002983    0.00000144
     atom   13 type  2   force =    -0.00000062    0.00000626    0.00001800
     atom   14 type  2   force =    -0.00002585    0.00001521    0.00000043
     atom   15 type  2   force =     0.00000552   -0.00000369    0.00001776
     atom   16 type  2   force =     0.00001679   -0.00000950   -0.00002852
     atom   17 type  2   force =    -0.00000080    0.00000030    0.00001167
     atom   18 type  2   force =    -0.00000018    0.00001878   -0.00002853
     atom   19 type  2   force =     0.00000014   -0.00000051    0.00001193
     atom   20 type  2   force =    -0.00001633   -0.00000931   -0.00002897
     atom   21 type  2   force =     0.00000040    0.00000045    0.00001175
     atom   22 type  2   force =     0.00000009   -0.00000016   -0.00001274
     atom   23 type  2   force =    -0.00000025   -0.00000021   -0.00001567
     atom   24 type  1   force =    -0.00000009   -0.00000031   -0.00001281

     Total force =     0.002893     Total SCF correction =     0.000104

     Computing stress (Cartesian axis) and pressure

     Non-local corr. energy    =      11.20942637 Ry

          total   stress  (Ry/bohr**3)                   (kbar)     P=      -40.37
  -0.00027434   0.00000000   0.00000000          -40.36        0.00        0.00
   0.00000000  -0.00027433  -0.00000000            0.00      -40.36       -0.00
   0.00000000  -0.00000000  -0.00027464            0.00       -0.00      -40.40

     kinetic stress (kbar)  15265.18      0.00      0.00
                                0.00  15265.18     -0.00
                                0.00     -0.00  15277.55

     local   stress (kbar)  -7049.71      0.04      0.05
                                0.04  -7049.49      0.02
                                0.05      0.02    480.63

     nonloc. stress (kbar)  -1523.14      0.00      0.00
                                0.00  -1523.14     -0.00
                                0.00     -0.00  -1527.53

     hartree stress (kbar)  11592.83     -0.01     -0.02
                               -0.01  11592.74     -0.01
                               -0.02     -0.01   8210.89

     exc-cor stress (kbar)   6811.19     -0.00      0.00
                               -0.00   6811.19      0.00
                                0.00      0.00   6809.83

     corecor stress (kbar) -11102.81      0.00     -0.00
                                0.00 -11102.81      0.00
                               -0.00      0.00 -11102.69

     ewald   stress (kbar) -14114.94     -0.02     -0.03
                               -0.02 -14115.08     -0.00
                               -0.03     -0.00 -18271.35

     hubbard stress (kbar)      0.00      0.00      0.00
                                0.00      0.00      0.00
                                0.00      0.00      0.00

     DFT-D   stress (kbar)      0.00      0.00      0.00
                                0.00      0.00      0.00
                                0.00      0.00      0.00

     XDM     stress (kbar)      0.00      0.00      0.00
                                0.00      0.00      0.00
                                0.00      0.00      0.00

     dft-nl  stress (kbar)     81.04      0.00      0.00
                                0.00     81.04     -0.00
                                0.00     -0.00     82.27

     TS-vdW  stress (kbar)      0.00      0.00      0.00
                                0.00      0.00      0.00
                                0.00      0.00      0.00

     MDB     stress (kbar)      0.00      0.00      0.00
                                0.00      0.00      0.00
                                0.00      0.00      0.00

     3D-RISM stress (kbar)      0.00      0.00      0.00
                                0.00      0.00      0.00
                                0.00      0.00      0.00

     Energy error            =      4.2E-05 Ry
     Gradient error          =      9.9E-04 Ry/Bohr

     bfgs converged in  28 scf cycles and  27 bfgs steps
     (criteria: energy <  1.0E-04 Ry, force <  1.0E-03 Ry/Bohr)

     End of BFGS Geometry Optimization

     Final energy             =  -16522.7185264358 Ry

     File ./PbI2.bfgs deleted, as requested
Begin final coordinates

ATOMIC_POSITIONS (angstrom)
Pb            2.3557088608        4.1234908351       14.7058281759
Pb            2.3557327177        4.2518622345        7.6506830993
Pb            0.0378744525        8.1380187183       14.7056301366
Pb            0.1489258906        8.0739849804        7.6506616212
Pb            7.0669651520        4.0797394087       14.4853928211
Pb            7.0670082348        4.0798285943        7.4239134057
Pb            4.6735200979        8.1380062841       14.7056536328
Pb            4.5624786942        8.0739496650        7.6507283112
I             2.3556791291        1.3598611177       12.9322943891
I             0.0490183418        5.4680410906        5.6109892343
I            -0.0531884069        5.4089349766       12.8631288427
I             7.0670541642        1.3032139698        5.6110340576
I             7.0669887541        1.4212548188       12.8630429956
I             4.6625117148        5.4680610560        5.6109960064
I             4.7646094290        5.4089477079       12.8631235129
I             0.0731827296        2.6774074304        2.0679085168
I             0.0262585363        2.7047279886        9.3285131064
I            -2.3555428542        6.8842758191        2.0678697627
I            -2.3555250537        6.8299039671        9.3285695363
I             4.6382352370        2.6773855025        2.0679219151
I             4.6852583012        2.7047468213        9.3285056097
I             2.3556781594        6.7999740735        1.8627236539
I             2.3556866782        6.7999863394        9.5558509909
Pb            2.3556768161        1.3596740433        3.6335690178
End final coordinates

     Writing all to output data dir ./PbI2.save/

     General routines

     Parallel routines

     PAW routines

   This run was terminated on:  13:39: 6  28Mar2024

   JOB DONE.