     Program PWSCF v.7.1 starts on 10Apr2024 at 17: 2:58

     Reading input from espresso.pwi
Warning: card &CELL ignored
Warning: card    CELL_DYNAMICS    = 'BFGS' ignored
Warning: card / ignored

     Current dimensions of program PWSCF are:
     Max number of different atomic species (ntypx) = 10
     Max number of k-points (npk) =  40000
     Max angular momentum in pseudopotentials (lmaxx) =  4
     file Ga.pbe-dn-kjpaw_psl.1.0.0.UPF: wavefunction(s)  4S renormalized
     file N.pbe-n-kjpaw_psl.1.0.0.UPF: wavefunction(s)  2S renormalized

     IMPORTANT: XC functional enforced from input :
     Exchange-correlation= BEEF-VDW
                           (   1   4  43  14   2   0   0)
     Any further DFT definition will be discarded
     Please, verify this is what you really want

     K-points division:     npool     =       2
     R & G space division:  proc/nbgrp/npool/nimage =      64
     Subspace diagonalization in iterative solution of the eigenvalue problem:
     a serial algorithm will be used

     Using Slab Decomposition

     bravais-lattice index     =            4
     lattice parameter (alat)  =      24.5252  a.u.
     unit-cell volume          =   15616.6055 (a.u.)^3
     number of atoms/cell      =          192
     number of atomic types    =            2
     number of electrons       =      1737.00
     number of Kohn-Sham states=         1043
     kinetic-energy cutoff     =      70.0000  Ry
     charge density cutoff     =     350.0000  Ry
     scf convergence threshold =      1.0E-07
     mixing beta               =       0.7000
     number of iterations used =            8  plain     mixing
     energy convergence thresh.=      1.0E-04
     force convergence thresh. =      1.0E-03
     Exchange-correlation= BEEF-VDW
                           (   1   4  43  14   2   0   0)
     nstep                     =           50

     celldm(1)=  24.525232  celldm(2)=   0.000000  celldm(3)=   1.222409
     celldm(4)=   0.000000  celldm(5)=   0.000000  celldm(6)=   0.000000

     crystal axes: (cart. coord. in units of alat)
               a(1) = (   1.000000   0.000000   0.000000 )
               a(2) = (  -0.500000   0.866025   0.000000 )
               a(3) = (   0.000000   0.000000   1.222409 )

     reciprocal axes: (cart. coord. in units 2 pi/alat)
               b(1) = (  1.000000  0.577350 -0.000000 )
               b(2) = (  0.000000  1.154701  0.000000 )
               b(3) = (  0.000000 -0.000000  0.818057 )

     PseudoPot. # 1 for Ga read from file:
     //group///packages/espresso/pseudo/psl_1.0.0/pslibrary.1.0.0/pbe/PSEUDOPOTENTIALS/Ga.pbe-dn-kjpaw_psl.1.0.0.UPF
     MD5 check sum: cd2a01e492f15b435d17032472d8505c
     Pseudo is Projector augmented-wave + core cor, Zval = 13.0
     Generated using 'atomic' code by A. Dal Corso  v.7.1
     Shape of augmentation charge: PSQ
     Using radial grid of 1205 points,  6 beta functions with:
                l(1) =   0
                l(2) =   0
                l(3) =   1
                l(4) =   1
                l(5) =   2
                l(6) =   2
     Q(r) pseudized with 0 coefficients

     PseudoPot. # 2 for N  read from file:
     //group///packages/espresso/pseudo/psl_1.0.0/pslibrary.1.0.0/pbe/PSEUDOPOTENTIALS/N.pbe-n-kjpaw_psl.1.0.0.UPF
     MD5 check sum: f77f775694dac7e2c3fe1c82443d1a16
     Pseudo is Projector augmented-wave + core cor, Zval =  5.0
     Generated using 'atomic' code by A. Dal Corso  v.7.1
     Shape of augmentation charge: PSQ
     Using radial grid of 1085 points,  4 beta functions with:
                l(1) =   0
                l(2) =   0
                l(3) =   1
                l(4) =   1
     Q(r) pseudized with 0 coefficients

     atomic species   valence    mass     pseudopotential
        Ga            13.00    69.72300     Ga( 1.00)
        N              5.00    14.00700     N ( 1.00)

      6 Sym. Ops. (no inversion) found ( 4 have fractional translation)

                                    s                        frac. trans.

      isym =  1     identity

 cryst.   s( 1) = (     1          0          0      )
                  (     0          1          0      )
                  (     0          0          1      )

 cart.    s( 1) = (  1.0000000  0.0000000  0.0000000 )
                  (  0.0000000  1.0000000  0.0000000 )
                  (  0.0000000  0.0000000  1.0000000 )

      isym =  2     120 deg rotation - cryst. axis [0,0,1]

 cryst.   s( 2) = (     0          1          0      )    f =( -0.2500000 )
                  (    -1         -1          0      )       (  0.0000002 )
                  (     0          0          1      )       (  0.0000000 )

 cart.    s( 2) = ( -0.5000000 -0.8660254  0.0000000 )    f =( -0.2500001 )
                  (  0.8660254 -0.5000000  0.0000000 )       (  0.0000002 )
                  (  0.0000000  0.0000000  1.0000000 )       (  0.0000000 )

      isym =  3     120 deg rotation - cryst. axis [0,0,-1]

[...]

      isym =  4     inv. 180 deg rotation - cart. axis [1,0,0]

[...]

      isym =  5     inv. 180 deg rotation - cryst. axis [0,1,0]

 cryst.   s( 5) = (     1          1          0      )
                  (     0         -1          0      )
                  (     0          0          1      )

 cart.    s( 5) = (  0.5000000  0.8660254  0.0000000 )
                  (  0.8660254 -0.5000000  0.0000000 )
                  (  0.0000000  0.0000000  1.0000000 )

      isym =  6     inv. 180 deg rotation - cryst. axis [1,1,0]

 cryst.   s( 6) = (     0         -1          0      )    f =( -0.2500000 )
                  (    -1          0          0      )       ( -0.2500000 )
                  (     0          0          1      )       (  0.0000000 )

 cart.    s( 6) = (  0.5000000 -0.8660254  0.0000000 )    f =( -0.1250000 )
                  ( -0.8660254 -0.5000000  0.0000000 )       ( -0.2165064 )
                  (  0.0000000  0.0000000  1.0000000 )       (  0.0000000 )

     point group C_3v (3m)
     there are  3 classes
     the character table:

       E     2C3   3s_v
A_1    1.00  1.00  1.00
A_2    1.00  1.00 -1.00
E      2.00 -1.00  0.00

     the symmetry operations in each class and the name of the first element:

     E        1
          identity
     2C3      2    3
          120 deg rotation - cryst. axis [0,0,1]
     3s_v     4    5    6
          inv. 180 deg rotation - cart. axis [1,0,0]

   Cartesian axes

     site n.     atom                  positions (alat units)
         1           Ga  tau(   1) = (   0.1250001   0.0721687   0.2033935  )
         2           Ga  tau(   2) = (   0.1250001   0.0721687   0.6108633  )
         3           Ga  tau(   3) = (   0.1250001   0.0721687   1.0183331  )
         4           Ga  tau(   4) = (   0.0000001   0.2886751   0.2033935  )
         5           Ga  tau(   5) = (   0.0000001   0.2886751   0.6108633  )
         6           Ga  tau(   6) = (   0.0000001   0.2886751   1.0183331  )
         7           Ga  tau(   7) = (  -0.1249999   0.5051814   0.2033935  )
         8           Ga  tau(   8) = (  -0.1249999   0.5051814   0.6108633  )
         9           Ga  tau(   9) = (  -0.1249999   0.5051814   1.0183331  )
        10           Ga  tau(  10) = (  -0.2499999   0.7216878   0.2033935  )
        11           Ga  tau(  11) = (  -0.2499999   0.7216878   0.6108633  )
        12           Ga  tau(  12) = (  -0.2499999   0.7216878   1.0183331  )
        13           Ga  tau(  13) = (   0.3750001   0.0721687   0.2033935  )
        14           Ga  tau(  14) = (   0.3750001   0.0721687   0.6108633  )
        15           Ga  tau(  15) = (   0.3750001   0.0721687   1.0183331  )
        16           Ga  tau(  16) = (   0.2500001   0.2886751   0.2033935  )
        17           Ga  tau(  17) = (   0.2500001   0.2886751   0.6108633  )
        18           Ga  tau(  18) = (   0.2500001   0.2886751   1.0183331  )
        19           Ga  tau(  19) = (   0.1250001   0.5051814   0.2033935  )
        20           Ga  tau(  20) = (   0.1250001   0.5051814   0.6108633  )
        21           Ga  tau(  21) = (   0.1250001   0.5051814   1.0183331  )
        22           Ga  tau(  22) = (   0.0000001   0.7216878   0.2033935  )
        23           Ga  tau(  23) = (   0.0000001   0.7216878   0.6108633  )
        24           Ga  tau(  24) = (   0.0000001   0.7216878   1.0183331  )
        25           Ga  tau(  25) = (   0.6250001   0.0721687   0.2033935  )
        26           Ga  tau(  26) = (   0.6250001   0.0721687   0.6108633  )
        27           Ga  tau(  27) = (   0.6250001   0.0721687   1.0183331  )
        28           Ga  tau(  28) = (   0.5000001   0.2886751   0.2033935  )
        29           Ga  tau(  29) = (   0.5000001   0.2886751   0.6108633  )
        30           Ga  tau(  30) = (   0.5000001   0.2886751   1.0183331  )
        31           Ga  tau(  31) = (   0.3750001   0.5051814   0.2033935  )
        32           Ga  tau(  32) = (   0.3750001   0.5051814   0.6108633  )
        33           Ga  tau(  33) = (   0.3750001   0.5051814   1.0183331  )
        34           Ga  tau(  34) = (   0.2500001   0.7216878   0.2033935  )
        35           Ga  tau(  35) = (   0.2500001   0.7216878   0.6108633  )
        36           Ga  tau(  36) = (   0.2500001   0.7216878   1.0183331  )
        37           Ga  tau(  37) = (   0.8750001   0.0721687   0.2033935  )
        38           Ga  tau(  38) = (   0.8750001   0.0721687   0.6108633  )
        39           Ga  tau(  39) = (   0.8750001   0.0721687   1.0183331  )
        40           Ga  tau(  40) = (   0.7500001   0.2886751   0.2033935  )
        41           Ga  tau(  41) = (   0.7500001   0.2886751   0.6108633  )
        42           Ga  tau(  42) = (   0.7500001   0.2886751   1.0183331  )
        43           Ga  tau(  43) = (   0.6250001   0.5051814   0.2033935  )
        44           Ga  tau(  44) = (   0.6250001   0.5051814   0.6108633  )
        45           Ga  tau(  45) = (   0.6250001   0.5051814   1.0183331  )
        46           Ga  tau(  46) = (   0.5000001   0.7216878   0.2033935  )
        47           Ga  tau(  47) = (   0.5000001   0.7216878   0.6108633  )
        48           Ga  tau(  48) = (   0.5000001   0.7216878   1.0183331  )
        49           Ga  tau(  49) = (  -0.0000002   0.1443377   0.4071284  )
        50           Ga  tau(  50) = (  -0.0000002   0.1443377   0.8145982  )
        51           Ga  tau(  51) = (  -0.0000002   0.1443377   1.2220680  )
        52           Ga  tau(  52) = (  -0.1250002   0.3608440   0.4071284  )
        53           Ga  tau(  53) = (  -0.1250002   0.3608440   0.8145982  )
        54           Ga  tau(  54) = (  -0.1250002   0.3608440   1.2220680  )
        55           Ga  tau(  55) = (  -0.2500002   0.5773504   0.4071284  )
        56           Ga  tau(  56) = (  -0.2500002   0.5773504   0.8145982  )
        57           Ga  tau(  57) = (  -0.2500002   0.5773504   1.2220680  )
        58           Ga  tau(  58) = (  -0.3750001   0.7938567   0.4071284  )
        59           Ga  tau(  59) = (  -0.3750001   0.7938567   0.8145982  )
        60           Ga  tau(  60) = (  -0.3750001   0.7938567   1.2220680  )
[...]
[...]
     atom   44 type  1   force =     0.00000000    0.00000000    0.00000000
     atom   45 type  1   force =     0.00000000    0.00000000    0.00000000
     atom   46 type  1   force =     0.00000000    0.00000000    0.00000000
     atom   47 type  1   force =     0.00000000    0.00000000    0.00000000
     atom   48 type  1   force =     0.00000000    0.00000000    0.00000000
     atom   49 type  1   force =     0.00000000    0.00000000    0.00000000
     atom   50 type  1   force =     0.00000000    0.00000000    0.00000000
     atom   51 type  1   force =     0.00000000    0.00000000    0.00000000
     atom   52 type  1   force =     0.00000000    0.00000000    0.00000000
     atom   53 type  1   force =     0.00000000    0.00000000    0.00000000
     atom   54 type  1   force =     0.00000000    0.00000000    0.00000000
     atom   55 type  1   force =     0.00000000    0.00000000    0.00000000
     atom   56 type  1   force =     0.00000000    0.00000000    0.00000000
     atom   57 type  1   force =     0.00000000    0.00000000    0.00000000
     atom   58 type  1   force =     0.00000000    0.00000000    0.00000000
     atom   59 type  1   force =     0.00000000    0.00000000    0.00000000
     atom   60 type  1   force =     0.00000000    0.00000000    0.00000000
[...]
     atom  178 type  2   force =     0.00000000    0.00000000    0.00000000
     atom  179 type  2   force =     0.00000000    0.00000000    0.00000000
     atom  180 type  2   force =     0.00000000    0.00000000    0.00000000
     atom  181 type  2   force =     0.00000000    0.00000000    0.00000000
     atom  182 type  2   force =     0.00000000    0.00000000    0.00000000
     atom  183 type  2   force =     0.00000000    0.00000000    0.00000000
     atom  184 type  2   force =     0.00000000    0.00000000    0.00000000
     atom  185 type  2   force =     0.00000000    0.00000000    0.00000000
     atom  186 type  2   force =     0.00000000    0.00000000    0.00000000
     atom  187 type  2   force =     0.00000000    0.00000000    0.00000000
     atom  188 type  2   force =     0.00000000    0.00000000    0.00000000
     atom  189 type  2   force =     0.00000000    0.00000000    0.00000000
     atom  190 type  2   force =     0.00000000    0.00000000    0.00000000
     atom  191 type  2   force =     0.00000000    0.00000000    0.00000000
     atom  192 type  1   force =     0.00000000    0.00000000    0.00000000
     The SCF correction term to forces
     atom    1 type  1   force =     0.00000000   -0.00000000    0.00001074
     atom    2 type  1   force =     0.00000000   -0.00000000   -0.00000161
     atom    3 type  1   force =     0.00000000   -0.00000000   -0.00000699
     atom    4 type  1   force =     0.00000058    0.00000277    0.00000558
     atom    5 type  1   force =     0.00000308   -0.00000103   -0.00000195
     atom    6 type  1   force =    -0.00000203    0.00000653   -0.00000398
     atom    7 type  1   force =     0.00000429    0.00000247    0.00000378
     atom    8 type  1   force =     0.00000432    0.00000250   -0.00000250
     atom    9 type  1   force =     0.00000282    0.00000163   -0.00000057
     atom   10 type  1   force =     0.00000269   -0.00000088    0.00000558
     atom   11 type  1   force =     0.00000064    0.00000318   -0.00000195
     atom   12 type  1   force =     0.00000464   -0.00000502   -0.00000398
     atom   13 type  1   force =     0.00000211   -0.00000188    0.00000558
     atom   14 type  1   force =    -0.00000243   -0.00000215   -0.00000195
     atom   15 type  1   force =     0.00000667   -0.00000151   -0.00000398
     atom   16 type  1   force =    -0.00000058    0.00000277    0.00000558
     atom   17 type  1   force =    -0.00000308   -0.00000103   -0.00000195
     atom   18 type  1   force =     0.00000203    0.00000653   -0.00000398
     atom   19 type  1   force =     0.00000000    0.00000244    0.00000411
     atom   20 type  1   force =     0.00000000   -0.00000081   -0.00000391
     atom   21 type  1   force =    -0.00000000    0.00000551   -0.00000082
     atom   22 type  1   force =     0.00000211   -0.00000122    0.00000411
     atom   23 type  1   force =    -0.00000071    0.00000041   -0.00000391
     atom   24 type  1   force =     0.00000477   -0.00000275   -0.00000082
     atom   25 type  1   force =     0.00000000   -0.00000495    0.00000378
     atom   26 type  1   force =     0.00000000   -0.00000499   -0.00000250
     atom   27 type  1   force =    -0.00000000   -0.00000326   -0.00000057
     atom   28 type  1   force =    -0.00000330   -0.00000191    0.00000232
     atom   29 type  1   force =    -0.00000401   -0.00000231   -0.00000154
     atom   30 type  1   force =     0.00000144    0.00000083   -0.00000065
     atom   31 type  1   force =    -0.00000429    0.00000247    0.00000378
     atom   32 type  1   force =    -0.00000432    0.00000250   -0.00000250
     atom   33 type  1   force =    -0.00000282    0.00000163   -0.00000057
     atom   34 type  1   force =    -0.00000211   -0.00000122    0.00000411
     atom   35 type  1   force =     0.00000071    0.00000041   -0.00000391
     atom   36 type  1   force =    -0.00000477   -0.00000275   -0.00000082
     atom   37 type  1   force =    -0.00000211   -0.00000188    0.00000558
     atom   38 type  1   force =     0.00000243   -0.00000215   -0.00000195
     atom   39 type  1   force =    -0.00000667   -0.00000151   -0.00000398
     atom   40 type  1   force =     0.00000330   -0.00000191    0.00000232
     atom   41 type  1   force =     0.00000401   -0.00000231   -0.00000154
     atom   42 type  1   force =    -0.00000144    0.00000083   -0.00000065
     atom   43 type  1   force =     0.00000000    0.00000381    0.00000232
     atom   44 type  1   force =     0.00000000    0.00000463   -0.00000154
     atom   45 type  1   force =     0.00000000   -0.00000166   -0.00000065
     atom   46 type  1   force =    -0.00000269   -0.00000088    0.00000558
     atom   47 type  1   force =    -0.00000064    0.00000318   -0.00000195
     atom   48 type  1   force =    -0.00000464   -0.00000502   -0.00000398
     atom   49 type  1   force =     0.00000419   -0.00000242   -0.00000039
     atom   50 type  1   force =     0.00000088   -0.00000051   -0.00001183
     atom   51 type  1   force =    -0.00000408    0.00000236    0.00000525
     atom   52 type  1   force =     0.00000304    0.00000201    0.00000316
     atom   53 type  1   force =     0.00000296    0.00000084   -0.00000362
     atom   54 type  1   force =     0.00000199    0.00000340    0.00000326
     atom   55 type  1   force =     0.00000327    0.00000163    0.00000316
     atom   56 type  1   force =     0.00000221    0.00000214   -0.00000362
     atom   57 type  1   force =     0.00000394    0.00000003    0.00000326
     atom   58 type  1   force =    -0.00000000    0.00000484   -0.00000039
     atom   59 type  1   force =    -0.00000000    0.00000101   -0.00001183
     atom   60 type  1   force =     0.00000000   -0.00000472    0.00000525
[...]
     atom  178 type  2   force =    -0.00000000   -0.00000094   -0.00000095
     atom  179 type  2   force =     0.00000000   -0.00000172   -0.00000046
     atom  180 type  2   force =    -0.00000013   -0.00000179    0.00000092
     atom  181 type  2   force =     0.00000127   -0.00000206   -0.00000061
     atom  182 type  2   force =    -0.00000098   -0.00000100   -0.00000097
     atom  183 type  2   force =    -0.00000000    0.00000000   -0.00000065
     atom  184 type  2   force =    -0.00000000    0.00000000   -0.00000087
     atom  185 type  2   force =    -0.00000000    0.00000000   -0.00000042
     atom  186 type  2   force =    -0.00000162    0.00000078    0.00000092
     atom  187 type  2   force =    -0.00000115    0.00000213   -0.00000061
     atom  188 type  2   force =    -0.00000136   -0.00000035   -0.00000097
     atom  189 type  2   force =    -0.00000191   -0.00000110    0.00000231
     atom  190 type  2   force =     0.00000002    0.00000001   -0.00000011
     atom  191 type  2   force =    -0.00000254   -0.00000146   -0.00000187
     atom  192 type  1   force =    -0.00000000    0.00000000    0.00000732

     Total force =     0.002989     Total SCF correction =     0.000060

     Computing stress (Cartesian axis) and pressure

     Non-local corr. energy    =      52.68619656 Ry

          total   stress  (Ry/bohr**3)                   (kbar)     P=       27.56
   0.00017232  -0.00000000   0.00000000           25.35       -0.00        0.00
   0.00000000   0.00017232   0.00000000            0.00       25.35        0.00
   0.00000000  -0.00000000   0.00021743            0.00       -0.00       31.98

     kinetic stress (kbar)  18493.55     -0.00      0.00
                                0.00  18493.55     -0.00
                                0.00     -0.00  18499.47

     local   stress (kbar)   5682.84     -0.07     -0.00
                               -0.07   5682.74      0.00
                               -0.00      0.00   3744.33

     nonloc. stress (kbar)     87.13      0.00      0.00
                                0.00     87.13     -0.00
                                0.00     -0.00     93.63

     hartree stress (kbar)  19723.36     -0.00     -0.00
                               -0.00  19723.36      0.00
                               -0.00      0.00  20587.21

     exc-cor stress (kbar)   5289.80      0.00     -0.00
                                0.00   5289.80      0.00
                               -0.00      0.00   5290.80

     corecor stress (kbar) -14244.84     -0.00     -0.00
                               -0.00 -14244.84      0.00
                               -0.00      0.00 -14244.55

     ewald   stress (kbar) -35169.92      0.10      0.00
                                0.10 -35169.80     -0.00
                                0.00     -0.00 -34101.26

     hubbard stress (kbar)      0.00      0.00      0.00
                                0.00      0.00      0.00
                                0.00      0.00      0.00

     DFT-D   stress (kbar)      0.00      0.00      0.00
                                0.00      0.00      0.00
                                0.00      0.00      0.00

     XDM     stress (kbar)      0.00      0.00      0.00
                                0.00      0.00      0.00
                                0.00      0.00      0.00

     dft-nl  stress (kbar)    163.43     -0.00     -0.00
                               -0.00    163.43     -0.00
                               -0.00     -0.00    162.36

     TS-vdW  stress (kbar)      0.00      0.00      0.00
                                0.00      0.00      0.00
                                0.00      0.00      0.00

     MDB     stress (kbar)      0.00      0.00      0.00
                                0.00      0.00      0.00
                                0.00      0.00      0.00

     3D-RISM stress (kbar)      0.00      0.00      0.00
                                0.00      0.00      0.00
                                0.00      0.00      0.00

     Energy error            =      2.9E-05 Ry
     Gradient error          =      7.7E-04 Ry/Bohr

     bfgs converged in   8 scf cycles and   7 bfgs steps
     (criteria: energy <  1.0E-04 Ry, force <  1.0E-03 Ry/Bohr)

     End of BFGS Geometry Optimization

     Final energy             =  -30233.0512437555 Ry

     File ./GaN.bfgs deleted, as requested
Begin final coordinates

ATOMIC_POSITIONS (angstrom)
Ga            1.6222756606        0.9366198184        2.3340250075
Ga            1.6222756606        0.9366198184        7.8774142282
Ga            1.6222756606        0.9366198184       13.1857616934
Ga           -0.0040534341        3.7247739366        2.6294125019
Ga           -0.0075266366        3.7796514118        7.9766110436
Ga           -0.0015012006        3.7572409370       13.1903598284
Ga           -1.6242822220        6.5551823591        2.6332890465
Ga           -1.6204487668        6.5573956056        7.9392826451
Ga           -1.6204824631        6.5573761510       13.2270065890
Ga           -3.2653734250        9.3735458606        2.6294125019
Ga           -3.2195847385        9.3430992414        7.9766110436
Ga           -3.2359800611        9.3595226594       13.1903598284
Ga            4.8500525039        0.9509850703        2.6294125019
Ga            4.8993143928        0.9265542143        7.9766110436
Ga            4.8768936344        0.9325412711       13.1903598284
Ga            3.2486047553        3.7247739366        2.6294125019
Ga            3.2520779578        3.7796514118        7.9766110436
Ga            3.2460525218        3.7572409370       13.1903598284
Ga            1.6222756606        6.5464030331        2.6459959761
Ga            1.6222756606        6.5600553910        7.9241234465
Ga            1.6222756606        6.5613862761       13.2301811902
Ga           -0.0086064001        9.3711736234        2.6459959761
Ga            0.0032168888        9.3643474444        7.9241234465
Ga            0.0043694690        9.3636820018       13.2301811902
Ga            8.1113724947        0.9389401493        2.6332890465
Ga            8.1113724947        0.9345136565        7.9392826451
Ga            8.1113724947        0.9345525656       13.2270065890
Ga            6.4867660488        3.7451346536        2.6352840090
Ga            6.4913652994        3.7477900322        7.9370938694
Ga            6.4920006298        3.7481568403       13.2245088207
Ga            4.8688335432        6.5551823591        2.6332890465
Ga            4.8650000880        6.5573956056        7.9392826451
Ga            4.8650337843        6.5573761510       13.2270065890
Ga            3.2531577213        9.3711736234        2.6459959761
Ga            3.2413344324        9.3643474444        7.9241234465
Ga            3.2401818522        9.3636820018       13.2301811902
Ga           11.3726924856        0.9509850703        2.6294125019
Ga           11.3234305967        0.9265542143        7.9766110436
Ga           11.3458513551        0.9325412711       13.1903598284
Ga            9.7359789407        3.7451346536        2.6352840090
Ga            9.7313796901        3.7477900322        7.9370938694
Ga            9.7307443597        3.7481568403       13.2245088207
Ga            8.1113724947        6.5590355604        2.6352840090
Ga            8.1113724947        6.5537248032        7.9370938694
Ga            8.1113724947        6.5529911869       13.2245088207
Ga            6.5099247462        9.3735458606        2.6294125019
Ga            6.4641360597        9.3430992414        7.9766110436
Ga            6.4805313823        9.3595226594       13.1903598284
Ga           -0.1949404004        1.9857902048        5.4168519975
Ga            0.0021791692        1.8719831682       10.5557357443
Ga           -0.0323864492        1.8919396373       15.7654010800
Ga           -1.6484346956        4.7170595665        5.2908162675
Ga           -1.6304645968        4.6894480212       10.5867915707
Ga           -1.6207615195        4.6838323011       15.8591431749
Ga           -3.2282230863        7.4533333244        5.2908162675
Ga           -3.2431503366        7.4827016591       10.5867915707
Ga           -3.2431621542        7.4939126306       15.8591431749
Ga           -4.8668245904       10.0777309891        5.4168519975
Ga           -4.8668245904       10.3053450623       10.5557357443
Ga           -4.8668245904       10.2654321241       15.7654010800
[...]
N             1.6222722437       10.3045410767        7.2749550484
N             1.6222722437       10.3017648234       12.5693448790
N             9.7293617036        1.8736331802        1.9804190081
N             9.7217782461        1.8758931277        7.2866109539
N             9.7232456796        1.8791621780       12.5671409105
N             8.1113690779        4.6831037996        1.9885205950
N             8.1113690779        4.6831037996        7.2802252091
N             8.1113690779        4.6831037996       12.5685996365
N             6.4872924632        7.4890618264        1.9804190081
N             6.4854579064        7.4813643858        7.2866109539
N             6.4890227037        7.4810006953       12.5671409105
N             4.8744207076       10.3072143947        1.9839217182
N             4.8679638753       10.3034865409        7.2883583907
N             4.8541657337       10.2955201801       12.5633149493
Ga            1.6222756606        0.9366198184        4.5599081775
End final coordinates

     Writing all to output data dir ./GaN.save/

     General routines

     Parallel routines

     PAW routines

   This run was terminated on:   9: 7: 8  11Apr2024

   JOB DONE.