     Program PWSCF v.7.1 starts on 12Apr2024 at  6:55: 8

     Reading input from espresso.pwi
Warning: card &CELL ignored
Warning: card    CELL_DYNAMICS    = 'BFGS' ignored
Warning: card / ignored

     Current dimensions of program PWSCF are:
     Max number of different atomic species (ntypx) = 10
     Max number of k-points (npk) =  40000
     Max angular momentum in pseudopotentials (lmaxx) =  4
     file Ga.pbe-dn-kjpaw_psl.1.0.0.UPF: wavefunction(s)  4S renormalized
     file N.pbe-n-kjpaw_psl.1.0.0.UPF: wavefunction(s)  2S renormalized

     IMPORTANT: XC functional enforced from input :
     Exchange-correlation= BEEF-VDW
                           (   1   4  43  14   2   0   0)
     Any further DFT definition will be discarded
     Please, verify this is what you really want

     K-points division:     npool     =       2
     R & G space division:  proc/nbgrp/npool/nimage =      64
     Subspace diagonalization in iterative solution of the eigenvalue problem:
     a serial algorithm will be used

     Using Slab Decomposition

     bravais-lattice index     =            4
     lattice parameter (alat)  =      24.5252  a.u.
     unit-cell volume          =   15616.6055 (a.u.)^3
     number of atoms/cell      =          192
     number of atomic types    =            2
     number of electrons       =      1737.00
     number of Kohn-Sham states=         1043
     kinetic-energy cutoff     =      70.0000  Ry
     charge density cutoff     =     350.0000  Ry
     scf convergence threshold =      1.0E-07
     mixing beta               =       0.7000
     number of iterations used =            8  plain     mixing
     Exchange-correlation= BEEF-VDW
                           (   1   4  43  14   2   0   0)

     celldm(1)=  24.525232  celldm(2)=   0.000000  celldm(3)=   1.222409
     celldm(4)=   0.000000  celldm(5)=   0.000000  celldm(6)=   0.000000

     crystal axes: (cart. coord. in units of alat)
               a(1) = (   1.000000   0.000000   0.000000 )
               a(2) = (  -0.500000   0.866025   0.000000 )
               a(3) = (   0.000000   0.000000   1.222409 )

     reciprocal axes: (cart. coord. in units 2 pi/alat)
               b(1) = (  1.000000  0.577350 -0.000000 )
               b(2) = (  0.000000  1.154701  0.000000 )
               b(3) = (  0.000000 -0.000000  0.818057 )

     PseudoPot. # 1 for Ga read from file:
     //group///packages/espresso/pseudo/psl_1.0.0/pslibrary.1.0.0/pbe/PSEUDOPOTENTIALS/Ga.pbe-dn-kjpaw_psl.1.0.0.UPF
     MD5 check sum: cd2a01e492f15b435d17032472d8505c
     Pseudo is Projector augmented-wave + core cor, Zval = 13.0
     Generated using 'atomic' code by A. Dal Corso  v.7.1
     Shape of augmentation charge: PSQ
     Using radial grid of 1205 points,  6 beta functions with:
                l(1) =   0
                l(2) =   0
                l(3) =   1
                l(4) =   1
                l(5) =   2
                l(6) =   2
     Q(r) pseudized with 0 coefficients

     PseudoPot. # 2 for N  read from file:
     //group///packages/espresso/pseudo/psl_1.0.0/pslibrary.1.0.0/pbe/PSEUDOPOTENTIALS/N.pbe-n-kjpaw_psl.1.0.0.UPF
     MD5 check sum: f77f775694dac7e2c3fe1c82443d1a16
     Pseudo is Projector augmented-wave + core cor, Zval =  5.0
     Generated using 'atomic' code by A. Dal Corso  v.7.1
     Shape of augmentation charge: PSQ
     Using radial grid of 1085 points,  4 beta functions with:
                l(1) =   0
                l(2) =   0
                l(3) =   1
                l(4) =   1
     Q(r) pseudized with 0 coefficients

     atomic species   valence    mass     pseudopotential
        Ga            13.00    69.72300     Ga( 1.00)
        N              5.00    14.00700     N ( 1.00)

      6 Sym. Ops. (no inversion) found ( 4 have fractional translation)

                                    s                        frac. trans.

      isym =  1     identity

 cryst.   s( 1) = (     1          0          0      )
                  (     0          1          0      )
                  (     0          0          1      )

 cart.    s( 1) = (  1.0000000  0.0000000  0.0000000 )
                  (  0.0000000  1.0000000  0.0000000 )
                  (  0.0000000  0.0000000  1.0000000 )

      isym =  2     120 deg rotation - cryst. axis [0,0,1]

 cryst.   s( 2) = (     0          1          0      )    f =( -0.2500000 )
                  (    -1         -1          0      )       (  0.0000002 )
                  (     0          0          1      )       (  0.0000000 )

 cart.    s( 2) = ( -0.5000000 -0.8660254  0.0000000 )    f =( -0.2500001 )
                  (  0.8660254 -0.5000000  0.0000000 )       (  0.0000002 )
                  (  0.0000000  0.0000000  1.0000000 )       (  0.0000000 )

      isym =  3     120 deg rotation - cryst. axis [0,0,-1]

[...]

      isym =  4     inv. 180 deg rotation - cart. axis [1,0,0]

[...]

      isym =  5     inv. 180 deg rotation - cryst. axis [0,1,0]

 cryst.   s( 5) = (     1          1          0      )
                  (     0         -1          0      )
                  (     0          0          1      )

 cart.    s( 5) = (  0.5000000  0.8660254  0.0000000 )
                  (  0.8660254 -0.5000000  0.0000000 )
                  (  0.0000000  0.0000000  1.0000000 )

      isym =  6     inv. 180 deg rotation - cryst. axis [1,1,0]

 cryst.   s( 6) = (     0         -1          0      )    f =( -0.2500000 )
                  (    -1          0          0      )       ( -0.2500000 )
                  (     0          0          1      )       (  0.0000000 )

 cart.    s( 6) = (  0.5000000 -0.8660254  0.0000000 )    f =( -0.1250000 )
                  ( -0.8660254 -0.5000000  0.0000000 )       ( -0.2165064 )
                  (  0.0000000  0.0000000  1.0000000 )       (  0.0000000 )

     point group C_3v (3m)
     there are  3 classes
     the character table:

       E     2C3   3s_v
A_1    1.00  1.00  1.00
A_2    1.00  1.00 -1.00
E      2.00 -1.00  0.00

     the symmetry operations in each class and the name of the first element:

     E        1
          identity
     2C3      2    3
          120 deg rotation - cryst. axis [0,0,1]
     3s_v     4    5    6
          inv. 180 deg rotation - cart. axis [1,0,0]

   Cartesian axes

     site n.     atom                  positions (alat units)
         1           Ga  tau(   1) = (   0.1250001   0.0721687   0.2033935  )
         2           Ga  tau(   2) = (   0.1250001   0.0721687   0.6108633  )
         3           Ga  tau(   3) = (   0.1250001   0.0721687   1.0183331  )
         4           Ga  tau(   4) = (   0.0000001   0.2886751   0.2033935  )
         5           Ga  tau(   5) = (   0.0000001   0.2886751   0.6108633  )
         6           Ga  tau(   6) = (   0.0000001   0.2886751   1.0183331  )
         7           Ga  tau(   7) = (  -0.1249999   0.5051814   0.2033935  )
         8           Ga  tau(   8) = (  -0.1249999   0.5051814   0.6108633  )
         9           Ga  tau(   9) = (  -0.1249999   0.5051814   1.0183331  )
        10           Ga  tau(  10) = (  -0.2499999   0.7216878   0.2033935  )
        11           Ga  tau(  11) = (  -0.2499999   0.7216878   0.6108633  )
        12           Ga  tau(  12) = (  -0.2499999   0.7216878   1.0183331  )
        13           Ga  tau(  13) = (   0.3750001   0.0721687   0.2033935  )
        14           Ga  tau(  14) = (   0.3750001   0.0721687   0.6108633  )
        15           Ga  tau(  15) = (   0.3750001   0.0721687   1.0183331  )
        16           Ga  tau(  16) = (   0.2500001   0.2886751   0.2033935  )
        17           Ga  tau(  17) = (   0.2500001   0.2886751   0.6108633  )
        18           Ga  tau(  18) = (   0.2500001   0.2886751   1.0183331  )
        19           Ga  tau(  19) = (   0.1250001   0.5051814   0.2033935  )
        20           Ga  tau(  20) = (   0.1250001   0.5051814   0.6108633  )
        21           Ga  tau(  21) = (   0.1250001   0.5051814   1.0183331  )
        22           Ga  tau(  22) = (   0.0000001   0.7216878   0.2033935  )
        23           Ga  tau(  23) = (   0.0000001   0.7216878   0.6108633  )
        24           Ga  tau(  24) = (   0.0000001   0.7216878   1.0183331  )
        25           Ga  tau(  25) = (   0.6250001   0.0721687   0.2033935  )
        26           Ga  tau(  26) = (   0.6250001   0.0721687   0.6108633  )
        27           Ga  tau(  27) = (   0.6250001   0.0721687   1.0183331  )
        28           Ga  tau(  28) = (   0.5000001   0.2886751   0.2033935  )
        29           Ga  tau(  29) = (   0.5000001   0.2886751   0.6108633  )
        30           Ga  tau(  30) = (   0.5000001   0.2886751   1.0183331  )
        31           Ga  tau(  31) = (   0.3750001   0.5051814   0.2033935  )
        32           Ga  tau(  32) = (   0.3750001   0.5051814   0.6108633  )
        33           Ga  tau(  33) = (   0.3750001   0.5051814   1.0183331  )
        34           Ga  tau(  34) = (   0.2500001   0.7216878   0.2033935  )
        35           Ga  tau(  35) = (   0.2500001   0.7216878   0.6108633  )
        36           Ga  tau(  36) = (   0.2500001   0.7216878   1.0183331  )
        37           Ga  tau(  37) = (   0.8750001   0.0721687   0.2033935  )
        38           Ga  tau(  38) = (   0.8750001   0.0721687   0.6108633  )
        39           Ga  tau(  39) = (   0.8750001   0.0721687   1.0183331  )
        40           Ga  tau(  40) = (   0.7500001   0.2886751   0.2033935  )
        41           Ga  tau(  41) = (   0.7500001   0.2886751   0.6108633  )
        42           Ga  tau(  42) = (   0.7500001   0.2886751   1.0183331  )
        43           Ga  tau(  43) = (   0.6250001   0.5051814   0.2033935  )
        44           Ga  tau(  44) = (   0.6250001   0.5051814   0.6108633  )
        45           Ga  tau(  45) = (   0.6250001   0.5051814   1.0183331  )
        46           Ga  tau(  46) = (   0.5000001   0.7216878   0.2033935  )
        47           Ga  tau(  47) = (   0.5000001   0.7216878   0.6108633  )
        48           Ga  tau(  48) = (   0.5000001   0.7216878   1.0183331  )
        49           Ga  tau(  49) = (  -0.0000002   0.1443377   0.4071284  )
        50           Ga  tau(  50) = (  -0.0000002   0.1443377   0.8145982  )
        51           Ga  tau(  51) = (  -0.0000002   0.1443377   1.2220680  )
        52           Ga  tau(  52) = (  -0.1250002   0.3608440   0.4071284  )
        53           Ga  tau(  53) = (  -0.1250002   0.3608440   0.8145982  )
        54           Ga  tau(  54) = (  -0.1250002   0.3608440   1.2220680  )
        55           Ga  tau(  55) = (  -0.2500002   0.5773504   0.4071284  )
        56           Ga  tau(  56) = (  -0.2500002   0.5773504   0.8145982  )
        57           Ga  tau(  57) = (  -0.2500002   0.5773504   1.2220680  )
        58           Ga  tau(  58) = (  -0.3750001   0.7938567   0.4071284  )
        59           Ga  tau(  59) = (  -0.3750001   0.7938567   0.8145982  )
        60           Ga  tau(  60) = (  -0.3750001   0.7938567   1.2220680  )
[...]
       178           N   tau( 178) = (   0.1249998   0.7938567   0.5606123  )
       179           N   tau( 179) = (   0.1249998   0.7938567   0.9680820  )
[...]
     atom   25 type  1   force =     0.00000000    0.00000000    0.00000000
     atom   26 type  1   force =     0.00000000    0.00000000    0.00000000
     atom   27 type  1   force =     0.00000000    0.00000000    0.00000000
     atom   28 type  1   force =     0.00000000    0.00000000    0.00000000
     atom   29 type  1   force =     0.00000000    0.00000000    0.00000000
     atom   30 type  1   force =     0.00000000    0.00000000    0.00000000
     atom   31 type  1   force =     0.00000000    0.00000000    0.00000000
     atom   32 type  1   force =     0.00000000    0.00000000    0.00000000
     atom   33 type  1   force =     0.00000000    0.00000000    0.00000000
     atom   34 type  1   force =     0.00000000    0.00000000    0.00000000
     atom   35 type  1   force =     0.00000000    0.00000000    0.00000000
     atom   36 type  1   force =     0.00000000    0.00000000    0.00000000
     atom   37 type  1   force =     0.00000000    0.00000000    0.00000000
     atom   38 type  1   force =     0.00000000    0.00000000    0.00000000
     atom   39 type  1   force =     0.00000000    0.00000000    0.00000000
     atom   40 type  1   force =     0.00000000    0.00000000    0.00000000
     atom   41 type  1   force =     0.00000000    0.00000000    0.00000000
     atom   42 type  1   force =     0.00000000    0.00000000    0.00000000
     atom   43 type  1   force =     0.00000000    0.00000000    0.00000000
     atom   44 type  1   force =     0.00000000    0.00000000    0.00000000
     atom   45 type  1   force =     0.00000000    0.00000000    0.00000000
     atom   46 type  1   force =     0.00000000    0.00000000    0.00000000
     atom   47 type  1   force =     0.00000000    0.00000000    0.00000000
     atom   48 type  1   force =     0.00000000    0.00000000    0.00000000
     atom   49 type  1   force =     0.00000000    0.00000000    0.00000000
     atom   50 type  1   force =     0.00000000    0.00000000    0.00000000
     atom   51 type  1   force =     0.00000000    0.00000000    0.00000000
     atom   52 type  1   force =     0.00000000    0.00000000    0.00000000
     atom   53 type  1   force =     0.00000000    0.00000000    0.00000000
     atom   54 type  1   force =     0.00000000    0.00000000    0.00000000
     atom   55 type  1   force =     0.00000000    0.00000000    0.00000000
     atom   56 type  1   force =     0.00000000    0.00000000    0.00000000
     atom   57 type  1   force =     0.00000000    0.00000000    0.00000000
     atom   58 type  1   force =     0.00000000    0.00000000    0.00000000
     atom   59 type  1   force =     0.00000000    0.00000000    0.00000000
     atom   60 type  1   force =     0.00000000    0.00000000    0.00000000
[...]
     atom  178 type  2   force =     0.00000000    0.00000000    0.00000000
     atom  179 type  2   force =     0.00000000    0.00000000    0.00000000
     atom  180 type  2   force =     0.00000000    0.00000000    0.00000000
     atom  181 type  2   force =     0.00000000    0.00000000    0.00000000
     atom  182 type  2   force =     0.00000000    0.00000000    0.00000000
     atom  183 type  2   force =     0.00000000    0.00000000    0.00000000
     atom  184 type  2   force =     0.00000000    0.00000000    0.00000000
     atom  185 type  2   force =     0.00000000    0.00000000    0.00000000
     atom  186 type  2   force =     0.00000000    0.00000000    0.00000000
     atom  187 type  2   force =     0.00000000    0.00000000    0.00000000
     atom  188 type  2   force =     0.00000000    0.00000000    0.00000000
     atom  189 type  2   force =     0.00000000    0.00000000    0.00000000
     atom  190 type  2   force =     0.00000000    0.00000000    0.00000000
     atom  191 type  2   force =     0.00000000    0.00000000    0.00000000
     atom  192 type  1   force =     0.00000000    0.00000000    0.00000000
     The SCF correction term to forces
     atom    1 type  1   force =    -0.00000000    0.00000000   -0.00004848
     atom    2 type  1   force =    -0.00000000    0.00000000    0.00001178
     atom    3 type  1   force =    -0.00000000    0.00000000    0.00002423
     atom    4 type  1   force =    -0.00000451   -0.00001079   -0.00002346
     atom    5 type  1   force =    -0.00001282    0.00000276    0.00000851
     atom    6 type  1   force =     0.00000573   -0.00002340    0.00001386
     atom    7 type  1   force =    -0.00001584   -0.00000915   -0.00001486
     atom    8 type  1   force =    -0.00001521   -0.00000878    0.00001061
     atom    9 type  1   force =    -0.00001181   -0.00000682    0.00000535
     atom   10 type  1   force =    -0.00001160    0.00000150   -0.00002346
     atom   11 type  1   force =    -0.00000401   -0.00001248    0.00000851
     atom   12 type  1   force =    -0.00001739    0.00001666    0.00001386
     atom   13 type  1   force =    -0.00000710    0.00000930   -0.00002346
     atom   14 type  1   force =     0.00000880    0.00000972    0.00000851
     atom   15 type  1   force =    -0.00002313    0.00000673    0.00001386
     atom   16 type  1   force =     0.00000451   -0.00001079   -0.00002346
     atom   17 type  1   force =     0.00001282    0.00000276    0.00000851
     atom   18 type  1   force =    -0.00000573   -0.00002340    0.00001386
     atom   19 type  1   force =    -0.00000000   -0.00001114   -0.00001465
     atom   20 type  1   force =    -0.00000000   -0.00000182    0.00001124
     atom   21 type  1   force =    -0.00000000   -0.00001926    0.00000540
     atom   22 type  1   force =    -0.00000965    0.00000557   -0.00001465
     atom   23 type  1   force =    -0.00000157    0.00000091    0.00001124
     atom   24 type  1   force =    -0.00001668    0.00000963    0.00000540
     atom   25 type  1   force =    -0.00000000    0.00001829   -0.00001486
     atom   26 type  1   force =    -0.00000000    0.00001756    0.00001061
     atom   27 type  1   force =     0.00000000    0.00001363    0.00000535
     atom   28 type  1   force =     0.00001005    0.00000580   -0.00001300
     atom   29 type  1   force =     0.00001594    0.00000921    0.00000611
     atom   30 type  1   force =    -0.00000378   -0.00000218    0.00000540
     atom   31 type  1   force =     0.00001584   -0.00000915   -0.00001486
     atom   32 type  1   force =     0.00001521   -0.00000878    0.00001061
     atom   33 type  1   force =     0.00001181   -0.00000682    0.00000535
     atom   34 type  1   force =     0.00000965    0.00000557   -0.00001465
     atom   35 type  1   force =     0.00000157    0.00000091    0.00001124
     atom   36 type  1   force =     0.00001668    0.00000963    0.00000540
     atom   37 type  1   force =     0.00000710    0.00000930   -0.00002346
     atom   38 type  1   force =    -0.00000880    0.00000972    0.00000851
     atom   39 type  1   force =     0.00002313    0.00000673    0.00001386
     atom   40 type  1   force =    -0.00001005    0.00000580   -0.00001300
     atom   41 type  1   force =    -0.00001594    0.00000921    0.00000611
     atom   42 type  1   force =     0.00000378   -0.00000218    0.00000540
     atom   43 type  1   force =     0.00000000   -0.00001161   -0.00001300
     atom   44 type  1   force =     0.00000000   -0.00001841    0.00000611
     atom   45 type  1   force =    -0.00000000    0.00000437    0.00000540
     atom   46 type  1   force =     0.00001160    0.00000150   -0.00002346
     atom   47 type  1   force =     0.00000401   -0.00001248    0.00000851
     atom   48 type  1   force =     0.00001739    0.00001666    0.00001386
     atom   49 type  1   force =    -0.00003077    0.00001776   -0.00001007
     atom   50 type  1   force =    -0.00000441    0.00000255    0.00004131
     atom   51 type  1   force =     0.00001309   -0.00000755   -0.00001702
     atom   52 type  1   force =    -0.00001851   -0.00000439   -0.00000771
     atom   53 type  1   force =    -0.00001226   -0.00000272    0.00001570
     atom   54 type  1   force =    -0.00000725   -0.00001361   -0.00001044
     atom   55 type  1   force =    -0.00001306   -0.00001384   -0.00000771
     atom   56 type  1   force =    -0.00000848   -0.00000926    0.00001570
     atom   57 type  1   force =    -0.00001541    0.00000053   -0.00001044
     atom   58 type  1   force =    -0.00000000   -0.00003553   -0.00001007
     atom   59 type  1   force =     0.00000000   -0.00000509    0.00004131
     atom   60 type  1   force =     0.00000000    0.00001511   -0.00001702
[...]
     atom  178 type  2   force =    -0.00000000    0.00000373    0.00000446
     atom  179 type  2   force =    -0.00000000    0.00000606    0.00000226
     atom  180 type  2   force =     0.00000093    0.00000664   -0.00000650
     atom  181 type  2   force =    -0.00000489    0.00000767    0.00000309
     atom  182 type  2   force =     0.00000321    0.00000409    0.00000447
     atom  183 type  2   force =     0.00000000   -0.00000000   -0.00000230
     atom  184 type  2   force =     0.00000000   -0.00000000    0.00000315
     atom  185 type  2   force =     0.00000000   -0.00000000    0.00000221
     atom  186 type  2   force =     0.00000622   -0.00000251   -0.00000650
     atom  187 type  2   force =     0.00000420   -0.00000807    0.00000309
     atom  188 type  2   force =     0.00000514    0.00000073    0.00000447
     atom  189 type  2   force =     0.00000729    0.00000421   -0.00001049
     atom  190 type  2   force =    -0.00000127   -0.00000073    0.00000282
     atom  191 type  2   force =     0.00000879    0.00000508    0.00000738
     atom  192 type  1   force =     0.00000000   -0.00000000   -0.00004024

     Total force =     0.002973     Total SCF correction =     0.000240

     Computing stress (Cartesian axis) and pressure

[...]

          total   stress  (Ry/bohr**3)                   (kbar)     P=       27.56
   0.00017232  -0.00000000   0.00000000           25.35       -0.00        0.00
   0.00000000   0.00017232   0.00000000            0.00       25.35        0.00
   0.00000000   0.00000000   0.00021742            0.00        0.00       31.98

     kinetic stress (kbar)  18493.55      0.00      0.00
                                0.00  18493.55     -0.00
                                0.00     -0.00  18499.47

     local   stress (kbar)   5682.84     -0.07     -0.00
                               -0.07   5682.74      0.00
                               -0.00      0.00   3744.33

     nonloc. stress (kbar)     87.12     -0.00      0.00
                                0.00     87.12      0.00
                                0.00      0.00     93.63

     hartree stress (kbar)  19723.36     -0.00     -0.00
                               -0.00  19723.36      0.00
                               -0.00      0.00  20587.21

     exc-cor stress (kbar)   5289.80      0.00     -0.00
                                0.00   5289.80      0.00
                               -0.00      0.00   5290.80

     corecor stress (kbar) -14244.84     -0.00     -0.00
                               -0.00 -14244.84      0.00
                               -0.00      0.00 -14244.55

     ewald   stress (kbar) -35169.92      0.10      0.00
                                0.10 -35169.80     -0.00
                                0.00     -0.00 -34101.26

     hubbard stress (kbar)      0.00      0.00      0.00
                                0.00      0.00      0.00
                                0.00      0.00      0.00

     DFT-D   stress (kbar)      0.00      0.00      0.00
                                0.00      0.00      0.00
                                0.00      0.00      0.00

     XDM     stress (kbar)      0.00      0.00      0.00
                                0.00      0.00      0.00
                                0.00      0.00      0.00

     dft-nl  stress (kbar)    163.43     -0.00     -0.00
                               -0.00    163.43     -0.00
                               -0.00     -0.00    162.36

     TS-vdW  stress (kbar)      0.00      0.00      0.00
                                0.00      0.00      0.00
                                0.00      0.00      0.00

     MDB     stress (kbar)      0.00      0.00      0.00
                                0.00      0.00      0.00
                                0.00      0.00      0.00

     3D-RISM stress (kbar)      0.00      0.00      0.00
                                0.00      0.00      0.00
                                0.00      0.00      0.00

[...]

     Non-local corr. energy    =      52.68619655 Ry

 BEEFens 2000 ensemble energies
             -0.426312714998221E+02
             -0.384203711646392E+03
             -0.165253848006826E+03
              0.135191004951625E+03
             -0.276364750034205E+03
             -0.355317098874497E+03
              0.182450264217835E+03
             -0.190868249178848E+02
              0.304391100746179E+03
             -0.131445537466147E+02
              0.149318290593822E+03
              0.628348998370268E+01
              0.599784914236386E+01
             -0.129853592109757E+02
              0.199140945961989E+03
             -0.145011743303003E+03
             -0.298799794773979E+03
             -0.975402427055481E+02
              0.730651174741707E+02
             -0.656666785180323E+01
              0.436261030850502E+03
              0.371198017023816E+03
             -0.212699386184859E+03
              0.768903964240610E+02
             -0.466033769878035E+03
              0.373705966697587E+03
              0.122022431380517E+03
              0.363126057801665E+03
              0.238684672869610E+03
             -0.116091084572347E+03
              0.878922424209692E+02
             -0.171531909764988E+03
              0.481333774457405E+02
              0.233607403750692E+03
              0.247589347269276E+03
             -0.894881192136288E+02
              0.550178917866776E+03
             -0.208924239538746E+03
             -0.150299325550802E+03
              0.220485408462839E+03
              0.986885632618244E+02
              0.165015944887447E+03
             -0.314569292030971E+03
             -0.887519278441869E+01
              0.308698387375313E+03
              0.401048551103871E+03
             -0.399366586448940E+03
              0.284215294371383E+02
              0.150511063554407E+03
              0.735010215889956E+02
              0.166839317332134E+03
              0.353673607534727E+03
             -0.213819961133123E+03
             -0.234420574343510E+03
             -0.304789292003536E+03
             -0.470699965025951E+02
             -0.277960408440804E+03
              0.272805978566826E+02
             -0.513353989231746E+02
             -0.216639987712971E+03
[...]
              0.270249615184029E+03
              0.149427314846083E+03
              0.189736942528547E+03
             -0.306743557942058E+03
             -0.293849812965266E+03
             -0.742033421415006E+02
             -0.287873491058733E+03
              0.460730855477513E+03
              0.394820377905470E+03
              0.188660120531192E+03
              0.511041900809218E+03
             -0.265859203761363E+03
             -0.108339314551581E+03
             -0.150865271830532E+03
              0.422753571724011E+03

 BEEF-vdW xc energy contributions
            1 :    -3874.286041394012
            2 :     3490.406613107856
            3 :    -2846.966645323033
            4 :     2131.937033984021
            5 :    -1511.057698313914
            6 :     1064.874271150848
            7 :    -779.4561548068395
            8 :     586.8575149424996
            9 :    -422.7468312766314
           10 :     263.7848593967487
           11 :    -126.7624800025824
           12 :     39.50256707772860
           13 :    -10.33161233437204
           14 :     18.73084085426126
           15 :    -30.49420490170087
           16 :     22.10598204506459
           17 :     5.610587429206134
           18 :    -33.69885043190607
           19 :     43.95727304188040
           20 :    -34.46421271731560
           21 :     20.10439248512557
           22 :    -19.33988730729652
           23 :     39.04426807339496
           24 :    -69.57373044300039
           25 :     93.10321691894660
           26 :    -97.60401502848435
           27 :     85.11027071926628
           28 :    -68.40086353079823
           29 :     59.81049872152926
           30 :    -61.70680692911264
           31 :    -331.5868294636020
           32 :    -227.3452864464330

     Writing all to output data dir ./GaN.save/

     General routines

     Parallel routines

     PAW routines

   This run was terminated on:   7:14:48  12Apr2024

   JOB DONE.