     Program PWSCF v.7.1 starts on 28Mar2024 at  6:23:38

     Reading input from espresso.pwi
Warning: card &CELL ignored
Warning: card    CELL_DYNAMICS    = 'BFGS' ignored
Warning: card / ignored

     Current dimensions of program PWSCF are:
     Max number of different atomic species (ntypx) = 10
     Max number of k-points (npk) =  40000
     Max angular momentum in pseudopotentials (lmaxx) =  4
     file Ga.pbe-dn-kjpaw_psl.1.0.0.UPF: wavefunction(s)  4S renormalized
     file N.pbe-n-kjpaw_psl.1.0.0.UPF: wavefunction(s)  2S renormalized

     IMPORTANT: XC functional enforced from input :
     Exchange-correlation= BEEF-VDW
                           (   1   4  43  14   2   0   0)
     Any further DFT definition will be discarded
     Please, verify this is what you really want

     R & G space division:  proc/nbgrp/npool/nimage =      27
     Subspace diagonalization in iterative solution of the eigenvalue problem:
     a serial algorithm will be used

     Using Slab Decomposition

     bravais-lattice index     =            4
     lattice parameter (alat)  =      12.2626  a.u.
     unit-cell volume          =    2602.7676 (a.u.)^3
     number of atoms/cell      =           32
     number of atomic types    =            2
     number of electrons       =       278.00
     number of Kohn-Sham states=          167
     kinetic-energy cutoff     =      70.0000  Ry
     charge density cutoff     =     350.0000  Ry
     scf convergence threshold =      1.0E-07
     mixing beta               =       0.7000
     number of iterations used =            8  plain     mixing
     Exchange-correlation= BEEF-VDW
                           (   1   4  43  14   2   0   0)

     celldm(1)=  12.262616  celldm(2)=   0.000000  celldm(3)=   1.629879
     celldm(4)=   0.000000  celldm(5)=   0.000000  celldm(6)=   0.000000

     crystal axes: (cart. coord. in units of alat)
               a(1) = (   1.000000   0.000000   0.000000 )
               a(2) = (  -0.500000   0.866025   0.000000 )
               a(3) = (   0.000000   0.000000   1.629879 )

     reciprocal axes: (cart. coord. in units 2 pi/alat)
               b(1) = (  1.000000  0.577350 -0.000000 )
               b(2) = (  0.000000  1.154701  0.000000 )
               b(3) = (  0.000000 -0.000000  0.613542 )

     PseudoPot. # 1 for Ga read from file:
     /trace/group/acmegroup/atimmins/packages/espresso/pseudo/psl_1.0.0/pslibrary.1.0.0/pbe/PSEUDOPOTENTIALS/Ga.pbe-dn-kjpaw_psl.1.0.0.UPF
     MD5 check sum: cd2a01e492f15b435d17032472d8505c
     Pseudo is Projector augmented-wave + core cor, Zval = 13.0
     Generated using 'atomic' code by A. Dal Corso  v.7.1
     Shape of augmentation charge: PSQ
     Using radial grid of 1205 points,  6 beta functions with:
                l(1) =   0
                l(2) =   0
                l(3) =   1
                l(4) =   1
                l(5) =   2
                l(6) =   2
     Q(r) pseudized with 0 coefficients

     PseudoPot. # 2 for N  read from file:
     /trace/group/acmegroup/atimmins/packages/espresso/pseudo/psl_1.0.0/pslibrary.1.0.0/pbe/PSEUDOPOTENTIALS/N.pbe-n-kjpaw_psl.1.0.0.UPF
     MD5 check sum: f77f775694dac7e2c3fe1c82443d1a16
     Pseudo is Projector augmented-wave + core cor, Zval =  5.0
     Generated using 'atomic' code by A. Dal Corso  v.7.1
     Shape of augmentation charge: PSQ
     Using radial grid of 1085 points,  4 beta functions with:
                l(1) =   0
                l(2) =   0
                l(3) =   1
                l(4) =   1
     Q(r) pseudized with 0 coefficients

     atomic species   valence    mass     pseudopotential
        Ga            13.00    69.72300     Ga( 1.00)
        N              5.00    14.00700     N ( 1.00)

      6 Sym. Ops. (no inversion) found ( 4 have fractional translation)

                                    s                        frac. trans.

      isym =  1     identity

 cryst.   s( 1) = (     1          0          0      )
                  (     0          1          0      )
                  (     0          0          1      )

 cart.    s( 1) = (  1.0000000  0.0000000  0.0000000 )
                  (  0.0000000  1.0000000  0.0000000 )
                  (  0.0000000  0.0000000  1.0000000 )

      isym =  2     120 deg rotation - cryst. axis [0,0,1]

 cryst.   s( 2) = (     0          1          0      )    f =(  0.4999999 )
                  (    -1         -1          0      )       (  0.0000004 )
                  (     0          0          1      )       (  0.0000000 )

 cart.    s( 2) = ( -0.5000000 -0.8660254  0.0000000 )    f =(  0.4999998 )
                  (  0.8660254 -0.5000000  0.0000000 )       (  0.0000003 )
                  (  0.0000000  0.0000000  1.0000000 )       (  0.0000000 )

      isym =  3     120 deg rotation - cryst. axis [0,0,-1]

[...]

      isym =  4     inv. 180 deg rotation - cart. axis [1,0,0]

[...]

      isym =  5     inv. 180 deg rotation - cryst. axis [0,1,0]

 cryst.   s( 5) = (     1          1          0      )
                  (     0         -1          0      )
                  (     0          0          1      )

 cart.    s( 5) = (  0.5000000  0.8660254  0.0000000 )
                  (  0.8660254 -0.5000000  0.0000000 )
                  (  0.0000000  0.0000000  1.0000000 )

      isym =  6     inv. 180 deg rotation - cryst. axis [1,1,0]

 cryst.   s( 6) = (     0         -1          0      )    f =(  0.4999999 )
                  (    -1          0          0      )       (  0.4999999 )
                  (     0          0          1      )       (  0.0000000 )

 cart.    s( 6) = (  0.5000000 -0.8660254  0.0000000 )    f =(  0.2500000 )
                  ( -0.8660254 -0.5000000  0.0000000 )       (  0.4330127 )
                  (  0.0000000  0.0000000  1.0000000 )       (  0.0000000 )

     point group C_3v (3m)
     there are  3 classes
     the character table:

       E     2C3   3s_v
A_1    1.00  1.00  1.00
A_2    1.00  1.00 -1.00
E      2.00 -1.00  0.00

     the symmetry operations in each class and the name of the first element:

     E        1
          identity
     2C3      2    3
          120 deg rotation - cryst. axis [0,0,1]
     3s_v     4    5    6
          inv. 180 deg rotation - cart. axis [1,0,0]

   Cartesian axes

     site n.     atom                  positions (alat units)
         1           Ga  tau(   1) = (   0.2500002   0.1443375   1.2217266  )
         2           Ga  tau(   2) = (   0.0000002   0.5773502   0.4067871  )
         3           Ga  tau(   3) = (   0.0000002   0.5773502   1.2217266  )
         4           Ga  tau(   4) = (   0.7500002   0.1443375   0.4067871  )
         5           Ga  tau(   5) = (   0.7500002   0.1443375   1.2217266  )
         6           Ga  tau(   6) = (   0.5000002   0.5773502   0.4067871  )
         7           Ga  tau(   7) = (   0.5000002   0.5773502   1.2217266  )
         8           Ga  tau(   8) = (  -0.0000003   0.2886754   0.8142568  )
         9           Ga  tau(   9) = (  -0.0000003   0.2886754   1.6291964  )
        10           Ga  tau(  10) = (  -0.2500003   0.7216881   0.8142568  )
        11           Ga  tau(  11) = (  -0.2500003   0.7216881   1.6291964  )
        12           Ga  tau(  12) = (   0.4999997   0.2886754   0.8142568  )
        13           Ga  tau(  13) = (   0.4999997   0.2886754   1.6291964  )
        14           Ga  tau(  14) = (   0.2499997   0.7216881   0.8142568  )
        15           Ga  tau(  15) = (   0.2499997   0.7216881   1.6291964  )
        16           N   tau(  16) = (   0.2500002   0.1443375   0.7137548  )
        17           N   tau(  17) = (   0.2500002   0.1443375   1.5286943  )
        18           N   tau(  18) = (   0.0000002   0.5773502   0.7137548  )
        19           N   tau(  19) = (   0.0000002   0.5773502   1.5286943  )
        20           N   tau(  20) = (   0.7500002   0.1443375   0.7137548  )
        21           N   tau(  21) = (   0.7500002   0.1443375   1.5286943  )
        22           N   tau(  22) = (   0.5000002   0.5773502   0.7137548  )
        23           N   tau(  23) = (   0.5000002   0.5773502   1.5286943  )
        24           N   tau(  24) = (  -0.0000003   0.2886754   0.3062850  )
        25           N   tau(  25) = (  -0.0000003   0.2886754   1.1212245  )
        26           N   tau(  26) = (  -0.2500003   0.7216881   0.3062850  )
        27           N   tau(  27) = (  -0.2500003   0.7216881   1.1212245  )
        28           N   tau(  28) = (   0.4999997   0.2886754   0.3062850  )
        29           N   tau(  29) = (   0.4999997   0.2886754   1.1212245  )
        30           N   tau(  30) = (   0.2499997   0.7216881   0.3062850  )
        31           N   tau(  31) = (   0.2499997   0.7216881   1.1212245  )
        32           N   tau(  32) = (   0.2500002   0.1443375   0.4067871  )

   Crystallographic axes

     site n.     atom                  positions (cryst. coord.)
         1           Ga  tau(   1) = (  0.3333335  0.1666666  0.7495811  )
         2           Ga  tau(   2) = (  0.3333335  0.6666666  0.2495811  )
         3           Ga  tau(   3) = (  0.3333335  0.6666666  0.7495811  )
         4           Ga  tau(   4) = (  0.8333335  0.1666666  0.2495811  )
         5           Ga  tau(   5) = (  0.8333335  0.1666666  0.7495811  )
         6           Ga  tau(   6) = (  0.8333335  0.6666666  0.2495811  )
         7           Ga  tau(   7) = (  0.8333335  0.6666666  0.7495811  )
         8           Ga  tau(   8) = (  0.1666665  0.3333336  0.4995811  )
         9           Ga  tau(   9) = (  0.1666665  0.3333336  0.9995811  )
        10           Ga  tau(  10) = (  0.1666665  0.8333336  0.4995811  )
        11           Ga  tau(  11) = (  0.1666665  0.8333336  0.9995811  )
        12           Ga  tau(  12) = (  0.6666665  0.3333336  0.4995811  )
        13           Ga  tau(  13) = (  0.6666665  0.3333336  0.9995811  )
        14           Ga  tau(  14) = (  0.6666665  0.8333336  0.4995811  )
        15           Ga  tau(  15) = (  0.6666665  0.8333336  0.9995811  )
        16           N   tau(  16) = (  0.3333335  0.1666666  0.4379189  )
        17           N   tau(  17) = (  0.3333335  0.1666666  0.9379189  )
        18           N   tau(  18) = (  0.3333335  0.6666666  0.4379189  )
        19           N   tau(  19) = (  0.3333335  0.6666666  0.9379189  )
        20           N   tau(  20) = (  0.8333335  0.1666666  0.4379189  )
        21           N   tau(  21) = (  0.8333335  0.1666666  0.9379189  )
        22           N   tau(  22) = (  0.8333335  0.6666666  0.4379189  )
        23           N   tau(  23) = (  0.8333335  0.6666666  0.9379189  )
        24           N   tau(  24) = (  0.1666665  0.3333336  0.1879189  )
        25           N   tau(  25) = (  0.1666665  0.3333336  0.6879189  )
        26           N   tau(  26) = (  0.1666665  0.8333336  0.1879189  )
        27           N   tau(  27) = (  0.1666665  0.8333336  0.6879189  )
        28           N   tau(  28) = (  0.6666665  0.3333336  0.1879189  )
        29           N   tau(  29) = (  0.6666665  0.3333336  0.6879189  )
        30           N   tau(  30) = (  0.6666665  0.8333336  0.1879189  )
[...]
     atom    5 type  1   force =    -0.00007146   -0.53998535    0.08057894
     atom    6 type  1   force =    -0.54037351    0.31222203   -0.55089278
     atom    7 type  1   force =    -0.46792766    0.27036736    0.08057862
     atom    8 type  1   force =    -7.20966074    4.16260678    5.66481619
     atom    9 type  1   force =    -1.41317021    0.81602502   -6.17181947
     atom   10 type  1   force =     0.00109347   -8.32683481    5.66483435
     atom   11 type  1   force =     0.00108673   -1.63354717   -6.17183313
     atom   12 type  1   force =     7.21188168    4.16267691    5.66483918
     atom   13 type  1   force =     1.41536072    0.81602925   -6.17183537
     atom   14 type  1   force =     0.00110359   -0.00050000    4.04959705
     atom   15 type  1   force =     0.00109863   -0.00049618   -4.04932844
     atom   16 type  2   force =    -0.00000724    0.00002311   -1.98099880
     atom   17 type  2   force =    -0.00001012    0.00002231   -1.91136113
     atom   18 type  2   force =    -0.98539231   -0.56888767    2.29880780
     atom   19 type  2   force =     0.29993253    0.17319507   -1.38539939
     atom   20 type  2   force =    -0.00000981    1.13784080    2.29880529
     atom   21 type  2   force =    -0.00001012   -0.34632210   -1.38539891
     atom   22 type  2   force =     0.98537438   -0.56888579    2.29880994
     atom   23 type  2   force =    -0.29995336    0.17319518   -1.38539997
     atom   24 type  2   force =    -3.79515235    2.19114303   -1.70402254
     atom   25 type  2   force =    -0.80336705    0.46383513    0.66048684
     atom   26 type  2   force =     0.00006752   -4.38243545   -1.70403618
     atom   27 type  2   force =     0.00008720   -0.92778721    0.66049712
     atom   28 type  2   force =     3.79535384    2.19117101   -1.70404265
     atom   29 type  2   force =     0.80354127    0.46383491    0.66049879
     atom   30 type  2   force =     0.00009035   -0.00003890   -0.38165002
     atom   31 type  2   force =     0.00008664   -0.00003855    0.73270500
     atom   32 type  2   force =    -0.00000855    0.00004853    5.38482415
     The core correction contribution to forces
     atom    1 type  1   force =    -0.00000627    0.00001823    0.00101220
     atom    2 type  1   force =    -0.00023115   -0.00012059   -0.00214481
     atom    3 type  1   force =     0.00110735    0.00066165    0.00200438
     atom    4 type  1   force =    -0.00000850    0.00028167   -0.00214481
     atom    5 type  1   force =    -0.00000584   -0.00126794    0.00200436
     atom    6 type  1   force =     0.00022171   -0.00011082   -0.00214485
     atom    7 type  1   force =    -0.00111989    0.00066165    0.00200438
     atom    8 type  1   force =    -0.00682267    0.00394594    0.00570572
     atom    9 type  1   force =     0.00013769   -0.00007015   -0.00064289
     atom   10 type  1   force =     0.00008221   -0.00801115    0.00570577
     atom   11 type  1   force =     0.00008027    0.00002943   -0.00064292
     atom   12 type  1   force =     0.00698294    0.00395000    0.00570593
     atom   13 type  1   force =     0.00002344   -0.00007007   -0.00064292
     atom   14 type  1   force =     0.00008019   -0.00003679    0.00261174
     atom   15 type  1   force =     0.00008059   -0.00003666   -0.00124620
     atom   16 type  2   force =     0.00000020   -0.00000031    0.01960050
     atom   17 type  2   force =     0.00000025   -0.00000033   -0.00015375
     atom   18 type  2   force =     0.00229824    0.00132637   -0.00216403
     atom   19 type  2   force =    -0.00033974   -0.00019663    0.00104833
     atom   20 type  2   force =     0.00000020   -0.00265381   -0.00216401
     atom   21 type  2   force =     0.00000023    0.00039225    0.00104833
     atom   22 type  2   force =    -0.00229779    0.00132648   -0.00216403
     atom   23 type  2   force =     0.00034024   -0.00019664    0.00104832
     atom   24 type  2   force =     0.00305975   -0.00176660    0.00049169
     atom   25 type  2   force =    -0.00009022    0.00005205    0.00266893
     atom   26 type  2   force =    -0.00000275    0.00353590    0.00049095
     atom   27 type  2   force =    -0.00000246   -0.00010009    0.00266906
     atom   28 type  2   force =    -0.00306354   -0.00176560    0.00049092
     atom   29 type  2   force =     0.00008540    0.00005211    0.00266906
     atom   30 type  2   force =    -0.00000235    0.00000130   -0.00179476
     atom   31 type  2   force =    -0.00000235    0.00000131    0.00076792
     atom   32 type  2   force =    -0.00000000    0.00000006   -0.02327185
     The Hubbard contrib.    to forces
     atom    1 type  1   force =     0.00000000    0.00000000    0.00000000
     atom    2 type  1   force =     0.00000000    0.00000000    0.00000000
     atom    3 type  1   force =     0.00000000    0.00000000    0.00000000
     atom    4 type  1   force =     0.00000000    0.00000000    0.00000000
     atom    5 type  1   force =     0.00000000    0.00000000    0.00000000
     atom    6 type  1   force =     0.00000000    0.00000000    0.00000000
     atom    7 type  1   force =     0.00000000    0.00000000    0.00000000
     atom    8 type  1   force =     0.00000000    0.00000000    0.00000000
     atom    9 type  1   force =     0.00000000    0.00000000    0.00000000
     atom   10 type  1   force =     0.00000000    0.00000000    0.00000000
     atom   11 type  1   force =     0.00000000    0.00000000    0.00000000
     atom   12 type  1   force =     0.00000000    0.00000000    0.00000000
     atom   13 type  1   force =     0.00000000    0.00000000    0.00000000
     atom   14 type  1   force =     0.00000000    0.00000000    0.00000000
     atom   15 type  1   force =     0.00000000    0.00000000    0.00000000
     atom   16 type  2   force =     0.00000000    0.00000000    0.00000000
     atom   17 type  2   force =     0.00000000    0.00000000    0.00000000
     atom   18 type  2   force =     0.00000000    0.00000000    0.00000000
     atom   19 type  2   force =     0.00000000    0.00000000    0.00000000
     atom   20 type  2   force =     0.00000000    0.00000000    0.00000000
     atom   21 type  2   force =     0.00000000    0.00000000    0.00000000
     atom   22 type  2   force =     0.00000000    0.00000000    0.00000000
     atom   23 type  2   force =     0.00000000    0.00000000    0.00000000
     atom   24 type  2   force =     0.00000000    0.00000000    0.00000000
     atom   25 type  2   force =     0.00000000    0.00000000    0.00000000
     atom   26 type  2   force =     0.00000000    0.00000000    0.00000000
     atom   27 type  2   force =     0.00000000    0.00000000    0.00000000
     atom   28 type  2   force =     0.00000000    0.00000000    0.00000000
     atom   29 type  2   force =     0.00000000    0.00000000    0.00000000
     atom   30 type  2   force =     0.00000000    0.00000000    0.00000000
     atom   31 type  2   force =     0.00000000    0.00000000    0.00000000
     atom   32 type  2   force =     0.00000000    0.00000000    0.00000000
     The SCF correction term to forces
     atom    1 type  1   force =     0.00000000   -0.00000000    0.00002049
     atom    2 type  1   force =    -0.00002419   -0.00001397   -0.00004484
     atom    3 type  1   force =    -0.00000900   -0.00000519    0.00001450
     atom    4 type  1   force =    -0.00000000    0.00002793   -0.00004484
     atom    5 type  1   force =     0.00000000    0.00001039    0.00001450
     atom    6 type  1   force =     0.00002419   -0.00001397   -0.00004484
     atom    7 type  1   force =     0.00000900   -0.00000519    0.00001450
     atom    8 type  1   force =    -0.00001298    0.00000750    0.00000665
     atom    9 type  1   force =    -0.00000273    0.00000157    0.00002346
     atom   10 type  1   force =     0.00000000   -0.00001499    0.00000665
     atom   11 type  1   force =     0.00000000   -0.00000315    0.00002346
     atom   12 type  1   force =     0.00001298    0.00000750    0.00000665
     atom   13 type  1   force =     0.00000273    0.00000157    0.00002346
     atom   14 type  1   force =    -0.00000000    0.00000000    0.00000638
     atom   15 type  1   force =    -0.00000000    0.00000000   -0.00000250
     atom   16 type  2   force =     0.00000000   -0.00000000    0.00001741
     atom   17 type  2   force =    -0.00000000    0.00000000    0.00000770
     atom   18 type  2   force =    -0.00000439   -0.00000253   -0.00000304
     atom   19 type  2   force =    -0.00000299   -0.00000173    0.00001091
     atom   20 type  2   force =     0.00000000    0.00000507   -0.00000304
     atom   21 type  2   force =     0.00000000    0.00000345    0.00001091
     atom   22 type  2   force =     0.00000439   -0.00000253   -0.00000304
     atom   23 type  2   force =     0.00000299   -0.00000173    0.00001091
     atom   24 type  2   force =    -0.00001644    0.00000949   -0.00001857
     atom   25 type  2   force =    -0.00000189    0.00000109    0.00000632
     atom   26 type  2   force =     0.00000000   -0.00001898   -0.00001857
     atom   27 type  2   force =     0.00000000   -0.00000219    0.00000632
     atom   28 type  2   force =     0.00001644    0.00000949   -0.00001857
     atom   29 type  2   force =     0.00000189    0.00000109    0.00000632
     atom   30 type  2   force =    -0.00000000    0.00000000   -0.00001375
     atom   31 type  2   force =    -0.00000000    0.00000000    0.00000710
     atom   32 type  2   force =     0.00000000   -0.00000000   -0.00002638

     Total force =     0.000940     Total SCF correction =     0.000128
     SCF correction compared to forces is large: reduce conv_thr to get better values

     Computing stress (Cartesian axis) and pressure

[...]

          total   stress  (Ry/bohr**3)                   (kbar)     P=     -111.52
  -0.00073578   0.00000000   0.00000000         -108.24        0.00        0.00
   0.00000000  -0.00073578   0.00000000            0.00     -108.24        0.00
   0.00000000  -0.00000000  -0.00080274            0.00       -0.00     -118.09

     kinetic stress (kbar)  17945.95      0.00      0.00
                                0.00  17945.95      0.00
                                0.00      0.00  17910.10

     local   stress (kbar)   4696.38     -0.07      0.00
                               -0.07   4696.29      0.00
                                0.00      0.00    569.30

     nonloc. stress (kbar)    267.36      0.00      0.00
                                0.00    267.36      0.00
                                0.00      0.00    211.62

     hartree stress (kbar)  18691.46     -0.00      0.00
                               -0.00  18691.46     -0.00
                                0.00     -0.00  20116.64

     exc-cor stress (kbar)   4802.20      0.00     -0.00
                                0.00   4802.20      0.00
                               -0.00      0.00   4818.45

     corecor stress (kbar) -13305.38     -0.00     -0.00
                               -0.00 -13305.38     -0.00
                               -0.00     -0.00 -13307.91

     ewald   stress (kbar) -33361.07      0.09      0.00
                                0.09 -33360.96     -0.00
                                0.00     -0.00 -30586.94

     hubbard stress (kbar)      0.00      0.00      0.00
                                0.00      0.00      0.00
                                0.00      0.00      0.00

     DFT-D   stress (kbar)      0.00      0.00      0.00
                                0.00      0.00      0.00
                                0.00      0.00      0.00

     XDM     stress (kbar)      0.00      0.00      0.00
                                0.00      0.00      0.00
                                0.00      0.00      0.00

     dft-nl  stress (kbar)    154.85     -0.00      0.00
                               -0.00    154.85     -0.00
                                0.00     -0.00    150.65

     TS-vdW  stress (kbar)      0.00      0.00      0.00
                                0.00      0.00      0.00
                                0.00      0.00      0.00

     MDB     stress (kbar)      0.00      0.00      0.00
                                0.00      0.00      0.00
                                0.00      0.00      0.00

     3D-RISM stress (kbar)      0.00      0.00      0.00
                                0.00      0.00      0.00
                                0.00      0.00      0.00

[...]

     Non-local corr. energy    =       8.31171655 Ry

 BEEFens 2000 ensemble energies
             -0.674587401787363E+01
             -0.603915529314154E+02
             -0.259632663388640E+02
              0.212971425489176E+02
             -0.433612968601704E+02
             -0.558758497627099E+02
              0.288283215135825E+02
             -0.316360014555127E+01
              0.477780801854360E+02
             -0.206289071147808E+01
              0.234756287957100E+02
              0.912065168906892E+00
              0.103086705510339E+01
             -0.215429849420622E+01
              0.313087226164053E+02
             -0.228398855117548E+02
             -0.470891854275355E+02
             -0.154225185852736E+02
              0.114292454105256E+02
             -0.101397252643676E+01
              0.685873550790042E+02
              0.584121421989716E+02
             -0.332908663167647E+02
              0.121747525608764E+02
             -0.732746604465755E+02
              0.587426472321672E+02
              0.192361863536659E+02
              0.572194119492488E+02
              0.375107705695683E+02
             -0.183458050035894E+02
              0.138768165566987E+02
             -0.270662237684192E+02
              0.744585806058748E+01
              0.366517029222350E+02
              0.390239010855514E+02
             -0.140225308191327E+02
              0.864712136362632E+02
             -0.327848224994385E+02
             -0.236186624657231E+02
              0.346709763070430E+02
              0.154051231906797E+02
              0.260053941921185E+02
             -0.494607613213501E+02
             -0.136441786322439E+01
              0.486368066290825E+02
              0.631390874335490E+02
             -0.627356520141664E+02
              0.446422269648126E+01
              0.236607980697113E+02
              0.113981473601860E+02
              0.263278326219037E+02
              0.555895795857117E+02
             -0.336459295274562E+02
             -0.368685605462105E+02
             -0.479101266800769E+02
             -0.750339253473504E+01
             -0.436810154531491E+02
              0.421876367160417E+01
             -0.815783432697725E+01
             -0.340796233666408E+02
[...]
              0.426322842896533E+02
              0.234259590514338E+02
              0.298515785867127E+02
             -0.481917702965379E+02
             -0.459855517355463E+02
             -0.117455334248657E+02
             -0.451701580982988E+02
              0.724644721531086E+02
              0.621210806617548E+02
              0.296825461778734E+02
              0.802661768055365E+02
             -0.418307078807907E+02
             -0.170716454715357E+02
             -0.236341851590740E+02
              0.663840823809321E+02

 BEEF-vdW xc energy contributions
            1 :    -608.2388172187930
            2 :     547.1776612097942
            3 :    -445.1195967950719
            4 :     332.2426351867344
            5 :    -234.8550469892908
            6 :     165.3390864908318
            7 :    -120.9681889151898
            8 :     90.72552618575492
            9 :    -64.61656853758268
           10 :     39.40269789859030
           11 :    -18.07846119664555
           12 :     5.006075927987354
           13 :    -1.154370097312380
           14 :     2.936451320024617
           15 :    -4.888900008569863
           16 :     3.539624394131124
           17 :    0.6834261336178997
           18 :    -4.716282245260004
           19 :     5.913994183965087
           20 :    -4.303305205973402
           21 :     2.370573953566236
           22 :    -2.836788826543852
           23 :     6.404580549749085
           24 :    -11.28231845177811
           25 :     14.71078182521501
           26 :    -15.11384848454077
           27 :     13.12974221516311
           28 :    -10.82517449524198
           29 :     9.894791765974105
           30 :    -10.37372912099067
           31 :    -52.45624716846669
           32 :    -35.84424482537634

     Writing all to output data dir ./GaN.save/

     General routines

     Parallel routines

     PAW routines

   This run was terminated on:   6:24:17  28Mar2024

   JOB DONE.