     Program PWSCF v.7.1 starts on 27Mar2024 at 23:13:34

     Reading input from espresso.pwi
Warning: card &CELL ignored
Warning: card    CELL_DYNAMICS    = 'BFGS' ignored
Warning: card / ignored

     Current dimensions of program PWSCF are:
     Max number of different atomic species (ntypx) = 10
     Max number of k-points (npk) =  40000
     Max angular momentum in pseudopotentials (lmaxx) =  4
     file Ga.pbe-dn-kjpaw_psl.1.0.0.UPF: wavefunction(s)  4S renormalized
     file N.pbe-n-kjpaw_psl.1.0.0.UPF: wavefunction(s)  2S renormalized

     IMPORTANT: XC functional enforced from input :
     Exchange-correlation= BEEF-VDW
                           (   1   4  43  14   2   0   0)
     Any further DFT definition will be discarded
     Please, verify this is what you really want

     R & G space division:  proc/nbgrp/npool/nimage =      27
     Subspace diagonalization in iterative solution of the eigenvalue problem:
     a serial algorithm will be used

     Using Slab Decomposition

     bravais-lattice index     =            4
     lattice parameter (alat)  =      12.2626  a.u.
     unit-cell volume          =    2602.7676 (a.u.)^3
     number of atoms/cell      =           32
     number of atomic types    =            2
     number of electrons       =       278.00
     number of Kohn-Sham states=          167
     kinetic-energy cutoff     =      70.0000  Ry
     charge density cutoff     =     350.0000  Ry
     scf convergence threshold =      1.0E-07
     mixing beta               =       0.7000
     number of iterations used =            8  plain     mixing
     energy convergence thresh.=      1.0E-04
     force convergence thresh. =      1.0E-03
     Exchange-correlation= BEEF-VDW
                           (   1   4  43  14   2   0   0)
     nstep                     =           50

     celldm(1)=  12.262616  celldm(2)=   0.000000  celldm(3)=   1.629879
     celldm(4)=   0.000000  celldm(5)=   0.000000  celldm(6)=   0.000000

     crystal axes: (cart. coord. in units of alat)
               a(1) = (   1.000000   0.000000   0.000000 )
               a(2) = (  -0.500000   0.866025   0.000000 )
               a(3) = (   0.000000   0.000000   1.629879 )

     reciprocal axes: (cart. coord. in units 2 pi/alat)
               b(1) = (  1.000000  0.577350 -0.000000 )
               b(2) = (  0.000000  1.154701  0.000000 )
               b(3) = (  0.000000 -0.000000  0.613542 )

     PseudoPot. # 1 for Ga read from file:
     /trace/group/acmegroup/atimmins/packages/espresso/pseudo/psl_1.0.0/pslibrary.1.0.0/pbe/PSEUDOPOTENTIALS/Ga.pbe-dn-kjpaw_psl.1.0.0.UPF
     MD5 check sum: cd2a01e492f15b435d17032472d8505c
     Pseudo is Projector augmented-wave + core cor, Zval = 13.0
     Generated using 'atomic' code by A. Dal Corso  v.7.1
     Shape of augmentation charge: PSQ
     Using radial grid of 1205 points,  6 beta functions with:
                l(1) =   0
                l(2) =   0
                l(3) =   1
                l(4) =   1
                l(5) =   2
                l(6) =   2
     Q(r) pseudized with 0 coefficients

     PseudoPot. # 2 for N  read from file:
     /trace/group/acmegroup/atimmins/packages/espresso/pseudo/psl_1.0.0/pslibrary.1.0.0/pbe/PSEUDOPOTENTIALS/N.pbe-n-kjpaw_psl.1.0.0.UPF
     MD5 check sum: f77f775694dac7e2c3fe1c82443d1a16
     Pseudo is Projector augmented-wave + core cor, Zval =  5.0
     Generated using 'atomic' code by A. Dal Corso  v.7.1
     Shape of augmentation charge: PSQ
     Using radial grid of 1085 points,  4 beta functions with:
                l(1) =   0
                l(2) =   0
                l(3) =   1
                l(4) =   1
     Q(r) pseudized with 0 coefficients

     atomic species   valence    mass     pseudopotential
        Ga            13.00    69.72300     Ga( 1.00)
        N              5.00    14.00700     N ( 1.00)

      6 Sym. Ops. (no inversion) found ( 4 have fractional translation)

                                    s                        frac. trans.

      isym =  1     identity

 cryst.   s( 1) = (     1          0          0      )
                  (     0          1          0      )
                  (     0          0          1      )

 cart.    s( 1) = (  1.0000000  0.0000000  0.0000000 )
                  (  0.0000000  1.0000000  0.0000000 )
                  (  0.0000000  0.0000000  1.0000000 )

      isym =  2     120 deg rotation - cryst. axis [0,0,1]

 cryst.   s( 2) = (     0          1          0      )    f =(  0.4999999 )
                  (    -1         -1          0      )       (  0.0000004 )
                  (     0          0          1      )       (  0.0000000 )

 cart.    s( 2) = ( -0.5000000 -0.8660254  0.0000000 )    f =(  0.4999998 )
                  (  0.8660254 -0.5000000  0.0000000 )       (  0.0000003 )
                  (  0.0000000  0.0000000  1.0000000 )       (  0.0000000 )

      isym =  3     120 deg rotation - cryst. axis [0,0,-1]

[...]

      isym =  4     inv. 180 deg rotation - cart. axis [1,0,0]

[...]

      isym =  5     inv. 180 deg rotation - cryst. axis [0,1,0]

 cryst.   s( 5) = (     1          1          0      )
                  (     0         -1          0      )
                  (     0          0          1      )

 cart.    s( 5) = (  0.5000000  0.8660254  0.0000000 )
                  (  0.8660254 -0.5000000  0.0000000 )
                  (  0.0000000  0.0000000  1.0000000 )

      isym =  6     inv. 180 deg rotation - cryst. axis [1,1,0]

 cryst.   s( 6) = (     0         -1          0      )    f =(  0.4999999 )
                  (    -1          0          0      )       (  0.4999999 )
                  (     0          0          1      )       (  0.0000000 )

 cart.    s( 6) = (  0.5000000 -0.8660254  0.0000000 )    f =(  0.2500000 )
                  ( -0.8660254 -0.5000000  0.0000000 )       (  0.4330127 )
                  (  0.0000000  0.0000000  1.0000000 )       (  0.0000000 )

     point group C_3v (3m)
     there are  3 classes
     the character table:

       E     2C3   3s_v
A_1    1.00  1.00  1.00
A_2    1.00  1.00 -1.00
E      2.00 -1.00  0.00

     the symmetry operations in each class and the name of the first element:

     E        1
          identity
     2C3      2    3
          120 deg rotation - cryst. axis [0,0,1]
     3s_v     4    5    6
          inv. 180 deg rotation - cart. axis [1,0,0]

   Cartesian axes

     site n.     atom                  positions (alat units)
         1           Ga  tau(   1) = (   0.2500002   0.1443375   1.2217266  )
         2           Ga  tau(   2) = (   0.0000002   0.5773502   0.4067871  )
         3           Ga  tau(   3) = (   0.0000002   0.5773502   1.2217266  )
         4           Ga  tau(   4) = (   0.7500002   0.1443375   0.4067871  )
         5           Ga  tau(   5) = (   0.7500002   0.1443375   1.2217266  )
         6           Ga  tau(   6) = (   0.5000002   0.5773502   0.4067871  )
         7           Ga  tau(   7) = (   0.5000002   0.5773502   1.2217266  )
         8           Ga  tau(   8) = (  -0.0000003   0.2886754   0.8142568  )
         9           Ga  tau(   9) = (  -0.0000003   0.2886754   1.6291964  )
        10           Ga  tau(  10) = (  -0.2500003   0.7216881   0.8142568  )
        11           Ga  tau(  11) = (  -0.2500003   0.7216881   1.6291964  )
        12           Ga  tau(  12) = (   0.4999997   0.2886754   0.8142568  )
        13           Ga  tau(  13) = (   0.4999997   0.2886754   1.6291964  )
        14           Ga  tau(  14) = (   0.2499997   0.7216881   0.8142568  )
        15           Ga  tau(  15) = (   0.2499997   0.7216881   1.6291964  )
        16           N   tau(  16) = (   0.2500002   0.1443375   0.7137548  )
        17           N   tau(  17) = (   0.2500002   0.1443375   1.5286943  )
        18           N   tau(  18) = (   0.0000002   0.5773502   0.7137548  )
        19           N   tau(  19) = (   0.0000002   0.5773502   1.5286943  )
        20           N   tau(  20) = (   0.7500002   0.1443375   0.7137548  )
        21           N   tau(  21) = (   0.7500002   0.1443375   1.5286943  )
        22           N   tau(  22) = (   0.5000002   0.5773502   0.7137548  )
        23           N   tau(  23) = (   0.5000002   0.5773502   1.5286943  )
        24           N   tau(  24) = (  -0.0000003   0.2886754   0.3062850  )
        25           N   tau(  25) = (  -0.0000003   0.2886754   1.1212245  )
        26           N   tau(  26) = (  -0.2500003   0.7216881   0.3062850  )
        27           N   tau(  27) = (  -0.2500003   0.7216881   1.1212245  )
        28           N   tau(  28) = (   0.4999997   0.2886754   0.3062850  )
        29           N   tau(  29) = (   0.4999997   0.2886754   1.1212245  )
        30           N   tau(  30) = (   0.2499997   0.7216881   0.3062850  )
        31           N   tau(  31) = (   0.2499997   0.7216881   1.1212245  )
        32           N   tau(  32) = (   0.2500002   0.1443375   0.4067871  )

   Crystallographic axes

     site n.     atom                  positions (cryst. coord.)
         1           Ga  tau(   1) = (  0.3333335  0.1666666  0.7495811  )
         2           Ga  tau(   2) = (  0.3333335  0.6666666  0.2495811  )
         3           Ga  tau(   3) = (  0.3333335  0.6666666  0.7495811  )
         4           Ga  tau(   4) = (  0.8333335  0.1666666  0.2495811  )
         5           Ga  tau(   5) = (  0.8333335  0.1666666  0.7495811  )
         6           Ga  tau(   6) = (  0.8333335  0.6666666  0.2495811  )
         7           Ga  tau(   7) = (  0.8333335  0.6666666  0.7495811  )
         8           Ga  tau(   8) = (  0.1666665  0.3333336  0.4995811  )
         9           Ga  tau(   9) = (  0.1666665  0.3333336  0.9995811  )
        10           Ga  tau(  10) = (  0.1666665  0.8333336  0.4995811  )
        11           Ga  tau(  11) = (  0.1666665  0.8333336  0.9995811  )
        12           Ga  tau(  12) = (  0.6666665  0.3333336  0.4995811  )
        13           Ga  tau(  13) = (  0.6666665  0.3333336  0.9995811  )
        14           Ga  tau(  14) = (  0.6666665  0.8333336  0.4995811  )
        15           Ga  tau(  15) = (  0.6666665  0.8333336  0.9995811  )
        16           N   tau(  16) = (  0.3333335  0.1666666  0.4379189  )
        17           N   tau(  17) = (  0.3333335  0.1666666  0.9379189  )
        18           N   tau(  18) = (  0.3333335  0.6666666  0.4379189  )
        19           N   tau(  19) = (  0.3333335  0.6666666  0.9379189  )
        20           N   tau(  20) = (  0.8333335  0.1666666  0.4379189  )
        21           N   tau(  21) = (  0.8333335  0.1666666  0.9379189  )
        22           N   tau(  22) = (  0.8333335  0.6666666  0.4379189  )
        23           N   tau(  23) = (  0.8333335  0.6666666  0.9379189  )
        24           N   tau(  24) = (  0.1666665  0.3333336  0.1879189  )
        25           N   tau(  25) = (  0.1666665  0.3333336  0.6879189  )
        26           N   tau(  26) = (  0.1666665  0.8333336  0.1879189  )
        27           N   tau(  27) = (  0.1666665  0.8333336  0.6879189  )
        28           N   tau(  28) = (  0.6666665  0.3333336  0.1879189  )
[...]
     atom   18 type  2   force =     1.12632485    0.65031113   -2.43154631
     atom   19 type  2   force =    -0.32113055   -0.18536750    1.44885151
     atom   20 type  2   force =    -0.00002212   -1.30057856   -2.43154577
     atom   21 type  2   force =    -0.00003040    0.37079339    1.44885171
     atom   22 type  2   force =    -1.12638769    0.65032200   -2.43155191
     atom   23 type  2   force =     0.32107151   -0.18536844    1.44885184
     atom   24 type  2   force =     3.96422141   -2.28874726    1.72832268
     atom   25 type  2   force =     0.79801230   -0.46073472   -0.49747846
     atom   26 type  2   force =     0.00004159    4.57747791    1.72833457
     atom   27 type  2   force =     0.00002750    0.92141436   -0.49748067
     atom   28 type  2   force =    -3.96419057   -2.28877747    1.72833383
     atom   29 type  2   force =    -0.79795567   -0.46073371   -0.49748079
     atom   30 type  2   force =     0.00002756   -0.00001710    0.27015458
     atom   31 type  2   force =     0.00002932   -0.00001822   -0.68557126
     atom   32 type  2   force =    -0.00001073    0.00000650   -6.92930524
     The local contribution  to forces
     atom    1 type  1   force =    -0.00007744    0.00024588    2.24655175
     atom    2 type  1   force =     0.54022496    0.31209183   -0.55093975
     atom    3 type  1   force =     0.46776504    0.27036305    0.08059258
     atom    4 type  1   force =    -0.00010177   -0.62360297   -0.55094097
     atom    5 type  1   force =    -0.00007146   -0.53997584    0.08059292
     atom    6 type  1   force =    -0.54034682    0.31220662   -0.55094028
     atom    7 type  1   force =    -0.46791943    0.27036260    0.08059259
     atom    8 type  1   force =    -7.20967679    4.16261605    5.66482400
     atom    9 type  1   force =    -1.41317478    0.81602766   -6.17179278
     atom   10 type  1   force =     0.00109347   -8.32685334    5.66484216
     atom   11 type  1   force =     0.00108673   -1.63355245   -6.17180644
     atom   12 type  1   force =     7.21189774    4.16268618    5.66484699
     atom   13 type  1   force =     1.41536529    0.81603189   -6.17180867
     atom   14 type  1   force =     0.00110359   -0.00049999    4.04960351
     atom   15 type  1   force =     0.00109863   -0.00049618   -4.04932719
     atom   16 type  2   force =    -0.00000724    0.00002311   -1.98098375
     atom   17 type  2   force =    -0.00001012    0.00002231   -1.91135330
     atom   18 type  2   force =    -0.98539657   -0.56889013    2.29880533
     atom   19 type  2   force =     0.29992947    0.17319331   -1.38538826
     atom   20 type  2   force =    -0.00000981    1.13784572    2.29880282
     atom   21 type  2   force =    -0.00001012   -0.34631856   -1.38538779
     atom   22 type  2   force =     0.98537864   -0.56888825    2.29880747
     atom   23 type  2   force =    -0.29995030    0.17319342   -1.38538884
     atom   24 type  2   force =    -3.79516695    2.19115146   -1.70403979
     atom   25 type  2   force =    -0.80336935    0.46383645    0.66049241
     atom   26 type  2   force =     0.00006752   -4.38245231   -1.70405344
     atom   27 type  2   force =     0.00008720   -0.92778986    0.66050269
     atom   28 type  2   force =     3.79536844    2.19117944   -1.70405990
     atom   29 type  2   force =     0.80354357    0.46383624    0.66050436
     atom   30 type  2   force =     0.00009035   -0.00003890   -0.38166565
     atom   31 type  2   force =     0.00008664   -0.00003855    0.73271170
     atom   32 type  2   force =    -0.00000855    0.00004853    5.38481609
     The core correction contribution to forces
     atom    1 type  1   force =    -0.00000627    0.00001823    0.00101220
     atom    2 type  1   force =    -0.00023120   -0.00012062   -0.00214490
     atom    3 type  1   force =     0.00110747    0.00066172    0.00200436
     atom    4 type  1   force =    -0.00000850    0.00028173   -0.00214490
     atom    5 type  1   force =    -0.00000584   -0.00126808    0.00200434
     atom    6 type  1   force =     0.00022176   -0.00011085   -0.00214494
     atom    7 type  1   force =    -0.00112001    0.00066172    0.00200436
     atom    8 type  1   force =    -0.00682294    0.00394609    0.00570577
     atom    9 type  1   force =     0.00013749   -0.00007003   -0.00064273
     atom   10 type  1   force =     0.00008221   -0.00801147    0.00570582
     atom   11 type  1   force =     0.00008027    0.00002920   -0.00064276
     atom   12 type  1   force =     0.00698321    0.00395016    0.00570598
     atom   13 type  1   force =     0.00002365   -0.00006995   -0.00064276
     atom   14 type  1   force =     0.00008019   -0.00003679    0.00261170
     atom   15 type  1   force =     0.00008059   -0.00003666   -0.00124578
     atom   16 type  2   force =     0.00000020   -0.00000031    0.01960038
     atom   17 type  2   force =     0.00000025   -0.00000033   -0.00015378
     atom   18 type  2   force =     0.00229827    0.00132639   -0.00216402
     atom   19 type  2   force =    -0.00033973   -0.00019663    0.00104829
     atom   20 type  2   force =     0.00000020   -0.00265384   -0.00216400
     atom   21 type  2   force =     0.00000023    0.00039224    0.00104829
     atom   22 type  2   force =    -0.00229781    0.00132650   -0.00216403
     atom   23 type  2   force =     0.00034023   -0.00019663    0.00104828
     atom   24 type  2   force =     0.00305985   -0.00176665    0.00049179
     atom   25 type  2   force =    -0.00009022    0.00005205    0.00266892
     atom   26 type  2   force =    -0.00000275    0.00353602    0.00049104
     atom   27 type  2   force =    -0.00000246   -0.00010009    0.00266905
     atom   28 type  2   force =    -0.00306364   -0.00176566    0.00049101
     atom   29 type  2   force =     0.00008540    0.00005212    0.00266905
     atom   30 type  2   force =    -0.00000235    0.00000130   -0.00179474
     atom   31 type  2   force =    -0.00000235    0.00000131    0.00076790
     atom   32 type  2   force =    -0.00000000    0.00000006   -0.02327157
     The Hubbard contrib.    to forces
     atom    1 type  1   force =     0.00000000    0.00000000    0.00000000
     atom    2 type  1   force =     0.00000000    0.00000000    0.00000000
     atom    3 type  1   force =     0.00000000    0.00000000    0.00000000
     atom    4 type  1   force =     0.00000000    0.00000000    0.00000000
     atom    5 type  1   force =     0.00000000    0.00000000    0.00000000
     atom    6 type  1   force =     0.00000000    0.00000000    0.00000000
     atom    7 type  1   force =     0.00000000    0.00000000    0.00000000
     atom    8 type  1   force =     0.00000000    0.00000000    0.00000000
     atom    9 type  1   force =     0.00000000    0.00000000    0.00000000
     atom   10 type  1   force =     0.00000000    0.00000000    0.00000000
     atom   11 type  1   force =     0.00000000    0.00000000    0.00000000
     atom   12 type  1   force =     0.00000000    0.00000000    0.00000000
     atom   13 type  1   force =     0.00000000    0.00000000    0.00000000
     atom   14 type  1   force =     0.00000000    0.00000000    0.00000000
     atom   15 type  1   force =     0.00000000    0.00000000    0.00000000
     atom   16 type  2   force =     0.00000000    0.00000000    0.00000000
     atom   17 type  2   force =     0.00000000    0.00000000    0.00000000
     atom   18 type  2   force =     0.00000000    0.00000000    0.00000000
     atom   19 type  2   force =     0.00000000    0.00000000    0.00000000
     atom   20 type  2   force =     0.00000000    0.00000000    0.00000000
     atom   21 type  2   force =     0.00000000    0.00000000    0.00000000
     atom   22 type  2   force =     0.00000000    0.00000000    0.00000000
     atom   23 type  2   force =     0.00000000    0.00000000    0.00000000
     atom   24 type  2   force =     0.00000000    0.00000000    0.00000000
     atom   25 type  2   force =     0.00000000    0.00000000    0.00000000
     atom   26 type  2   force =     0.00000000    0.00000000    0.00000000
     atom   27 type  2   force =     0.00000000    0.00000000    0.00000000
     atom   28 type  2   force =     0.00000000    0.00000000    0.00000000
     atom   29 type  2   force =     0.00000000    0.00000000    0.00000000
     atom   30 type  2   force =     0.00000000    0.00000000    0.00000000
     atom   31 type  2   force =     0.00000000    0.00000000    0.00000000
     atom   32 type  2   force =     0.00000000    0.00000000    0.00000000
     The SCF correction term to forces
     atom    1 type  1   force =    -0.00000000    0.00000000   -0.00000723
     atom    2 type  1   force =     0.00001249    0.00000721    0.00001674
     atom    3 type  1   force =    -0.00001438   -0.00000830   -0.00000295
     atom    4 type  1   force =     0.00000000   -0.00001442    0.00001674
     atom    5 type  1   force =     0.00000000    0.00001661   -0.00000295
     atom    6 type  1   force =    -0.00001249    0.00000721    0.00001674
     atom    7 type  1   force =     0.00001438   -0.00000830   -0.00000295
     atom    8 type  1   force =     0.00001876   -0.00001083   -0.00001225
     atom    9 type  1   force =     0.00001647   -0.00000951   -0.00001275
     atom   10 type  1   force =    -0.00000000    0.00002166   -0.00001225
     atom   11 type  1   force =    -0.00000000    0.00001901   -0.00001275
     atom   12 type  1   force =    -0.00001876   -0.00001083   -0.00001225
     atom   13 type  1   force =    -0.00001647   -0.00000951   -0.00001275
     atom   14 type  1   force =    -0.00000000    0.00000000   -0.00000773
     atom   15 type  1   force =     0.00000000   -0.00000000   -0.00004987
     atom   16 type  2   force =    -0.00000000    0.00000000   -0.00000612
     atom   17 type  2   force =     0.00000000   -0.00000000   -0.00000168
     atom   18 type  2   force =     0.00000105    0.00000061   -0.00000030
     atom   19 type  2   force =     0.00000059    0.00000034   -0.00000218
     atom   20 type  2   force =     0.00000000   -0.00000121   -0.00000030
     atom   21 type  2   force =     0.00000000   -0.00000068   -0.00000218
     atom   22 type  2   force =    -0.00000105    0.00000061   -0.00000030
     atom   23 type  2   force =    -0.00000059    0.00000034   -0.00000218
     atom   24 type  2   force =     0.00000372   -0.00000215    0.00000342
     atom   25 type  2   force =     0.00000039   -0.00000023    0.00000008
     atom   26 type  2   force =    -0.00000000    0.00000430    0.00000342
     atom   27 type  2   force =     0.00000000    0.00000045    0.00000008
     atom   28 type  2   force =    -0.00000372   -0.00000215    0.00000342
     atom   29 type  2   force =    -0.00000039   -0.00000023    0.00000008
     atom   30 type  2   force =     0.00000000   -0.00000000    0.00000319
     atom   31 type  2   force =     0.00000000   -0.00000000   -0.00000068
     atom   32 type  2   force =    -0.00000000    0.00000000    0.00000446

     Total force =     0.000918     Total SCF correction =     0.000092
     SCF correction compared to forces is large: reduce conv_thr to get better values

     Computing stress (Cartesian axis) and pressure

     Non-local corr. energy    =       8.31171620 Ry

          total   stress  (Ry/bohr**3)                   (kbar)     P=     -111.53
  -0.00073582   0.00000000   0.00000000         -108.24        0.00        0.00
   0.00000000  -0.00073582   0.00000000            0.00     -108.24        0.00
   0.00000000  -0.00000000  -0.00080277            0.00       -0.00     -118.09

     kinetic stress (kbar)  17945.95     -0.00      0.00
                                0.00  17945.95      0.00
                                0.00     -0.00  17910.10

     local   stress (kbar)   4696.38     -0.07      0.00
                               -0.07   4696.29      0.00
                                0.00      0.00    569.29

     nonloc. stress (kbar)    267.36     -0.00     -0.00
                                0.00    267.36     -0.00
                               -0.00     -0.00    211.61

     hartree stress (kbar)  18691.46     -0.00      0.00
                               -0.00  18691.46     -0.00
                                0.00     -0.00  20116.65

     exc-cor stress (kbar)   4802.20      0.00     -0.00
                                0.00   4802.20      0.00
                               -0.00      0.00   4818.46

     corecor stress (kbar) -13305.38     -0.00     -0.00
                               -0.00 -13305.38     -0.00
                               -0.00     -0.00 -13307.91

     ewald   stress (kbar) -33361.07      0.09      0.00
                                0.09 -33360.96     -0.00
                                0.00     -0.00 -30586.94

     hubbard stress (kbar)      0.00      0.00      0.00
                                0.00      0.00      0.00
                                0.00      0.00      0.00

     DFT-D   stress (kbar)      0.00      0.00      0.00
                                0.00      0.00      0.00
                                0.00      0.00      0.00

     XDM     stress (kbar)      0.00      0.00      0.00
                                0.00      0.00      0.00
                                0.00      0.00      0.00

     dft-nl  stress (kbar)    154.85     -0.00      0.00
                               -0.00    154.85     -0.00
                                0.00     -0.00    150.65

     TS-vdW  stress (kbar)      0.00      0.00      0.00
                                0.00      0.00      0.00
                                0.00      0.00      0.00

     MDB     stress (kbar)      0.00      0.00      0.00
                                0.00      0.00      0.00
                                0.00      0.00      0.00

     3D-RISM stress (kbar)      0.00      0.00      0.00
                                0.00      0.00      0.00
                                0.00      0.00      0.00

     Energy error            =      2.3E-06 Ry
     Gradient error          =      6.1E-04 Ry/Bohr

     bfgs converged in  30 scf cycles and  29 bfgs steps
     (criteria: energy <  1.0E-04 Ry, force <  1.0E-03 Ry/Bohr)

     End of BFGS Geometry Optimization

     Final energy             =   -4743.0097512809 Ry

     File ./GaN.bfgs deleted, as requested
Begin final coordinates

ATOMIC_POSITIONS (angstrom)
Ga            1.6222756606        0.9366198184        7.9328483513
Ga            0.0315964617        3.7647225588        2.6292896379
Ga            0.0116842431        3.7532262340        7.9611484458
Ga            4.8668240777        0.9001370438        2.6292896379
Ga            4.8668240777        0.9231296934        7.9611484458
Ga            3.2129548595        3.7647225588        2.6292896379
Ga            3.2328670781        3.7532262340        7.9611484458
Ga           -0.1288107832        1.9476102525        5.3264709931
Ga            0.0195982460        1.8619262595       10.5744329383
Ga           -1.6222761733        4.5343681877        5.3264709931
Ga           -1.6222761733        4.7057361736       10.5744329383
Ga            3.3733552707        1.9476102525        5.3264709931
Ga            3.2249462415        1.8619262595       10.5744329383
Ga            1.6222722437        4.6831037996        5.3441600604
Ga            1.6222722437        4.6831037996       10.5603076553
N             1.6222756606        0.9366198184        4.1256549521
N             1.6222756606        0.9366198184        9.9029336119
N             0.0200250909        3.7580418248        4.6235005922
N            -0.0064768300        3.7427409336        9.9321591005
N             4.8668240777        0.9134985119        4.6235005922
N             4.8668240777        0.9441002942        9.9321591005
N             3.2245262303        3.7580418248        4.6235005922
N             3.2510281512        3.7427409336        9.9321591005
N            -0.0326435482        1.8920880735        1.9983314951
N             0.0092723573        1.8678879141        7.2512755110
N            -1.6222761733        4.6454125456        1.9983314951
N            -1.6222761733        4.6938128643        7.2512755110
N             3.2771880357        1.8920880735        1.9983314951
N             3.2352721302        1.8678879141        7.2512755110
N             1.6222722437        4.6831037996        1.9800427382
N             1.6222722437        4.6831037996        7.2977144276
N             1.6222756606        0.9366198184        2.9189324492
End final coordinates

     Writing all to output data dir ./GaN.save/

     General routines

     Parallel routines

     PAW routines

   This run was terminated on:   0:50:12  28Mar2024

   JOB DONE.