     Program PWSCF v.7.1 starts on 15Oct2023 at  6:50: 2

     Reading input from espresso.pwi
Warning: card &CELL ignored
Warning: card    CELL_DYNAMICS    = 'BFGS' ignored
Warning: card / ignored

     Current dimensions of program PWSCF are:
     Max number of different atomic species (ntypx) = 10
     Max number of k-points (npk) =  40000
     Max angular momentum in pseudopotentials (lmaxx) =  4
     file C.pbe-n-kjpaw_psl.1.0.0.UPF: wavefunction(s)  2S 2P renormalized

     IMPORTANT: XC functional enforced from input :
     Exchange-correlation= BEEF-VDW
                           (   1   4  43  14   2   0   0)
     Any further DFT definition will be discarded
     Please, verify this is what you really want

     Found identity + (  0.0000  0.0000  0.2000) symmetry
     This is a supercell, fractional translations are disabled

     R & G space division:  proc/nbgrp/npool/nimage =     256
     wavefunctions fft division:  task group distribution
                                  #TG    x Z-proc =       8     32
     Subspace diagonalization in iterative solution of the eigenvalue problem:
     a serial algorithm will be used

     Using Pencil Decomposition

     bravais-lattice index     =            1
     lattice parameter (alat)  =      33.7534  a.u.
     unit-cell volume          =   38454.8879 (a.u.)^3
     number of atoms/cell      =         1000
     number of atomic types    =            1
     number of electrons       =      4000.00
     number of Kohn-Sham states=         2400
     kinetic-energy cutoff     =      70.0000  Ry
     charge density cutoff     =     350.0000  Ry
     scf convergence threshold =      1.0E-08
     mixing beta               =       0.7000
     number of iterations used =            8  plain     mixing
     energy convergence thresh.=      1.0E-04
     force convergence thresh. =      1.0E-03
     Exchange-correlation= BEEF-VDW
                           (   1   4  43  14   2   0   0)
     nstep                     =           50

     celldm(1)=  33.753373  celldm(2)=   0.000000  celldm(3)=   0.000000
     celldm(4)=   0.000000  celldm(5)=   0.000000  celldm(6)=   0.000000

     crystal axes: (cart. coord. in units of alat)
               a(1) = (   1.000000   0.000000   0.000000 )
               a(2) = (   0.000000   1.000000   0.000000 )
               a(3) = (   0.000000   0.000000   1.000000 )

     reciprocal axes: (cart. coord. in units 2 pi/alat)
               b(1) = (  1.000000  0.000000  0.000000 )
               b(2) = (  0.000000  1.000000  0.000000 )
               b(3) = (  0.000000  0.000000  1.000000 )

     PseudoPot. # 1 for C  read from file:
     //group///packages/espresso/pseudo/psl_1.0.0/pslibrary.1.0.0/pbe/PSEUDOPOTENTIALS/C.pbe-n-kjpaw_psl.1.0.0.UPF
     MD5 check sum: 5459cf7f2c8c37df2f7cde8914797f4d
     Pseudo is Projector augmented-wave + core cor, Zval =  4.0
     Generated using 'atomic' code by A. Dal Corso  v.7.1
     Shape of augmentation charge: PSQ
     Using radial grid of 1073 points,  4 beta functions with:
                l(1) =   0
                l(2) =   0
                l(3) =   1
                l(4) =   1
     Q(r) pseudized with 0 coefficients

     atomic species   valence    mass     pseudopotential
        C              4.00    12.01100     C ( 1.00)

     24 Sym. Ops. (no inversion) found

                                    s                        frac. trans.

      isym =  1     identity

 cryst.   s( 1) = (     1          0          0      )
                  (     0          1          0      )
                  (     0          0          1      )

 cart.    s( 1) = (  1.0000000  0.0000000  0.0000000 )
                  (  0.0000000  1.0000000  0.0000000 )
                  (  0.0000000  0.0000000  1.0000000 )

      isym =  2     180 deg rotation - cart. axis [0,0,1]

[...]

 cryst.   s( 9) = (     0          1          0      )
                  (     0          0          1      )
                  (     1          0          0      )

 cart.    s( 9) = (  0.0000000  0.0000000  1.0000000 )
                  (  1.0000000  0.0000000  0.0000000 )
                  (  0.0000000  1.0000000  0.0000000 )

[...]

 cryst.   s(10) = (     0         -1          0      )
                  (     0          0         -1      )
                  (     1          0          0      )

 cart.    s(10) = (  0.0000000  0.0000000  1.0000000 )
                  ( -1.0000000  0.0000000  0.0000000 )
                  (  0.0000000 -1.0000000  0.0000000 )

[...]

      isym = 12     120 deg rotation - cart. axis [-1,-1,1]

[...]

      isym = 13     inv. 180 deg rotation - cart. axis [1,1,0]

[...]

      isym = 24     inv.  90 deg rotation - cart. axis [1,0,0]

 cryst.   s(24) = (    -1          0          0      )
                  (     0          0         -1      )
                  (     0          1          0      )

 cart.    s(24) = ( -1.0000000  0.0000000  0.0000000 )
                  (  0.0000000  0.0000000  1.0000000 )
                  (  0.0000000 -1.0000000  0.0000000 )

     point group T_d (-43m)
     there are  5 classes
     the character table:

       E     8C3   3C2   6S4   6s_d
A_1    1.00  1.00  1.00  1.00  1.00
A_2    1.00  1.00  1.00 -1.00 -1.00
E      2.00 -1.00  2.00  0.00  0.00
T_1    3.00  0.00 -1.00  1.00 -1.00
T_2    3.00  0.00 -1.00 -1.00  1.00

     the symmetry operations in each class and the name of the first element:

     E        1
          identity
     8C3      5    7    8    6   12    9   10   11
          120 deg rotation - cart. axis [-1,-1,-1]
     3C2      2    3    4
          180 deg rotation - cart. axis [0,0,1]
     6S4     15   16   20   19   23   24
          inv.  90 deg rotation - cart. axis [0,0,-1]
     6s_d    13   14   17   18   21   22
          inv. 180 deg rotation - cart. axis [1,1,0]

   Cartesian axes

     site n.     atom                  positions (alat units)
         1           C   tau(   1) = (   0.0500012   0.1499988   0.0500012  )
         2           C   tau(   2) = (   0.0500012   0.1499988   0.2500012  )
         3           C   tau(   3) = (   0.0500012   0.1499988   0.4500012  )
         4           C   tau(   4) = (   0.0500012   0.1499988   0.6500012  )
         5           C   tau(   5) = (   0.0500012   0.1499988   0.8500012  )
         6           C   tau(   6) = (   0.0500012   0.3499988   0.0500012  )
         7           C   tau(   7) = (   0.0500012   0.3499988   0.2500012  )
         8           C   tau(   8) = (   0.0500012   0.3499988   0.4500012  )
         9           C   tau(   9) = (   0.0500012   0.3499988   0.6500012  )
        10           C   tau(  10) = (   0.0500012   0.3499988   0.8500012  )
        11           C   tau(  11) = (   0.0500012   0.5499988   0.0500012  )
        12           C   tau(  12) = (   0.0500012   0.5499988   0.2500012  )
        13           C   tau(  13) = (   0.0500012   0.5499988   0.4500012  )
        14           C   tau(  14) = (   0.0500012   0.5499988   0.6500012  )
        15           C   tau(  15) = (   0.0500012   0.5499988   0.8500012  )
        16           C   tau(  16) = (   0.0500012   0.7499988   0.0500012  )
        17           C   tau(  17) = (   0.0500012   0.7499988   0.2500012  )
        18           C   tau(  18) = (   0.0500012   0.7499988   0.4500012  )
        19           C   tau(  19) = (   0.0500012   0.7499988   0.6500012  )
        20           C   tau(  20) = (   0.0500012   0.7499988   0.8500012  )
        21           C   tau(  21) = (   0.0500012   0.9499988   0.0500012  )
        22           C   tau(  22) = (   0.0500012   0.9499988   0.2500012  )
        23           C   tau(  23) = (   0.0500012   0.9499988   0.4500012  )
        24           C   tau(  24) = (   0.0500012   0.9499988   0.6500012  )
        25           C   tau(  25) = (   0.0500012   0.9499988   0.8500012  )
        26           C   tau(  26) = (   0.2500012   0.1499988   0.0500012  )
        27           C   tau(  27) = (   0.2500012   0.1499988   0.2500012  )
        28           C   tau(  28) = (   0.2500012   0.1499988   0.4500012  )
        29           C   tau(  29) = (   0.2500012   0.1499988   0.6500012  )
        30           C   tau(  30) = (   0.2500012   0.1499988   0.8500012  )
        31           C   tau(  31) = (   0.2500012   0.3499988   0.0500012  )
        32           C   tau(  32) = (   0.2500012   0.3499988   0.2500012  )
        33           C   tau(  33) = (   0.2500012   0.3499988   0.4500012  )
        34           C   tau(  34) = (   0.2500012   0.3499988   0.6500012  )
        35           C   tau(  35) = (   0.2500012   0.3499988   0.8500012  )
        36           C   tau(  36) = (   0.2500012   0.5499988   0.0500012  )
        37           C   tau(  37) = (   0.2500012   0.5499988   0.2500012  )
        38           C   tau(  38) = (   0.2500012   0.5499988   0.4500012  )
        39           C   tau(  39) = (   0.2500012   0.5499988   0.6500012  )
        40           C   tau(  40) = (   0.2500012   0.5499988   0.8500012  )
        41           C   tau(  41) = (   0.2500012   0.7499988   0.0500012  )
        42           C   tau(  42) = (   0.2500012   0.7499988   0.2500012  )
        43           C   tau(  43) = (   0.2500012   0.7499988   0.4500012  )
        44           C   tau(  44) = (   0.2500012   0.7499988   0.6500012  )
        45           C   tau(  45) = (   0.2500012   0.7499988   0.8500012  )
        46           C   tau(  46) = (   0.2500012   0.9499988   0.0500012  )
        47           C   tau(  47) = (   0.2500012   0.9499988   0.2500012  )
        48           C   tau(  48) = (   0.2500012   0.9499988   0.4500012  )
        49           C   tau(  49) = (   0.2500012   0.9499988   0.6500012  )
        50           C   tau(  50) = (   0.2500012   0.9499988   0.8500012  )
        51           C   tau(  51) = (   0.4500012   0.1499988   0.0500012  )
        52           C   tau(  52) = (   0.4500012   0.1499988   0.2500012  )
        53           C   tau(  53) = (   0.4500012   0.1499988   0.4500012  )
        54           C   tau(  54) = (   0.4500012   0.1499988   0.6500012  )
        55           C   tau(  55) = (   0.4500012   0.1499988   0.8500012  )
        56           C   tau(  56) = (   0.4500012   0.3499988   0.0500012  )
        57           C   tau(  57) = (   0.4500012   0.3499988   0.2500012  )
        58           C   tau(  58) = (   0.4500012   0.3499988   0.4500012  )
        59           C   tau(  59) = (   0.4500012   0.3499988   0.6500012  )
        60           C   tau(  60) = (   0.4500012   0.3499988   0.8500012  )
[...]
       985           C   tau( 985) = (   0.9000000   0.3000000   0.9000000  )
       986           C   tau( 986) = (   0.9000000   0.5000000   0.1000000  )
       987           C   tau( 987) = (   0.9000000   0.5000000   0.3000000  )
       988           C   tau( 988) = (   0.9000000   0.5000000   0.5000000  )
       989           C   tau( 989) = (   0.9000000   0.5000000   0.7000000  )
       990           C   tau( 990) = (   0.9000000   0.5000000   0.9000000  )
       991           C   tau( 991) = (   0.9000000   0.7000000   0.1000000  )
[...]
     atom   44 type  1   force =     0.00000000    0.00000000    0.00000000
     atom   45 type  1   force =     0.00000000    0.00000000    0.00000000
     atom   46 type  1   force =     0.00000000    0.00000000    0.00000000
     atom   47 type  1   force =     0.00000000    0.00000000    0.00000000
     atom   48 type  1   force =     0.00000000    0.00000000    0.00000000
     atom   49 type  1   force =     0.00000000    0.00000000    0.00000000
     atom   50 type  1   force =     0.00000000    0.00000000    0.00000000
     atom   51 type  1   force =     0.00000000    0.00000000    0.00000000
     atom   52 type  1   force =     0.00000000    0.00000000    0.00000000
     atom   53 type  1   force =     0.00000000    0.00000000    0.00000000
     atom   54 type  1   force =     0.00000000    0.00000000    0.00000000
     atom   55 type  1   force =     0.00000000    0.00000000    0.00000000
     atom   56 type  1   force =     0.00000000    0.00000000    0.00000000
     atom   57 type  1   force =     0.00000000    0.00000000    0.00000000
     atom   58 type  1   force =     0.00000000    0.00000000    0.00000000
     atom   59 type  1   force =     0.00000000    0.00000000    0.00000000
     atom   60 type  1   force =     0.00000000    0.00000000    0.00000000
[...]
     atom  986 type  1   force =     0.00000000    0.00000000    0.00000000
     atom  987 type  1   force =     0.00000000    0.00000000    0.00000000
     atom  988 type  1   force =     0.00000000    0.00000000    0.00000000
     atom  989 type  1   force =     0.00000000    0.00000000    0.00000000
     atom  990 type  1   force =     0.00000000    0.00000000    0.00000000
     atom  991 type  1   force =     0.00000000    0.00000000    0.00000000
     atom  992 type  1   force =     0.00000000    0.00000000    0.00000000
     atom  993 type  1   force =     0.00000000    0.00000000    0.00000000
     atom  994 type  1   force =     0.00000000    0.00000000    0.00000000
     atom  995 type  1   force =     0.00000000    0.00000000    0.00000000
     atom  996 type  1   force =     0.00000000    0.00000000    0.00000000
     atom  997 type  1   force =     0.00000000    0.00000000    0.00000000
     atom  998 type  1   force =     0.00000000    0.00000000    0.00000000
     atom  999 type  1   force =     0.00000000    0.00000000    0.00000000
     atom 1000 type  1   force =     0.00000000    0.00000000    0.00000000
     The SCF correction term to forces
     atom    1 type  1   force =     0.00000092    0.00000068    0.00000092
     atom    2 type  1   force =     0.00000141    0.00000260    0.00000530
     atom    3 type  1   force =     0.00000086   -0.00000270    0.00000160
     atom    4 type  1   force =     0.00000121   -0.00000098   -0.00000529
     atom    5 type  1   force =     0.00000082    0.00000244   -0.00000244
     atom    6 type  1   force =    -0.00000001    0.00000768   -0.00000001
     atom    7 type  1   force =     0.00000245    0.00000222   -0.00000033
     atom    8 type  1   force =     0.00000186   -0.00000241   -0.00000188
     atom    9 type  1   force =     0.00000039   -0.00000051    0.00000051
     atom   10 type  1   force =     0.00000121    0.00000529    0.00000098
     atom   11 type  1   force =    -0.00000038   -0.00000221   -0.00000038
     atom   12 type  1   force =     0.00000177   -0.00000032   -0.00000360
     atom   13 type  1   force =    -0.00000036    0.00000161   -0.00000161
     atom   14 type  1   force =     0.00000186    0.00000188    0.00000241
     atom   15 type  1   force =     0.00000086   -0.00000160    0.00000270
     atom   16 type  1   force =     0.00000176   -0.00000682    0.00000176
     atom   17 type  1   force =    -0.00000006   -0.00000268    0.00000268
     atom   18 type  1   force =     0.00000177    0.00000360    0.00000032
     atom   19 type  1   force =     0.00000245    0.00000033   -0.00000222
     atom   20 type  1   force =     0.00000141   -0.00000530   -0.00000260
     atom   21 type  1   force =    -0.00000061    0.00000061   -0.00000061
     atom   22 type  1   force =     0.00000176   -0.00000176    0.00000682
     atom   23 type  1   force =    -0.00000038    0.00000038    0.00000221
     atom   24 type  1   force =    -0.00000001    0.00000001   -0.00000768
     atom   25 type  1   force =     0.00000092   -0.00000092   -0.00000068
     atom   26 type  1   force =     0.00000530    0.00000260    0.00000141
     atom   27 type  1   force =     0.00000295    0.00000303    0.00000295
     atom   28 type  1   force =    -0.00000367   -0.00000060   -0.00000105
     atom   29 type  1   force =    -0.00000157   -0.00000234   -0.00000374
     atom   30 type  1   force =     0.00000503   -0.00000050    0.00000050
     atom   31 type  1   force =    -0.00000033    0.00000222    0.00000245
     atom   32 type  1   force =    -0.00000364   -0.00000223   -0.00000364
     atom   33 type  1   force =    -0.00001053   -0.00000833   -0.00000487
     atom   34 type  1   force =    -0.00000830   -0.00000281    0.00000281
     atom   35 type  1   force =    -0.00000157    0.00000374    0.00000234
     atom   36 type  1   force =    -0.00000360   -0.00000032    0.00000177
     atom   37 type  1   force =    -0.00000691   -0.00000198   -0.00000691
     atom   38 type  1   force =    -0.00001329    0.00000353   -0.00000353
     atom   39 type  1   force =    -0.00001053    0.00000487    0.00000833
     atom   40 type  1   force =    -0.00000367    0.00000105    0.00000060
     atom   41 type  1   force =     0.00000268   -0.00000268   -0.00000006
     atom   42 type  1   force =    -0.00000024    0.00000024   -0.00000024
     atom   43 type  1   force =    -0.00000691    0.00000691    0.00000198
     atom   44 type  1   force =    -0.00000364    0.00000364    0.00000223
     atom   45 type  1   force =     0.00000295   -0.00000295   -0.00000303
     atom   46 type  1   force =     0.00000682   -0.00000176    0.00000176
     atom   47 type  1   force =     0.00000268    0.00000006    0.00000268
     atom   48 type  1   force =    -0.00000360   -0.00000177    0.00000032
     atom   49 type  1   force =    -0.00000033   -0.00000245   -0.00000222
     atom   50 type  1   force =     0.00000530   -0.00000141   -0.00000260
     atom   51 type  1   force =     0.00000160   -0.00000270    0.00000086
     atom   52 type  1   force =    -0.00000105   -0.00000060   -0.00000367
     atom   53 type  1   force =    -0.00000393   -0.00000589   -0.00000393
     atom   54 type  1   force =     0.00000015   -0.00000389    0.00000440
     atom   55 type  1   force =     0.00000164   -0.00000118    0.00000118
     atom   56 type  1   force =    -0.00000188   -0.00000241    0.00000186
     atom   57 type  1   force =    -0.00000487   -0.00000833   -0.00001053
     atom   58 type  1   force =    -0.00000686   -0.00001559   -0.00000686
     atom   59 type  1   force =    -0.00000226   -0.00001137    0.00001137
     atom   60 type  1   force =     0.00000015   -0.00000440    0.00000389
[...]
     atom  986 type  1   force =     0.00000061   -0.00000007   -0.00000061
     atom  987 type  1   force =    -0.00000150    0.00000107   -0.00000357
     atom  988 type  1   force =     0.00000273   -0.00000000   -0.00000000
     atom  989 type  1   force =    -0.00000150   -0.00000107    0.00000357
     atom  990 type  1   force =     0.00000061    0.00000007    0.00000061
     atom  991 type  1   force =    -0.00000185   -0.00000723    0.00000185
     atom  992 type  1   force =    -0.00000368   -0.00000161    0.00000161
     atom  993 type  1   force =    -0.00000150    0.00000357   -0.00000107
     atom  994 type  1   force =     0.00000095   -0.00000151   -0.00000151
     atom  995 type  1   force =    -0.00000051   -0.00000700   -0.00000051
     atom  996 type  1   force =    -0.00000138   -0.00000138    0.00000138
     atom  997 type  1   force =    -0.00000185   -0.00000185    0.00000723
     atom  998 type  1   force =     0.00000061    0.00000061    0.00000007
     atom  999 type  1   force =    -0.00000051   -0.00000051   -0.00000700
     atom 1000 type  1   force =    -0.00000132   -0.00000132   -0.00000132

     Total force =     0.024637     Total SCF correction =     0.000235

     Computing stress (Cartesian axis) and pressure

     Non-local corr. energy    =      34.18200341 Ry

          total   stress  (Ry/bohr**3)                   (kbar)     P=       -0.26
  -0.00000176   0.00000000   0.00000000           -0.26        0.00        0.00
   0.00000000  -0.00000176   0.00000000            0.00       -0.26        0.00
   0.00000000   0.00000000  -0.00000176            0.00        0.00       -0.26

     kinetic stress (kbar)  18998.62      0.00      0.00
                                0.00  18998.62      0.00
                                0.00      0.00  18998.62

     local   stress (kbar)  -3483.75     -0.00     -0.00
                               -0.00  -3483.75     -0.00
                               -0.00     -0.00  -3483.75

     nonloc. stress (kbar)   4322.75      0.00      0.00
                                0.00   4322.75      0.00
                                0.00      0.00   4322.75

     hartree stress (kbar)   1267.01      0.00     -0.00
                                0.00   1267.01      0.00
                               -0.00      0.00   1267.01

     exc-cor stress (kbar)   -414.45      0.00      0.00
                                0.00   -414.45      0.00
                                0.00      0.00   -414.45

     corecor stress (kbar)  -4435.11     -0.00     -0.00
                               -0.00  -4435.11     -0.00
                               -0.00     -0.00  -4435.11

     ewald   stress (kbar) -16280.15      0.00      0.00
                                0.00 -16280.15      0.00
                                0.00      0.00 -16280.15

     hubbard stress (kbar)      0.00      0.00      0.00
                                0.00      0.00      0.00
                                0.00      0.00      0.00

     DFT-D   stress (kbar)      0.00      0.00      0.00
                                0.00      0.00      0.00
                                0.00      0.00      0.00

     XDM     stress (kbar)      0.00      0.00      0.00
                                0.00      0.00      0.00
                                0.00      0.00      0.00

     dft-nl  stress (kbar)     24.82     -0.00     -0.00
                               -0.00     24.82     -0.00
                               -0.00     -0.00     24.82

     TS-vdW  stress (kbar)      0.00      0.00      0.00
                                0.00      0.00      0.00
                                0.00      0.00      0.00

     MDB     stress (kbar)      0.00      0.00      0.00
                                0.00      0.00      0.00
                                0.00      0.00      0.00

     3D-RISM stress (kbar)      0.00      0.00      0.00
                                0.00      0.00      0.00
                                0.00      0.00      0.00

     BFGS Geometry Optimization
     Energy error            =      0.0E+00 Ry
     Gradient error          =      8.7E-04 Ry/Bohr

     bfgs converged in   1 scf cycles and   0 bfgs steps
     (criteria: energy <  1.0E-04 Ry, force <  1.0E-03 Ry/Bohr)

     End of BFGS Geometry Optimization

     Final energy             =  -18992.8284548265 Ry
Begin final coordinates

ATOMIC_POSITIONS (angstrom)
C             0.8930972856        2.6792058914        0.8930972856
C             0.8930972856        2.6792058914        4.4654004618
C             0.8930972856        2.6792058914        8.0377036379
C             0.8930972856        2.6792058914       11.6100068141
C             0.8930972856        2.6792058914       15.1823099903
C             0.8930972856        6.2515090676        0.8930972856
C             0.8930972856        6.2515090676        4.4654004618
C             0.8930972856        6.2515090676        8.0377036379
C             0.8930972856        6.2515090676       11.6100068141
C             0.8930972856        6.2515090676       15.1823099903
C             0.8930972856        9.8238122437        0.8930972856
C             0.8930972856        9.8238122437        4.4654004618
C             0.8930972856        9.8238122437        8.0377036379
C             0.8930972856        9.8238122437       11.6100068141
C             0.8930972856        9.8238122437       15.1823099903
C             0.8930972856       13.3961154199        0.8930972856
C             0.8930972856       13.3961154199        4.4654004618
C             0.8930972856       13.3961154199        8.0377036379
C             0.8930972856       13.3961154199       11.6100068141
C             0.8930972856       13.3961154199       15.1823099903
C             0.8930972856       16.9684185961        0.8930972856
C             0.8930972856       16.9684185961        4.4654004618
C             0.8930972856       16.9684185961        8.0377036379
C             0.8930972856       16.9684185961       11.6100068141
C             0.8930972856       16.9684185961       15.1823099903
C             4.4654004618        2.6792058914        0.8930972856
C             4.4654004618        2.6792058914        4.4654004618
C             4.4654004618        2.6792058914        8.0377036379
C             4.4654004618        2.6792058914       11.6100068141
C             4.4654004618        2.6792058914       15.1823099903
C             4.4654004618        6.2515090676        0.8930972856
C             4.4654004618        6.2515090676        4.4654004618
C             4.4654004618        6.2515090676        8.0377036379
C             4.4654004618        6.2515090676       11.6100068141
C             4.4654004618        6.2515090676       15.1823099903
C             4.4654004618        9.8238122437        0.8930972856
C             4.4654004618        9.8238122437        4.4654004618
C             4.4654004618        9.8238122437        8.0377036379
C             4.4654004618        9.8238122437       11.6100068141
C             4.4654004618        9.8238122437       15.1823099903
C             4.4654004618       13.3961154199        0.8930972856
C             4.4654004618       13.3961154199        4.4654004618
C             4.4654004618       13.3961154199        8.0377036379
C             4.4654004618       13.3961154199       11.6100068141
C             4.4654004618       13.3961154199       15.1823099903
C             4.4654004618       16.9684185961        0.8930972856
C             4.4654004618       16.9684185961        4.4654004618
C             4.4654004618       16.9684185961        8.0377036379
C             4.4654004618       16.9684185961       11.6100068141
C             4.4654004618       16.9684185961       15.1823099903
C             8.0377036379        2.6792058914        0.8930972856
C             8.0377036379        2.6792058914        4.4654004618
C             8.0377036379        2.6792058914        8.0377036379
C             8.0377036379        2.6792058914       11.6100068141
C             8.0377036379        2.6792058914       15.1823099903
C             8.0377036379        6.2515090676        0.8930972856
C             8.0377036379        6.2515090676        4.4654004618
C             8.0377036379        6.2515090676        8.0377036379
C             8.0377036379        6.2515090676       11.6100068141
C             8.0377036379        6.2515090676       15.1823099903
[...]
C            16.0753642932        8.9307579408        1.7861515885
C            16.0753642932        8.9307579408        5.3584547647
C            16.0753642932        8.9307579408        8.9307579408
C            16.0753642932        8.9307579408       12.5030611170
C            16.0753642932        8.9307579408       16.0753642932
C            16.0753642932       12.5030611170        1.7861515885
C            16.0753642932       12.5030611170        5.3584547647
C            16.0753642932       12.5030611170        8.9307579408
C            16.0753642932       12.5030611170       12.5030611170
C            16.0753642932       12.5030611170       16.0753642932
C            16.0753642932       16.0753642932        1.7861515885
C            16.0753642932       16.0753642932        5.3584547647
C            16.0753642932       16.0753642932        8.9307579408
C            16.0753642932       16.0753642932       12.5030611170
C            16.0753642932       16.0753642932       16.0753642932
End final coordinates

     Writing all to output data dir ./diamond.save/

     General routines

     Parallel routines

     PAW routines

   This run was terminated on:  23:18: 3  15Oct2023

   JOB DONE.