     Program PWSCF v.7.1 starts on 27Sep2023 at  8:16:53

     Reading input from espresso.pwi

     Current dimensions of program PWSCF are:
     Max number of different atomic species (ntypx) = 10
     Max number of k-points (npk) =  40000
     Max angular momentum in pseudopotentials (lmaxx) =  4
     file Ga.pbe-dn-kjpaw_psl.1.0.0.UPF: wavefunction(s)  4S renormalized
     file N.pbe-n-kjpaw_psl.1.0.0.UPF: wavefunction(s)  2S renormalized

     IMPORTANT: XC functional enforced from input :
     Exchange-correlation= BEEF-VDW
                           (   1   4  43  14   2   0   0)
     Any further DFT definition will be discarded
     Please, verify this is what you really want

     K-points division:     npool     =       8
     R & G space division:  proc/nbgrp/npool/nimage =      16
     Subspace diagonalization in iterative solution of the eigenvalue problem:
     a serial algorithm will be used

     Using Slab Decomposition

     bravais-lattice index     =            4
     lattice parameter (alat)  =       6.0262  a.u.
     unit-cell volume          =     308.5899 (a.u.)^3
     number of atoms/cell      =            4
     number of atomic types    =            2
     number of electrons       =        36.00
     number of Kohn-Sham states=           22
     kinetic-energy cutoff     =      70.0000  Ry
     charge density cutoff     =     350.0000  Ry
     scf convergence threshold =      1.0E-09
     mixing beta               =       0.7000
     number of iterations used =            8  plain     mixing
     energy convergence thresh.=      1.0E-04
     force convergence thresh. =      1.0E-03
     press convergence thresh. =      5.0E-01
     Exchange-correlation= BEEF-VDW
                           (   1   4  43  14   2   0   0)
     nstep                     =           50

     celldm(1)=   6.026204  celldm(2)=   0.000000  celldm(3)=   1.628244
     celldm(4)=   0.000000  celldm(5)=   0.000000  celldm(6)=   0.000000

     crystal axes: (cart. coord. in units of alat)
               a(1) = (   1.000000   0.000000   0.000000 )
               a(2) = (  -0.500000   0.866025   0.000000 )
               a(3) = (   0.000000   0.000000   1.628244 )

     reciprocal axes: (cart. coord. in units 2 pi/alat)
               b(1) = (  1.000000  0.577350 -0.000000 )
               b(2) = (  0.000000  1.154701  0.000000 )
               b(3) = (  0.000000 -0.000000  0.614158 )

     PseudoPot. # 1 for Ga read from file:
     /trace/group/acmegroup/atimmins/packages/espresso/pseudo/psl_1.0.0/pslibrary.1.0.0/pbe/PSEUDOPOTENTIALS/Ga.pbe-dn-kjpaw_psl.1.0.0.UPF
     MD5 check sum: cd2a01e492f15b435d17032472d8505c
     Pseudo is Projector augmented-wave + core cor, Zval = 13.0
     Generated using 'atomic' code by A. Dal Corso  v.7.1
     Shape of augmentation charge: PSQ
     Using radial grid of 1205 points,  6 beta functions with:
                l(1) =   0
                l(2) =   0
                l(3) =   1
                l(4) =   1
                l(5) =   2
                l(6) =   2
     Q(r) pseudized with 0 coefficients

     PseudoPot. # 2 for N  read from file:
     /trace/group/acmegroup/atimmins/packages/espresso/pseudo/psl_1.0.0/pslibrary.1.0.0/pbe/PSEUDOPOTENTIALS/N.pbe-n-kjpaw_psl.1.0.0.UPF
     MD5 check sum: f77f775694dac7e2c3fe1c82443d1a16
     Pseudo is Projector augmented-wave + core cor, Zval =  5.0
     Generated using 'atomic' code by A. Dal Corso  v.7.1
     Shape of augmentation charge: PSQ
     Using radial grid of 1085 points,  4 beta functions with:
                l(1) =   0
                l(2) =   0
                l(3) =   1
                l(4) =   1
     Q(r) pseudized with 0 coefficients

     atomic species   valence    mass     pseudopotential
        Ga            13.00    69.72300     Ga( 1.00)
        N              5.00    14.00700     N ( 1.00)

     12 Sym. Ops. (no inversion) found ( 6 have fractional translation)

                                    s                        frac. trans.

      isym =  1     identity

 cryst.   s( 1) = (     1          0          0      )
                  (     0          1          0      )
                  (     0          0          1      )

 cart.    s( 1) = (  1.0000000  0.0000000  0.0000000 )
                  (  0.0000000  1.0000000  0.0000000 )
                  (  0.0000000  0.0000000  1.0000000 )

      isym =  2     180 deg rotation - cart. axis [0,0,1]

 cryst.   s( 2) = (    -1          0          0      )    f =(  0.0000000 )
                  (     0         -1          0      )       ( -0.0000003 )
                  (     0          0          1      )       (  0.5000000 )

 cart.    s( 2) = ( -1.0000000  0.0000000  0.0000000 )    f =(  0.0000002 )
                  (  0.0000000 -1.0000000  0.0000000 )       ( -0.0000003 )
                  (  0.0000000  0.0000000  1.0000000 )       (  0.8141222 )

      isym =  3      60 deg rotation - cryst. axis [0,0,1]

[...]

      isym =  7     inv. 180 deg rotation - cart. axis [0,1,0]

[...]

      isym =  9     inv. 180 deg rotation - cryst. axis [1,-1,0]

[...]

 cryst.   s(10) = (    -1         -1          0      )    f =(  0.0000000 )
                  (     0          1          0      )       (  0.0000011 )
                  (     0          0          1      )       (  0.5000000 )

 cart.    s(10) = ( -0.5000000 -0.8660254  0.0000000 )    f =( -0.0000006 )
                  ( -0.8660254  0.5000000  0.0000000 )       (  0.0000010 )
                  (  0.0000000  0.0000000  1.0000000 )       (  0.8141222 )

[...]

 cryst.   s(11) = (     1          1          0      )
                  (     0         -1          0      )
                  (     0          0          1      )

 cart.    s(11) = (  0.5000000  0.8660254  0.0000000 )
                  (  0.8660254 -0.5000000  0.0000000 )
                  (  0.0000000  0.0000000  1.0000000 )

[...]

     point group C_6v (6mm)
     there are  6 classes
     the character table:

       E     2C6   2C3   C2    3s_v  3s_d
A_1    1.00  1.00  1.00  1.00  1.00  1.00
A_2    1.00  1.00  1.00  1.00 -1.00 -1.00
B_1    1.00 -1.00  1.00 -1.00  1.00 -1.00
B_2    1.00 -1.00  1.00 -1.00 -1.00  1.00
E_1    2.00  1.00 -1.00 -2.00  0.00  0.00
E_2    2.00 -1.00 -1.00  2.00  0.00  0.00

     the symmetry operations in each class and the name of the first element:

     E        1
          identity
     2C6      3    4
           60 deg rotation - cryst. axis [0,0,1]
     2C3      5    6
          120 deg rotation - cryst. axis [0,0,1]
     C2       2
          180 deg rotation - cart. axis [0,0,1]
     3s_v     8   12   11
          inv. 180 deg rotation - cart. axis [1,0,0]
     3s_d     7    9   10
          inv. 180 deg rotation - cart. axis [0,1,0]

   Cartesian axes

     site n.     atom                  positions (alat units)
         1           Ga  tau(   1) = (   0.5000004   0.2886749   0.8126303  )
         2           Ga  tau(   2) = (  -0.0000006   0.5773507   1.6267525  )
         3           N   tau(   3) = (   0.5000004   0.2886749   1.4262058  )
         4           N   tau(   4) = (  -0.0000006   0.5773507   0.6120836  )

   Crystallographic axes

     site n.     atom                  positions (cryst. coord.)
         1           Ga  tau(   1) = (  0.6666670  0.3333331  0.4990837  )
         2           Ga  tau(   2) = (  0.3333330  0.6666672  0.9990837  )
         3           N   tau(   3) = (  0.6666670  0.3333331  0.8759163  )
         4           N   tau(   4) = (  0.3333330  0.6666672  0.3759163  )

     number of k points=    21  Gaussian smearing, width (Ry)=  0.0100
                       cart. coord. in units 2pi/alat
        k(    1) = (   0.0000000   0.0000000   0.0000000), wk =   0.0138889
        k(    2) = (   0.0000000   0.0000000   0.1535396), wk =   0.0277778
        k(    3) = (   0.0000000   0.0000000  -0.3070792), wk =   0.0138889
        k(    4) = (   0.0000000   0.1924501   0.0000000), wk =   0.0833333
        k(    5) = (   0.0000000   0.1924501   0.1535396), wk =   0.1666667
        k(    6) = (   0.0000000   0.1924501  -0.3070792), wk =   0.0833333
        k(    7) = (   0.0000000   0.3849002   0.0000000), wk =   0.0833333
        k(    8) = (   0.0000000   0.3849002   0.1535396), wk =   0.1666667
        k(    9) = (   0.0000000   0.3849002  -0.3070792), wk =   0.0833333
        k(   10) = (   0.0000000  -0.5773503   0.0000000), wk =   0.0416667
        k(   11) = (   0.0000000  -0.5773503   0.1535396), wk =   0.0833333
        k(   12) = (   0.0000000  -0.5773503  -0.3070792), wk =   0.0416667
        k(   13) = (   0.1666667   0.2886751   0.0000000), wk =   0.0833333
        k(   14) = (   0.1666667   0.2886751   0.1535396), wk =   0.1666667
        k(   15) = (   0.1666667   0.2886751  -0.3070792), wk =   0.0833333
        k(   16) = (   0.1666667   0.4811252   0.0000000), wk =   0.1666667
        k(   17) = (   0.1666667   0.4811252   0.1535396), wk =   0.3333333
        k(   18) = (   0.1666667   0.4811252  -0.3070792), wk =   0.1666667
        k(   19) = (   0.3333333   0.5773503   0.0000000), wk =   0.0277778
        k(   20) = (   0.3333333   0.5773503   0.1535396), wk =   0.0555556
        k(   21) = (   0.3333333   0.5773503  -0.3070792), wk =   0.0277778

                       cryst. coord.
        k(    1) = (   0.0000000   0.0000000   0.0000000), wk =   0.0138889
        k(    2) = (   0.0000000   0.0000000   0.2500000), wk =   0.0277778
        k(    3) = (   0.0000000   0.0000000  -0.5000000), wk =   0.0138889
        k(    4) = (   0.0000000   0.1666667   0.0000000), wk =   0.0833333
        k(    5) = (   0.0000000   0.1666667   0.2500000), wk =   0.1666667
        k(    6) = (   0.0000000   0.1666667  -0.5000000), wk =   0.0833333
        k(    7) = (   0.0000000   0.3333333   0.0000000), wk =   0.0833333
        k(    8) = (   0.0000000   0.3333333   0.2500000), wk =   0.1666667
        k(    9) = (   0.0000000   0.3333333  -0.5000000), wk =   0.0833333
        k(   10) = (   0.0000000  -0.5000000   0.0000000), wk =   0.0416667
        k(   11) = (   0.0000000  -0.5000000   0.2500000), wk =   0.0833333
        k(   12) = (   0.0000000  -0.5000000  -0.5000000), wk =   0.0416667
        k(   13) = (   0.1666667   0.1666667   0.0000000), wk =   0.0833333
        k(   14) = (   0.1666667   0.1666667   0.2500000), wk =   0.1666667
        k(   15) = (   0.1666667   0.1666667  -0.5000000), wk =   0.0833333
        k(   16) = (   0.1666667   0.3333333   0.0000000), wk =   0.1666667
        k(   17) = (   0.1666667   0.3333333   0.2500000), wk =   0.3333333
        k(   18) = (   0.1666667   0.3333333  -0.5000000), wk =   0.1666667
        k(   19) = (   0.3333333   0.3333333   0.0000000), wk =   0.0277778
        k(   20) = (   0.3333333   0.3333333   0.2500000), wk =   0.0555556
        k(   21) = (   0.3333333   0.3333333  -0.5000000), wk =   0.0277778

     Atomic positions and unit cell read from directory:
     ./GaN.save/
     Atomic positions from file used, from input discarded

     Check: negative core charge=   -0.000004

     The initial density is read from file :
     ./GaN.save/charge-density

[...]

     crystal axes: (cart. coord. in units of alat)
               a(1) = (   1.017441  -0.000000   0.000000 )
               a(2) = (  -0.508721   0.881130   0.000000 )
               a(3) = (   0.000000   0.000000   1.658306 )

     reciprocal axes: (cart. coord. in units 2 pi/alat)
               b(1) = (  0.982858  0.567453 -0.000000 )
               b(2) = (  0.000000  1.134906 -0.000000 )
               b(3) = ( -0.000000 -0.000000  0.603025 )

     PseudoPot. # 1 for Ga read from file:
     /trace/group/acmegroup/atimmins/packages/espresso/pseudo/psl_1.0.0/pslibrary.1.0.0/pbe/PSEUDOPOTENTIALS/Ga.pbe-dn-kjpaw_psl.1.0.0.UPF
     MD5 check sum: cd2a01e492f15b435d17032472d8505c
     Pseudo is Projector augmented-wave + core cor, Zval = 13.0
     Generated using 'atomic' code by A. Dal Corso  v.7.1
     Shape of augmentation charge: PSQ
     Using radial grid of 1205 points,  6 beta functions with:
                l(1) =   0
                l(2) =   0
                l(3) =   1
                l(4) =   1
                l(5) =   2
                l(6) =   2
     Q(r) pseudized with 0 coefficients

     PseudoPot. # 2 for N  read from file:
     /trace/group/acmegroup/atimmins/packages/espresso/pseudo/psl_1.0.0/pslibrary.1.0.0/pbe/PSEUDOPOTENTIALS/N.pbe-n-kjpaw_psl.1.0.0.UPF
     MD5 check sum: f77f775694dac7e2c3fe1c82443d1a16
     Pseudo is Projector augmented-wave + core cor, Zval =  5.0
     Generated using 'atomic' code by A. Dal Corso  v.7.1
     Shape of augmentation charge: PSQ
     Using radial grid of 1085 points,  4 beta functions with:
                l(1) =   0
                l(2) =   0
                l(3) =   1
                l(4) =   1
     Q(r) pseudized with 0 coefficients

     atomic species   valence    mass     pseudopotential
        Ga            13.00    69.72300     Ga( 1.00)
        N              5.00    14.00700     N ( 1.00)

     12 Sym. Ops. (no inversion) found ( 6 have fractional translation)

                                    s                        frac. trans.

      isym =  1     identity

[...]

      isym =  2     180 deg rotation - cart. axis [0,0,1]

[...]

      isym =  6     120 deg rotation - cryst. axis [0,0,-1]

[...]

      isym =  8     inv. 180 deg rotation - cart. axis [1,0,0]

 cryst.   s( 8) = (    -1          0          0      )
                  (     1          1          0      )
                  (     0          0          1      )

 cart.    s( 8) = ( -1.0000000  0.0000000  0.0000000 )
                  (  0.0000000  1.0000000  0.0000000 )
                  (  0.0000000  0.0000000  1.0000000 )

[...]

 cryst.   s( 9) = (     0          1          0      )    f =(  0.0000002 )
                  (     1          0          0      )       ( -0.0000001 )
                  (     0          0          1      )       (  0.5000000 )

 cart.    s( 9) = ( -0.5000000  0.8660254  0.0000000 )    f =(  0.0000003 )
                  (  0.8660254  0.5000000  0.0000000 )       ( -0.0000001 )
                  (  0.0000000  0.0000000  1.0000000 )       (  0.8291530 )

[...]

 cryst.   s(10) = (    -1         -1          0      )    f =(  0.0000000 )
                  (     0          1          0      )       (  0.0000011 )
                  (     0          0          1      )       (  0.5000000 )

 cart.    s(10) = ( -0.5000000 -0.8660254  0.0000000 )    f =( -0.0000006 )
                  ( -0.8660254  0.5000000  0.0000000 )       (  0.0000010 )
                  (  0.0000000  0.0000000  1.0000000 )       (  0.8291530 )

[...]

      isym = 12     inv. 180 deg rotation - cryst. axis [1,1,0]

 cryst.   s(12) = (     0         -1          0      )
                  (    -1          0          0      )
                  (     0          0          1      )

 cart.    s(12) = (  0.5000000 -0.8660254  0.0000000 )
                  ( -0.8660254 -0.5000000  0.0000000 )
                  (  0.0000000  0.0000000  1.0000000 )

     point group C_6v (6mm)
     there are  6 classes
     the character table:

       E     2C6   2C3   C2    3s_v  3s_d
A_1    1.00  1.00  1.00  1.00  1.00  1.00
A_2    1.00  1.00  1.00  1.00 -1.00 -1.00
B_1    1.00 -1.00  1.00 -1.00  1.00 -1.00
B_2    1.00 -1.00  1.00 -1.00 -1.00  1.00
E_1    2.00  1.00 -1.00 -2.00  0.00  0.00
E_2    2.00 -1.00 -1.00  2.00  0.00  0.00

     the symmetry operations in each class and the name of the first element:

     E        1
          identity
     2C6      3    4
           60 deg rotation - cryst. axis [0,0,1]
     2C3      5    6
          120 deg rotation - cryst. axis [0,0,1]
     C2       2
          180 deg rotation - cart. axis [0,0,1]
     3s_v     8   12   11
          inv. 180 deg rotation - cart. axis [1,0,0]
     3s_d     7    9   10
          inv. 180 deg rotation - cart. axis [0,1,0]

   Cartesian axes

     site n.     atom                  positions (alat units)
         1           Ga  tau(   1) = (   0.5087210   0.2937098   0.8277638  )
         2           Ga  tau(   2) = (  -0.0000006   0.5874204   1.6569168  )
         3           N   tau(   3) = (   0.5087210   0.2937098   1.4524069  )
         4           N   tau(   4) = (  -0.0000006   0.5874204   0.6232539  )

   Crystallographic axes

     site n.     atom                  positions (cryst. coord.)
         1           Ga  tau(   1) = (  0.6666670  0.3333331  0.4991623  )
         2           Ga  tau(   2) = (  0.3333330  0.6666672  0.9991623  )
         3           N   tau(   3) = (  0.6666670  0.3333331  0.8758377  )
         4           N   tau(   4) = (  0.3333330  0.6666672  0.3758377  )

     number of k points=    21  Gaussian smearing, width (Ry)=  0.0100
                       cart. coord. in units 2pi/alat
        k(    1) = (   0.0000000   0.0000000   0.0000000), wk =   0.0138889
        k(    2) = (  -0.0000000  -0.0000000   0.1507563), wk =   0.0277778
        k(    3) = (   0.0000000   0.0000000  -0.3015125), wk =   0.0138889
        k(    4) = (   0.0000000   0.1891511  -0.0000000), wk =   0.0833333
        k(    5) = (   0.0000000   0.1891511   0.1507563), wk =   0.1666667
        k(    6) = (   0.0000000   0.1891511  -0.3015125), wk =   0.0833333
        k(    7) = (   0.0000000   0.3783022  -0.0000000), wk =   0.0833333
        k(    8) = (   0.0000000   0.3783022   0.1507563), wk =   0.1666667
        k(    9) = (   0.0000000   0.3783022  -0.3015125), wk =   0.0833333
        k(   10) = (  -0.0000000  -0.5674532   0.0000000), wk =   0.0416667
        k(   11) = (  -0.0000000  -0.5674532   0.1507563), wk =   0.0833333
        k(   12) = (  -0.0000000  -0.5674532  -0.3015125), wk =   0.0416667
        k(   13) = (   0.1638096   0.2837266  -0.0000000), wk =   0.0833333
        k(   14) = (   0.1638096   0.2837266   0.1507563), wk =   0.1666667
        k(   15) = (   0.1638096   0.2837266  -0.3015125), wk =   0.0833333
        k(   16) = (   0.1638096   0.4728777  -0.0000000), wk =   0.1666667
        k(   17) = (   0.1638096   0.4728777   0.1507563), wk =   0.3333333
        k(   18) = (   0.1638096   0.4728777  -0.3015125), wk =   0.1666667
        k(   19) = (   0.3276193   0.5674532  -0.0000000), wk =   0.0277778
        k(   20) = (   0.3276193   0.5674532   0.1507563), wk =   0.0555556
        k(   21) = (   0.3276193   0.5674532  -0.3015125), wk =   0.0277778

                       cryst. coord.
        k(    1) = (   0.0000000   0.0000000   0.0000000), wk =   0.0138889
        k(    2) = (  -0.0000000  -0.0000000   0.2500000), wk =   0.0277778
        k(    3) = (   0.0000000   0.0000000  -0.5000000), wk =   0.0138889
        k(    4) = (  -0.0000000   0.1666667   0.0000000), wk =   0.0833333
        k(    5) = (  -0.0000000   0.1666667   0.2500000), wk =   0.1666667
        k(    6) = (  -0.0000000   0.1666667  -0.5000000), wk =   0.0833333
        k(    7) = (  -0.0000000   0.3333333   0.0000000), wk =   0.0833333
        k(    8) = (  -0.0000000   0.3333333   0.2500000), wk =   0.1666667
        k(    9) = (  -0.0000000   0.3333333  -0.5000000), wk =   0.0833333
        k(   10) = (   0.0000000  -0.5000000  -0.0000000), wk =   0.0416667
        k(   11) = (   0.0000000  -0.5000000   0.2500000), wk =   0.0833333
        k(   12) = (   0.0000000  -0.5000000  -0.5000000), wk =   0.0416667
        k(   13) = (   0.1666667   0.1666667   0.0000000), wk =   0.0833333
        k(   14) = (   0.1666667   0.1666667   0.2500000), wk =   0.1666667
        k(   15) = (   0.1666667   0.1666667  -0.5000000), wk =   0.0833333
        k(   16) = (   0.1666667   0.3333333   0.0000000), wk =   0.1666667
        k(   17) = (   0.1666667   0.3333333   0.2500000), wk =   0.3333333
        k(   18) = (   0.1666667   0.3333333  -0.5000000), wk =   0.1666667
        k(   19) = (   0.3333333   0.3333333   0.0000000), wk =   0.0277778
        k(   20) = (   0.3333333   0.3333333   0.2500000), wk =   0.0555556
        k(   21) = (   0.3333333   0.3333333  -0.5000000), wk =   0.0277778

     Atomic positions and unit cell read from directory:
     ./GaN.save/

     Check: negative core charge=   -0.000003

     Initial potential from superposition of free atoms

     starting charge      35.9941, renormalised to      36.0000

[...]

     Starting wfcs are   26 randomized atomic wfcs
     Checking if some PAW data can be deallocated...

     Self-consistent Calculation

[...]

     total energy              =    -624.58023867 Ry
     estimated scf accuracy    <          5.4E-09 Ry

     iteration # 15     ecut=    70.00 Ry     beta= 0.70
     Davidson diagonalization with overlap

     ethr =  1.51E-11,  avg # of iterations =  3.5

[...]

     End of self-consistent calculation

[...]

          k =-0.0000-0.5675-0.3015 (  3240 PWs)   bands (ev):

[...]

          k = 0.3276 0.5675-0.3015 (  3216 PWs)   bands (ev):

    -6.2871  -6.2871  -5.1486  -5.1486  -5.1394  -5.1393  -5.0347  -5.0346
    -5.0146  -5.0146  -3.0394  -3.0393   2.8383   2.8383   4.9039   4.9040
     7.3778   7.3779  14.9071  14.9072  16.2132  16.2133

     occupation numbers
     1.0000   1.0000   1.0000   1.0000   1.0000   1.0000   1.0000   1.0000
     1.0000   1.0000   1.0000   1.0000   1.0000   1.0000   1.0000   1.0000
     1.0000   1.0000   0.0000   0.0000   0.0000   0.0000

     the Fermi energy is     9.6975 ev

!    total energy              =    -624.58023867 Ry
     total all-electron energy =     -8007.507157 Ry
     estimated scf accuracy    <          1.4E-10 Ry
     smearing contrib. (-TS)   =      -0.00000000 Ry
     internal energy E=F+TS    =    -624.58023867 Ry

     The total energy is F=E-TS. E is the sum of the following terms:
     one-electron contribution =    -187.61009047 Ry
     hartree contribution      =     131.68194326 Ry
     xc contribution           =     -91.02839485 Ry
     ewald contribution        =    -229.10288589 Ry
     one-center paw contrib.   =    -248.52081072 Ry
      -> PAW hartree energy AE =     144.69525528 Ry
      -> PAW hartree energy PS =    -143.29028783 Ry
      -> PAW xc energy AE      =    -156.95366924 Ry
      -> PAW xc energy PS      =      39.74241861 Ry
      -> total E_H with PAW    =     133.08691071 Ry
      -> total E_XC with PAW   =    -208.23964549 Ry

     convergence has been achieved in  15 iterations

[...]

     Forces acting on atoms (cartesian axes, Ry/au):

     atom    1 type  1   force =    -0.00000000    0.00000000    0.00015987
     atom    2 type  1   force =    -0.00000000   -0.00000000    0.00015987
     atom    3 type  2   force =     0.00000000    0.00000000   -0.00015987
     atom    4 type  2   force =     0.00000000    0.00000000   -0.00015987
     The non-local contrib.  to forces
     atom    1 type  1   force =     0.00000000   -0.00000000   -0.00002051
     atom    2 type  1   force =     0.00000000   -0.00000000   -0.00002051
     atom    3 type  2   force =    -0.00000000   -0.00000000    0.01415729
     atom    4 type  2   force =     0.00000000    0.00000000    0.01415729
     The ionic contribution  to forces
     atom    1 type  1   force =    -0.00003292    0.00002098    0.15864974
     atom    2 type  1   force =     0.00003292   -0.00002098    0.15865067
     atom    3 type  2   force =    -0.00002962    0.00001888   -0.15864999
     atom    4 type  2   force =     0.00002962   -0.00001888   -0.15865043
     The local contribution  to forces
     atom    1 type  1   force =    -0.00024789    0.00010955   -0.15888284
     atom    2 type  1   force =     0.00092285   -0.00063660   -0.15880538
     atom    3 type  2   force =    -0.00002024    0.00000894    0.14437066
     atom    4 type  2   force =     0.00007535   -0.00005198    0.14422731
     The core correction contribution to forces
     atom    1 type  1   force =    -0.00001834    0.00000811    0.00010576
     atom    2 type  1   force =     0.00006831   -0.00004712    0.00010994
     atom    3 type  2   force =     0.00000054   -0.00000024   -0.00023232
     atom    4 type  2   force =    -0.00000203    0.00000140   -0.00023237
     The Hubbard contrib.    to forces
     atom    1 type  1   force =     0.00000000    0.00000000    0.00000000
     atom    2 type  1   force =     0.00000000    0.00000000    0.00000000
     atom    3 type  2   force =     0.00000000    0.00000000    0.00000000
     atom    4 type  2   force =     0.00000000    0.00000000    0.00000000
     The SCF correction term to forces
     atom    1 type  1   force =     0.00000000   -0.00000000    0.00000005
     atom    2 type  1   force =    -0.00000000    0.00000000    0.00000005
     atom    3 type  2   force =    -0.00000000    0.00000000    0.00000001
     atom    4 type  2   force =     0.00000000   -0.00000000    0.00000001

     Total force =     0.000320     Total SCF correction =     0.000000

     Computing stress (Cartesian axis) and pressure

     Non-local corr. energy    =       1.09015322 Ry

          total   stress  (Ry/bohr**3)                   (kbar)     P=        0.81
   0.00000332   0.00000000   0.00000000            0.49        0.00        0.00
  -0.00000000   0.00000332   0.00000000           -0.00        0.49        0.00
  -0.00000000  -0.00000000   0.00000979           -0.00       -0.00        1.44

     kinetic stress (kbar)  18452.70      0.00     -0.00
                               -0.00  18452.70      0.00
                               -0.00     -0.00  18444.40

     local   stress (kbar)   5446.41     -0.07     -0.00
                               -0.07   5446.32      0.00
                               -0.00      0.00   3813.00

     nonloc. stress (kbar)     57.94      0.00     -0.00
                               -0.00     57.94      0.00
                               -0.00      0.00     70.48

     hartree stress (kbar)  19596.67     -0.00      0.00
                               -0.00  19596.67     -0.00
                                0.00     -0.00  20346.61

     exc-cor stress (kbar)   5217.91      0.00      0.00
                                0.00   5217.91     -0.00
                                0.00     -0.00   5218.14

     corecor stress (kbar) -14110.20     -0.00     -0.00
                               -0.00 -14110.20      0.00
                               -0.00      0.00 -14109.62

     ewald   stress (kbar) -34823.05      0.10      0.00
                                0.10 -34822.93     -0.00
                                0.00     -0.00 -33942.83

     hubbard stress (kbar)      0.00      0.00      0.00
                                0.00      0.00      0.00
                                0.00      0.00      0.00

     DFT-D   stress (kbar)      0.00      0.00      0.00
                                0.00      0.00      0.00
                                0.00      0.00      0.00

     XDM     stress (kbar)      0.00      0.00      0.00
                                0.00      0.00      0.00
                                0.00      0.00      0.00

     dft-nl  stress (kbar)    162.09     -0.00     -0.00
                               -0.00    162.09      0.00
                               -0.00      0.00    161.25

     TS-vdW  stress (kbar)      0.00      0.00      0.00
                                0.00      0.00      0.00
                                0.00      0.00      0.00

     MDB     stress (kbar)      0.00      0.00      0.00
                                0.00      0.00      0.00
                                0.00      0.00      0.00

     3D-RISM stress (kbar)      0.00      0.00      0.00
                                0.00      0.00      0.00
                                0.00      0.00      0.00

     Writing all to output data dir ./GaN.save/

     General routines

     Parallel routines

     PAW routines

   This run was terminated on:   8:17:23  27Sep2023

   JOB DONE.