     Program PWSCF v.7.1 starts on 11Mar2024 at  8:46:16

     Reading input from espresso.pwi
Warning: card &CELL ignored
Warning: card    CELL_DYNAMICS    = 'BFGS' ignored
Warning: card / ignored

     Current dimensions of program PWSCF are:
     Max number of different atomic species (ntypx) = 10
     Max number of k-points (npk) =  40000
     Max angular momentum in pseudopotentials (lmaxx) =  4
     file Pb.pbe-dn-kjpaw_psl.1.0.0.UPF: wavefunction(s)  6S 6P 5D renormalized
     file I.pbe-dn-kjpaw_psl.1.0.0.UPF: wavefunction(s)  5S 5P renormalized

     IMPORTANT: XC functional enforced from input :
     Exchange-correlation= BEEF-VDW
                           (   1   4  43  14   2   0   0)
     Any further DFT definition will be discarded
     Please, verify this is what you really want

     R & G space division:  proc/nbgrp/npool/nimage =     256
     wavefunctions fft division:  task group distribution
                                  #TG    x Z-proc =       8     32
     Subspace diagonalization in iterative solution of the eigenvalue problem:
     a serial algorithm will be used

     Using Pencil Decomposition

     bravais-lattice index     =            4
     lattice parameter (alat)  =      35.6120  a.u.
     unit-cell volume          =   45937.3577 (a.u.)^3
     number of atoms/cell      =          143
     number of atomic types    =            2
     number of electrons       =      2287.00
     number of Kohn-Sham states=         1373
     kinetic-energy cutoff     =      70.0000  Ry
     charge density cutoff     =     350.0000  Ry
     scf convergence threshold =      1.0E-07
     mixing beta               =       0.7000
     number of iterations used =            8  plain     mixing
     Exchange-correlation= BEEF-VDW
                           (   1   4  43  14   2   0   0)

     celldm(1)=  35.612033  celldm(2)=   0.000000  celldm(3)=   1.174479
     celldm(4)=   0.000000  celldm(5)=   0.000000  celldm(6)=   0.000000

     crystal axes: (cart. coord. in units of alat)
               a(1) = (   1.000000   0.000000   0.000000 )
               a(2) = (  -0.500000   0.866025   0.000000 )
               a(3) = (   0.000000   0.000000   1.174479 )

     reciprocal axes: (cart. coord. in units 2 pi/alat)
               b(1) = (  1.000000  0.577350 -0.000000 )
               b(2) = (  0.000000  1.154701  0.000000 )
               b(3) = (  0.000000 -0.000000  0.851442 )

     PseudoPot. # 1 for Pb read from file:
     /trace/group/acmegroup/atimmins/packages/espresso/pseudo/psl_1.0.0/pslibrary.1.0.0/pbe/PSEUDOPOTENTIALS/Pb.pbe-dn-kjpaw_psl.1.0.0.UPF
     MD5 check sum: 39ab5b8a6bbd56b7735ad9f188aac93a
     Pseudo is Projector augmented-wave + core cor, Zval = 14.0
     Generated using 'atomic' code by A. Dal Corso  v.7.1
     Shape of augmentation charge: PSQ
     Using radial grid of 1281 points,  6 beta functions with:
                l(1) =   0
                l(2) =   0
                l(3) =   1
                l(4) =   1
                l(5) =   2
                l(6) =   2
     Q(r) pseudized with 0 coefficients

     PseudoPot. # 2 for I  read from file:
     /trace/group/acmegroup/atimmins/packages/espresso/pseudo/psl_1.0.0/pslibrary.1.0.0/pbe/PSEUDOPOTENTIALS/I.pbe-dn-kjpaw_psl.1.0.0.UPF
     MD5 check sum: bfa8781bc1224d19af3f3980e3fab11e
     Pseudo is Projector augmented-wave + core cor, Zval = 17.0
     Generated using 'atomic' code by A. Dal Corso  v.7.1
     Shape of augmentation charge: PSQ
     Using radial grid of 1247 points,  6 beta functions with:
                l(1) =   0
                l(2) =   0
                l(3) =   1
                l(4) =   1
                l(5) =   2
                l(6) =   2
     Q(r) pseudized with 0 coefficients

     atomic species   valence    mass     pseudopotential
        Pb            14.00   207.20000     Pb( 1.00)
        I             17.00   126.90447     I ( 1.00)

     No symmetry found

                                    s                        frac. trans.

      isym =  1     identity

 cryst.   s( 1) = (     1          0          0      )
                  (     0          1          0      )
                  (     0          0          1      )

 cart.    s( 1) = (  1.0000000  0.0000000  0.0000000 )
                  (  0.0000000  1.0000000  0.0000000 )
                  (  0.0000000  0.0000000  1.0000000 )

     point group C_1 (1)
     there are  1 classes
     the character table:

       E
A      1.00

     the symmetry operations in each class and the name of the first element:

     E        1
          identity

   Cartesian axes

     site n.     atom                  positions (alat units)
         1           Pb  tau(   1) = (   0.1250136   0.2164827   1.1744753  )
         2           Pb  tau(   2) = (   0.1250034   0.2164918   0.3914896  )
         3           Pb  tau(   3) = (   0.1250085   0.2164873   0.7829825  )
         4           Pb  tau(   4) = (   0.0000128   0.4329881   1.1744712  )
         5           Pb  tau(   5) = (   0.0000026   0.4329971   0.3914855  )
         6           Pb  tau(   6) = (   0.0000077   0.4329926   0.7829784  )
         7           Pb  tau(   7) = (  -0.1249881   0.6494934   1.1744671  )
         8           Pb  tau(   8) = (  -0.1249983   0.6495025   0.3914814  )
         9           Pb  tau(   9) = (  -0.1249932   0.6494980   0.7829742  )
        10           Pb  tau(  10) = (  -0.2499889   0.8659988   1.1744630  )
        11           Pb  tau(  11) = (  -0.2499991   0.8660078   0.3914773  )
        12           Pb  tau(  12) = (  -0.2499940   0.8660033   0.7829701  )
        13           Pb  tau(  13) = (   0.3750136   0.2164818   1.1744786  )
        14           Pb  tau(  14) = (   0.3750034   0.2164908   0.3914929  )
        15           Pb  tau(  15) = (   0.3750085   0.2164863   0.7829857  )
        16           Pb  tau(  16) = (   0.2500128   0.4329871   1.1744745  )
        17           Pb  tau(  17) = (   0.2500026   0.4329962   0.3914888  )
        18           Pb  tau(  18) = (   0.2500077   0.4329916   0.7829816  )
        19           Pb  tau(  19) = (   0.1250119   0.6494925   1.1744703  )
        20           Pb  tau(  20) = (   0.1250017   0.6495015   0.3914847  )
        21           Pb  tau(  21) = (   0.1250068   0.6494970   0.7829775  )
        22           Pb  tau(  22) = (   0.0000111   0.8659978   1.1744662  )
        23           Pb  tau(  23) = (   0.0000009   0.8660069   0.3914805  )
        24           Pb  tau(  24) = (   0.0000060   0.8660024   0.7829734  )
        25           Pb  tau(  25) = (   0.6250136   0.2164808   1.1744818  )
        26           Pb  tau(  26) = (   0.6250034   0.2164898   0.3914962  )
        27           Pb  tau(  27) = (   0.6250085   0.2164853   0.7829890  )
        28           Pb  tau(  28) = (   0.5000128   0.4329862   1.1744777  )
        29           Pb  tau(  29) = (   0.5000026   0.4329952   0.3914920  )
        30           Pb  tau(  30) = (   0.5000077   0.4329907   0.7829849  )
        31           Pb  tau(  31) = (   0.3750119   0.6494915   1.1744736  )
        32           Pb  tau(  32) = (   0.3750017   0.6495006   0.3914879  )
        33           Pb  tau(  33) = (   0.3750068   0.6494960   0.7829808  )
        34           Pb  tau(  34) = (   0.2500111   0.8659969   1.1744695  )
        35           Pb  tau(  35) = (   0.2500009   0.8660059   0.3914838  )
        36           Pb  tau(  36) = (   0.2500060   0.8660014   0.7829766  )
        37           Pb  tau(  37) = (   0.8750136   0.2164798   1.1744851  )
        38           Pb  tau(  38) = (   0.8750034   0.2164889   0.3914994  )
        39           Pb  tau(  39) = (   0.8750085   0.2164844   0.7829923  )
        40           Pb  tau(  40) = (   0.7500128   0.4329852   1.1744810  )
        41           Pb  tau(  41) = (   0.7500026   0.4329942   0.3914953  )
        42           Pb  tau(  42) = (   0.7500077   0.4329897   0.7829881  )
        43           Pb  tau(  43) = (   0.6250119   0.6494906   1.1744769  )
        44           Pb  tau(  44) = (   0.6250017   0.6494996   0.3914912  )
        45           Pb  tau(  45) = (   0.6250068   0.6494951   0.7829840  )
        46           Pb  tau(  46) = (   0.5000111   0.8659959   1.1744727  )
        47           Pb  tau(  47) = (   0.5000009   0.8660050   0.3914870  )
        48           Pb  tau(  48) = (   0.5000060   0.8660004   0.7829799  )
        49           I   tau(  49) = (   0.1250105   0.0721505   0.6824253  )
        50           I   tau(  50) = (   0.1250156   0.0721459   1.0739182  )
        51           I   tau(  51) = (   0.0000045   0.2886603   0.2909283  )
        52           I   tau(  52) = (   0.0000096   0.2886558   0.6824212  )
        53           I   tau(  53) = (   0.0000147   0.2886513   1.0739140  )
        54           I   tau(  54) = (  -0.1249963   0.5051657   0.2909242  )
        55           I   tau(  55) = (  -0.1249912   0.5051612   0.6824171  )
        56           I   tau(  56) = (  -0.1249861   0.5051566   1.0739099  )
        57           I   tau(  57) = (  -0.2499971   0.7216710   0.2909201  )
        58           I   tau(  58) = (  -0.2499920   0.7216665   0.6824129  )
        59           I   tau(  59) = (  -0.2499869   0.7216620   1.0739058  )
        60           I   tau(  60) = (   0.3750054   0.0721540   0.2909357  )
[...]
       129           I   tau( 129) = (   0.1249958   0.7938439   0.1005496  )
       130           I   tau( 130) = (   0.1250009   0.7938394   0.4920425  )
       131           I   tau( 131) = (   0.1250060   0.7938348   0.8835353  )
       132           I   tau( 132) = (   0.7499983   0.1443268   0.1005653  )
       133           I   tau( 133) = (   0.7500034   0.1443223   0.4920581  )
       134           I   tau( 134) = (   0.7500085   0.1443178   0.8835509  )
       135           I   tau( 135) = (   0.6249975   0.3608322   0.1005611  )
       136           I   tau( 136) = (   0.6250026   0.3608277   0.4920540  )
       137           I   tau( 137) = (   0.6250077   0.3608232   0.8835468  )
       138           I   tau( 138) = (   0.4999966   0.5773376   0.1005570  )
       139           I   tau( 139) = (   0.5000017   0.5773330   0.4920499  )
       140           I   tau( 140) = (   0.5000068   0.5773285   0.8835427  )
       141           I   tau( 141) = (   0.3749958   0.7938429   0.1005529  )
       142           I   tau( 142) = (   0.3750009   0.7938384   0.4920457  )
       143           I   tau( 143) = (   0.3750060   0.7938339   0.8835386  )

   Crystallographic axes

     site n.     atom                  positions (cryst. coord.)
         1           Pb  tau(   1) = (  0.2500000  0.2499727  0.9999973  )
         2           Pb  tau(   2) = (  0.2499950  0.2499832  0.3333306  )
         3           Pb  tau(   3) = (  0.2499975  0.2499780  0.6666639  )
         4           Pb  tau(   4) = (  0.2499986  0.4999716  0.9999938  )
         5           Pb  tau(   5) = (  0.2499936  0.4999820  0.3333271  )
         6           Pb  tau(   6) = (  0.2499961  0.4999768  0.6666604  )
         7           Pb  tau(   7) = (  0.2499972  0.7499704  0.9999902  )
[...]
     atom   26 type  1   force =     0.00000000    0.00000000    0.00000000
     atom   27 type  1   force =     0.00000000    0.00000000    0.00000000
     atom   28 type  1   force =     0.00000000    0.00000000    0.00000000
     atom   29 type  1   force =     0.00000000    0.00000000    0.00000000
     atom   30 type  1   force =     0.00000000    0.00000000    0.00000000
     atom   31 type  1   force =     0.00000000    0.00000000    0.00000000
     atom   32 type  1   force =     0.00000000    0.00000000    0.00000000
     atom   33 type  1   force =     0.00000000    0.00000000    0.00000000
     atom   34 type  1   force =     0.00000000    0.00000000    0.00000000
     atom   35 type  1   force =     0.00000000    0.00000000    0.00000000
     atom   36 type  1   force =     0.00000000    0.00000000    0.00000000
     atom   37 type  1   force =     0.00000000    0.00000000    0.00000000
     atom   38 type  1   force =     0.00000000    0.00000000    0.00000000
     atom   39 type  1   force =     0.00000000    0.00000000    0.00000000
     atom   40 type  1   force =     0.00000000    0.00000000    0.00000000
     atom   41 type  1   force =     0.00000000    0.00000000    0.00000000
     atom   42 type  1   force =     0.00000000    0.00000000    0.00000000
     atom   43 type  1   force =     0.00000000    0.00000000    0.00000000
     atom   44 type  1   force =     0.00000000    0.00000000    0.00000000
     atom   45 type  1   force =     0.00000000    0.00000000    0.00000000
     atom   46 type  1   force =     0.00000000    0.00000000    0.00000000
     atom   47 type  1   force =     0.00000000    0.00000000    0.00000000
     atom   48 type  1   force =     0.00000000    0.00000000    0.00000000
     atom   49 type  2   force =     0.00000000    0.00000000    0.00000000
     atom   50 type  2   force =     0.00000000    0.00000000    0.00000000
     atom   51 type  2   force =     0.00000000    0.00000000    0.00000000
     atom   52 type  2   force =     0.00000000    0.00000000    0.00000000
     atom   53 type  2   force =     0.00000000    0.00000000    0.00000000
     atom   54 type  2   force =     0.00000000    0.00000000    0.00000000
     atom   55 type  2   force =     0.00000000    0.00000000    0.00000000
     atom   56 type  2   force =     0.00000000    0.00000000    0.00000000
     atom   57 type  2   force =     0.00000000    0.00000000    0.00000000
     atom   58 type  2   force =     0.00000000    0.00000000    0.00000000
     atom   59 type  2   force =     0.00000000    0.00000000    0.00000000
     atom   60 type  2   force =     0.00000000    0.00000000    0.00000000
[...]
     atom  129 type  2   force =     0.00000000    0.00000000    0.00000000
     atom  130 type  2   force =     0.00000000    0.00000000    0.00000000
     atom  131 type  2   force =     0.00000000    0.00000000    0.00000000
     atom  132 type  2   force =     0.00000000    0.00000000    0.00000000
     atom  133 type  2   force =     0.00000000    0.00000000    0.00000000
     atom  134 type  2   force =     0.00000000    0.00000000    0.00000000
     atom  135 type  2   force =     0.00000000    0.00000000    0.00000000
     atom  136 type  2   force =     0.00000000    0.00000000    0.00000000
     atom  137 type  2   force =     0.00000000    0.00000000    0.00000000
     atom  138 type  2   force =     0.00000000    0.00000000    0.00000000
     atom  139 type  2   force =     0.00000000    0.00000000    0.00000000
     atom  140 type  2   force =     0.00000000    0.00000000    0.00000000
     atom  141 type  2   force =     0.00000000    0.00000000    0.00000000
     atom  142 type  2   force =     0.00000000    0.00000000    0.00000000
     atom  143 type  2   force =     0.00000000    0.00000000    0.00000000
     The SCF correction term to forces
     atom    1 type  1   force =     0.00000112    0.00001961   -0.00004003
     atom    2 type  1   force =     0.00000167    0.00002106   -0.00003095
     atom    3 type  1   force =     0.00000086    0.00003294    0.00006589
     atom    4 type  1   force =     0.00000934    0.00001938   -0.00004323
     atom    5 type  1   force =    -0.00003568    0.00002068   -0.00002914
     atom    6 type  1   force =     0.00000853    0.00005299    0.00008488
     atom    7 type  1   force =     0.00002087   -0.00000052   -0.00004285
     atom    8 type  1   force =    -0.00000082   -0.00003928   -0.00002907
     atom    9 type  1   force =     0.00004969   -0.00001787    0.00008448
     atom   10 type  1   force =     0.00001804   -0.00001005   -0.00003953
     atom   11 type  1   force =     0.00002040   -0.00001104   -0.00003063
     atom   12 type  1   force =     0.00002983   -0.00001679    0.00006569
     atom   13 type  1   force =     0.00000174    0.00000033   -0.00001080
     atom   14 type  1   force =     0.00004445    0.00002455   -0.00003784
     atom   15 type  1   force =     0.00002821    0.00001546    0.00005127
     atom   16 type  1   force =    -0.00000938    0.00001825   -0.00004328
     atom   17 type  1   force =     0.00003566    0.00001883   -0.00002974
     atom   18 type  1   force =    -0.00000898    0.00005161    0.00008477
     atom   19 type  1   force =    -0.00000092    0.00000018   -0.00006964
     atom   20 type  1   force =    -0.00000168    0.00000018   -0.00004325
     atom   21 type  1   force =    -0.00000149    0.00000014    0.00011958
     atom   22 type  1   force =     0.00001060   -0.00001762   -0.00004303
     atom   23 type  1   force =     0.00003300    0.00002068   -0.00002964
     atom   24 type  1   force =     0.00003963   -0.00003410    0.00008431
     atom   25 type  1   force =    -0.00000092   -0.00001781    0.00001165
     atom   26 type  1   force =    -0.00000147    0.00001246   -0.00002865
     atom   27 type  1   force =    -0.00000095   -0.00000818    0.00002926
     atom   28 type  1   force =    -0.00001524    0.00000844    0.00001184
     atom   29 type  1   force =     0.00001089   -0.00000708   -0.00002889
     atom   30 type  1   force =    -0.00000670    0.00000355    0.00002947
     atom   31 type  1   force =    -0.00002086   -0.00000160   -0.00004356
     atom   32 type  1   force =     0.00000087   -0.00004154   -0.00003001
     atom   33 type  1   force =    -0.00004950   -0.00001887    0.00008522
     atom   34 type  1   force =    -0.00001242   -0.00001761   -0.00004363
     atom   35 type  1   force =    -0.00003657    0.00002095   -0.00002988
     atom   36 type  1   force =    -0.00004187   -0.00003373    0.00008523
     atom   37 type  1   force =    -0.00000188    0.00000136   -0.00001152
     atom   38 type  1   force =    -0.00004445    0.00002656   -0.00003747
     atom   39 type  1   force =    -0.00002815    0.00001693    0.00005231
     atom   40 type  1   force =     0.00001524    0.00000949    0.00001177
     atom   41 type  1   force =    -0.00001083   -0.00000531   -0.00002805
     atom   42 type  1   force =     0.00000718    0.00000489    0.00002945
     atom   43 type  1   force =     0.00000086   -0.00000181   -0.00001097
     atom   44 type  1   force =     0.00000172   -0.00005114   -0.00003759
     atom   45 type  1   force =     0.00000128   -0.00003255    0.00005192
     atom   46 type  1   force =    -0.00001622   -0.00001013   -0.00004017
     atom   47 type  1   force =    -0.00001654   -0.00001062   -0.00003132
     atom   48 type  1   force =    -0.00002755   -0.00001654    0.00006629
     atom   49 type  2   force =     0.00000220   -0.00000009    0.00001655
     atom   50 type  2   force =     0.00000141   -0.00000020   -0.00000905
     atom   51 type  2   force =    -0.00002737    0.00002145   -0.00003751
     atom   52 type  2   force =    -0.00002714    0.00004059    0.00003879
     atom   53 type  2   force =     0.00001684    0.00003279   -0.00001532
     atom   54 type  2   force =    -0.00001866   -0.00000905   -0.00002214
     atom   55 type  2   force =     0.00000312    0.00000341    0.00005199
     atom   56 type  2   force =     0.00004439    0.00002661   -0.00002081
     atom   57 type  2   force =     0.00000542   -0.00003387   -0.00003688
     atom   58 type  2   force =     0.00002211   -0.00004357    0.00003825
     atom   59 type  2   force =     0.00003677   -0.00000186   -0.00001443
     atom   60 type  2   force =     0.00003192    0.00001341   -0.00003680
[...]
     atom  129 type  2   force =    -0.00000173    0.00000571   -0.00004055
     atom  130 type  2   force =    -0.00000271    0.00001365   -0.00001985
     atom  131 type  2   force =    -0.00000164   -0.00006391    0.00004535
     atom  132 type  2   force =    -0.00002027    0.00000344   -0.00001192
     atom  133 type  2   force =    -0.00004224    0.00002368   -0.00002358
     atom  134 type  2   force =    -0.00002105   -0.00003270    0.00003620
     atom  135 type  2   force =    -0.00000076    0.00000006    0.00002573
     atom  136 type  2   force =    -0.00000039    0.00000014   -0.00002732
     atom  137 type  2   force =    -0.00000000    0.00000020    0.00000321
     atom  138 type  2   force =    -0.00000581   -0.00001858   -0.00001182
     atom  139 type  2   force =     0.00000105   -0.00004762   -0.00002384
     atom  140 type  2   force =    -0.00003777   -0.00000141    0.00003605
     atom  141 type  2   force =    -0.00002164   -0.00001267   -0.00005065
     atom  142 type  2   force =    -0.00001048   -0.00000623   -0.00002044
     atom  143 type  2   force =    -0.00007287   -0.00004207    0.00007563

     Total force =     0.004370     Total SCF correction =     0.000668
     SCF correction compared to forces is large: reduce conv_thr to get better values

     Computing stress (Cartesian axis) and pressure

[...]

          total   stress  (Ry/bohr**3)                   (kbar)     P=        0.94
   0.00000498   0.00000000  -0.00000000            0.73        0.00       -0.00
   0.00000000   0.00000498   0.00000000            0.00        0.73        0.00
  -0.00000000   0.00000000   0.00000921           -0.00        0.00        1.36

     kinetic stress (kbar)  14902.94     -0.00     -0.00
                               -0.00  14902.94      0.00
                               -0.00      0.00  14914.62

     local   stress (kbar)  -7709.70     -0.06      0.09
                               -0.06  -7709.81     -0.06
                                0.09     -0.06   1551.37

     nonloc. stress (kbar)  -1089.39      0.00     -0.00
                                0.00  -1089.39      0.00
                               -0.00      0.00  -1095.02

     hartree stress (kbar)  12056.89      0.02     -0.04
                                0.02  12056.94      0.02
                               -0.04      0.02   7882.14

     exc-cor stress (kbar)   6890.31      0.00     -0.00
                                0.00   6890.31      0.00
                               -0.00      0.00   6889.09

     corecor stress (kbar) -11220.01     -0.00      0.00
                               -0.00 -11220.01     -0.00
                                0.00     -0.00 -11219.93

     ewald   stress (kbar) -13912.91      0.04     -0.06
                                0.04 -13912.84      0.04
                               -0.06      0.04 -19004.89

     hubbard stress (kbar)      0.00      0.00      0.00
                                0.00      0.00      0.00
                                0.00      0.00      0.00

     DFT-D   stress (kbar)      0.00      0.00      0.00
                                0.00      0.00      0.00
                                0.00      0.00      0.00

     XDM     stress (kbar)      0.00      0.00      0.00
                                0.00      0.00      0.00
                                0.00      0.00      0.00

     dft-nl  stress (kbar)     82.58     -0.00      0.00
                               -0.00     82.58     -0.00
                                0.00     -0.00     83.97

     TS-vdW  stress (kbar)      0.00      0.00      0.00
                                0.00      0.00      0.00
                                0.00      0.00      0.00

     MDB     stress (kbar)      0.00      0.00      0.00
                                0.00      0.00      0.00
                                0.00      0.00      0.00

     3D-RISM stress (kbar)      0.00      0.00      0.00
                                0.00      0.00      0.00
                                0.00      0.00      0.00

[...]

     Non-local corr. energy    =      68.47924357 Ry

 BEEFens 2000 ensemble energies
             -0.575635065965466E+02
             -0.579216228550686E+03
             -0.263585589985873E+03
              0.202311278239186E+03
             -0.442724611924998E+03
             -0.542028035187165E+03
              0.278228496719970E+03
              0.113938760469819E+01
              0.468863378918988E+03
             -0.296713392120992E+02
              0.240106584317224E+03
              0.244819224252226E+02
             -0.184168957855195E+02
             -0.148987473154434E+02
              0.299189039124816E+03
             -0.225390746443712E+03
             -0.442364208858359E+03
             -0.142778281103653E+03
              0.127892334441951E+03
             -0.276142869079831E+01
              0.652283890923666E+03
              0.544441406030524E+03
             -0.335330540081807E+03
              0.115903906468993E+03
             -0.698675757910586E+03
              0.573503064926556E+03
              0.196159257408304E+03
              0.517852288569048E+03
              0.349005208678177E+03
             -0.162043918443569E+03
              0.127731792208517E+03
             -0.228286762505071E+03
              0.953522110785045E+02
              0.347243180481737E+03
              0.373689960999921E+03
             -0.162371289183022E+03
              0.824253559430269E+03
             -0.331727684704294E+03
             -0.220913235163319E+03
              0.329672417954811E+03
              0.145363926965399E+03
              0.250529433651207E+03
             -0.483884575834156E+03
             -0.314606059825583E+02
              0.464225684657022E+03
              0.606773135893157E+03
             -0.616096546070856E+03
              0.395207661767638E+02
              0.213691958139982E+03
              0.137979280953059E+03
              0.240880948358112E+03
              0.529003711229710E+03
             -0.343568751791674E+03
             -0.333447093995496E+03
             -0.464470409215274E+03
             -0.673421991502355E+02
             -0.396231054348221E+03
              0.511728609700658E+02
             -0.571417077903930E+02
             -0.314351723706828E+03
[...]
              0.392538121166182E+03
              0.251428684461420E+03
              0.256332005256667E+03
             -0.474412968745417E+03
             -0.489925417636423E+03
             -0.110456666643613E+03
             -0.437927295954103E+03
              0.695294211606415E+03
              0.585668268931201E+03
              0.276258466742536E+03
              0.761483395518688E+03
             -0.380490069922552E+03
             -0.163924900670327E+03
             -0.236291508141540E+03
              0.658814569913176E+03

 BEEF-vdW xc energy contributions
            1 :    -5954.956846961146
            2 :     5456.458164145300
            3 :    -4606.639715902546
            4 :     3632.200251784445
            5 :    -2746.428193782342
            6 :     2080.467517075330
            7 :    -1662.001413736145
            8 :     1435.080192928925
            9 :    -1302.490048366564
           10 :     1172.452705341328
           11 :    -993.6195486074776
           12 :     766.2245169522030
           13 :    -527.6157775513348
           14 :     323.5623901875788
           15 :    -182.6410992514557
           16 :     105.5054413897906
           17 :    -70.05597748524451
           18 :     45.91681822355895
           19 :    -9.844697889549934
           20 :    -44.62256193561007
           21 :     106.9283992576138
           22 :    -158.0996151786949
           23 :     183.1084467547480
           24 :    -179.8764553711808
           25 :     160.1320724387970
           26 :    -142.4624996302082
           27 :     142.1444196803750
           28 :    -163.3582977649776
           29 :     197.5123819755190
           30 :    -228.1768705355025
           31 :    -512.8408515178944
           32 :    -368.9793081486732

     Writing all to output data dir ./PbI2.save/

     General routines

     Parallel routines

     PAW routines

   This run was terminated on:   9: 3:10  11Mar2024

   JOB DONE.