     Program PWSCF v.7.2 starts on 27Mar2024 at 22:22: 5

     Reading input from espresso.pwi
Warning: card &CELL ignored
Warning: card    CELL_DYNAMICS    = 'BFGS' ignored
Warning: card / ignored

     Current dimensions of program PWSCF are:
     Max number of different atomic species (ntypx) = 10
     Max number of k-points (npk) =  40000
     Max angular momentum in pseudopotentials (lmaxx) =  4
     file C.pbe-n-kjpaw_psl.1.0.0.UPF: wavefunction(s)  2S 2P renormalized

     IMPORTANT: XC functional enforced from input :
     Exchange-correlation= BEEF-VDW
                           (   1   4  43  14   2   0   0)
     Any further DFT definition will be discarded
     Please, verify this is what you really want

     R & G space division:  proc/nbgrp/npool/nimage =      10
     Subspace diagonalization in iterative solution of the eigenvalue problem:
     a serial algorithm will be used

     Using Slab Decomposition

     bravais-lattice index     =            1
     lattice parameter (alat)  =       6.7507  a.u.
     unit-cell volume          =     307.6390 (a.u.)^3
     number of atoms/cell      =            7
     number of atomic types    =            1
     number of electrons       =        28.00
     number of Kohn-Sham states=           18
     kinetic-energy cutoff     =      70.0000  Ry
     charge density cutoff     =     350.0000  Ry
     scf convergence threshold =      1.0E-07
     mixing beta               =       0.7000
     number of iterations used =            8  plain     mixing
     Exchange-correlation= BEEF-VDW
                           (   1   4  43  14   2   0   0)

     celldm(1)=   6.750674  celldm(2)=   0.000000  celldm(3)=   0.000000
     celldm(4)=   0.000000  celldm(5)=   0.000000  celldm(6)=   0.000000

     crystal axes: (cart. coord. in units of alat)
               a(1) = (   1.000000   0.000000   0.000000 )
               a(2) = (   0.000000   1.000000   0.000000 )
               a(3) = (   0.000000   0.000000   1.000000 )

     reciprocal axes: (cart. coord. in units 2 pi/alat)
               b(1) = (  1.000000  0.000000  0.000000 )
               b(2) = (  0.000000  1.000000  0.000000 )
               b(3) = (  0.000000  0.000000  1.000000 )

     PseudoPot. # 1 for C  read from file:
     /trace/group/acmegroup/atimmins/packages/espresso/pseudo/psl_1.0.0/pslibrary.1.0.0/pbe/PSEUDOPOTENTIALS/C.pbe-n-kjpaw_psl.1.0.0.UPF
     MD5 check sum: 5459cf7f2c8c37df2f7cde8914797f4d
     Pseudo is Projector augmented-wave + core cor, Zval =  4.0
     Generated using 'atomic' code by A. Dal Corso  v.7.1
     Shape of augmentation charge: PSQ
     Using radial grid of 1073 points,  4 beta functions with:
                l(1) =   0
                l(2) =   0
                l(3) =   1
                l(4) =   1
     Q(r) pseudized with 0 coefficients

     atomic species   valence    mass     pseudopotential
        C              4.00    12.01100     C ( 1.00)

      6 Sym. Ops. (no inversion) found

                                    s                        frac. trans.

      isym =  1     identity

 cryst.   s( 1) = (     1          0          0      )
                  (     0          1          0      )
                  (     0          0          1      )

 cart.    s( 1) = (  1.0000000  0.0000000  0.0000000 )
                  (  0.0000000  1.0000000  0.0000000 )
                  (  0.0000000  0.0000000  1.0000000 )

      isym =  2     120 deg rotation - cart. axis [1,-1,1]

[...]

      isym =  3     120 deg rotation - cart. axis [-1,1,-1]

[...]

      isym =  4     inv. 180 deg rotation - cart. axis [1,1,0]

[...]

      isym =  6     inv. 180 deg rotation - cart. axis [0,1,1]

 cryst.   s( 6) = (     1          0          0      )
                  (     0          0         -1      )
                  (     0         -1          0      )

 cart.    s( 6) = (  1.0000000  0.0000000  0.0000000 )
                  (  0.0000000  0.0000000 -1.0000000 )
                  (  0.0000000 -1.0000000  0.0000000 )

     point group C_3v (3m)
     there are  3 classes
     the character table:

       E     2C3   3s_v
A_1    1.00  1.00  1.00
A_2    1.00  1.00 -1.00
E      2.00 -1.00  0.00

     the symmetry operations in each class and the name of the first element:

     E        1
          identity
     2C3      2    3
          120 deg rotation - cart. axis [1,-1,1]
     3s_v     4    5    6
          inv. 180 deg rotation - cart. axis [1,1,0]

   Cartesian axes

     site n.     atom                  positions (alat units)
         1           C   tau(   1) = (   0.0000000   0.0000000   0.5000000  )
         2           C   tau(   2) = (   0.2500061   0.2500061   0.7499939  )
         3           C   tau(   3) = (   0.0000000   0.5000000   0.0000000  )
         4           C   tau(   4) = (   0.7499939   0.7499939   0.7499939  )
         5           C   tau(   5) = (   0.5000000   0.0000000   0.0000000  )
         6           C   tau(   6) = (   0.7499939   0.2500061   0.2500061  )
         7           C   tau(   7) = (   0.5000000   0.5000000   0.5000000  )

   Crystallographic axes

     site n.     atom                  positions (cryst. coord.)
         1           C   tau(   1) = (  0.0000000  0.0000000  0.5000000  )
         2           C   tau(   2) = (  0.2500061  0.2500061  0.7499939  )
         3           C   tau(   3) = (  0.0000000  0.5000000  0.0000000  )
         4           C   tau(   4) = (  0.7499939  0.7499939  0.7499939  )
         5           C   tau(   5) = (  0.5000000  0.0000000  0.0000000  )
         6           C   tau(   6) = (  0.7499939  0.2500061  0.2500061  )
         7           C   tau(   7) = (  0.5000000  0.5000000  0.5000000  )

     number of k points=    13  Gaussian smearing, width (Ry)=  0.0100
                       cart. coord. in units 2pi/alat
        k(    1) = (   0.0000000   0.0000000   0.0000000), wk =   0.0312500
        k(    2) = (   0.0000000   0.0000000   0.2500000), wk =   0.1875000
        k(    3) = (   0.0000000   0.0000000  -0.5000000), wk =   0.0937500
        k(    4) = (   0.0000000   0.2500000   0.2500000), wk =   0.1875000
        k(    5) = (   0.0000000   0.2500000  -0.5000000), wk =   0.3750000
        k(    6) = (   0.0000000  -0.5000000  -0.5000000), wk =   0.0937500
        k(    7) = (   0.2500000   0.2500000   0.2500000), wk =   0.1875000
        k(    8) = (   0.2500000   0.2500000  -0.5000000), wk =   0.1875000
        k(    9) = (   0.2500000  -0.5000000  -0.5000000), wk =   0.1875000
        k(   10) = (  -0.5000000  -0.5000000  -0.5000000), wk =   0.0312500
        k(   11) = (   0.2500000   0.0000000   0.2500000), wk =   0.1875000
        k(   12) = (   0.2500000  -0.2500000   0.2500000), wk =   0.0625000
        k(   13) = (   0.2500000  -0.2500000  -0.5000000), wk =   0.1875000

                       cryst. coord.
        k(    1) = (   0.0000000   0.0000000   0.0000000), wk =   0.0312500
        k(    2) = (   0.0000000   0.0000000   0.2500000), wk =   0.1875000
        k(    3) = (   0.0000000   0.0000000  -0.5000000), wk =   0.0937500
        k(    4) = (   0.0000000   0.2500000   0.2500000), wk =   0.1875000
        k(    5) = (   0.0000000   0.2500000  -0.5000000), wk =   0.3750000
        k(    6) = (   0.0000000  -0.5000000  -0.5000000), wk =   0.0937500
        k(    7) = (   0.2500000   0.2500000   0.2500000), wk =   0.1875000
        k(    8) = (   0.2500000   0.2500000  -0.5000000), wk =   0.1875000
        k(    9) = (   0.2500000  -0.5000000  -0.5000000), wk =   0.1875000
        k(   10) = (  -0.5000000  -0.5000000  -0.5000000), wk =   0.0312500
        k(   11) = (   0.2500000   0.0000000   0.2500000), wk =   0.1875000
        k(   12) = (   0.2500000  -0.2500000   0.2500000), wk =   0.0625000
        k(   13) = (   0.2500000  -0.2500000  -0.5000000), wk =   0.1875000

     Atomic positions and unit cell read from directory:
     ./diamond.save/
     Atomic positions from file used, from input discarded

     Check: negative core charge=   -0.000013

     The initial density is read from file :
     ./diamond.save/charge-density

     %%%%%%%%%%%%%%%%%%%%%%%%%%%%%%%%%%%%%%%%%%%%%%%%%%%%%%%%%%%%%%%%%%%%%%%%
     %                                                                      %
     % You are using vdW-DF, which was implemented by the Thonhauser group. %
     % Please cite the following two papers that made this development      %
     % possible and the two reviews that describe the various versions:     %
     %                                                                      %
     %   T. Thonhauser et al., PRL 115, 136402 (2015).                      %
     %   T. Thonhauser et al., PRB 76, 125112 (2007).                       %
     %   K. Berland et al., Rep. Prog. Phys. 78, 066501 (2015).             %
     %   D.C. Langreth et al., J. Phys.: Condens. Matter 21, 084203 (2009). %
     %                                                                      %
     % If you are calculating stress with vdW-DF, please also cite:         %
     %                                                                      %
     %   R. Sabatini et al., J. Phys.: Condens. Matter 24, 424209 (2012).   %
     %                                                                      %
     %%%%%%%%%%%%%%%%%%%%%%%%%%%%%%%%%%%%%%%%%%%%%%%%%%%%%%%%%%%%%%%%%%%%%%%%

     %%%%%%%%%%%%%%%%%%%%%%%%%%%%%%%%%%%%%%%%%%%%%%%%%%%%%%%%%%%%%%%%%%%%%%%%
     %                                                                      %
     %  vdW-DF NEWS:                                                        %
     %                                                                      %
     %  * vdW-DF3 is now available. DOI: 10.1021/acs.jctc.0c00471           %
     %    use with input_dft = 'vdW-DF3-opt1' or 'vdW-DF3-opt2'             %
     %                                                                      %
     %  * Unscreened and range-separated hybrid vdW-DF-cx functionals       %
     %    DOI: 10.1063/1.4986522 and 10.1088/1361-648X/ac2ad2               %
     %    use with input_dft = 'vdW-DF-cx0'    and 'vdW-DF-ahcx'            %
     %  * Unscreened and range-separated hybrid vdW-DF2-b86r functionals    %
     %    DOI: 10.1063/1.4986522 and DOI: 10.1103/PhysRevX.12.041003        %
     %    use with input_dft = 'vdW-DF2-br0' and 'vdW-DF2-ahbr'             %
     %                                                                      %
     %%%%%%%%%%%%%%%%%%%%%%%%%%%%%%%%%%%%%%%%%%%%%%%%%%%%%%%%%%%%%%%%%%%%%%%%

     Carrying out vdW-DF run using the following parameters:
     Nqs    =  20  Npoints =  1024  r_max =  100.000
     q_mesh =  0.00001000  0.04494208  0.09755937  0.15916263
               0.23128650  0.31572767  0.41458969  0.53033537
               0.66584808  0.82450364  1.01025438  1.22772762
               1.48234092  1.78043706  2.12944203  2.53805004
               3.01644009  3.57652955  4.23227104  5.00000000

     Non-local corr. energy    =       0.25190701 Ry

     Starting wfcs from file
     Checking if some PAW data can be deallocated...

     Self-consistent Calculation

     iteration #  1     ecut=    70.00 Ry     beta= 0.70
     Davidson diagonalization with overlap

     ethr =  1.00E-05,  avg # of iterations =  1.0

     Threshold (ethr) on eigenvalues was too large:
     Diagonalizing with lowered threshold

     Davidson diagonalization with overlap

     ethr =  1.33E-12,  avg # of iterations =  6.4

[...]

     End of self-consistent calculation

          k = 0.0000 0.0000 0.0000 (  2969 PWs)   bands (ev):

   -10.1799  -2.4305  -2.4305  -1.6074  -1.6063  -1.6063   4.3566   4.3566
     4.3566   4.9994   6.4564   6.4564   6.4571  13.7745  13.7745  13.7747
    15.7812  15.7812

     occupation numbers
     1.0000   1.0000   1.0000   1.0000   1.0000   1.0000   1.0000   1.0000
     1.0000   1.0000   1.0000   1.0000   1.0000   0.0000   0.0000   0.0000
     0.0000   0.0000

[...]

          k =-0.5000-0.5000-0.5000 (  3112 PWs)   bands (ev):

[...]

          k = 0.2500-0.2500-0.5000 (  3050 PWs)   bands (ev):

    -7.7527  -6.2303  -4.3429  -2.6078  -0.2568   0.3018   1.7136   3.7704
     5.3944   6.2091   6.5694   6.7443   7.2733  11.0639  12.2987  12.8432
    17.9951  19.7677

     occupation numbers
     1.0000   1.0000   1.0000   1.0000   1.0000   1.0000   1.0000   1.0000
     1.0000   1.0000   1.0000   1.0000   1.0000   1.0000   0.0218   0.0000
     0.0000   0.0000

     the Fermi energy is    12.1045 ev

!    total energy              =    -132.55315310 Ry
     total all-electron energy =      -536.901833 Ry
     estimated scf accuracy    <          6.2E-10 Ry
     smearing contrib. (-TS)   =      -0.00212829 Ry
     internal energy E=F+TS    =    -132.55102481 Ry

     The total energy is F=E-TS. E is the sum of the following terms:
     one-electron contribution =      17.32530151 Ry
     hartree contribution      =      10.60535377 Ry
     xc contribution           =     -33.66571523 Ry
     ewald contribution        =     -80.98866917 Ry
     one-center paw contrib.   =     -45.82729570 Ry
      -> PAW hartree energy AE =       8.24262502 Ry
      -> PAW hartree energy PS =      -8.23381006 Ry
      -> PAW xc energy AE      =     -10.93924767 Ry
      -> PAW xc energy PS      =       4.37956217 Ry
      -> total E_H with PAW    =      10.61416873 Ry
      -> total E_XC with PAW   =     -40.22540072 Ry

     convergence has been achieved in   1 iterations

[...]

     Forces acting on atoms (cartesian axes, Ry/au):

     atom    1 type  1   force =     0.00000061   -0.00000061   -0.00005211
     atom    2 type  1   force =    -0.00006351    0.00000661   -0.00000661
     atom    3 type  1   force =     0.00000061    0.00005211    0.00000061
     atom    4 type  1   force =    -0.00000661    0.00006351   -0.00000661
     atom    5 type  1   force =    -0.00005211   -0.00000061    0.00000061
     atom    6 type  1   force =    -0.00000661    0.00000661   -0.00006351
     atom    7 type  1   force =     0.00012762   -0.00012762    0.00012762
     The non-local contrib.  to forces
     atom    1 type  1   force =    -0.19799337    0.19799337    0.19814935
     atom    2 type  1   force =    -0.00002934   -0.00001444    0.00001444
     atom    3 type  1   force =    -0.19799337   -0.19814935   -0.19799337
     atom    4 type  1   force =     0.00001444    0.00002934    0.00001444
     atom    5 type  1   force =     0.19814935    0.19799337   -0.19799337
     atom    6 type  1   force =     0.00001444   -0.00001444   -0.00002934
     atom    7 type  1   force =     0.19819158   -0.19819158    0.19819158
     The ionic contribution  to forces
     atom    1 type  1   force =     1.92219193   -1.92219208   -1.92228234
     atom    2 type  1   force =    -0.00021653   -0.00043431    0.00043433
     atom    3 type  1   force =     1.92219197    1.92228244    1.92219197
     atom    4 type  1   force =     0.00043433    0.00021658    0.00043433
     atom    5 type  1   force =    -1.92228234   -1.92219208    1.92219193
     atom    6 type  1   force =     0.00043433   -0.00043431   -0.00021653
     atom    7 type  1   force =    -1.92275370    1.92275376   -1.92275370
     The local contribution  to forces
     atom    1 type  1   force =    -1.72750518    1.72750518    1.72732801
     atom    2 type  1   force =     0.00008634    0.00031940   -0.00031920
     atom    3 type  1   force =    -1.72750513   -1.72732785   -1.72750513
     atom    4 type  1   force =    -0.00031920   -0.00008624   -0.00031920
     atom    5 type  1   force =     1.72732801    1.72750518   -1.72750518
     atom    6 type  1   force =    -0.00031920    0.00031940    0.00008634
     atom    7 type  1   force =     1.72778120   -1.72778109    1.72778120
     The core correction contribution to forces
     atom    1 type  1   force =     0.00336939   -0.00336939   -0.00318732
     atom    2 type  1   force =     0.00017004    0.00008504   -0.00008505
     atom    3 type  1   force =     0.00336939    0.00318731    0.00336939
     atom    4 type  1   force =    -0.00008505   -0.00017005   -0.00008505
     atom    5 type  1   force =    -0.00318732   -0.00336939    0.00336939
     atom    6 type  1   force =    -0.00008505    0.00008504    0.00017004
     atom    7 type  1   force =    -0.00303292    0.00303291   -0.00303292
     The Hubbard contrib.    to forces
     atom    1 type  1   force =     0.00000000    0.00000000    0.00000000
     atom    2 type  1   force =     0.00000000    0.00000000    0.00000000
     atom    3 type  1   force =     0.00000000    0.00000000    0.00000000
     atom    4 type  1   force =     0.00000000    0.00000000    0.00000000
     atom    5 type  1   force =     0.00000000    0.00000000    0.00000000
     atom    6 type  1   force =     0.00000000    0.00000000    0.00000000
     atom    7 type  1   force =     0.00000000    0.00000000    0.00000000
     The SCF correction term to forces
     atom    1 type  1   force =    -0.00000030    0.00000030    0.00000221
     atom    2 type  1   force =    -0.00001203   -0.00001088    0.00001088
     atom    3 type  1   force =    -0.00000030   -0.00000221   -0.00000030
     atom    4 type  1   force =     0.00001088    0.00001203    0.00001088
     atom    5 type  1   force =     0.00000221    0.00000030   -0.00000030
     atom    6 type  1   force =     0.00001088   -0.00001088   -0.00001203
     atom    7 type  1   force =     0.00000345   -0.00000345    0.00000345

     Total force =     0.000263     Total SCF correction =     0.000035
     SCF correction compared to forces is large: reduce conv_thr to get better values

     Computing stress (Cartesian axis) and pressure

[...]

          total   stress  (Ry/bohr**3)                   (kbar)     P=        8.07
   0.00005489  -0.00000026   0.00000026            8.07       -0.04        0.04
  -0.00000026   0.00005489  -0.00000026           -0.04        8.07       -0.04
   0.00000026  -0.00000026   0.00005489            0.04       -0.04        8.07

     kinetic stress (kbar)  16234.00     -0.04      0.04
                               -0.04  16234.00     -0.04
                                0.04     -0.04  16234.00

     local   stress (kbar)  -4858.00     -0.72      0.72
                               -0.72  -4858.00     -0.72
                                0.72     -0.72  -4858.00

     nonloc. stress (kbar)   3999.64      0.03     -0.03
                                0.03   3999.64      0.03
                               -0.03      0.03   3999.64

     hartree stress (kbar)   1690.40      0.11     -0.11
                                0.11   1690.40      0.11
                               -0.11      0.11   1690.40

     exc-cor stress (kbar)   -300.70      0.06     -0.06
                                0.06   -300.70      0.06
                               -0.06      0.06   -300.70

     corecor stress (kbar)  -3872.23     -0.14      0.14
                               -0.14  -3872.23     -0.14
                                0.14     -0.14  -3872.23

     ewald   stress (kbar) -12908.90      0.66     -0.66
                                0.66 -12908.90      0.66
                               -0.66      0.66 -12908.90

     hubbard stress (kbar)      0.00      0.00      0.00
                                0.00      0.00      0.00
                                0.00      0.00      0.00

     DFT-D   stress (kbar)      0.00      0.00      0.00
                                0.00      0.00      0.00
                                0.00      0.00      0.00

     XDM     stress (kbar)      0.00      0.00      0.00
                                0.00      0.00      0.00
                                0.00      0.00      0.00

     dft-nl  stress (kbar)     23.86     -0.00      0.00
                               -0.00     23.86     -0.00
                                0.00     -0.00     23.86

     TS-vdW  stress (kbar)      0.00      0.00      0.00
                                0.00      0.00      0.00
                                0.00      0.00      0.00

     MDB     stress (kbar)      0.00      0.00      0.00
                                0.00      0.00      0.00
                                0.00      0.00      0.00

     3D-RISM stress (kbar)      0.00      0.00      0.00
                                0.00      0.00      0.00
                                0.00      0.00      0.00

[...]

     Non-local corr. energy    =       0.25190701 Ry

 BEEFens 2000 ensemble energies
             -0.247140008519175E+01
             -0.165208802601930E+00
             -0.543985794407500E+00
              0.170130204481744E+01
             -0.746962785609551E+00
             -0.619497062387603E+00
             -0.173774002600264E+01
             -0.370025495274757E+01
             -0.133225151555994E+01
             -0.140851818313282E+01
             -0.148381336845281E+01
              0.225091624423089E+00
              0.213157384419739E+00
             -0.217958952103291E+00
              0.163274953931852E+00
              0.182409844363957E+01
             -0.717348640413176E+00
             -0.434911079552149E+00
              0.950768416228875E+00
             -0.420314296162855E+01
              0.220736926007221E+01
             -0.759622076814356E+00
             -0.228585604398834E+00
             -0.296646068164657E+00
              0.263547628114864E-01
             -0.205584877113389E+00
              0.329686765572830E+01
             -0.946546221838325E+00
             -0.325964059561475E+00
             -0.221966708645847E+01
              0.263330331658298E+01
             -0.200396340560163E+00
             -0.160539133869953E+01
              0.740416046006585E+00
             -0.953270464956422E-01
              0.112832088477949E+01
              0.100720151436310E+00
             -0.167417609806257E-01
              0.144814704593897E+01
             -0.380456455300040E+01
              0.203629810791303E+01
              0.497191051929908E+00
             -0.435736569461163E+00
             -0.121406091176459E+01
              0.449813707825404E+00
             -0.671724436532685E+00
              0.194067646106723E+01
              0.132916238012210E+01
             -0.711365662941891E+00
             -0.127245237452974E+01
             -0.124329583238856E+01
             -0.137943513661695E+01
              0.762479258566811E+00
             -0.202658322767948E+01
              0.607209394272726E+00
              0.234278093443374E+01
              0.290461553797140E+01
              0.115863243428984E+01
              0.592961635311557E+00
              0.122127348362406E+01
[...]
             -0.289884934777704E+01
              0.114475196145143E+00
              0.298004543500593E-01
             -0.436011062930877E+00
              0.182742926032603E+00
             -0.247369641161718E+01
             -0.378678163257833E+00
              0.448530397432797E+00
              0.498395955639536E+00
              0.194792598149067E+01
             -0.169701926623629E+01
              0.197102710023876E+01
             -0.149602928313502E+01
              0.102700350329588E+01
              0.167427599404546E+01

 BEEF-vdW xc energy contributions
            1 :    -28.21736598919016
            2 :     24.75311055670002
            3 :    -18.81290574931104
            4 :     11.98879851120855
            5 :    -5.881867929478712
            6 :     1.559770049888300
            7 :    0.7105860335534508
            8 :    -1.374467362822255
            9 :     1.233054859541692
           10 :    -1.018568951457450
           11 :     1.103161768554084
           12 :    -1.449001943768604
           13 :     1.772461573900838
           14 :    -1.794213799792299
           15 :     1.426796827698393
           16 :   -0.8111539269758019
           17 :    0.2107298505180530
           18 :    0.1515099637300779
           19 :   -0.2100392805414728
           20 :    6.7075831434475930E-002
           21 :    9.4144295767065955E-002
           22 :   -0.1290227865298306
           23 :    1.0171167001626458E-002
           24 :    0.1749331685765902
           25 :   -0.2944505187204349
           26 :    0.2600158200462488
           27 :   -7.7741558564337510E-002
           28 :   -0.1630104809844575
           29 :    0.3486236390819570
           30 :   -0.4073671601555127
           31 :    -3.719230969571004
           32 :    -2.667023801307444

     Writing all to output data dir ./diamond.save/

     General routines

     Parallel routines

     PAW routines

   This run was terminated on:  22:22:10  27Mar2024

   JOB DONE.