     Program PWSCF v.7.2 starts on 27Mar2024 at 21:34:27

     Reading input from espresso.pwi
Warning: card &CELL ignored
Warning: card    CELL_DYNAMICS    = 'BFGS' ignored
Warning: card / ignored

     Current dimensions of program PWSCF are:
     Max number of different atomic species (ntypx) = 10
     Max number of k-points (npk) =  40000
     Max angular momentum in pseudopotentials (lmaxx) =  4
     file C.pbe-n-kjpaw_psl.1.0.0.UPF: wavefunction(s)  2S 2P renormalized

     IMPORTANT: XC functional enforced from input :
     Exchange-correlation= BEEF-VDW
                           (   1   4  43  14   2   0   0)
     Any further DFT definition will be discarded
     Please, verify this is what you really want

     R & G space division:  proc/nbgrp/npool/nimage =      10
     Subspace diagonalization in iterative solution of the eigenvalue problem:
     a serial algorithm will be used

     Using Slab Decomposition

     bravais-lattice index     =            1
     lattice parameter (alat)  =       6.7507  a.u.
     unit-cell volume          =     307.6390 (a.u.)^3
     number of atoms/cell      =            7
     number of atomic types    =            1
     number of electrons       =        28.00
     number of Kohn-Sham states=           18
     kinetic-energy cutoff     =      70.0000  Ry
     charge density cutoff     =     350.0000  Ry
     scf convergence threshold =      1.0E-07
     mixing beta               =       0.7000
     number of iterations used =            8  plain     mixing
     energy convergence thresh.=      1.0E-04
     force convergence thresh. =      1.0E-03
     Exchange-correlation= BEEF-VDW
                           (   1   4  43  14   2   0   0)
     nstep                     =           50

     celldm(1)=   6.750674  celldm(2)=   0.000000  celldm(3)=   0.000000
     celldm(4)=   0.000000  celldm(5)=   0.000000  celldm(6)=   0.000000

     crystal axes: (cart. coord. in units of alat)
               a(1) = (   1.000000   0.000000   0.000000 )
               a(2) = (   0.000000   1.000000   0.000000 )
               a(3) = (   0.000000   0.000000   1.000000 )

     reciprocal axes: (cart. coord. in units 2 pi/alat)
               b(1) = (  1.000000  0.000000  0.000000 )
               b(2) = (  0.000000  1.000000  0.000000 )
               b(3) = (  0.000000  0.000000  1.000000 )

     PseudoPot. # 1 for C  read from file:
     /trace/group/acmegroup/atimmins/packages/espresso/pseudo/psl_1.0.0/pslibrary.1.0.0/pbe/PSEUDOPOTENTIALS/C.pbe-n-kjpaw_psl.1.0.0.UPF
     MD5 check sum: 5459cf7f2c8c37df2f7cde8914797f4d
     Pseudo is Projector augmented-wave + core cor, Zval =  4.0
     Generated using 'atomic' code by A. Dal Corso  v.7.1
     Shape of augmentation charge: PSQ
     Using radial grid of 1073 points,  4 beta functions with:
                l(1) =   0
                l(2) =   0
                l(3) =   1
                l(4) =   1
     Q(r) pseudized with 0 coefficients

     atomic species   valence    mass     pseudopotential
        C              4.00    12.01100     C ( 1.00)

      6 Sym. Ops. (no inversion) found

                                    s                        frac. trans.

      isym =  1     identity

 cryst.   s( 1) = (     1          0          0      )
                  (     0          1          0      )
                  (     0          0          1      )

 cart.    s( 1) = (  1.0000000  0.0000000  0.0000000 )
                  (  0.0000000  1.0000000  0.0000000 )
                  (  0.0000000  0.0000000  1.0000000 )

      isym =  2     120 deg rotation - cart. axis [1,-1,1]

[...]

      isym =  3     120 deg rotation - cart. axis [-1,1,-1]

[...]

      isym =  4     inv. 180 deg rotation - cart. axis [1,1,0]

[...]

      isym =  6     inv. 180 deg rotation - cart. axis [0,1,1]

 cryst.   s( 6) = (     1          0          0      )
                  (     0          0         -1      )
                  (     0         -1          0      )

 cart.    s( 6) = (  1.0000000  0.0000000  0.0000000 )
                  (  0.0000000  0.0000000 -1.0000000 )
                  (  0.0000000 -1.0000000  0.0000000 )

     point group C_3v (3m)
     there are  3 classes
     the character table:

       E     2C3   3s_v
A_1    1.00  1.00  1.00
A_2    1.00  1.00 -1.00
E      2.00 -1.00  0.00

     the symmetry operations in each class and the name of the first element:

     E        1
          identity
     2C3      2    3
          120 deg rotation - cart. axis [1,-1,1]
     3s_v     4    5    6
          inv. 180 deg rotation - cart. axis [1,1,0]

   Cartesian axes

     site n.     atom                  positions (alat units)
         1           C   tau(   1) = (   0.0000000   0.0000000   0.5000000  )
         2           C   tau(   2) = (   0.2500061   0.2500061   0.7499939  )
         3           C   tau(   3) = (   0.0000000   0.5000000   0.0000000  )
         4           C   tau(   4) = (   0.7499939   0.7499939   0.7499939  )
         5           C   tau(   5) = (   0.5000000   0.0000000   0.0000000  )
         6           C   tau(   6) = (   0.7499939   0.2500061   0.2500061  )
         7           C   tau(   7) = (   0.5000000   0.5000000   0.5000000  )

   Crystallographic axes

     site n.     atom                  positions (cryst. coord.)
         1           C   tau(   1) = (  0.0000000  0.0000000  0.5000000  )
         2           C   tau(   2) = (  0.2500061  0.2500061  0.7499939  )
         3           C   tau(   3) = (  0.0000000  0.5000000  0.0000000  )
         4           C   tau(   4) = (  0.7499939  0.7499939  0.7499939  )
         5           C   tau(   5) = (  0.5000000  0.0000000  0.0000000  )
         6           C   tau(   6) = (  0.7499939  0.2500061  0.2500061  )
         7           C   tau(   7) = (  0.5000000  0.5000000  0.5000000  )

     number of k points=    13  Gaussian smearing, width (Ry)=  0.0100
                       cart. coord. in units 2pi/alat
        k(    1) = (   0.0000000   0.0000000   0.0000000), wk =   0.0312500
        k(    2) = (   0.0000000   0.0000000   0.2500000), wk =   0.1875000
        k(    3) = (   0.0000000   0.0000000  -0.5000000), wk =   0.0937500
        k(    4) = (   0.0000000   0.2500000   0.2500000), wk =   0.1875000
        k(    5) = (   0.0000000   0.2500000  -0.5000000), wk =   0.3750000
        k(    6) = (   0.0000000  -0.5000000  -0.5000000), wk =   0.0937500
        k(    7) = (   0.2500000   0.2500000   0.2500000), wk =   0.1875000
        k(    8) = (   0.2500000   0.2500000  -0.5000000), wk =   0.1875000
        k(    9) = (   0.2500000  -0.5000000  -0.5000000), wk =   0.1875000
        k(   10) = (  -0.5000000  -0.5000000  -0.5000000), wk =   0.0312500
        k(   11) = (   0.2500000   0.0000000   0.2500000), wk =   0.1875000
        k(   12) = (   0.2500000  -0.2500000   0.2500000), wk =   0.0625000
        k(   13) = (   0.2500000  -0.2500000  -0.5000000), wk =   0.1875000

                       cryst. coord.
        k(    1) = (   0.0000000   0.0000000   0.0000000), wk =   0.0312500
        k(    2) = (   0.0000000   0.0000000   0.2500000), wk =   0.1875000
        k(    3) = (   0.0000000   0.0000000  -0.5000000), wk =   0.0937500
        k(    4) = (   0.0000000   0.2500000   0.2500000), wk =   0.1875000
        k(    5) = (   0.0000000   0.2500000  -0.5000000), wk =   0.3750000
        k(    6) = (   0.0000000  -0.5000000  -0.5000000), wk =   0.0937500
        k(    7) = (   0.2500000   0.2500000   0.2500000), wk =   0.1875000
        k(    8) = (   0.2500000   0.2500000  -0.5000000), wk =   0.1875000
        k(    9) = (   0.2500000  -0.5000000  -0.5000000), wk =   0.1875000
        k(   10) = (  -0.5000000  -0.5000000  -0.5000000), wk =   0.0312500
        k(   11) = (   0.2500000   0.0000000   0.2500000), wk =   0.1875000
        k(   12) = (   0.2500000  -0.2500000   0.2500000), wk =   0.0625000
        k(   13) = (   0.2500000  -0.2500000  -0.5000000), wk =   0.1875000

     Check: negative core charge=   -0.000014

     Initial potential from superposition of free atoms

     starting charge      27.9997, renormalised to      28.0000

     %%%%%%%%%%%%%%%%%%%%%%%%%%%%%%%%%%%%%%%%%%%%%%%%%%%%%%%%%%%%%%%%%%%%%%%%
     %                                                                      %
     % You are using vdW-DF, which was implemented by the Thonhauser group. %
     % Please cite the following two papers that made this development      %
     % possible and the two reviews that describe the various versions:     %
     %                                                                      %
     %   T. Thonhauser et al., PRL 115, 136402 (2015).                      %
     %   T. Thonhauser et al., PRB 76, 125112 (2007).                       %
     %   K. Berland et al., Rep. Prog. Phys. 78, 066501 (2015).             %
     %   D.C. Langreth et al., J. Phys.: Condens. Matter 21, 084203 (2009). %
     %                                                                      %
     % If you are calculating stress with vdW-DF, please also cite:         %
     %                                                                      %
     %   R. Sabatini et al., J. Phys.: Condens. Matter 24, 424209 (2012).   %
     %                                                                      %
     %%%%%%%%%%%%%%%%%%%%%%%%%%%%%%%%%%%%%%%%%%%%%%%%%%%%%%%%%%%%%%%%%%%%%%%%

     %%%%%%%%%%%%%%%%%%%%%%%%%%%%%%%%%%%%%%%%%%%%%%%%%%%%%%%%%%%%%%%%%%%%%%%%
     %                                                                      %
     %  vdW-DF NEWS:                                                        %
     %                                                                      %
     %  * vdW-DF3 is now available. DOI: 10.1021/acs.jctc.0c00471           %
     %    use with input_dft = 'vdW-DF3-opt1' or 'vdW-DF3-opt2'             %
     %                                                                      %
     %  * Unscreened and range-separated hybrid vdW-DF-cx functionals       %
     %    DOI: 10.1063/1.4986522 and 10.1088/1361-648X/ac2ad2               %
     %    use with input_dft = 'vdW-DF-cx0'    and 'vdW-DF-ahcx'            %
     %  * Unscreened and range-separated hybrid vdW-DF2-b86r functionals    %
     %    DOI: 10.1063/1.4986522 and DOI: 10.1103/PhysRevX.12.041003        %
     %    use with input_dft = 'vdW-DF2-br0' and 'vdW-DF2-ahbr'             %
     %                                                                      %
     %%%%%%%%%%%%%%%%%%%%%%%%%%%%%%%%%%%%%%%%%%%%%%%%%%%%%%%%%%%%%%%%%%%%%%%%

     Carrying out vdW-DF run using the following parameters:
     Nqs    =  20  Npoints =  1024  r_max =  100.000
     q_mesh =  0.00001000  0.04494208  0.09755937  0.15916263
               0.23128650  0.31572767  0.41458969  0.53033537
               0.66584808  0.82450364  1.01025438  1.22772762
               1.48234092  1.78043706  2.12944203  2.53805004
               3.01644009  3.57652955  4.23227104  5.00000000

     Non-local corr. energy    =       0.19759519 Ry

     Starting wfcs are   28 randomized atomic wfcs
     Checking if some PAW data can be deallocated...

     Self-consistent Calculation

[...]
     atom    4 type  1   force =    -0.00010536   -0.00014294   -0.00010536
     atom    5 type  1   force =    -0.00383015   -0.00381957    0.00381957
     atom    6 type  1   force =    -0.00010536    0.00010535    0.00014293
     atom    7 type  1   force =    -0.00376782    0.00376781   -0.00376782
     The Hubbard contrib.    to forces
     atom    1 type  1   force =     0.00000000    0.00000000    0.00000000
     atom    2 type  1   force =     0.00000000    0.00000000    0.00000000
     atom    3 type  1   force =     0.00000000    0.00000000    0.00000000
     atom    4 type  1   force =     0.00000000    0.00000000    0.00000000
     atom    5 type  1   force =     0.00000000    0.00000000    0.00000000
     atom    6 type  1   force =     0.00000000    0.00000000    0.00000000
     atom    7 type  1   force =     0.00000000    0.00000000    0.00000000
     The SCF correction term to forces
     atom    1 type  1   force =     0.00002591   -0.00002591   -0.00002475
     atom    2 type  1   force =    -0.00000503   -0.00000337    0.00000337
     atom    3 type  1   force =     0.00002591    0.00002475    0.00002591
     atom    4 type  1   force =     0.00000337    0.00000503    0.00000337
     atom    5 type  1   force =    -0.00002475   -0.00002591    0.00002591
     atom    6 type  1   force =     0.00000337   -0.00000337   -0.00000503
     atom    7 type  1   force =    -0.00002839    0.00002839   -0.00002839

     Total force =     0.226088     Total SCF correction =     0.000092

     Computing stress (Cartesian axis) and pressure

[...]

          total   stress  (Ry/bohr**3)                   (kbar)     P=      -99.88
  -0.00067898   0.00000053  -0.00000053          -99.88        0.08       -0.08
   0.00000053  -0.00067898   0.00000053            0.08      -99.88        0.08
  -0.00000053   0.00000053  -0.00067898           -0.08        0.08      -99.88

     kinetic stress (kbar)  15981.45     -0.03      0.03
                               -0.03  15981.45     -0.03
                                0.03     -0.03  15981.45

     local   stress (kbar)  -4143.91     -0.21      0.21
                               -0.21  -4143.91     -0.21
                                0.21     -0.21  -4143.91

     nonloc. stress (kbar)   4048.15      0.02     -0.02
                                0.02   4048.15      0.02
                               -0.02      0.02   4048.15

     hartree stress (kbar)   1406.74      0.04     -0.04
                                0.04   1406.74      0.04
                               -0.04      0.04   1406.74

     exc-cor stress (kbar)   -269.32     -0.00      0.00
                               -0.00   -269.32     -0.00
                                0.00     -0.00   -269.32

     corecor stress (kbar)  -3863.01      0.12     -0.12
                                0.12  -3863.01      0.12
                               -0.12      0.12  -3863.01

     ewald   stress (kbar) -13281.99      0.14     -0.14
                                0.14 -13281.99      0.14
                               -0.14      0.14 -13281.99

     hubbard stress (kbar)      0.00      0.00      0.00
                                0.00      0.00      0.00
                                0.00      0.00      0.00

     DFT-D   stress (kbar)      0.00      0.00      0.00
                                0.00      0.00      0.00
                                0.00      0.00      0.00

     XDM     stress (kbar)      0.00      0.00      0.00
                                0.00      0.00      0.00
                                0.00      0.00      0.00

     dft-nl  stress (kbar)     22.00     -0.00      0.00
                               -0.00     22.00     -0.00
                                0.00     -0.00     22.00

     TS-vdW  stress (kbar)      0.00      0.00      0.00
                                0.00      0.00      0.00
                                0.00      0.00      0.00

     MDB     stress (kbar)      0.00      0.00      0.00
                                0.00      0.00      0.00
                                0.00      0.00      0.00

     3D-RISM stress (kbar)      0.00      0.00      0.00
                                0.00      0.00      0.00
                                0.00      0.00      0.00

     BFGS Geometry Optimization
     Energy error            =      0.0E+00 Ry
     Gradient error          =      6.5E-02 Ry/Bohr

     number of scf cycles    =   1
     number of bfgs steps    =   0

     energy             new  =    -132.5100080951 Ry

     new trust radius        =       0.1131001582 bohr
     new conv_thr            =       0.0000001000 Ry

ATOMIC_POSITIONS (angstrom)
C            -0.0345356412        0.0345356412        1.8206746316
C             0.8931367494        0.8931203872        2.6791824312
C            -0.0345356412        1.7516281868       -0.0345356412
C             2.6791824312        2.6791660690        2.6791824312
C             1.8206746316        0.0345356412       -0.0345356412
C             2.6791824312        0.8931203872        0.8931367494
C             1.8207058380        1.7515969804        1.8207058380

     Writing config-only to output data dir ./diamond.save/
     NEW-OLD atomic charge density approx. for the potential

[...]

     c_bands:  1 eigenvalues not converged
     ethr =  4.55E-10,  avg # of iterations =  3.8

[...]

     Energy error            =      3.6E-02 Ry
     Gradient error          =      2.7E-02 Ry/Bohr

[...]

     energy             old  =    -132.5100080951 Ry
     energy             new  =    -132.5461538809 Ry

     CASE: energy            _new < energy            _old

[...]

     number of scf cycles    =   3
     number of bfgs steps    =   2

     energy             old  =    -132.5461538809 Ry
     energy             new  =    -132.5531434714 Ry

     CASE: energy            _new < energy            _old

     new trust radius        =       0.0028879377 bohr
     new conv_thr            =       0.0000000011 Ry

ATOMIC_POSITIONS (angstrom)
C            -0.0575858083        0.0575858083        1.8438253405
C             0.8931650848        0.8931369846        2.6791658338
C            -0.0575858083        1.7284774779       -0.0575858083
C             2.6791658338        2.6791377336        2.6791658338
C             1.8438253405        0.0575858083       -0.0575858083
C             2.6791658338        0.8931369846        0.8931650848
C             1.8436603227        1.7286424957        1.8436603227

     Writing config-only to output data dir ./diamond.save/
     NEW-OLD atomic charge density approx. for the potential

     Check: negative core charge=   -0.000013

[...]

     Self-consistent Calculation

[...]

     Threshold (ethr) on eigenvalues was too large:
     Diagonalizing with lowered threshold

     Davidson diagonalization with overlap

[...]

     total energy              =    -132.55315310 Ry
     estimated scf accuracy    <       0.00000004 Ry

     iteration #  5     ecut=    70.00 Ry     beta= 0.70
     Davidson diagonalization with overlap

     ethr =  1.43E-10,  avg # of iterations =  2.5

[...]

     End of self-consistent calculation

[...]

          k =-0.5000-0.5000-0.5000 (  3112 PWs)   bands (ev):

[...]

          k = 0.2500-0.2500-0.5000 (  3050 PWs)   bands (ev):

    -7.7527  -6.2303  -4.3430  -2.6078  -0.2568   0.3018   1.7136   3.7703
     5.3944   6.2091   6.5694   6.7443   7.2733  11.0639  12.2987  12.8432
    17.9951  19.7676

     occupation numbers
     1.0000   1.0000   1.0000   1.0000   1.0000   1.0000   1.0000   1.0000
     1.0000   1.0000   1.0000   1.0000   1.0000   1.0000   0.0218   0.0000
     0.0000   0.0000

     the Fermi energy is    12.1045 ev

!    total energy              =    -132.55315310 Ry
     total all-electron energy =      -536.901833 Ry
     estimated scf accuracy    <          2.8E-10 Ry
     smearing contrib. (-TS)   =      -0.00212830 Ry
     internal energy E=F+TS    =    -132.55102480 Ry

     The total energy is F=E-TS. E is the sum of the following terms:
     one-electron contribution =      17.32528983 Ry
     hartree contribution      =      10.60536588 Ry
     xc contribution           =     -33.66571607 Ry
     ewald contribution        =     -80.98866917 Ry
     one-center paw contrib.   =     -45.82729527 Ry
      -> PAW hartree energy AE =       8.24264116 Ry
      -> PAW hartree energy PS =      -8.23382621 Ry
      -> PAW xc energy AE      =     -10.93925144 Ry
      -> PAW xc energy PS      =       4.37956607 Ry
      -> total E_H with PAW    =      10.61418083 Ry
      -> total E_XC with PAW   =     -40.22540145 Ry

     convergence has been achieved in   5 iterations

[...]

     Forces acting on atoms (cartesian axes, Ry/au):

     atom    1 type  1   force =     0.00000154   -0.00000154   -0.00005336
     atom    2 type  1   force =    -0.00007109    0.00000266   -0.00000266
     atom    3 type  1   force =     0.00000154    0.00005336    0.00000154
     atom    4 type  1   force =    -0.00000266    0.00007109   -0.00000266
     atom    5 type  1   force =    -0.00005336   -0.00000154    0.00000154
     atom    6 type  1   force =    -0.00000266    0.00000266   -0.00007109
     atom    7 type  1   force =     0.00012671   -0.00012671    0.00012671
     The non-local contrib.  to forces
     atom    1 type  1   force =    -0.19799597    0.19799597    0.19815229
     atom    2 type  1   force =    -0.00003538   -0.00002179    0.00002179
     atom    3 type  1   force =    -0.19799597   -0.19815229   -0.19799597
     atom    4 type  1   force =     0.00002179    0.00003538    0.00002179
     atom    5 type  1   force =     0.19815229    0.19799597   -0.19799597
     atom    6 type  1   force =     0.00002179   -0.00002179   -0.00003538
     atom    7 type  1   force =     0.19818623   -0.19818623    0.19818623
     The ionic contribution  to forces
     atom    1 type  1   force =     1.92219193   -1.92219208   -1.92228234
     atom    2 type  1   force =    -0.00021653   -0.00043431    0.00043433
     atom    3 type  1   force =     1.92219197    1.92228244    1.92219197
     atom    4 type  1   force =     0.00043433    0.00021658    0.00043433
     atom    5 type  1   force =    -1.92228234   -1.92219208    1.92219193
     atom    6 type  1   force =     0.00043433   -0.00043431   -0.00021653
     atom    7 type  1   force =    -1.92275370    1.92275376   -1.92275370
     The local contribution  to forces
     atom    1 type  1   force =    -1.72750166    1.72750166    1.72732810
     atom    2 type  1   force =     0.00007224    0.00030944   -0.00030924
     atom    3 type  1   force =    -1.72750161   -1.72732794   -1.72750161
     atom    4 type  1   force =    -0.00030924   -0.00007214   -0.00030924
     atom    5 type  1   force =     1.72732810    1.72750166   -1.72750166
     atom    6 type  1   force =    -0.00030924    0.00030944    0.00007224
     atom    7 type  1   force =     1.72779097   -1.72779086    1.72779097
     The core correction contribution to forces
     atom    1 type  1   force =     0.00336942   -0.00336942   -0.00318738
     atom    2 type  1   force =     0.00017021    0.00008525   -0.00008526
     atom    3 type  1   force =     0.00336942    0.00318737    0.00336942
     atom    4 type  1   force =    -0.00008526   -0.00017021   -0.00008526
     atom    5 type  1   force =    -0.00318738   -0.00336942    0.00336942
     atom    6 type  1   force =    -0.00008526    0.00008525    0.00017021
     atom    7 type  1   force =    -0.00303284    0.00303283   -0.00303284
     The Hubbard contrib.    to forces
     atom    1 type  1   force =     0.00000000    0.00000000    0.00000000
     atom    2 type  1   force =     0.00000000    0.00000000    0.00000000
     atom    3 type  1   force =     0.00000000    0.00000000    0.00000000
     atom    4 type  1   force =     0.00000000    0.00000000    0.00000000
     atom    5 type  1   force =     0.00000000    0.00000000    0.00000000
     atom    6 type  1   force =     0.00000000    0.00000000    0.00000000
     atom    7 type  1   force =     0.00000000    0.00000000    0.00000000
     The SCF correction term to forces
     atom    1 type  1   force =     0.00000067   -0.00000067   -0.00000102
     atom    2 type  1   force =     0.00000134    0.00000128   -0.00000128
     atom    3 type  1   force =     0.00000067    0.00000102    0.00000067
     atom    4 type  1   force =    -0.00000128   -0.00000134   -0.00000128
     atom    5 type  1   force =    -0.00000102   -0.00000067    0.00000067
     atom    6 type  1   force =    -0.00000128    0.00000128    0.00000134
     atom    7 type  1   force =    -0.00000097    0.00000097   -0.00000097

     Total force =     0.000268     Total SCF correction =     0.000005

     Computing stress (Cartesian axis) and pressure

     Non-local corr. energy    =       0.25190701 Ry

          total   stress  (Ry/bohr**3)                   (kbar)     P=        8.07
   0.00005488  -0.00000021   0.00000021            8.07       -0.03        0.03
  -0.00000021   0.00005488  -0.00000021           -0.03        8.07       -0.03
   0.00000021  -0.00000021   0.00005488            0.03       -0.03        8.07

     kinetic stress (kbar)  16234.00     -0.03      0.03
                               -0.03  16234.00     -0.03
                                0.03     -0.03  16234.00

     local   stress (kbar)  -4858.00     -0.72      0.72
                               -0.72  -4858.00     -0.72
                                0.72     -0.72  -4858.00

     nonloc. stress (kbar)   3999.64      0.03     -0.03
                                0.03   3999.64      0.03
                               -0.03      0.03   3999.64

     hartree stress (kbar)   1690.40      0.11     -0.11
                                0.11   1690.40      0.11
                               -0.11      0.11   1690.40

     exc-cor stress (kbar)   -300.70      0.06     -0.06
                                0.06   -300.70      0.06
                               -0.06      0.06   -300.70

     corecor stress (kbar)  -3872.23     -0.14      0.14
                               -0.14  -3872.23     -0.14
                                0.14     -0.14  -3872.23

     ewald   stress (kbar) -12908.90      0.66     -0.66
                                0.66 -12908.90      0.66
                               -0.66      0.66 -12908.90

     hubbard stress (kbar)      0.00      0.00      0.00
                                0.00      0.00      0.00
                                0.00      0.00      0.00

     DFT-D   stress (kbar)      0.00      0.00      0.00
                                0.00      0.00      0.00
                                0.00      0.00      0.00

     XDM     stress (kbar)      0.00      0.00      0.00
                                0.00      0.00      0.00
                                0.00      0.00      0.00

     dft-nl  stress (kbar)     23.86     -0.00      0.00
                               -0.00     23.86     -0.00
                                0.00     -0.00     23.86

     TS-vdW  stress (kbar)      0.00      0.00      0.00
                                0.00      0.00      0.00
                                0.00      0.00      0.00

     MDB     stress (kbar)      0.00      0.00      0.00
                                0.00      0.00      0.00
                                0.00      0.00      0.00

     3D-RISM stress (kbar)      0.00      0.00      0.00
                                0.00      0.00      0.00
                                0.00      0.00      0.00

     Energy error            =      9.6E-06 Ry
     Gradient error          =      1.3E-04 Ry/Bohr

     bfgs converged in   4 scf cycles and   3 bfgs steps
     (criteria: energy <  1.0E-04 Ry, force <  1.0E-03 Ry/Bohr)

     End of BFGS Geometry Optimization

     Final energy             =    -132.5531531018 Ry

     File ./diamond.bfgs deleted, as requested
Begin final coordinates

ATOMIC_POSITIONS (angstrom)
C            -0.0575858083        0.0575858083        1.8438253405
C             0.8931650848        0.8931369846        2.6791658338
C            -0.0575858083        1.7284774779       -0.0575858083
C             2.6791658338        2.6791377336        2.6791658338
C             1.8438253405        0.0575858083       -0.0575858083
C             2.6791658338        0.8931369846        0.8931650848
C             1.8436603227        1.7286424957        1.8436603227
End final coordinates

     Writing all to output data dir ./diamond.save/

     General routines

     Parallel routines

     PAW routines

   This run was terminated on:  21:34:40  27Mar2024

   JOB DONE.