     Program PWSCF v.7.1 starts on 29Sep2023 at  8: 6:53

     Reading input from espresso.pwi
Warning: card &CELL ignored
Warning: card    CELL_DYNAMICS    = 'BFGS' ignored
Warning: card / ignored

     Current dimensions of program PWSCF are:
     Max number of different atomic species (ntypx) = 10
     Max number of k-points (npk) =  40000
     Max angular momentum in pseudopotentials (lmaxx) =  4
     file Ga.pbe-dn-kjpaw_psl.1.0.0.UPF: wavefunction(s)  4S renormalized
     file N.pbe-n-kjpaw_psl.1.0.0.UPF: wavefunction(s)  2S renormalized

     IMPORTANT: XC functional enforced from input :
     Exchange-correlation= BEEF-VDW
                           (   1   4  43  14   2   0   0)
     Any further DFT definition will be discarded
     Please, verify this is what you really want

     Found identity + (  0.0000  0.0000  0.5000) symmetry
     This is a supercell, fractional translations are disabled

     K-points division:     npool     =       4
     R & G space division:  proc/nbgrp/npool/nimage =      32
     Subspace diagonalization in iterative solution of the eigenvalue problem:
     a serial algorithm will be used

     Using Slab Decomposition

     bravais-lattice index     =            4
     lattice parameter (alat)  =      18.3939  a.u.
     unit-cell volume          =    5856.2271 (a.u.)^3
     number of atoms/cell      =           72
     number of atomic types    =            2
     number of electrons       =       648.00
     number of Kohn-Sham states=          389
     kinetic-energy cutoff     =      70.0000  Ry
     charge density cutoff     =     350.0000  Ry
     scf convergence threshold =      1.0E-09
     mixing beta               =       0.7000
     number of iterations used =            8  plain     mixing
     energy convergence thresh.=      1.0E-04
     force convergence thresh. =      1.0E-03
     Exchange-correlation= BEEF-VDW
                           (   1   4  43  14   2   0   0)
     nstep                     =           50

     celldm(1)=  18.393924  celldm(2)=   0.000000  celldm(3)=   1.086586
     celldm(4)=   0.000000  celldm(5)=   0.000000  celldm(6)=   0.000000

     crystal axes: (cart. coord. in units of alat)
               a(1) = (   1.000000   0.000000   0.000000 )
               a(2) = (  -0.500000   0.866025   0.000000 )
               a(3) = (   0.000000   0.000000   1.086586 )

     reciprocal axes: (cart. coord. in units 2 pi/alat)
               b(1) = (  1.000000  0.577350 -0.000000 )
               b(2) = (  0.000000  1.154701  0.000000 )
               b(3) = (  0.000000 -0.000000  0.920314 )

     PseudoPot. # 1 for Ga read from file:
     //group///packages/espresso/pseudo/psl_1.0.0/pslibrary.1.0.0/pbe/PSEUDOPOTENTIALS/Ga.pbe-dn-kjpaw_psl.1.0.0.UPF
     MD5 check sum: cd2a01e492f15b435d17032472d8505c
     Pseudo is Projector augmented-wave + core cor, Zval = 13.0
     Generated using 'atomic' code by A. Dal Corso  v.7.1
     Shape of augmentation charge: PSQ
     Using radial grid of 1205 points,  6 beta functions with:
                l(1) =   0
                l(2) =   0
                l(3) =   1
                l(4) =   1
                l(5) =   2
                l(6) =   2
     Q(r) pseudized with 0 coefficients

     PseudoPot. # 2 for N  read from file:
     //group///packages/espresso/pseudo/psl_1.0.0/pslibrary.1.0.0/pbe/PSEUDOPOTENTIALS/N.pbe-n-kjpaw_psl.1.0.0.UPF
     MD5 check sum: f77f775694dac7e2c3fe1c82443d1a16
     Pseudo is Projector augmented-wave + core cor, Zval =  5.0
     Generated using 'atomic' code by A. Dal Corso  v.7.1
     Shape of augmentation charge: PSQ
     Using radial grid of 1085 points,  4 beta functions with:
                l(1) =   0
                l(2) =   0
                l(3) =   1
                l(4) =   1
     Q(r) pseudized with 0 coefficients

     atomic species   valence    mass     pseudopotential
        Ga            13.00    69.72300     Ga( 1.00)
        N              5.00    14.00700     N ( 1.00)

      6 Sym. Ops. (no inversion) found

                                    s                        frac. trans.

      isym =  1     identity

 cryst.   s( 1) = (     1          0          0      )
                  (     0          1          0      )
                  (     0          0          1      )

 cart.    s( 1) = (  1.0000000  0.0000000  0.0000000 )
                  (  0.0000000  1.0000000  0.0000000 )
                  (  0.0000000  0.0000000  1.0000000 )

      isym =  2     120 deg rotation - cryst. axis [0,0,1]

[...]

      isym =  3     120 deg rotation - cryst. axis [0,0,-1]

[...]

      isym =  4     inv. 180 deg rotation - cart. axis [1,0,0]

[...]

      isym =  5     inv. 180 deg rotation - cryst. axis [0,1,0]

[...]

      isym =  6     inv. 180 deg rotation - cryst. axis [1,1,0]

 cryst.   s( 6) = (     0         -1          0      )
                  (    -1          0          0      )
                  (     0          0          1      )

 cart.    s( 6) = (  0.5000000 -0.8660254  0.0000000 )
                  ( -0.8660254 -0.5000000  0.0000000 )
                  (  0.0000000  0.0000000  1.0000000 )

     point group C_3v (3m)
     there are  3 classes
     the character table:

       E     2C3   3s_v
A_1    1.00  1.00  1.00
A_2    1.00  1.00 -1.00
E      2.00 -1.00  0.00

     the symmetry operations in each class and the name of the first element:

     E        1
          identity
     2C3      2    3
          120 deg rotation - cryst. axis [0,0,1]
     3s_v     4    5    6
          inv. 180 deg rotation - cart. axis [1,0,0]

   Cartesian axes

     site n.     atom                  positions (alat units)
         1           Ga  tau(   1) = (   0.1666668   0.0962250   0.2711914  )
         2           Ga  tau(   2) = (   0.1666668   0.0962250   0.8144844  )
         3           Ga  tau(   3) = (   0.0000001   0.3849001   0.2711914  )
         4           Ga  tau(   4) = (   0.0000001   0.3849001   0.8144844  )
         5           Ga  tau(   5) = (  -0.1666665   0.6735752   0.2711914  )
         6           Ga  tau(   6) = (  -0.1666665   0.6735752   0.8144844  )
         7           Ga  tau(   7) = (   0.5000001   0.0962250   0.2711914  )
         8           Ga  tau(   8) = (   0.5000001   0.0962250   0.8144844  )
         9           Ga  tau(   9) = (   0.3333335   0.3849001   0.2711914  )
        10           Ga  tau(  10) = (   0.3333335   0.3849001   0.8144844  )
        11           Ga  tau(  11) = (   0.1666668   0.6735752   0.2711914  )
        12           Ga  tau(  12) = (   0.1666668   0.6735752   0.8144844  )
        13           Ga  tau(  13) = (   0.8333335   0.0962250   0.2711914  )
        14           Ga  tau(  14) = (   0.8333335   0.0962250   0.8144844  )
        15           Ga  tau(  15) = (   0.6666668   0.3849001   0.2711914  )
        16           Ga  tau(  16) = (   0.6666668   0.3849001   0.8144844  )
        17           Ga  tau(  17) = (   0.5000001   0.6735752   0.2711914  )
        18           Ga  tau(  18) = (   0.5000001   0.6735752   0.8144844  )
        19           Ga  tau(  19) = (  -0.0000002   0.1924502   0.5428379  )
        20           Ga  tau(  20) = (  -0.0000002   0.1924502   1.0861309  )
        21           Ga  tau(  21) = (  -0.1666669   0.4811254   0.5428379  )
        22           Ga  tau(  22) = (  -0.1666669   0.4811254   1.0861309  )
        23           Ga  tau(  23) = (  -0.3333335   0.7698005   0.5428379  )
        24           Ga  tau(  24) = (  -0.3333335   0.7698005   1.0861309  )
        25           Ga  tau(  25) = (   0.3333331   0.1924502   0.5428379  )
        26           Ga  tau(  26) = (   0.3333331   0.1924502   1.0861309  )
        27           Ga  tau(  27) = (   0.1666665   0.4811254   0.5428379  )
        28           Ga  tau(  28) = (   0.1666665   0.4811254   1.0861309  )
        29           Ga  tau(  29) = (  -0.0000002   0.7698005   0.5428379  )
        30           Ga  tau(  30) = (  -0.0000002   0.7698005   1.0861309  )
        31           Ga  tau(  31) = (   0.6666665   0.1924502   0.5428379  )
        32           Ga  tau(  32) = (   0.6666665   0.1924502   1.0861309  )
        33           Ga  tau(  33) = (   0.4999998   0.4811254   0.5428379  )
        34           Ga  tau(  34) = (   0.4999998   0.4811254   1.0861309  )
        35           Ga  tau(  35) = (   0.3333331   0.7698005   0.5428379  )
        36           Ga  tau(  36) = (   0.3333331   0.7698005   1.0861309  )
        37           N   tau(  37) = (   0.1666668   0.0962250   0.4758365  )
        38           N   tau(  38) = (   0.1666668   0.0962250   1.0191295  )
        39           N   tau(  39) = (   0.0000001   0.3849001   0.4758365  )
        40           N   tau(  40) = (   0.0000001   0.3849001   1.0191295  )
        41           N   tau(  41) = (  -0.1666665   0.6735752   0.4758365  )
        42           N   tau(  42) = (  -0.1666665   0.6735752   1.0191295  )
        43           N   tau(  43) = (   0.5000001   0.0962250   0.4758365  )
        44           N   tau(  44) = (   0.5000001   0.0962250   1.0191295  )
        45           N   tau(  45) = (   0.3333335   0.3849001   0.4758365  )
        46           N   tau(  46) = (   0.3333335   0.3849001   1.0191295  )
        47           N   tau(  47) = (   0.1666668   0.6735752   0.4758365  )
        48           N   tau(  48) = (   0.1666668   0.6735752   1.0191295  )
        49           N   tau(  49) = (   0.8333335   0.0962250   0.4758365  )
        50           N   tau(  50) = (   0.8333335   0.0962250   1.0191295  )
        51           N   tau(  51) = (   0.6666668   0.3849001   0.4758365  )
        52           N   tau(  52) = (   0.6666668   0.3849001   1.0191295  )
        53           N   tau(  53) = (   0.5000001   0.6735752   0.4758365  )
        54           N   tau(  54) = (   0.5000001   0.6735752   1.0191295  )
        55           N   tau(  55) = (  -0.0000002   0.1924502   0.2041900  )
        56           N   tau(  56) = (  -0.0000002   0.1924502   0.7474830  )
        57           N   tau(  57) = (  -0.1666669   0.4811254   0.2041900  )
        58           N   tau(  58) = (  -0.1666669   0.4811254   0.7474830  )
        59           N   tau(  59) = (  -0.3333335   0.7698005   0.2041900  )
        60           N   tau(  60) = (  -0.3333335   0.7698005   0.7474830  )
        61           N   tau(  61) = (   0.3333331   0.1924502   0.2041900  )
        62           N   tau(  62) = (   0.3333331   0.1924502   0.7474830  )
        63           N   tau(  63) = (   0.1666665   0.4811254   0.2041900  )
        64           N   tau(  64) = (   0.1666665   0.4811254   0.7474830  )
        65           N   tau(  65) = (  -0.0000002   0.7698005   0.2041900  )
        66           N   tau(  66) = (  -0.0000002   0.7698005   0.7474830  )
        67           N   tau(  67) = (   0.6666665   0.1924502   0.2041900  )
        68           N   tau(  68) = (   0.6666665   0.1924502   0.7474830  )
        69           N   tau(  69) = (   0.4999998   0.4811254   0.2041900  )
        70           N   tau(  70) = (   0.4999998   0.4811254   0.7474830  )
[...]
     atom   35 type  1   force =     0.00000000    0.00000000    0.00000000
     atom   36 type  1   force =     0.00000000    0.00000000    0.00000000
     atom   37 type  2   force =     0.00000000    0.00000000    0.00000000
     atom   38 type  2   force =     0.00000000    0.00000000    0.00000000
     atom   39 type  2   force =     0.00000000    0.00000000    0.00000000
     atom   40 type  2   force =     0.00000000    0.00000000    0.00000000
     atom   41 type  2   force =     0.00000000    0.00000000    0.00000000
     atom   42 type  2   force =     0.00000000    0.00000000    0.00000000
     atom   43 type  2   force =     0.00000000    0.00000000    0.00000000
     atom   44 type  2   force =     0.00000000    0.00000000    0.00000000
     atom   45 type  2   force =     0.00000000    0.00000000    0.00000000
     atom   46 type  2   force =     0.00000000    0.00000000    0.00000000
     atom   47 type  2   force =     0.00000000    0.00000000    0.00000000
     atom   48 type  2   force =     0.00000000    0.00000000    0.00000000
     atom   49 type  2   force =     0.00000000    0.00000000    0.00000000
     atom   50 type  2   force =     0.00000000    0.00000000    0.00000000
     atom   51 type  2   force =     0.00000000    0.00000000    0.00000000
     atom   52 type  2   force =     0.00000000    0.00000000    0.00000000
     atom   53 type  2   force =     0.00000000    0.00000000    0.00000000
     atom   54 type  2   force =     0.00000000    0.00000000    0.00000000
     atom   55 type  2   force =     0.00000000    0.00000000    0.00000000
     atom   56 type  2   force =     0.00000000    0.00000000    0.00000000
     atom   57 type  2   force =     0.00000000    0.00000000    0.00000000
     atom   58 type  2   force =     0.00000000    0.00000000    0.00000000
     atom   59 type  2   force =     0.00000000    0.00000000    0.00000000
     atom   60 type  2   force =     0.00000000    0.00000000    0.00000000
     atom   61 type  2   force =     0.00000000    0.00000000    0.00000000
     atom   62 type  2   force =     0.00000000    0.00000000    0.00000000
     atom   63 type  2   force =     0.00000000    0.00000000    0.00000000
     atom   64 type  2   force =     0.00000000    0.00000000    0.00000000
     atom   65 type  2   force =     0.00000000    0.00000000    0.00000000
     atom   66 type  2   force =     0.00000000    0.00000000    0.00000000
     atom   67 type  2   force =     0.00000000    0.00000000    0.00000000
     atom   68 type  2   force =     0.00000000    0.00000000    0.00000000
     atom   69 type  2   force =     0.00000000    0.00000000    0.00000000
     atom   70 type  2   force =     0.00000000    0.00000000    0.00000000
     atom   71 type  2   force =     0.00000000    0.00000000    0.00000000
     atom   72 type  2   force =     0.00000000    0.00000000    0.00000000
     The SCF correction term to forces
     atom    1 type  1   force =     0.00000274    0.00000158    0.00000339
     atom    2 type  1   force =    -0.00000108   -0.00000062   -0.00000345
     atom    3 type  1   force =     0.00000000   -0.00000460    0.00000267
     atom    4 type  1   force =     0.00000000   -0.00000509    0.00000146
     atom    5 type  1   force =    -0.00000398    0.00000230    0.00000267
     atom    6 type  1   force =    -0.00000441    0.00000255    0.00000146
     atom    7 type  1   force =     0.00000000    0.00000781    0.00000200
     atom    8 type  1   force =     0.00000000    0.00000479   -0.00000144
     atom    9 type  1   force =     0.00000677   -0.00000391    0.00000200
     atom   10 type  1   force =     0.00000415   -0.00000239   -0.00000144
     atom   11 type  1   force =     0.00000398    0.00000230    0.00000267
     atom   12 type  1   force =     0.00000441    0.00000255    0.00000146
     atom   13 type  1   force =    -0.00000274    0.00000158    0.00000339
     atom   14 type  1   force =     0.00000108   -0.00000062   -0.00000345
     atom   15 type  1   force =    -0.00000676   -0.00000391    0.00000200
     atom   16 type  1   force =    -0.00000414   -0.00000239   -0.00000144
     atom   17 type  1   force =     0.00000000   -0.00000317    0.00000339
     atom   18 type  1   force =     0.00000000    0.00000124   -0.00000345
     atom   19 type  1   force =    -0.00000000   -0.00000022   -0.00000097
     atom   20 type  1   force =    -0.00000000    0.00000243    0.00000063
     atom   21 type  1   force =    -0.00000489   -0.00000282   -0.00000289
     atom   22 type  1   force =    -0.00000255   -0.00000147   -0.00000053
     atom   23 type  1   force =    -0.00000019    0.00000011   -0.00000097
     atom   24 type  1   force =     0.00000210   -0.00000122    0.00000063
     atom   25 type  1   force =     0.00000433    0.00000250   -0.00000467
     atom   26 type  1   force =     0.00000531    0.00000307    0.00000102
     atom   27 type  1   force =     0.00000489   -0.00000282   -0.00000289
     atom   28 type  1   force =     0.00000255   -0.00000147   -0.00000053
     atom   29 type  1   force =    -0.00000000    0.00000565   -0.00000289
     atom   30 type  1   force =    -0.00000000    0.00000295   -0.00000053
     atom   31 type  1   force =    -0.00000433    0.00000250   -0.00000467
     atom   32 type  1   force =    -0.00000531    0.00000307    0.00000102
     atom   33 type  1   force =    -0.00000000   -0.00000500   -0.00000467
     atom   34 type  1   force =    -0.00000000   -0.00000613    0.00000102
     atom   35 type  1   force =     0.00000019    0.00000011   -0.00000097
     atom   36 type  1   force =    -0.00000211   -0.00000122    0.00000063
     atom   37 type  2   force =     0.00000080    0.00000046    0.00000069
     atom   38 type  2   force =     0.00000096    0.00000056   -0.00000058
     atom   39 type  2   force =     0.00000000   -0.00000198   -0.00000002
     atom   40 type  2   force =     0.00000000   -0.00000102    0.00000019
     atom   41 type  2   force =    -0.00000172    0.00000099   -0.00000002
     atom   42 type  2   force =    -0.00000089    0.00000051    0.00000019
     atom   43 type  2   force =     0.00000000    0.00000316   -0.00000023
     atom   44 type  2   force =     0.00000000    0.00000242    0.00000067
     atom   45 type  2   force =     0.00000274   -0.00000158   -0.00000023
     atom   46 type  2   force =     0.00000209   -0.00000121    0.00000067
     atom   47 type  2   force =     0.00000172    0.00000099   -0.00000002
     atom   48 type  2   force =     0.00000089    0.00000051    0.00000019
     atom   49 type  2   force =    -0.00000080    0.00000046    0.00000069
     atom   50 type  2   force =    -0.00000096    0.00000056   -0.00000058
     atom   51 type  2   force =    -0.00000274   -0.00000158   -0.00000023
     atom   52 type  2   force =    -0.00000209   -0.00000121    0.00000067
     atom   53 type  2   force =     0.00000000   -0.00000092    0.00000069
     atom   54 type  2   force =     0.00000000   -0.00000111   -0.00000058
     atom   55 type  2   force =    -0.00000000    0.00000045    0.00000024
     atom   56 type  2   force =    -0.00000000   -0.00000129   -0.00000025
     atom   57 type  2   force =    -0.00000218   -0.00000126   -0.00000066
     atom   58 type  2   force =    -0.00000213   -0.00000123    0.00000011
     atom   59 type  2   force =     0.00000039   -0.00000022    0.00000024
     atom   60 type  2   force =    -0.00000112    0.00000065   -0.00000025
     atom   61 type  2   force =     0.00000249    0.00000144    0.00000036
     atom   62 type  2   force =     0.00000136    0.00000079   -0.00000035
     atom   63 type  2   force =     0.00000218   -0.00000126   -0.00000066
     atom   64 type  2   force =     0.00000213   -0.00000123    0.00000011
     atom   65 type  2   force =    -0.00000000    0.00000251   -0.00000066
     atom   66 type  2   force =    -0.00000000    0.00000246    0.00000011
     atom   67 type  2   force =    -0.00000249    0.00000144    0.00000036
     atom   68 type  2   force =    -0.00000136    0.00000079   -0.00000035
     atom   69 type  2   force =    -0.00000000   -0.00000287    0.00000036
     atom   70 type  2   force =    -0.00000000   -0.00000157   -0.00000035
     atom   71 type  2   force =    -0.00000039   -0.00000022    0.00000024
     atom   72 type  2   force =     0.00000112    0.00000065   -0.00000025

     Total force =     0.001360     Total SCF correction =     0.000033

     Computing stress (Cartesian axis) and pressure

     Non-local corr. energy    =      19.62273694 Ry

          total   stress  (Ry/bohr**3)                   (kbar)     P=        0.81
   0.00000337   0.00000000   0.00000000            0.50        0.00        0.00
   0.00000000   0.00000337  -0.00000000            0.00        0.50       -0.00
   0.00000000  -0.00000000   0.00000984            0.00       -0.00        1.45

     kinetic stress (kbar)  18452.65     -0.00      0.00
                               -0.00  18452.65     -0.00
                                0.00     -0.00  18444.36

     local   stress (kbar)   5446.40     -0.07     -0.00
                               -0.07   5446.31      0.00
                               -0.00      0.00   3812.99

     nonloc. stress (kbar)     58.03     -0.00      0.00
                                0.00     58.03     -0.00
                                0.00      0.00     70.57

     hartree stress (kbar)  19596.65     -0.00     -0.00
                               -0.00  19596.65      0.00
                               -0.00      0.00  20346.59

     exc-cor stress (kbar)   5217.92      0.00      0.00
                                0.00   5217.92     -0.00
                                0.00     -0.00   5218.14

     corecor stress (kbar) -14110.20     -0.00     -0.00
                               -0.00 -14110.20      0.00
                               -0.00      0.00 -14109.62

     ewald   stress (kbar) -34823.05      0.10      0.00
                                0.10 -34822.93     -0.00
                                0.00     -0.00 -33942.83

     hubbard stress (kbar)      0.00      0.00      0.00
                                0.00      0.00      0.00
                                0.00      0.00      0.00

     DFT-D   stress (kbar)      0.00      0.00      0.00
                                0.00      0.00      0.00
                                0.00      0.00      0.00

     XDM     stress (kbar)      0.00      0.00      0.00
                                0.00      0.00      0.00
                                0.00      0.00      0.00

     dft-nl  stress (kbar)    162.09     -0.00     -0.00
                               -0.00    162.09      0.00
                               -0.00      0.00    161.25

     TS-vdW  stress (kbar)      0.00      0.00      0.00
                                0.00      0.00      0.00
                                0.00      0.00      0.00

     MDB     stress (kbar)      0.00      0.00      0.00
                                0.00      0.00      0.00
                                0.00      0.00      0.00

     3D-RISM stress (kbar)      0.00      0.00      0.00
                                0.00      0.00      0.00
                                0.00      0.00      0.00

     BFGS Geometry Optimization
     Energy error            =      0.0E+00 Ry
     Gradient error          =      1.6E-04 Ry/Bohr

     bfgs converged in   1 scf cycles and   0 bfgs steps
     (criteria: energy <  1.0E-04 Ry, force <  1.0E-03 Ry/Bohr)

     End of BFGS Geometry Optimization

     Final energy             =  -11242.4442572846 Ry
Begin final coordinates

ATOMIC_POSITIONS (angstrom)
Ga            1.6222756606        0.9366198184        2.6396807677
Ga            1.6222756606        0.9366198184        7.9279023555
Ga            0.0000014521        3.7464811715        2.6396807677
Ga            0.0000014521        3.7464811715        7.9279023555
Ga           -1.6222727565        6.5563425246        2.6396807677
Ga           -1.6222727565        6.5563425246        7.9279023555
Ga            4.8668240777        0.9366198184        2.6396807677
Ga            4.8668240777        0.9366198184        7.9279023555
Ga            3.2445498691        3.7464811715        2.6396807677
Ga            3.2445498691        3.7464811715        7.9279023555
Ga            1.6222756606        6.5563425246        2.6396807677
Ga            1.6222756606        6.5563425246        7.9279023555
Ga            8.1113724947        0.9366198184        2.6396807677
Ga            8.1113724947        0.9366198184        7.9279023555
Ga            6.4890982862        3.7464811715        2.6396807677
Ga            6.4890982862        3.7464811715        7.9279023555
Ga            4.8668240777        6.5563425246        2.6396807677
Ga            4.8668240777        6.5563425246        7.9279023555
Ga           -0.0000019648        1.8732424465        5.2837915627
Ga           -0.0000019648        1.8732424465       10.5720131505
Ga           -1.6222761733        4.6831037996        5.2837915627
Ga           -1.6222761733        4.6831037996       10.5720131505
Ga           -3.2445503819        7.4929651527        5.2837915627
Ga           -3.2445503819        7.4929651527       10.5720131505
Ga            3.2445464523        1.8732424465        5.2837915627
Ga            3.2445464523        1.8732424465       10.5720131505
Ga            1.6222722437        4.6831037996        5.2837915627
Ga            1.6222722437        4.6831037996       10.5720131505
Ga           -0.0000019648        7.4929651527        5.2837915627
Ga           -0.0000019648        7.4929651527       10.5720131505
Ga            6.4890948693        1.8732424465        5.2837915627
Ga            6.4890948693        1.8732424465       10.5720131505
Ga            4.8668206608        4.6831037996        5.2837915627
Ga            4.8668206608        4.6831037996       10.5720131505
Ga            3.2445464523        7.4929651527        5.2837915627
Ga            3.2445464523        7.4929651527       10.5720131505
N             1.6222756606        0.9366198184        4.6316239188
N             1.6222756606        0.9366198184        9.9198455066
N             0.0000014521        3.7464811715        4.6316239188
N             0.0000014521        3.7464811715        9.9198455066
N            -1.6222727565        6.5563425246        4.6316239188
N            -1.6222727565        6.5563425246        9.9198455066
N             4.8668240777        0.9366198184        4.6316239188
N             4.8668240777        0.9366198184        9.9198455066
N             3.2445498691        3.7464811715        4.6316239188
N             3.2445498691        3.7464811715        9.9198455066
N             1.6222756606        6.5563425246        4.6316239188
N             1.6222756606        6.5563425246        9.9198455066
N             8.1113724947        0.9366198184        4.6316239188
N             8.1113724947        0.9366198184        9.9198455066
N             6.4890982862        3.7464811715        4.6316239188
N             6.4890982862        3.7464811715        9.9198455066
N             4.8668240777        6.5563425246        4.6316239188
N             4.8668240777        6.5563425246        9.9198455066
N            -0.0000019648        1.8732424465        1.9875131237
N            -0.0000019648        1.8732424465        7.2757347115
N            -1.6222761733        4.6831037996        1.9875131237
N            -1.6222761733        4.6831037996        7.2757347115
N            -3.2445503819        7.4929651527        1.9875131237
N            -3.2445503819        7.4929651527        7.2757347115
N             3.2445464523        1.8732424465        1.9875131237
N             3.2445464523        1.8732424465        7.2757347115
N             1.6222722437        4.6831037996        1.9875131237
N             1.6222722437        4.6831037996        7.2757347115
N            -0.0000019648        7.4929651527        1.9875131237
N            -0.0000019648        7.4929651527        7.2757347115
N             6.4890948693        1.8732424465        1.9875131237
N             6.4890948693        1.8732424465        7.2757347115
N             4.8668206608        4.6831037996        1.9875131237
N             4.8668206608        4.6831037996        7.2757347115
N             3.2445464523        7.4929651527        1.9875131237
N             3.2445464523        7.4929651527        7.2757347115
End final coordinates

     Writing all to output data dir ./GaN.save/

     General routines

     Parallel routines

     PAW routines

   This run was terminated on:   8:14:11  29Sep2023

   JOB DONE.