     Program PWSCF v.7.1 starts on 22Feb2024 at 12:53:12

     Reading input from espresso.pwi
Warning: card &CELL ignored
Warning: card    CELL_DYNAMICS    = 'BFGS' ignored
Warning: card / ignored

     Current dimensions of program PWSCF are:
     Max number of different atomic species (ntypx) = 10
     Max number of k-points (npk) =  40000
     Max angular momentum in pseudopotentials (lmaxx) =  4
     file Pb.pbe-dn-kjpaw_psl.1.0.0.UPF: wavefunction(s)  6S 6P 5D renormalized
     file I.pbe-dn-kjpaw_psl.1.0.0.UPF: wavefunction(s)  5S 5P renormalized

     IMPORTANT: XC functional enforced from input :
     Exchange-correlation= BEEF-VDW
                           (   1   4  43  14   2   0   0)
     Any further DFT definition will be discarded
     Please, verify this is what you really want

     R & G space division:  proc/nbgrp/npool/nimage =     256
     wavefunctions fft division:  task group distribution
                                  #TG    x Z-proc =       8     32
     Subspace diagonalization in iterative solution of the eigenvalue problem:
     a serial algorithm will be used

     Using Pencil Decomposition

     bravais-lattice index     =            4
     lattice parameter (alat)  =      35.6120  a.u.
     unit-cell volume          =   45937.3577 (a.u.)^3
     number of atoms/cell      =          143
     number of atomic types    =            2
     number of electrons       =      2292.00
     number of Kohn-Sham states=         1375
     kinetic-energy cutoff     =      70.0000  Ry
     charge density cutoff     =     350.0000  Ry
     scf convergence threshold =      1.0E-07
     mixing beta               =       0.7000
     number of iterations used =            8  plain     mixing
     energy convergence thresh.=      1.0E-04
     force convergence thresh. =      1.0E-03
     Exchange-correlation= BEEF-VDW
                           (   1   4  43  14   2   0   0)
     nstep                     =           50

     celldm(1)=  35.612033  celldm(2)=   0.000000  celldm(3)=   1.174479
     celldm(4)=   0.000000  celldm(5)=   0.000000  celldm(6)=   0.000000

     crystal axes: (cart. coord. in units of alat)
               a(1) = (   1.000000   0.000000   0.000000 )
               a(2) = (  -0.500000   0.866025   0.000000 )
               a(3) = (   0.000000   0.000000   1.174479 )

     reciprocal axes: (cart. coord. in units 2 pi/alat)
               b(1) = (  1.000000  0.577350 -0.000000 )
               b(2) = (  0.000000  1.154701  0.000000 )
               b(3) = (  0.000000 -0.000000  0.851442 )

     PseudoPot. # 1 for Pb read from file:
     /trace/group/acmegroup/atimmins/packages/espresso/pseudo/psl_1.0.0/pslibrary.1.0.0/pbe/PSEUDOPOTENTIALS/Pb.pbe-dn-kjpaw_psl.1.0.0.UPF
     MD5 check sum: 39ab5b8a6bbd56b7735ad9f188aac93a
     Pseudo is Projector augmented-wave + core cor, Zval = 14.0
     Generated using 'atomic' code by A. Dal Corso  v.7.1
     Shape of augmentation charge: PSQ
     Using radial grid of 1281 points,  6 beta functions with:
                l(1) =   0
                l(2) =   0
                l(3) =   1
                l(4) =   1
                l(5) =   2
                l(6) =   2
     Q(r) pseudized with 0 coefficients

     PseudoPot. # 2 for I  read from file:
     /trace/group/acmegroup/atimmins/packages/espresso/pseudo/psl_1.0.0/pslibrary.1.0.0/pbe/PSEUDOPOTENTIALS/I.pbe-dn-kjpaw_psl.1.0.0.UPF
     MD5 check sum: bfa8781bc1224d19af3f3980e3fab11e
     Pseudo is Projector augmented-wave + core cor, Zval = 17.0
     Generated using 'atomic' code by A. Dal Corso  v.7.1
     Shape of augmentation charge: PSQ
     Using radial grid of 1247 points,  6 beta functions with:
                l(1) =   0
                l(2) =   0
                l(3) =   1
                l(4) =   1
                l(5) =   2
                l(6) =   2
     Q(r) pseudized with 0 coefficients

     atomic species   valence    mass     pseudopotential
        Pb            14.00   207.20000     Pb( 1.00)
        I             17.00   126.90447     I ( 1.00)

     No symmetry found

                                    s                        frac. trans.

      isym =  1     identity

 cryst.   s( 1) = (     1          0          0      )
                  (     0          1          0      )
                  (     0          0          1      )

 cart.    s( 1) = (  1.0000000  0.0000000  0.0000000 )
                  (  0.0000000  1.0000000  0.0000000 )
                  (  0.0000000  0.0000000  1.0000000 )

     point group C_1 (1)
     there are  1 classes
     the character table:

       E
A      1.00

     the symmetry operations in each class and the name of the first element:

     E        1
          identity

   Cartesian axes

     site n.     atom                  positions (alat units)
         1           Pb  tau(   1) = (   0.1250034   0.2164918   0.3914896  )
         2           Pb  tau(   2) = (   0.1250085   0.2164873   0.7829825  )
         3           Pb  tau(   3) = (   0.0000128   0.4329881   1.1744712  )
         4           Pb  tau(   4) = (   0.0000026   0.4329971   0.3914855  )
         5           Pb  tau(   5) = (   0.0000077   0.4329926   0.7829784  )
         6           Pb  tau(   6) = (  -0.1249881   0.6494934   1.1744671  )
         7           Pb  tau(   7) = (  -0.1249983   0.6495025   0.3914814  )
         8           Pb  tau(   8) = (  -0.1249932   0.6494980   0.7829742  )
         9           Pb  tau(   9) = (  -0.2499889   0.8659988   1.1744630  )
        10           Pb  tau(  10) = (  -0.2499991   0.8660078   0.3914773  )
        11           Pb  tau(  11) = (  -0.2499940   0.8660033   0.7829701  )
        12           Pb  tau(  12) = (   0.3750136   0.2164818   1.1744786  )
        13           Pb  tau(  13) = (   0.3750034   0.2164908   0.3914929  )
        14           Pb  tau(  14) = (   0.3750085   0.2164863   0.7829857  )
        15           Pb  tau(  15) = (   0.2500128   0.4329871   1.1744745  )
        16           Pb  tau(  16) = (   0.2500026   0.4329962   0.3914888  )
        17           Pb  tau(  17) = (   0.2500077   0.4329916   0.7829816  )
        18           Pb  tau(  18) = (   0.1250119   0.6494925   1.1744703  )
        19           Pb  tau(  19) = (   0.1250017   0.6495015   0.3914847  )
        20           Pb  tau(  20) = (   0.1250068   0.6494970   0.7829775  )
        21           Pb  tau(  21) = (   0.0000111   0.8659978   1.1744662  )
        22           Pb  tau(  22) = (   0.0000009   0.8660069   0.3914805  )
        23           Pb  tau(  23) = (   0.0000060   0.8660024   0.7829734  )
        24           Pb  tau(  24) = (   0.6250136   0.2164808   1.1744818  )
        25           Pb  tau(  25) = (   0.6250034   0.2164898   0.3914962  )
        26           Pb  tau(  26) = (   0.6250085   0.2164853   0.7829890  )
        27           Pb  tau(  27) = (   0.5000128   0.4329862   1.1744777  )
        28           Pb  tau(  28) = (   0.5000026   0.4329952   0.3914920  )
        29           Pb  tau(  29) = (   0.5000077   0.4329907   0.7829849  )
        30           Pb  tau(  30) = (   0.3750119   0.6494915   1.1744736  )
        31           Pb  tau(  31) = (   0.3750017   0.6495006   0.3914879  )
        32           Pb  tau(  32) = (   0.3750068   0.6494960   0.7829808  )
        33           Pb  tau(  33) = (   0.2500111   0.8659969   1.1744695  )
        34           Pb  tau(  34) = (   0.2500009   0.8660059   0.3914838  )
        35           Pb  tau(  35) = (   0.2500060   0.8660014   0.7829766  )
        36           Pb  tau(  36) = (   0.8750136   0.2164798   1.1744851  )
        37           Pb  tau(  37) = (   0.8750034   0.2164889   0.3914994  )
        38           Pb  tau(  38) = (   0.8750085   0.2164844   0.7829923  )
        39           Pb  tau(  39) = (   0.7500128   0.4329852   1.1744810  )
        40           Pb  tau(  40) = (   0.7500026   0.4329942   0.3914953  )
        41           Pb  tau(  41) = (   0.7500077   0.4329897   0.7829881  )
        42           Pb  tau(  42) = (   0.6250119   0.6494906   1.1744769  )
        43           Pb  tau(  43) = (   0.6250017   0.6494996   0.3914912  )
        44           Pb  tau(  44) = (   0.6250068   0.6494951   0.7829840  )
        45           Pb  tau(  45) = (   0.5000111   0.8659959   1.1744727  )
        46           Pb  tau(  46) = (   0.5000009   0.8660050   0.3914870  )
        47           Pb  tau(  47) = (   0.5000060   0.8660004   0.7829799  )
        48           I   tau(  48) = (   0.1250054   0.0721550   0.2909325  )
        49           I   tau(  49) = (   0.1250105   0.0721505   0.6824253  )
        50           I   tau(  50) = (   0.1250156   0.0721459   1.0739182  )
        51           I   tau(  51) = (   0.0000045   0.2886603   0.2909283  )
        52           I   tau(  52) = (   0.0000096   0.2886558   0.6824212  )
        53           I   tau(  53) = (   0.0000147   0.2886513   1.0739140  )
        54           I   tau(  54) = (  -0.1249963   0.5051657   0.2909242  )
        55           I   tau(  55) = (  -0.1249912   0.5051612   0.6824171  )
        56           I   tau(  56) = (  -0.1249861   0.5051566   1.0739099  )
        57           I   tau(  57) = (  -0.2499971   0.7216710   0.2909201  )
        58           I   tau(  58) = (  -0.2499920   0.7216665   0.6824129  )
        59           I   tau(  59) = (  -0.2499869   0.7216620   1.0739058  )
        60           I   tau(  60) = (   0.3750054   0.0721540   0.2909357  )
[...]
       129           I   tau( 129) = (   0.1249958   0.7938439   0.1005496  )
       130           I   tau( 130) = (   0.1250009   0.7938394   0.4920425  )
       131           I   tau( 131) = (   0.1250060   0.7938348   0.8835353  )
       132           I   tau( 132) = (   0.7499983   0.1443268   0.1005653  )
       133           I   tau( 133) = (   0.7500034   0.1443223   0.4920581  )
       134           I   tau( 134) = (   0.7500085   0.1443178   0.8835509  )
       135           I   tau( 135) = (   0.6249975   0.3608322   0.1005611  )
       136           I   tau( 136) = (   0.6250026   0.3608277   0.4920540  )
       137           I   tau( 137) = (   0.6250077   0.3608232   0.8835468  )
       138           I   tau( 138) = (   0.4999966   0.5773376   0.1005570  )
       139           I   tau( 139) = (   0.5000017   0.5773330   0.4920499  )
       140           I   tau( 140) = (   0.5000068   0.5773285   0.8835427  )
       141           I   tau( 141) = (   0.3749958   0.7938429   0.1005529  )
       142           I   tau( 142) = (   0.3750009   0.7938384   0.4920457  )
       143           I   tau( 143) = (   0.3750060   0.7938339   0.8835386  )

   Crystallographic axes

     site n.     atom                  positions (cryst. coord.)
         1           Pb  tau(   1) = (  0.2499950  0.2499832  0.3333306  )
         2           Pb  tau(   2) = (  0.2499975  0.2499780  0.6666639  )
         3           Pb  tau(   3) = (  0.2499986  0.4999716  0.9999938  )
         4           Pb  tau(   4) = (  0.2499936  0.4999820  0.3333271  )
         5           Pb  tau(   5) = (  0.2499961  0.4999768  0.6666604  )
[...]
     atom   44 type  1   force =     0.00000000    0.00000000    0.00000000
     atom   45 type  1   force =     0.00000000    0.00000000    0.00000000
     atom   46 type  1   force =     0.00000000    0.00000000    0.00000000
     atom   47 type  1   force =     0.00000000    0.00000000    0.00000000
     atom   48 type  2   force =     0.00000000    0.00000000    0.00000000
     atom   49 type  2   force =     0.00000000    0.00000000    0.00000000
     atom   50 type  2   force =     0.00000000    0.00000000    0.00000000
     atom   51 type  2   force =     0.00000000    0.00000000    0.00000000
     atom   52 type  2   force =     0.00000000    0.00000000    0.00000000
     atom   53 type  2   force =     0.00000000    0.00000000    0.00000000
     atom   54 type  2   force =     0.00000000    0.00000000    0.00000000
     atom   55 type  2   force =     0.00000000    0.00000000    0.00000000
     atom   56 type  2   force =     0.00000000    0.00000000    0.00000000
     atom   57 type  2   force =     0.00000000    0.00000000    0.00000000
     atom   58 type  2   force =     0.00000000    0.00000000    0.00000000
     atom   59 type  2   force =     0.00000000    0.00000000    0.00000000
     atom   60 type  2   force =     0.00000000    0.00000000    0.00000000
[...]
     atom  129 type  2   force =     0.00000000    0.00000000    0.00000000
     atom  130 type  2   force =     0.00000000    0.00000000    0.00000000
     atom  131 type  2   force =     0.00000000    0.00000000    0.00000000
     atom  132 type  2   force =     0.00000000    0.00000000    0.00000000
     atom  133 type  2   force =     0.00000000    0.00000000    0.00000000
     atom  134 type  2   force =     0.00000000    0.00000000    0.00000000
     atom  135 type  2   force =     0.00000000    0.00000000    0.00000000
     atom  136 type  2   force =     0.00000000    0.00000000    0.00000000
     atom  137 type  2   force =     0.00000000    0.00000000    0.00000000
     atom  138 type  2   force =     0.00000000    0.00000000    0.00000000
     atom  139 type  2   force =     0.00000000    0.00000000    0.00000000
     atom  140 type  2   force =     0.00000000    0.00000000    0.00000000
     atom  141 type  2   force =     0.00000000    0.00000000    0.00000000
     atom  142 type  2   force =     0.00000000    0.00000000    0.00000000
     atom  143 type  2   force =     0.00000000    0.00000000    0.00000000
     The SCF correction term to forces
     atom    1 type  1   force =     0.00000003    0.00000001   -0.00002475
     atom    2 type  1   force =     0.00000005    0.00000001    0.00000666
     atom    3 type  1   force =    -0.00000307    0.00000366    0.00001705
     atom    4 type  1   force =    -0.00000572    0.00000487   -0.00001431
     atom    5 type  1   force =    -0.00000146    0.00000687   -0.00000356
     atom    6 type  1   force =    -0.00000090   -0.00000040    0.00001739
     atom    7 type  1   force =    -0.00000549   -0.00000314   -0.00000332
     atom    8 type  1   force =     0.00000490    0.00000282   -0.00001466
     atom    9 type  1   force =     0.00000175   -0.00000463    0.00001714
     atom   10 type  1   force =     0.00000137   -0.00000731   -0.00001441
     atom   11 type  1   force =     0.00000506   -0.00000476   -0.00000358
     atom   12 type  1   force =     0.00000482    0.00000083    0.00001713
     atom   13 type  1   force =     0.00000708    0.00000241   -0.00001438
     atom   14 type  1   force =     0.00000667   -0.00000199   -0.00000351
     atom   15 type  1   force =     0.00000316    0.00000372    0.00001706
     atom   16 type  1   force =     0.00000570    0.00000482   -0.00001435
     atom   17 type  1   force =     0.00000155    0.00000686   -0.00000355
     atom   18 type  1   force =     0.00000000   -0.00000923    0.00000934
     atom   19 type  1   force =    -0.00000002   -0.00000019   -0.00000514
     atom   20 type  1   force =     0.00000007    0.00000604   -0.00001764
     atom   21 type  1   force =    -0.00000804    0.00000459    0.00000945
     atom   22 type  1   force =    -0.00000023    0.00000010   -0.00000518
     atom   23 type  1   force =     0.00000533   -0.00000307   -0.00001762
     atom   24 type  1   force =    -0.00000006    0.00000098    0.00001750
     atom   25 type  1   force =    -0.00000004    0.00000635   -0.00000334
     atom   26 type  1   force =    -0.00000002   -0.00000563   -0.00001467
     atom   27 type  1   force =    -0.00000711   -0.00000408    0.00002658
     atom   28 type  1   force =     0.00000587    0.00000337   -0.00000149
     atom   29 type  1   force =    -0.00000023   -0.00000010   -0.00001294
     atom   30 type  1   force =     0.00000089   -0.00000048    0.00001731
     atom   31 type  1   force =     0.00000549   -0.00000317   -0.00000332
     atom   32 type  1   force =    -0.00000492    0.00000284   -0.00001462
     atom   33 type  1   force =     0.00000797    0.00000458    0.00000939
     atom   34 type  1   force =     0.00000017    0.00000014   -0.00000514
     atom   35 type  1   force =    -0.00000521   -0.00000313   -0.00001764
     atom   36 type  1   force =    -0.00000467    0.00000083    0.00001716
     atom   37 type  1   force =    -0.00000712    0.00000251   -0.00001429
     atom   38 type  1   force =    -0.00000668   -0.00000211   -0.00000355
     atom   39 type  1   force =     0.00000701   -0.00000403    0.00002656
     atom   40 type  1   force =    -0.00000587    0.00000336   -0.00000150
     atom   41 type  1   force =     0.00000017   -0.00000009   -0.00001302
     atom   42 type  1   force =     0.00000002    0.00000819    0.00002656
     atom   43 type  1   force =     0.00000003   -0.00000676   -0.00000152
     atom   44 type  1   force =    -0.00000001    0.00000024   -0.00001296
     atom   45 type  1   force =    -0.00000165   -0.00000454    0.00001714
     atom   46 type  1   force =    -0.00000131   -0.00000734   -0.00001436
     atom   47 type  1   force =    -0.00000512   -0.00000478   -0.00000356
     atom   48 type  2   force =     0.00000001   -0.00000449   -0.00002306
     atom   49 type  2   force =    -0.00000010   -0.00001060   -0.00001089
     atom   50 type  2   force =    -0.00000012   -0.00000478    0.00002357
     atom   51 type  2   force =    -0.00000371    0.00000211   -0.00002355
     atom   52 type  2   force =    -0.00000911    0.00000526   -0.00001093
     atom   53 type  2   force =    -0.00000386    0.00000228    0.00002338
     atom   54 type  2   force =    -0.00000563   -0.00000184   -0.00000506
     atom   55 type  2   force =    -0.00000259    0.00000850   -0.00001279
     atom   56 type  2   force =     0.00001059   -0.00000525    0.00002064
     atom   57 type  2   force =    -0.00000432   -0.00000389   -0.00000502
     atom   58 type  2   force =     0.00000608   -0.00000650   -0.00001277
     atom   59 type  2   force =     0.00000075    0.00001176    0.00002069
     atom   60 type  2   force =    -0.00000121    0.00000067   -0.00001322
[...]
     atom  129 type  2   force =    -0.00000008    0.00000012    0.00000575
     atom  130 type  2   force =     0.00000003    0.00000004    0.00000413
     atom  131 type  2   force =     0.00000010   -0.00000008   -0.00001901
     atom  132 type  2   force =     0.00000969    0.00000760    0.00000760
     atom  133 type  2   force =    -0.00000896    0.00000239   -0.00000189
     atom  134 type  2   force =    -0.00000084   -0.00000418   -0.00000834
     atom  135 type  2   force =    -0.00000001    0.00000237    0.00001458
     atom  136 type  2   force =     0.00000005    0.00000755   -0.00001162
     atom  137 type  2   force =    -0.00000003   -0.00000593   -0.00001021
     atom  138 type  2   force =     0.00000206   -0.00000121    0.00001460
     atom  139 type  2   force =     0.00000664   -0.00000390   -0.00001158
     atom  140 type  2   force =    -0.00000525    0.00000292   -0.00001015
     atom  141 type  2   force =     0.00001154    0.00000459    0.00000766
     atom  142 type  2   force =    -0.00000251   -0.00000897   -0.00000185
     atom  143 type  2   force =    -0.00000412    0.00000133   -0.00000833

     Total force =     0.002972     Total SCF correction =     0.000177

     Computing stress (Cartesian axis) and pressure

     Non-local corr. energy    =      68.79399079 Ry

          total   stress  (Ry/bohr**3)                   (kbar)     P=        6.00
   0.00004005   0.00000000  -0.00000000            5.89        0.00       -0.00
   0.00000000   0.00004005   0.00000000            0.00        5.89        0.00
  -0.00000000   0.00000000   0.00004229           -0.00        0.00        6.22

     kinetic stress (kbar)  14856.60      0.00      0.00
                                0.00  14856.60     -0.00
                                0.00     -0.00  14866.93

     local   stress (kbar)  -7442.57      0.00      0.01
                                0.00  -7442.56     -0.01
                                0.01     -0.01   1172.09

     nonloc. stress (kbar)  -1014.87      0.00      0.00
                                0.00  -1014.87     -0.00
                                0.00     -0.00  -1020.76

     hartree stress (kbar)  11972.50     -0.00     -0.00
                               -0.00  11972.50      0.00
                               -0.00      0.00   8088.13

     exc-cor stress (kbar)   6913.31     -0.00     -0.00
                               -0.00   6913.31      0.00
                               -0.00      0.00   6912.26

     corecor stress (kbar) -11254.52      0.00     -0.00
                                0.00 -11254.52      0.00
                               -0.00      0.00 -11254.45

     ewald   stress (kbar) -14107.59     -0.00     -0.00
                               -0.00 -14107.60      0.01
                               -0.00      0.01 -18842.26

     hubbard stress (kbar)      0.00      0.00      0.00
                                0.00      0.00      0.00
                                0.00      0.00      0.00

     DFT-D   stress (kbar)      0.00      0.00      0.00
                                0.00      0.00      0.00
                                0.00      0.00      0.00

     XDM     stress (kbar)      0.00      0.00      0.00
                                0.00      0.00      0.00
                                0.00      0.00      0.00

     dft-nl  stress (kbar)     83.02      0.00      0.00
                                0.00     83.02     -0.00
                                0.00     -0.00     84.27

     TS-vdW  stress (kbar)      0.00      0.00      0.00
                                0.00      0.00      0.00
                                0.00      0.00      0.00

     MDB     stress (kbar)      0.00      0.00      0.00
                                0.00      0.00      0.00
                                0.00      0.00      0.00

     3D-RISM stress (kbar)      0.00      0.00      0.00
                                0.00      0.00      0.00
                                0.00      0.00      0.00

     Energy error            =      7.5E-05 Ry
     Gradient error          =      6.6E-04 Ry/Bohr

     bfgs converged in  10 scf cycles and   9 bfgs steps
     (criteria: energy <  1.0E-04 Ry, force <  1.0E-03 Ry/Bohr)

     End of BFGS Geometry Optimization

     Final energy             =  -96237.2783534634 Ry

     File ./PbI2.bfgs deleted, as requested
Begin final coordinates

ATOMIC_POSITIONS (angstrom)
Pb            2.3557243388        4.0797078771        7.3566588361
Pb            2.3557997268        4.0796395294       14.7764693149
Pb            0.0923279546        8.0001009197       22.1329027565
Pb            0.0037570431        8.1583412253        7.3611278629
Pb           -0.0004368234        8.1558299238       14.7719175282
Pb           -2.3554780183       12.2398184704       22.1328395899
Pb           -2.3525564122       12.2416265057        7.3679514824
Pb           -2.3585296012       12.2380833420       14.7649740456
Pb           -4.8032036620       16.4794205343       22.1328845896
Pb           -4.7106092400       16.3238780483        7.3610771428
Pb           -4.7148119008       16.3213305373       14.7718951879
Pb            6.8828232953        4.0795838560       22.1330153426
Pb            7.0638958880        4.0772427839        7.3612047348
Pb            7.0639580922        4.0821032408       14.7720176277
Pb            4.6193021533        8.0001025918       22.1329121932
Pb            4.7076758919        8.1583300652        7.3611575355
Pb            4.7120149112        8.1558167032       14.7719549554
Pb            2.3557827825       12.2022392931       22.1613335514
Pb            2.3557060721       12.2384931104        7.3663941905
Pb            2.3557730632       12.2376580961       14.7649787327
Pb           -0.0323860013       16.3386665927       22.1613301485
Pb           -0.0011328777       16.3206563385        7.3664108097
Pb           -0.0017386412       16.3209576648       14.7650191874
Pb           11.7783376563        4.0796252969       22.1330238638
Pb           11.7782569542        4.0762207998        7.3681485838
Pb           11.7783249917        4.0831304553       14.7651815100
Pb            9.3901665381        8.1409273544       22.1045628146
Pb            9.4207602929        8.1586999165        7.3681090483
Pb            9.4214895988        8.1590361150       14.7667119520
Pb            7.0670488681       12.2397951802       22.1329081246
Pb            7.0639684585       12.2416074886        7.3680363088
Pb            7.0700849716       12.2380579467       14.7650561500
Pb            4.7439560843       16.3386563361       22.1613930713
Pb            4.7125464889       16.3206414967        7.3664606601
Pb            4.7132880230       16.3209446294       14.7650620946
Pb           16.6739127178        4.0795846584       22.1330470178
Pb           16.4926243550        4.0772376135        7.3612339858
Pb           16.4927092587        4.0821013931       14.7720479475
Pb           14.1664975497        8.1409345156       22.1045286693
Pb           14.1357449893        8.1587035074        7.3680993599
Pb           14.1351599066        8.1590466821       14.7667063323
Pb           11.7783280989       12.2773668456       22.1044922729
Pb           11.7782457104       12.2420203977        7.3680305833
Pb           11.7783227982       12.2412090155       14.7666413161
Pb            9.5148235785       16.4794035088       22.1329229099
Pb            9.4220335296       16.3238617410        7.3611428409
Pb            9.4263836464       16.3213144932       14.7719597598
I             2.3556849205        1.3613965585        5.4895294916
I             2.3557313843        1.3605489791       12.8711175247
I             2.3557681845        1.3338112305       20.2602451056
I             0.0014809581        5.4389485117        5.4895727605
I             0.0008314200        5.4393308629       12.8711792770
I            -0.0218199572        5.4523028780       20.2604508732
I            -2.3553232255        9.5206483541        5.4947897119
I            -2.3534428570        9.5202730524       12.8692528414
I            -2.3828629850        9.5294044982       20.2484369004
I            -4.7104048964       13.5998126643        5.4947440902
I            -4.7097531387       13.6015416740       12.8691940357
I            -4.7164799857       13.5712949660       20.2484019490
I             7.0692376346        1.3584662691        5.4953036680
[...]
I             2.3557334197       14.9599357571        1.8816793071
I             2.3556758437       14.9599939053        9.2649070122
I             2.3557285768       14.9599209116       16.6369037869
I            14.1118947490        2.7007441633        1.8843078481
I            14.1345534903        2.7217777886        9.2639264546
I            14.1333893962        2.7202999173       16.6383588511
I            11.7782997793        6.7982224953        1.8920882041
I            11.7782423831        6.8001651450        9.2638560214
I            11.7782986193        6.8006220149       16.6356402226
I             9.4212692823       10.8806995377        1.8920185600
I             9.4228775657       10.8797853519        9.2637686005
I             9.4233708264       10.8794853925       16.6355818264
I             7.0396417897       14.9502380137        1.8842354536
I             7.0690781436       14.9595599576        9.2638371075
I             7.0673144207       14.9591287872       16.6383058995
End final coordinates

     Writing all to output data dir ./PbI2.save/

     General routines

     Parallel routines

     PAW routines

   This run was terminated on:  10:36:23  23Feb2024

   JOB DONE.