     Program PWSCF v.7.1 starts on 19Feb2024 at 16:27:40

     Reading input from espresso.pwi
Warning: card &CELL ignored
Warning: card    CELL_DYNAMICS    = 'BFGS' ignored
Warning: card / ignored

     Current dimensions of program PWSCF are:
     Max number of different atomic species (ntypx) = 10
     Max number of k-points (npk) =  40000
     Max angular momentum in pseudopotentials (lmaxx) =  4
     file C.pbe-n-kjpaw_psl.1.0.0.UPF: wavefunction(s)  2S 2P renormalized

     IMPORTANT: XC functional enforced from input :
     Exchange-correlation= BEEF-VDW
                           (   1   4  43  14   2   0   0)
     Any further DFT definition will be discarded
     Please, verify this is what you really want

     K-points division:     npool     =       4
     R & G space division:  proc/nbgrp/npool/nimage =      64
     Subspace diagonalization in iterative solution of the eigenvalue problem:
     a serial algorithm will be used

     Using Slab Decomposition

     bravais-lattice index     =            1
     lattice parameter (alat)  =      20.2520  a.u.
     unit-cell volume          =    8306.2556 (a.u.)^3
     number of atoms/cell      =          215
     number of atomic types    =            1
     number of electrons       =       858.00
     number of Kohn-Sham states=          515
     kinetic-energy cutoff     =      70.0000  Ry
     charge density cutoff     =     350.0000  Ry
     scf convergence threshold =      1.0E-07
     mixing beta               =       0.7000
     number of iterations used =            8  plain     mixing
     Exchange-correlation= BEEF-VDW
                           (   1   4  43  14   2   0   0)

     celldm(1)=  20.252024  celldm(2)=   0.000000  celldm(3)=   0.000000
     celldm(4)=   0.000000  celldm(5)=   0.000000  celldm(6)=   0.000000

     crystal axes: (cart. coord. in units of alat)
               a(1) = (   1.000000   0.000000   0.000000 )
               a(2) = (   0.000000   1.000000   0.000000 )
               a(3) = (   0.000000   0.000000   1.000000 )

     reciprocal axes: (cart. coord. in units 2 pi/alat)
               b(1) = (  1.000000  0.000000  0.000000 )
               b(2) = (  0.000000  1.000000  0.000000 )
               b(3) = (  0.000000  0.000000  1.000000 )

     PseudoPot. # 1 for C  read from file:
     /trace/group/acmegroup/atimmins/packages/espresso/pseudo/psl_1.0.0/pslibrary.1.0.0/pbe/PSEUDOPOTENTIALS/C.pbe-n-kjpaw_psl.1.0.0.UPF
     MD5 check sum: 5459cf7f2c8c37df2f7cde8914797f4d
     Pseudo is Projector augmented-wave + core cor, Zval =  4.0
     Generated using 'atomic' code by A. Dal Corso  v.7.1
     Shape of augmentation charge: PSQ
     Using radial grid of 1073 points,  4 beta functions with:
                l(1) =   0
                l(2) =   0
                l(3) =   1
                l(4) =   1
     Q(r) pseudized with 0 coefficients

     atomic species   valence    mass     pseudopotential
        C              4.00    12.01100     C ( 1.00)

      6 Sym. Ops. (no inversion) found ( 4 have fractional translation)

                                    s                        frac. trans.

      isym =  1     identity

 cryst.   s( 1) = (     1          0          0      )
                  (     0          1          0      )
                  (     0          0          1      )

 cart.    s( 1) = (  1.0000000  0.0000000  0.0000000 )
                  (  0.0000000  1.0000000  0.0000000 )
                  (  0.0000000  0.0000000  1.0000000 )

      isym =  2     120 deg rotation - cart. axis [1,-1,1]

 cryst.   s( 2) = (     0          0          1      )    f =( -0.3333333 )
                  (    -1          0          0      )       ( -0.3333333 )
                  (     0         -1          0      )       (  0.0000000 )

 cart.    s( 2) = (  0.0000000 -1.0000000  0.0000000 )    f =( -0.3333333 )
                  (  0.0000000  0.0000000 -1.0000000 )       ( -0.3333333 )
                  (  1.0000000  0.0000000  0.0000000 )       (  0.0000000 )

      isym =  3     120 deg rotation - cart. axis [-1,1,-1]

[...]

      isym =  4     inv. 180 deg rotation - cart. axis [1,1,0]

[...]

 cryst.   s( 5) = (     0          0          1      )
                  (     0          1          0      )
                  (     1          0          0      )

 cart.    s( 5) = (  0.0000000  0.0000000  1.0000000 )
                  (  0.0000000  1.0000000  0.0000000 )
                  (  1.0000000  0.0000000  0.0000000 )

      isym =  6     inv. 180 deg rotation - cart. axis [0,1,1]

 cryst.   s( 6) = (     1          0          0      )    f =(  0.0000000 )
                  (     0          0         -1      )       ( -0.3333333 )
                  (     0         -1          0      )       ( -0.3333333 )

 cart.    s( 6) = (  1.0000000  0.0000000  0.0000000 )    f =(  0.0000000 )
                  (  0.0000000  0.0000000 -1.0000000 )       ( -0.3333333 )
                  (  0.0000000 -1.0000000  0.0000000 )       ( -0.3333333 )

     point group C_3v (3m)
     there are  3 classes
     the character table:

       E     2C3   3s_v
A_1    1.00  1.00  1.00
A_2    1.00  1.00 -1.00
E      2.00 -1.00  0.00

     the symmetry operations in each class and the name of the first element:

     E        1
          identity
     2C3      2    3
          120 deg rotation - cart. axis [1,-1,1]
     3s_v     4    5    6
          inv. 180 deg rotation - cart. axis [1,1,0]

   Cartesian axes

     site n.     atom                  positions (alat units)
         1           C   tau(   1) = (   0.0833353   0.2499980   0.4166687  )
         2           C   tau(   2) = (   0.0833353   0.2499980   0.7500020  )
         3           C   tau(   3) = (   0.0833353   0.5833313   0.0833353  )
         4           C   tau(   4) = (   0.0833353   0.5833313   0.4166687  )
         5           C   tau(   5) = (   0.0833353   0.5833313   0.7500020  )
         6           C   tau(   6) = (   0.0833353   0.9166647   0.0833353  )
         7           C   tau(   7) = (   0.0833353   0.9166647   0.4166687  )
         8           C   tau(   8) = (   0.0833353   0.9166647   0.7500020  )
         9           C   tau(   9) = (   0.4166687   0.2499980   0.0833353  )
        10           C   tau(  10) = (   0.4166687   0.2499980   0.4166687  )
        11           C   tau(  11) = (   0.4166687   0.2499980   0.7500020  )
        12           C   tau(  12) = (   0.4166687   0.5833313   0.0833353  )
        13           C   tau(  13) = (   0.4166687   0.5833313   0.4166687  )
        14           C   tau(  14) = (   0.4166687   0.5833313   0.7500020  )
        15           C   tau(  15) = (   0.4166687   0.9166647   0.0833353  )
        16           C   tau(  16) = (   0.4166687   0.9166647   0.4166687  )
        17           C   tau(  17) = (   0.4166687   0.9166647   0.7500020  )
        18           C   tau(  18) = (   0.7500020   0.2499980   0.0833353  )
        19           C   tau(  19) = (   0.7500020   0.2499980   0.4166687  )
        20           C   tau(  20) = (   0.7500020   0.2499980   0.7500020  )
        21           C   tau(  21) = (   0.7500020   0.5833313   0.0833353  )
        22           C   tau(  22) = (   0.7500020   0.5833313   0.4166687  )
        23           C   tau(  23) = (   0.7500020   0.5833313   0.7500020  )
        24           C   tau(  24) = (   0.7500020   0.9166647   0.0833353  )
        25           C   tau(  25) = (   0.7500020   0.9166647   0.4166687  )
        26           C   tau(  26) = (   0.7500020   0.9166647   0.7500020  )
        27           C   tau(  27) = (   0.0000000   0.0000000   0.1666667  )
        28           C   tau(  28) = (   0.0000000   0.0000000   0.5000000  )
        29           C   tau(  29) = (   0.0000000   0.0000000   0.8333333  )
        30           C   tau(  30) = (   0.0000000   0.3333333   0.1666667  )
        31           C   tau(  31) = (   0.0000000   0.3333333   0.5000000  )
        32           C   tau(  32) = (   0.0000000   0.3333333   0.8333333  )
        33           C   tau(  33) = (   0.0000000   0.6666667   0.1666667  )
        34           C   tau(  34) = (   0.0000000   0.6666667   0.5000000  )
        35           C   tau(  35) = (   0.0000000   0.6666667   0.8333333  )
        36           C   tau(  36) = (   0.3333333   0.0000000   0.1666667  )
        37           C   tau(  37) = (   0.3333333   0.0000000   0.5000000  )
        38           C   tau(  38) = (   0.3333333   0.0000000   0.8333333  )
        39           C   tau(  39) = (   0.3333333   0.3333333   0.1666667  )
        40           C   tau(  40) = (   0.3333333   0.3333333   0.5000000  )
        41           C   tau(  41) = (   0.3333333   0.3333333   0.8333333  )
        42           C   tau(  42) = (   0.3333333   0.6666667   0.1666667  )
        43           C   tau(  43) = (   0.3333333   0.6666667   0.5000000  )
        44           C   tau(  44) = (   0.3333333   0.6666667   0.8333333  )
        45           C   tau(  45) = (   0.6666667   0.0000000   0.1666667  )
        46           C   tau(  46) = (   0.6666667   0.0000000   0.5000000  )
        47           C   tau(  47) = (   0.6666667   0.0000000   0.8333333  )
        48           C   tau(  48) = (   0.6666667   0.3333333   0.1666667  )
        49           C   tau(  49) = (   0.6666667   0.3333333   0.5000000  )
        50           C   tau(  50) = (   0.6666667   0.3333333   0.8333333  )
        51           C   tau(  51) = (   0.6666667   0.6666667   0.1666667  )
        52           C   tau(  52) = (   0.6666667   0.6666667   0.5000000  )
        53           C   tau(  53) = (   0.6666667   0.6666667   0.8333333  )
        54           C   tau(  54) = (   0.0833353   0.0833353   0.2499980  )
        55           C   tau(  55) = (   0.0833353   0.0833353   0.5833313  )
        56           C   tau(  56) = (   0.0833353   0.0833353   0.9166647  )
        57           C   tau(  57) = (   0.0833353   0.4166687   0.2499980  )
        58           C   tau(  58) = (   0.0833353   0.4166687   0.5833313  )
        59           C   tau(  59) = (   0.0833353   0.4166687   0.9166647  )
        60           C   tau(  60) = (   0.0833353   0.7500020   0.2499980  )
[...]
       201           C   tau( 201) = (   0.5000000   0.5000000   0.1666667  )
       202           C   tau( 202) = (   0.5000000   0.5000000   0.5000000  )
       203           C   tau( 203) = (   0.5000000   0.5000000   0.8333333  )
       204           C   tau( 204) = (   0.5000000   0.8333333   0.1666667  )
       205           C   tau( 205) = (   0.5000000   0.8333333   0.5000000  )
       206           C   tau( 206) = (   0.5000000   0.8333333   0.8333333  )
       207           C   tau( 207) = (   0.8333333   0.1666667   0.1666667  )
       208           C   tau( 208) = (   0.8333333   0.1666667   0.5000000  )
       209           C   tau( 209) = (   0.8333333   0.1666667   0.8333333  )
       210           C   tau( 210) = (   0.8333333   0.5000000   0.1666667  )
       211           C   tau( 211) = (   0.8333333   0.5000000   0.5000000  )
       212           C   tau( 212) = (   0.8333333   0.5000000   0.8333333  )
[...]
     atom   25 type  1   force =     0.00000000    0.00000000    0.00000000
     atom   26 type  1   force =     0.00000000    0.00000000    0.00000000
     atom   27 type  1   force =     0.00000000    0.00000000    0.00000000
     atom   28 type  1   force =     0.00000000    0.00000000    0.00000000
     atom   29 type  1   force =     0.00000000    0.00000000    0.00000000
     atom   30 type  1   force =     0.00000000    0.00000000    0.00000000
     atom   31 type  1   force =     0.00000000    0.00000000    0.00000000
     atom   32 type  1   force =     0.00000000    0.00000000    0.00000000
     atom   33 type  1   force =     0.00000000    0.00000000    0.00000000
     atom   34 type  1   force =     0.00000000    0.00000000    0.00000000
     atom   35 type  1   force =     0.00000000    0.00000000    0.00000000
     atom   36 type  1   force =     0.00000000    0.00000000    0.00000000
     atom   37 type  1   force =     0.00000000    0.00000000    0.00000000
     atom   38 type  1   force =     0.00000000    0.00000000    0.00000000
     atom   39 type  1   force =     0.00000000    0.00000000    0.00000000
     atom   40 type  1   force =     0.00000000    0.00000000    0.00000000
     atom   41 type  1   force =     0.00000000    0.00000000    0.00000000
     atom   42 type  1   force =     0.00000000    0.00000000    0.00000000
     atom   43 type  1   force =     0.00000000    0.00000000    0.00000000
     atom   44 type  1   force =     0.00000000    0.00000000    0.00000000
     atom   45 type  1   force =     0.00000000    0.00000000    0.00000000
     atom   46 type  1   force =     0.00000000    0.00000000    0.00000000
     atom   47 type  1   force =     0.00000000    0.00000000    0.00000000
     atom   48 type  1   force =     0.00000000    0.00000000    0.00000000
     atom   49 type  1   force =     0.00000000    0.00000000    0.00000000
     atom   50 type  1   force =     0.00000000    0.00000000    0.00000000
     atom   51 type  1   force =     0.00000000    0.00000000    0.00000000
     atom   52 type  1   force =     0.00000000    0.00000000    0.00000000
     atom   53 type  1   force =     0.00000000    0.00000000    0.00000000
     atom   54 type  1   force =     0.00000000    0.00000000    0.00000000
     atom   55 type  1   force =     0.00000000    0.00000000    0.00000000
     atom   56 type  1   force =     0.00000000    0.00000000    0.00000000
     atom   57 type  1   force =     0.00000000    0.00000000    0.00000000
     atom   58 type  1   force =     0.00000000    0.00000000    0.00000000
     atom   59 type  1   force =     0.00000000    0.00000000    0.00000000
     atom   60 type  1   force =     0.00000000    0.00000000    0.00000000
[...]
     atom  201 type  1   force =     0.00000000    0.00000000    0.00000000
     atom  202 type  1   force =     0.00000000    0.00000000    0.00000000
     atom  203 type  1   force =     0.00000000    0.00000000    0.00000000
     atom  204 type  1   force =     0.00000000    0.00000000    0.00000000
     atom  205 type  1   force =     0.00000000    0.00000000    0.00000000
     atom  206 type  1   force =     0.00000000    0.00000000    0.00000000
     atom  207 type  1   force =     0.00000000    0.00000000    0.00000000
     atom  208 type  1   force =     0.00000000    0.00000000    0.00000000
     atom  209 type  1   force =     0.00000000    0.00000000    0.00000000
     atom  210 type  1   force =     0.00000000    0.00000000    0.00000000
     atom  211 type  1   force =     0.00000000    0.00000000    0.00000000
     atom  212 type  1   force =     0.00000000    0.00000000    0.00000000
     atom  213 type  1   force =     0.00000000    0.00000000    0.00000000
     atom  214 type  1   force =     0.00000000    0.00000000    0.00000000
     atom  215 type  1   force =     0.00000000    0.00000000    0.00000000
     The SCF correction term to forces
     atom    1 type  1   force =    -0.00001552    0.00001552   -0.00003443
     atom    2 type  1   force =    -0.00000835    0.00000835    0.00005679
     atom    3 type  1   force =    -0.00000835   -0.00005679   -0.00000835
     atom    4 type  1   force =    -0.00000667   -0.00001088   -0.00000413
     atom    5 type  1   force =    -0.00000515   -0.00001256    0.00001256
     atom    6 type  1   force =    -0.00001552    0.00003443   -0.00001552
     atom    7 type  1   force =    -0.00001243   -0.00000449    0.00000449
     atom    8 type  1   force =    -0.00000667    0.00000413    0.00001088
     atom    9 type  1   force =    -0.00003443    0.00001552   -0.00001552
     atom   10 type  1   force =     0.00000449    0.00001243    0.00000449
     atom   11 type  1   force =    -0.00000413    0.00000667    0.00001088
     atom   12 type  1   force =    -0.00000413   -0.00001088   -0.00000667
     atom   13 type  1   force =    -0.00000261   -0.00000864   -0.00000261
     atom   14 type  1   force =    -0.00000530   -0.00000985    0.00000985
     atom   15 type  1   force =     0.00000449   -0.00000449   -0.00001243
     atom   16 type  1   force =     0.00000273   -0.00000273    0.00000273
     atom   17 type  1   force =    -0.00000261    0.00000261    0.00000864
     atom   18 type  1   force =     0.00005679    0.00000835   -0.00000835
     atom   19 type  1   force =     0.00001088    0.00000667   -0.00000413
     atom   20 type  1   force =     0.00001256    0.00000515    0.00001256
     atom   21 type  1   force =     0.00001256   -0.00001256   -0.00000515
     atom   22 type  1   force =     0.00000985   -0.00000985   -0.00000530
     atom   23 type  1   force =     0.00001029   -0.00001029    0.00001029
     atom   24 type  1   force =     0.00001088    0.00000413   -0.00000667
     atom   25 type  1   force =     0.00000864    0.00000261   -0.00000261
     atom   26 type  1   force =     0.00000985    0.00000530    0.00000985
     atom   27 type  1   force =    -0.00000563    0.00004395   -0.00003101
     atom   28 type  1   force =    -0.00000459   -0.00000171    0.00000344
     atom   29 type  1   force =    -0.00000267    0.00003062    0.00002672
     atom   30 type  1   force =     0.00001655   -0.00001655   -0.00004688
     atom   31 type  1   force =    -0.00000753    0.00000753   -0.00001434
     atom   32 type  1   force =     0.00001432   -0.00001432    0.00005764
     atom   33 type  1   force =    -0.00000664   -0.00003342   -0.00000758
     atom   34 type  1   force =     0.00000279   -0.00000587    0.00000669
     atom   35 type  1   force =     0.00000316   -0.00001670    0.00000086
     atom   36 type  1   force =    -0.00001081    0.00001081   -0.00001400
     atom   37 type  1   force =    -0.00000245    0.00000245    0.00000780
     atom   38 type  1   force =    -0.00001319    0.00001319    0.00000907
     atom   39 type  1   force =    -0.00004395    0.00000563   -0.00003101
     atom   40 type  1   force =     0.00000171    0.00000459    0.00000344
     atom   41 type  1   force =    -0.00003062    0.00000267    0.00002672
     atom   42 type  1   force =     0.00000062   -0.00001834   -0.00001312
     atom   43 type  1   force =    -0.00001107   -0.00000707    0.00000621
     atom   44 type  1   force =    -0.00000831   -0.00001424    0.00000625
     atom   45 type  1   force =     0.00001834   -0.00000062   -0.00001312
     atom   46 type  1   force =     0.00000707    0.00001107    0.00000621
     atom   47 type  1   force =     0.00001424    0.00000831    0.00000625
     atom   48 type  1   force =     0.00003342    0.00000664   -0.00000758
     atom   49 type  1   force =     0.00000587   -0.00000279    0.00000669
     atom   50 type  1   force =     0.00001670   -0.00000316    0.00000086
     atom   51 type  1   force =     0.00000592   -0.00000592   -0.00001336
     atom   52 type  1   force =     0.00000782   -0.00000782    0.00000152
     atom   53 type  1   force =     0.00000631   -0.00000631    0.00001179
     atom   54 type  1   force =    -0.00002450    0.00004075   -0.00004075
     atom   55 type  1   force =    -0.00000929    0.00000052    0.00001415
     atom   56 type  1   force =    -0.00003013    0.00005709    0.00003620
     atom   57 type  1   force =    -0.00003013   -0.00003620   -0.00005709
     atom   58 type  1   force =    -0.00000678    0.00000817    0.00000974
     atom   59 type  1   force =     0.00000785   -0.00004798    0.00004798
     atom   60 type  1   force =    -0.00000929   -0.00001415   -0.00000052
[...]
     atom  201 type  1   force =    -0.00000134    0.00000229   -0.00001263
     atom  202 type  1   force =     0.00000506   -0.00000986    0.00000506
     atom  203 type  1   force =    -0.00000310   -0.00000703    0.00000703
     atom  204 type  1   force =     0.00001196   -0.00001196   -0.00001382
     atom  205 type  1   force =     0.00000433   -0.00000433    0.00000433
     atom  206 type  1   force =     0.00000506   -0.00000506    0.00000986
     atom  207 type  1   force =     0.00004931    0.00002926   -0.00002926
     atom  208 type  1   force =    -0.00000229    0.00001263   -0.00000134
     atom  209 type  1   force =     0.00003018    0.00001257    0.00003018
     atom  210 type  1   force =     0.00003018   -0.00003018   -0.00001257
     atom  211 type  1   force =     0.00000703   -0.00000703   -0.00000310
     atom  212 type  1   force =     0.00001663   -0.00001663    0.00001663
     atom  213 type  1   force =    -0.00000229    0.00000134   -0.00001263
     atom  214 type  1   force =     0.00000986   -0.00000506    0.00000506
     atom  215 type  1   force =     0.00000703    0.00000310    0.00000703

     Total force =     0.005092     Total SCF correction =     0.000455

     Computing stress (Cartesian axis) and pressure

[...]

          total   stress  (Ry/bohr**3)                   (kbar)     P=      -43.85
  -0.00029806  -0.00000005   0.00000005          -43.85       -0.01        0.01
  -0.00000005  -0.00029806  -0.00000005           -0.01      -43.85       -0.01
   0.00000005  -0.00000005  -0.00029806            0.01       -0.01      -43.85

     kinetic stress (kbar)  18839.79     -0.00      0.00
                               -0.00  18839.79     -0.00
                                0.00     -0.00  18839.79

     local   stress (kbar)  -3600.40      0.10     -0.10
                                0.10  -3600.40      0.10
                               -0.10      0.10  -3600.40

     nonloc. stress (kbar)   4310.53     -0.00      0.00
                               -0.00   4310.53     -0.00
                                0.00     -0.00   4310.53

     hartree stress (kbar)   1311.71     -0.03      0.03
                               -0.03   1311.71     -0.03
                                0.03     -0.03   1311.71

     exc-cor stress (kbar)   -398.58     -0.00      0.00
                               -0.00   -398.58     -0.00
                                0.00     -0.00   -398.58

     corecor stress (kbar)  -4413.15      0.00     -0.00
                                0.00  -4413.15      0.00
                               -0.00      0.00  -4413.15

     ewald   stress (kbar) -16118.48     -0.08      0.08
                               -0.08 -16118.48     -0.08
                                0.08     -0.08 -16118.48

     hubbard stress (kbar)      0.00      0.00      0.00
                                0.00      0.00      0.00
                                0.00      0.00      0.00

     DFT-D   stress (kbar)      0.00      0.00      0.00
                                0.00      0.00      0.00
                                0.00      0.00      0.00

     XDM     stress (kbar)      0.00      0.00      0.00
                                0.00      0.00      0.00
                                0.00      0.00      0.00

     dft-nl  stress (kbar)     24.72      0.00     -0.00
                                0.00     24.72      0.00
                               -0.00      0.00     24.72

     TS-vdW  stress (kbar)      0.00      0.00      0.00
                                0.00      0.00      0.00
                                0.00      0.00      0.00

     MDB     stress (kbar)      0.00      0.00      0.00
                                0.00      0.00      0.00
                                0.00      0.00      0.00

     3D-RISM stress (kbar)      0.00      0.00      0.00
                                0.00      0.00      0.00
                                0.00      0.00      0.00

[...]

     Non-local corr. energy    =       7.35958130 Ry

 BEEFens 2000 ensemble energies
             -0.130107711876219E+02
             -0.904135151131744E+02
             -0.320657315774280E+02
              0.355522436469089E+02
             -0.598106283648120E+02
             -0.837240736342318E+02
              0.496116659875156E+02
             -0.103691379247628E+02
              0.687103781222601E+02
             -0.110784236837350E+01
              0.279827971550372E+02
              0.135278274109527E+01
              0.387373908714019E+01
             -0.823217483141286E+01
              0.465160168460135E+02
             -0.348254356564759E+02
             -0.798893681324967E+02
             -0.221349725191910E+02
              0.180033956475713E+02
              0.192251979686864E+01
              0.955763336658372E+02
              0.866444880842342E+02
             -0.425305332816935E+02
              0.239137567431493E+02
             -0.108593853884639E+03
              0.874381396016981E+02
              0.313202122293410E+02
              0.921001476933835E+02
              0.580450193650527E+02
             -0.363055344604909E+02
              0.226863819930274E+02
             -0.471057654068532E+02
              0.132356288335735E+01
              0.463046134874902E+02
              0.598300074037401E+02
             -0.146267393719165E+02
              0.128835133844562E+03
             -0.451418223566012E+02
             -0.325809822056775E+02
              0.499451203435526E+02
              0.171556634578894E+02
              0.420952615083241E+02
             -0.734579998094157E+02
             -0.299919776239710E+01
              0.778631369864589E+02
              0.949795522650201E+02
             -0.860447745203761E+02
              0.709447571840770E+01
              0.339043238824218E+02
              0.788671560024943E+01
              0.414915562639717E+02
              0.832381438347625E+02
             -0.558129236786439E+02
             -0.587933572190944E+02
             -0.744029372902417E+02
             -0.205148915173292E+02
             -0.620874377633818E+02
              0.329256761214259E+01
             -0.165147308440835E+02
             -0.563759719119129E+02
[...]
              0.731185815336438E+02
              0.298229605018648E+02
              0.509528498527520E+02
             -0.729187701362350E+02
             -0.567544162034413E+02
             -0.231695373276063E+02
             -0.624878725986588E+02
              0.112655398274146E+03
              0.966164373570676E+02
              0.419749368940009E+02
              0.113892081808696E+03
             -0.610782437662358E+02
             -0.293950956856975E+02
             -0.303432318078970E+02
              0.898556414767816E+02

 BEEF-vdW xc energy contributions
            1 :    -877.9220900989646
            2 :     774.2731501810665
            3 :    -595.6377756465638
            4 :     388.4843831699183
            5 :    -200.1742135537188
            6 :     63.27204818028008
            7 :     12.61087112996347
            8 :    -38.94730432083156
            9 :     38.57129975233238
           10 :    -33.49856830122428
           11 :     36.03751466409813
           12 :    -46.53282060880451
           13 :     57.40293920315230
           14 :    -60.15300614349326
           15 :     51.17012384074633
           16 :    -33.49903755376238
           17 :     14.41599383021094
           18 :   -0.9140086391355453
           19 :    -3.995872985610390
           20 :     2.188445137897020
           21 :     1.557249423878488
           22 :    -2.853417223079759
           23 :    0.2130139157393387
           24 :     4.571986387581774
           25 :    -8.094366707832478
           26 :     7.755016433712626
           27 :    -3.380228643610053
           28 :    -2.849547095685921
           29 :     7.913362994096133
           30 :    -9.812213407180593
           31 :    -114.8873438150538
           32 :    -83.29150919082213

     Writing all to output data dir ./diamond.save/

     General routines

     Parallel routines

     PAW routines

   This run was terminated on:  16:32:15  19Feb2024

   JOB DONE.