     Program PWSCF v.7.1 starts on 11Mar2024 at  8:43: 1

     Reading input from espresso.pwi
Warning: card &CELL ignored
Warning: card    CELL_DYNAMICS    = 'BFGS' ignored
Warning: card / ignored

     Current dimensions of program PWSCF are:
     Max number of different atomic species (ntypx) = 10
     Max number of k-points (npk) =  40000
     Max angular momentum in pseudopotentials (lmaxx) =  4
     file Pb.pbe-dn-kjpaw_psl.1.0.0.UPF: wavefunction(s)  6S 6P 5D renormalized
     file I.pbe-dn-kjpaw_psl.1.0.0.UPF: wavefunction(s)  5S 5P renormalized

     IMPORTANT: XC functional enforced from input :
     Exchange-correlation= BEEF-VDW
                           (   1   4  43  14   2   0   0)
     Any further DFT definition will be discarded
     Please, verify this is what you really want

     R & G space division:  proc/nbgrp/npool/nimage =     256
     wavefunctions fft division:  task group distribution
                                  #TG    x Z-proc =       8     32
     Subspace diagonalization in iterative solution of the eigenvalue problem:
     a serial algorithm will be used

     Using Pencil Decomposition

     bravais-lattice index     =            4
     lattice parameter (alat)  =      35.6120  a.u.
     unit-cell volume          =   45937.3577 (a.u.)^3
     number of atoms/cell      =          144
     number of atomic types    =            2
     number of electrons       =      2300.00
     number of Kohn-Sham states=         1380
     kinetic-energy cutoff     =      70.0000  Ry
     charge density cutoff     =     350.0000  Ry
     scf convergence threshold =      1.0E-07
     mixing beta               =       0.7000
     number of iterations used =            8  plain     mixing
     energy convergence thresh.=      1.0E-04
     force convergence thresh. =      1.0E-03
     Exchange-correlation= BEEF-VDW
                           (   1   4  43  14   2   0   0)
     nstep                     =           50

     celldm(1)=  35.612033  celldm(2)=   0.000000  celldm(3)=   1.174479
     celldm(4)=   0.000000  celldm(5)=   0.000000  celldm(6)=   0.000000

     crystal axes: (cart. coord. in units of alat)
               a(1) = (   1.000000   0.000000   0.000000 )
               a(2) = (  -0.500000   0.866025   0.000000 )
               a(3) = (   0.000000   0.000000   1.174479 )

     reciprocal axes: (cart. coord. in units 2 pi/alat)
               b(1) = (  1.000000  0.577350 -0.000000 )
               b(2) = (  0.000000  1.154701  0.000000 )
               b(3) = (  0.000000 -0.000000  0.851442 )

     PseudoPot. # 1 for Pb read from file:
     /trace/group/acmegroup/atimmins/packages/espresso/pseudo/psl_1.0.0/pslibrary.1.0.0/pbe/PSEUDOPOTENTIALS/Pb.pbe-dn-kjpaw_psl.1.0.0.UPF
     MD5 check sum: 39ab5b8a6bbd56b7735ad9f188aac93a
     Pseudo is Projector augmented-wave + core cor, Zval = 14.0
     Generated using 'atomic' code by A. Dal Corso  v.7.1
     Shape of augmentation charge: PSQ
     Using radial grid of 1281 points,  6 beta functions with:
                l(1) =   0
                l(2) =   0
                l(3) =   1
                l(4) =   1
                l(5) =   2
                l(6) =   2
     Q(r) pseudized with 0 coefficients

     PseudoPot. # 2 for I  read from file:
     /trace/group/acmegroup/atimmins/packages/espresso/pseudo/psl_1.0.0/pslibrary.1.0.0/pbe/PSEUDOPOTENTIALS/I.pbe-dn-kjpaw_psl.1.0.0.UPF
     MD5 check sum: bfa8781bc1224d19af3f3980e3fab11e
     Pseudo is Projector augmented-wave + core cor, Zval = 17.0
     Generated using 'atomic' code by A. Dal Corso  v.7.1
     Shape of augmentation charge: PSQ
     Using radial grid of 1247 points,  6 beta functions with:
                l(1) =   0
                l(2) =   0
                l(3) =   1
                l(4) =   1
                l(5) =   2
                l(6) =   2
     Q(r) pseudized with 0 coefficients

     atomic species   valence    mass     pseudopotential
        Pb            14.00   207.20000     Pb( 1.00)
        I             17.00   126.90447     I ( 1.00)

     No symmetry found

                                    s                        frac. trans.

      isym =  1     identity

 cryst.   s( 1) = (     1          0          0      )
                  (     0          1          0      )
                  (     0          0          1      )

 cart.    s( 1) = (  1.0000000  0.0000000  0.0000000 )
                  (  0.0000000  1.0000000  0.0000000 )
                  (  0.0000000  0.0000000  1.0000000 )

     point group C_1 (1)
     there are  1 classes
     the character table:

       E
A      1.00

     the symmetry operations in each class and the name of the first element:

     E        1
          identity

   Cartesian axes

     site n.     atom                  positions (alat units)
         1           Pb  tau(   1) = (   0.1250136   0.2164827   1.1744753  )
         2           Pb  tau(   2) = (   0.1250034   0.2164918   0.3914896  )
         3           Pb  tau(   3) = (   0.1250085   0.2164873   0.7829825  )
         4           Pb  tau(   4) = (   0.0000128   0.4329881   1.1744712  )
         5           Pb  tau(   5) = (   0.0000026   0.4329971   0.3914855  )
         6           Pb  tau(   6) = (   0.0000077   0.4329926   0.7829784  )
         7           Pb  tau(   7) = (  -0.1249881   0.6494934   1.1744671  )
         8           Pb  tau(   8) = (  -0.1249983   0.6495025   0.3914814  )
         9           Pb  tau(   9) = (  -0.1249932   0.6494980   0.7829742  )
        10           Pb  tau(  10) = (  -0.2499889   0.8659988   1.1744630  )
        11           Pb  tau(  11) = (  -0.2499991   0.8660078   0.3914773  )
        12           Pb  tau(  12) = (  -0.2499940   0.8660033   0.7829701  )
        13           Pb  tau(  13) = (   0.3750136   0.2164818   1.1744786  )
        14           Pb  tau(  14) = (   0.3750034   0.2164908   0.3914929  )
        15           Pb  tau(  15) = (   0.3750085   0.2164863   0.7829857  )
        16           Pb  tau(  16) = (   0.2500128   0.4329871   1.1744745  )
        17           Pb  tau(  17) = (   0.2500026   0.4329962   0.3914888  )
        18           Pb  tau(  18) = (   0.2500077   0.4329916   0.7829816  )
        19           Pb  tau(  19) = (   0.1250119   0.6494925   1.1744703  )
        20           Pb  tau(  20) = (   0.1250017   0.6495015   0.3914847  )
        21           Pb  tau(  21) = (   0.1250068   0.6494970   0.7829775  )
        22           Pb  tau(  22) = (   0.0000111   0.8659978   1.1744662  )
        23           Pb  tau(  23) = (   0.0000009   0.8660069   0.3914805  )
        24           Pb  tau(  24) = (   0.0000060   0.8660024   0.7829734  )
        25           Pb  tau(  25) = (   0.6250136   0.2164808   1.1744818  )
        26           Pb  tau(  26) = (   0.6250034   0.2164898   0.3914962  )
        27           Pb  tau(  27) = (   0.6250085   0.2164853   0.7829890  )
        28           Pb  tau(  28) = (   0.5000128   0.4329862   1.1744777  )
        29           Pb  tau(  29) = (   0.5000026   0.4329952   0.3914920  )
        30           Pb  tau(  30) = (   0.5000077   0.4329907   0.7829849  )
        31           Pb  tau(  31) = (   0.3750119   0.6494915   1.1744736  )
        32           Pb  tau(  32) = (   0.3750017   0.6495006   0.3914879  )
        33           Pb  tau(  33) = (   0.3750068   0.6494960   0.7829808  )
        34           Pb  tau(  34) = (   0.2500111   0.8659969   1.1744695  )
        35           Pb  tau(  35) = (   0.2500009   0.8660059   0.3914838  )
        36           Pb  tau(  36) = (   0.2500060   0.8660014   0.7829766  )
        37           Pb  tau(  37) = (   0.8750136   0.2164798   1.1744851  )
        38           Pb  tau(  38) = (   0.8750034   0.2164889   0.3914994  )
        39           Pb  tau(  39) = (   0.8750085   0.2164844   0.7829923  )
        40           Pb  tau(  40) = (   0.7500128   0.4329852   1.1744810  )
        41           Pb  tau(  41) = (   0.7500026   0.4329942   0.3914953  )
        42           Pb  tau(  42) = (   0.7500077   0.4329897   0.7829881  )
        43           Pb  tau(  43) = (   0.6250119   0.6494906   1.1744769  )
        44           Pb  tau(  44) = (   0.6250017   0.6494996   0.3914912  )
        45           Pb  tau(  45) = (   0.6250068   0.6494951   0.7829840  )
        46           Pb  tau(  46) = (   0.5000111   0.8659959   1.1744727  )
        47           Pb  tau(  47) = (   0.5000009   0.8660050   0.3914870  )
        48           Pb  tau(  48) = (   0.5000060   0.8660004   0.7829799  )
        49           I   tau(  49) = (   0.1250105   0.0721505   0.6824253  )
        50           I   tau(  50) = (   0.1250156   0.0721459   1.0739182  )
        51           I   tau(  51) = (   0.0000045   0.2886603   0.2909283  )
        52           I   tau(  52) = (   0.0000096   0.2886558   0.6824212  )
        53           I   tau(  53) = (   0.0000147   0.2886513   1.0739140  )
        54           I   tau(  54) = (  -0.1249963   0.5051657   0.2909242  )
        55           I   tau(  55) = (  -0.1249912   0.5051612   0.6824171  )
        56           I   tau(  56) = (  -0.1249861   0.5051566   1.0739099  )
        57           I   tau(  57) = (  -0.2499971   0.7216710   0.2909201  )
        58           I   tau(  58) = (  -0.2499920   0.7216665   0.6824129  )
        59           I   tau(  59) = (  -0.2499869   0.7216620   1.0739058  )
        60           I   tau(  60) = (   0.3750054   0.0721540   0.2909357  )
[...]
       130           I   tau( 130) = (   0.1250009   0.7938394   0.4920425  )
       131           I   tau( 131) = (   0.1250060   0.7938348   0.8835353  )
       132           I   tau( 132) = (   0.7499983   0.1443268   0.1005653  )
       133           I   tau( 133) = (   0.7500034   0.1443223   0.4920581  )
       134           I   tau( 134) = (   0.7500085   0.1443178   0.8835509  )
       135           I   tau( 135) = (   0.6249975   0.3608322   0.1005611  )
       136           I   tau( 136) = (   0.6250026   0.3608277   0.4920540  )
       137           I   tau( 137) = (   0.6250077   0.3608232   0.8835468  )
       138           I   tau( 138) = (   0.4999966   0.5773376   0.1005570  )
       139           I   tau( 139) = (   0.5000017   0.5773330   0.4920499  )
       140           I   tau( 140) = (   0.5000068   0.5773285   0.8835427  )
       141           I   tau( 141) = (   0.3749958   0.7938429   0.1005529  )
       142           I   tau( 142) = (   0.3750009   0.7938384   0.4920457  )
       143           I   tau( 143) = (   0.3750060   0.7938339   0.8835386  )
       144           Pb  tau( 144) = (   0.1250054   0.0721550   0.2909325  )

   Crystallographic axes

     site n.     atom                  positions (cryst. coord.)
         1           Pb  tau(   1) = (  0.2500000  0.2499727  0.9999973  )
         2           Pb  tau(   2) = (  0.2499950  0.2499832  0.3333306  )
         3           Pb  tau(   3) = (  0.2499975  0.2499780  0.6666639  )
         4           Pb  tau(   4) = (  0.2499986  0.4999716  0.9999938  )
         5           Pb  tau(   5) = (  0.2499936  0.4999820  0.3333271  )
[...]
     atom   44 type  1   force =     0.00000000    0.00000000    0.00000000
     atom   45 type  1   force =     0.00000000    0.00000000    0.00000000
     atom   46 type  1   force =     0.00000000    0.00000000    0.00000000
     atom   47 type  1   force =     0.00000000    0.00000000    0.00000000
     atom   48 type  1   force =     0.00000000    0.00000000    0.00000000
     atom   49 type  2   force =     0.00000000    0.00000000    0.00000000
     atom   50 type  2   force =     0.00000000    0.00000000    0.00000000
     atom   51 type  2   force =     0.00000000    0.00000000    0.00000000
     atom   52 type  2   force =     0.00000000    0.00000000    0.00000000
     atom   53 type  2   force =     0.00000000    0.00000000    0.00000000
     atom   54 type  2   force =     0.00000000    0.00000000    0.00000000
     atom   55 type  2   force =     0.00000000    0.00000000    0.00000000
     atom   56 type  2   force =     0.00000000    0.00000000    0.00000000
     atom   57 type  2   force =     0.00000000    0.00000000    0.00000000
     atom   58 type  2   force =     0.00000000    0.00000000    0.00000000
     atom   59 type  2   force =     0.00000000    0.00000000    0.00000000
     atom   60 type  2   force =     0.00000000    0.00000000    0.00000000
[...]
     atom  130 type  2   force =     0.00000000    0.00000000    0.00000000
     atom  131 type  2   force =     0.00000000    0.00000000    0.00000000
     atom  132 type  2   force =     0.00000000    0.00000000    0.00000000
     atom  133 type  2   force =     0.00000000    0.00000000    0.00000000
     atom  134 type  2   force =     0.00000000    0.00000000    0.00000000
     atom  135 type  2   force =     0.00000000    0.00000000    0.00000000
     atom  136 type  2   force =     0.00000000    0.00000000    0.00000000
     atom  137 type  2   force =     0.00000000    0.00000000    0.00000000
     atom  138 type  2   force =     0.00000000    0.00000000    0.00000000
     atom  139 type  2   force =     0.00000000    0.00000000    0.00000000
     atom  140 type  2   force =     0.00000000    0.00000000    0.00000000
     atom  141 type  2   force =     0.00000000    0.00000000    0.00000000
     atom  142 type  2   force =     0.00000000    0.00000000    0.00000000
     atom  143 type  2   force =     0.00000000    0.00000000    0.00000000
     atom  144 type  1   force =     0.00000000    0.00000000    0.00000000
     The SCF correction term to forces
     atom    1 type  1   force =     0.00000002   -0.00000576   -0.00000080
     atom    2 type  1   force =     0.00000003   -0.00000473    0.00000575
     atom    3 type  1   force =     0.00000002   -0.00000676   -0.00000589
     atom    4 type  1   force =    -0.00000117   -0.00000296    0.00000077
     atom    5 type  1   force =     0.00000577    0.00000325    0.00000378
     atom    6 type  1   force =     0.00000810   -0.00000458   -0.00000227
     atom    7 type  1   force =    -0.00000331    0.00000068    0.00000085
     atom    8 type  1   force =     0.00000554    0.00000374    0.00000379
     atom    9 type  1   force =    -0.00000005    0.00000957   -0.00000239
     atom   10 type  1   force =    -0.00000489    0.00000270   -0.00000066
     atom   11 type  1   force =    -0.00000385    0.00000194    0.00000583
     atom   12 type  1   force =    -0.00000564    0.00000316   -0.00000603
     atom   13 type  1   force =    -0.00000036   -0.00000034   -0.00000448
     atom   14 type  1   force =    -0.00000553   -0.00000351    0.00000140
     atom   15 type  1   force =    -0.00001536   -0.00000904    0.00000437
     atom   16 type  1   force =     0.00000117   -0.00000299    0.00000080
     atom   17 type  1   force =    -0.00000581    0.00000325    0.00000377
     atom   18 type  1   force =    -0.00000810   -0.00000461   -0.00000231
     atom   19 type  1   force =    -0.00000002    0.00000012    0.00000088
     atom   20 type  1   force =    -0.00000002    0.00000017    0.00000657
     atom   21 type  1   force =    -0.00000002    0.00000020   -0.00000745
     atom   22 type  1   force =    -0.00000214    0.00000242    0.00000079
     atom   23 type  1   force =    -0.00000030   -0.00000675    0.00000389
     atom   24 type  1   force =    -0.00000821   -0.00000478   -0.00000243
     atom   25 type  1   force =    -0.00000004    0.00000122   -0.00000347
     atom   26 type  1   force =    -0.00000002   -0.00000997   -0.00000990
     atom   27 type  1   force =     0.00000000   -0.00000962    0.00001312
     atom   28 type  1   force =     0.00000110   -0.00000051   -0.00000346
     atom   29 type  1   force =    -0.00000852    0.00000506   -0.00001002
     atom   30 type  1   force =    -0.00000822    0.00000487    0.00001317
     atom   31 type  1   force =     0.00000330    0.00000064    0.00000082
     atom   32 type  1   force =    -0.00000556    0.00000366    0.00000379
     atom   33 type  1   force =     0.00000004    0.00000952   -0.00000239
     atom   34 type  1   force =     0.00000206    0.00000242    0.00000074
     atom   35 type  1   force =     0.00000024   -0.00000674    0.00000388
     atom   36 type  1   force =     0.00000810   -0.00000475   -0.00000242
     atom   37 type  1   force =     0.00000038   -0.00000028   -0.00000443
     atom   38 type  1   force =     0.00000554   -0.00000340    0.00000144
     atom   39 type  1   force =     0.00001530   -0.00000901    0.00000436
     atom   40 type  1   force =    -0.00000109   -0.00000046   -0.00000345
     atom   41 type  1   force =     0.00000855    0.00000511   -0.00001010
     atom   42 type  1   force =     0.00000821    0.00000486    0.00001318
     atom   43 type  1   force =     0.00000007    0.00000053   -0.00000432
     atom   44 type  1   force =     0.00000009    0.00000679    0.00000129
     atom   45 type  1   force =     0.00000004    0.00001786    0.00000429
     atom   46 type  1   force =     0.00000498    0.00000269   -0.00000068
     atom   47 type  1   force =     0.00000401    0.00000197    0.00000587
     atom   48 type  1   force =     0.00000573    0.00000316   -0.00000599
     atom   49 type  2   force =     0.00000002   -0.00000020    0.00001020
     atom   50 type  2   force =    -0.00000001   -0.00000031    0.00000884
     atom   51 type  2   force =     0.00000657   -0.00000044   -0.00000017
     atom   52 type  2   force =     0.00001502   -0.00000737    0.00000444
     atom   53 type  2   force =     0.00000140   -0.00000508    0.00000203
     atom   54 type  2   force =     0.00000809    0.00000505   -0.00000571
     atom   55 type  2   force =     0.00001498    0.00000893   -0.00000227
     atom   56 type  2   force =    -0.00000519   -0.00000279    0.00000034
     atom   57 type  2   force =     0.00000314    0.00000629   -0.00000001
     atom   58 type  2   force =     0.00000133    0.00001678    0.00000441
     atom   59 type  2   force =    -0.00000362    0.00000382    0.00000226
     atom   60 type  2   force =    -0.00000356   -0.00000606    0.00000004
[...]
     atom  130 type  2   force =    -0.00000013   -0.00000888    0.00000320
     atom  131 type  2   force =    -0.00000005    0.00000020   -0.00000247
     atom  132 type  2   force =    -0.00000316    0.00000097   -0.00000436
     atom  133 type  2   force =     0.00000928   -0.00001558    0.00000137
     atom  134 type  2   force =     0.00000636   -0.00000375    0.00000696
     atom  135 type  2   force =     0.00000008    0.00000007   -0.00000652
     atom  136 type  2   force =     0.00000003    0.00000017   -0.00000344
     atom  137 type  2   force =     0.00000002    0.00000008    0.00002465
     atom  138 type  2   force =    -0.00000058   -0.00000319   -0.00000444
     atom  139 type  2   force =    -0.00000865    0.00001603    0.00000115
     atom  140 type  2   force =     0.00000002    0.00000748    0.00000712
     atom  141 type  2   force =     0.00000358    0.00000185   -0.00000197
     atom  142 type  2   force =     0.00000096    0.00000058    0.00000658
     atom  143 type  2   force =     0.00000595    0.00000340   -0.00000932
     atom  144 type  1   force =     0.00000004   -0.00000029   -0.00000079

     Total force =     0.005345     Total SCF correction =     0.000126

     Computing stress (Cartesian axis) and pressure

     Non-local corr. energy    =      68.72786176 Ry

          total   stress  (Ry/bohr**3)                   (kbar)     P=       -1.38
  -0.00001001  -0.00000000   0.00000000           -1.47       -0.00        0.00
  -0.00000000  -0.00001001  -0.00000000           -0.00       -1.47       -0.00
   0.00000000  -0.00000000  -0.00000806            0.00       -0.00       -1.19

     kinetic stress (kbar)  15038.60      0.00     -0.00
                                0.00  15038.60      0.00
                               -0.00      0.00  15050.57

     local   stress (kbar)  -7381.25      0.06     -0.02
                                0.06  -7381.14      0.01
                               -0.02      0.01   1385.61

     nonloc. stress (kbar)  -1146.22      0.00     -0.00
                                0.00  -1146.22      0.00
                               -0.00      0.00  -1150.81

     hartree stress (kbar)  11938.95     -0.02      0.00
                               -0.02  11938.91     -0.00
                                0.00     -0.00   7989.19

     exc-cor stress (kbar)   6922.89     -0.00      0.00
                               -0.00   6922.89     -0.00
                                0.00     -0.00   6921.85

     corecor stress (kbar) -11275.55     -0.00      0.00
                               -0.00 -11275.55      0.00
                                0.00      0.00 -11275.51

     ewald   stress (kbar) -14181.82     -0.04      0.01
                               -0.04 -14181.89     -0.01
                                0.01     -0.01 -19006.29

     hubbard stress (kbar)      0.00      0.00      0.00
                                0.00      0.00      0.00
                                0.00      0.00      0.00

     DFT-D   stress (kbar)      0.00      0.00      0.00
                                0.00      0.00      0.00
                                0.00      0.00      0.00

     XDM     stress (kbar)      0.00      0.00      0.00
                                0.00      0.00      0.00
                                0.00      0.00      0.00

     dft-nl  stress (kbar)     82.92      0.00     -0.00
                                0.00     82.92      0.00
                               -0.00      0.00     84.21

     TS-vdW  stress (kbar)      0.00      0.00      0.00
                                0.00      0.00      0.00
                                0.00      0.00      0.00

     MDB     stress (kbar)      0.00      0.00      0.00
                                0.00      0.00      0.00
                                0.00      0.00      0.00

     3D-RISM stress (kbar)      0.00      0.00      0.00
                                0.00      0.00      0.00
                                0.00      0.00      0.00

     Energy error            =      6.8E-05 Ry
     Gradient error          =      8.9E-04 Ry/Bohr

     bfgs converged in  24 scf cycles and  23 bfgs steps
     (criteria: energy <  1.0E-04 Ry, force <  1.0E-03 Ry/Bohr)

     End of BFGS Geometry Optimization

     Final energy             =  -97467.2584281436 Ry

     File ./PbI2.bfgs deleted, as requested
Begin final coordinates

ATOMIC_POSITIONS (angstrom)
Pb            2.3558231444        4.1422251684       22.0904864032
Pb            2.3556895953        3.7809915408        7.4087058457
Pb            2.3557625371        4.0848153022       14.7654656234
Pb            0.0079702301        8.1877495365       22.1441444968
Pb            0.0294521298        8.1306553837        7.3705194943
Pb            0.0034449747        8.1645188106       14.7540351042
Pb           -2.3273378094       12.2326557407       22.1441504738
Pb           -2.3659777847       12.2796205893        7.3704204145
Pb           -2.3497824468       12.2404235885       14.7540121318
Pb           -4.6569047224       16.2885355523       22.0903144798
Pb           -4.9694531020       16.4689540560        7.4090353125
Pb           -4.7067457892       16.3174322381       14.7654390889
Pb            7.1499399030        4.1275276972       22.1456263566
Pb            7.0737851423        4.0835993832        7.3787095223
Pb            7.0668484092        4.0796271330       14.7548914425
Pb            4.7035509430        8.1877777058       22.1441270494
Pb            4.6820703121        8.1306740975        7.3704599407
Pb            4.7080609030        8.1645129902       14.7540063818
Pb            2.3557510514       12.2398910627       22.1294050838
Pb            2.3557496794       12.2398167141        7.3523466085
Pb            2.3557472871       12.2398851540       14.7506180507
Pb            0.0204611040       16.2991787345       22.1441494014
Pb           -0.0395905764       16.3090778363        7.3704891162
Pb            0.0025243957       16.3147351706       14.7539881080
Pb           11.7783133390        4.0499080766       22.1860539035
Pb           11.7783208048        4.0636608592        7.3807559543
Pb           11.7782873479        4.0781786532       14.7553926575
Pb            9.3968686288        8.1746430291       22.1859816689
Pb            9.4087481088        8.1677764970        7.3806906112
Pb            9.4213140026        8.1605856963       14.7553768563
Pb            7.0388638543       12.2326613767       22.1441356268
Pb            7.0774627897       12.2797096063        7.3704807560
Pb            7.0612827403       12.2404204703       14.7540441456
Pb            4.6910878262       16.2991930170       22.1441533597
Pb            4.7511980143       16.3090092043        7.3706118305
Pb            4.7089714215       16.3147305175       14.7540495777
Pb           16.4066991808        4.1275276411       22.1457104736
Pb           16.4827967224        4.0835575741        7.3788435245
Pb           16.4897395006        4.0796248508       14.7549925140
Pb           14.1597620211        8.1746416349       22.1860394521
Pb           14.1478132882        8.1677312504        7.3807252080
Pb           14.1352670414        8.1605903753       14.7554066687
Pb           11.7783225220       12.1439986034       22.1454564748
Pb           11.7782526144       12.2319488154        7.3786343993
Pb           11.7782884468       12.2400963906       14.7549548134
Pb            9.3684965771       16.2885031555       22.0903578529
Pb            9.6812718596       16.4692057336        7.4087444405
Pb            9.4182599536       16.3174292275       14.7654883713
I             2.3557205121        1.3597530383       12.8976073183
I             2.3557475062        1.3597106952       20.2950656923
I             0.0598751673        5.3433376857        5.5163881455
I             0.0023328877        5.4437740367       12.8806828004
I             0.0170400988        5.4031412388       20.2813275403
I            -2.3669863785        9.5131809995        5.4821319174
I            -2.3566566214        9.5192714347       12.8764253755
I            -2.3570765846        9.5189735914       20.2601136050
I            -4.7646628720       13.6997476923        5.5163426384
I            -4.7066415542       13.5999661660       12.8806407148
I            -4.7342012328       13.6325032110       20.2811866246
I             6.9537467720        1.3560611956        5.5164309178
[...]
I             2.3557063096       14.9764190437        9.2173494467
I             2.3557046560       14.9582506294       16.6505563637
I            14.1275642899        2.7213863924        1.9020580679
I            14.1379964553        2.7139602436        9.2582597650
I            14.1358570056        2.7173966687       16.6509582720
I            11.7782703878        6.7998404060        1.8867615836
I            11.7782598583        6.7998469388        9.2579226354
I            11.7782628481        6.7998417660       16.6622362198
I             9.4208930477       10.8735700189        1.9019109409
I             9.4196883488       10.8863366417        9.2581158973
I             9.4215764561       10.8828053349       16.6509468301
I             7.0638131887       14.9581411828        1.8866849896
I             7.0847735189       14.9701468496        9.2069186346
I             7.0630951908       14.9577565403       16.6547981077
Pb            2.3557651087        1.3593283303        3.9274279272
End final coordinates

     Writing all to output data dir ./PbI2.save/

     General routines

     Parallel routines

     PAW routines

   This run was terminated on:   3: 1:20  12Mar2024

   JOB DONE.