     Program PWSCF v.7.1 starts on 24Mar2024 at 21:23:23

     Reading input from espresso.pwi
Warning: card &CELL ignored
Warning: card    CELL_DYNAMICS    = 'BFGS' ignored
Warning: card / ignored

     Current dimensions of program PWSCF are:
     Max number of different atomic species (ntypx) = 10
     Max number of k-points (npk) =  40000
     Max angular momentum in pseudopotentials (lmaxx) =  4
     file Pb.pbe-dn-kjpaw_psl.1.0.0.UPF: wavefunction(s)  6S 6P 5D renormalized
     file I.pbe-dn-kjpaw_psl.1.0.0.UPF: wavefunction(s)  5S 5P renormalized

     IMPORTANT: XC functional enforced from input :
     Exchange-correlation= BEEF-VDW
                           (   1   4  43  14   2   0   0)
     Any further DFT definition will be discarded
     Please, verify this is what you really want

     R & G space division:  proc/nbgrp/npool/nimage =     128
     Subspace diagonalization in iterative solution of the eigenvalue problem:
     a serial algorithm will be used

     Using Slab Decomposition

     bravais-lattice index     =            4
     lattice parameter (alat)  =      35.6120  a.u.
     unit-cell volume          =   45937.3577 (a.u.)^3
     number of atoms/cell      =          144
     number of atomic types    =            2
     number of electrons       =      2298.00
     number of Kohn-Sham states=         1379
     kinetic-energy cutoff     =      70.0000  Ry
     charge density cutoff     =     350.0000  Ry
     scf convergence threshold =      1.0E-07
     mixing beta               =       0.7000
     number of iterations used =            8  plain     mixing
     energy convergence thresh.=      1.0E-04
     force convergence thresh. =      1.0E-03
     Exchange-correlation= BEEF-VDW
                           (   1   4  43  14   2   0   0)
     nstep                     =           50

     celldm(1)=  35.612033  celldm(2)=   0.000000  celldm(3)=   1.174479
     celldm(4)=   0.000000  celldm(5)=   0.000000  celldm(6)=   0.000000

     crystal axes: (cart. coord. in units of alat)
               a(1) = (   1.000000   0.000000   0.000000 )
               a(2) = (  -0.500000   0.866025   0.000000 )
               a(3) = (   0.000000   0.000000   1.174479 )

     reciprocal axes: (cart. coord. in units 2 pi/alat)
               b(1) = (  1.000000  0.577350 -0.000000 )
               b(2) = (  0.000000  1.154701  0.000000 )
               b(3) = (  0.000000 -0.000000  0.851442 )

     PseudoPot. # 1 for Pb read from file:
     /trace/group/acmegroup/atimmins/packages/espresso/pseudo/psl_1.0.0/pslibrary.1.0.0/pbe/PSEUDOPOTENTIALS/Pb.pbe-dn-kjpaw_psl.1.0.0.UPF
     MD5 check sum: 39ab5b8a6bbd56b7735ad9f188aac93a
     Pseudo is Projector augmented-wave + core cor, Zval = 14.0
     Generated using 'atomic' code by A. Dal Corso  v.7.1
     Shape of augmentation charge: PSQ
     Using radial grid of 1281 points,  6 beta functions with:
                l(1) =   0
                l(2) =   0
                l(3) =   1
                l(4) =   1
                l(5) =   2
                l(6) =   2
     Q(r) pseudized with 0 coefficients

     PseudoPot. # 2 for I  read from file:
     /trace/group/acmegroup/atimmins/packages/espresso/pseudo/psl_1.0.0/pslibrary.1.0.0/pbe/PSEUDOPOTENTIALS/I.pbe-dn-kjpaw_psl.1.0.0.UPF
     MD5 check sum: bfa8781bc1224d19af3f3980e3fab11e
     Pseudo is Projector augmented-wave + core cor, Zval = 17.0
     Generated using 'atomic' code by A. Dal Corso  v.7.1
     Shape of augmentation charge: PSQ
     Using radial grid of 1247 points,  6 beta functions with:
                l(1) =   0
                l(2) =   0
                l(3) =   1
                l(4) =   1
                l(5) =   2
                l(6) =   2
     Q(r) pseudized with 0 coefficients

     atomic species   valence    mass     pseudopotential
        Pb            14.00   207.20000     Pb( 1.00)
        I             17.00   126.90447     I ( 1.00)

     No symmetry found

                                    s                        frac. trans.

      isym =  1     identity

 cryst.   s( 1) = (     1          0          0      )
                  (     0          1          0      )
                  (     0          0          1      )

 cart.    s( 1) = (  1.0000000  0.0000000  0.0000000 )
                  (  0.0000000  1.0000000  0.0000000 )
                  (  0.0000000  0.0000000  1.0000000 )

     point group C_1 (1)
     there are  1 classes
     the character table:

       E
A      1.00

     the symmetry operations in each class and the name of the first element:

     E        1
          identity

   Cartesian axes

     site n.     atom                  positions (alat units)
         1           Pb  tau(   1) = (   0.1250136   0.2164827   1.1744753  )
         2           Pb  tau(   2) = (   0.1250034   0.2164918   0.3914896  )
         3           Pb  tau(   3) = (   0.1250085   0.2164873   0.7829825  )
         4           Pb  tau(   4) = (   0.0000128   0.4329881   1.1744712  )
         5           Pb  tau(   5) = (   0.0000026   0.4329971   0.3914855  )
         6           Pb  tau(   6) = (   0.0000077   0.4329926   0.7829784  )
         7           Pb  tau(   7) = (  -0.1249881   0.6494934   1.1744671  )
         8           Pb  tau(   8) = (  -0.1249983   0.6495025   0.3914814  )
         9           Pb  tau(   9) = (  -0.1249932   0.6494980   0.7829742  )
        10           Pb  tau(  10) = (  -0.2499889   0.8659988   1.1744630  )
        11           Pb  tau(  11) = (  -0.2499991   0.8660078   0.3914773  )
        12           Pb  tau(  12) = (  -0.2499940   0.8660033   0.7829701  )
        13           Pb  tau(  13) = (   0.3750136   0.2164818   1.1744786  )
        14           Pb  tau(  14) = (   0.3750034   0.2164908   0.3914929  )
        15           Pb  tau(  15) = (   0.3750085   0.2164863   0.7829857  )
        16           Pb  tau(  16) = (   0.2500128   0.4329871   1.1744745  )
        17           Pb  tau(  17) = (   0.2500026   0.4329962   0.3914888  )
        18           Pb  tau(  18) = (   0.2500077   0.4329916   0.7829816  )
        19           Pb  tau(  19) = (   0.1250119   0.6494925   1.1744703  )
        20           Pb  tau(  20) = (   0.1250017   0.6495015   0.3914847  )
        21           Pb  tau(  21) = (   0.1250068   0.6494970   0.7829775  )
        22           Pb  tau(  22) = (   0.0000111   0.8659978   1.1744662  )
        23           Pb  tau(  23) = (   0.0000009   0.8660069   0.3914805  )
        24           Pb  tau(  24) = (   0.0000060   0.8660024   0.7829734  )
        25           Pb  tau(  25) = (   0.6250136   0.2164808   1.1744818  )
        26           Pb  tau(  26) = (   0.6250034   0.2164898   0.3914962  )
        27           Pb  tau(  27) = (   0.6250085   0.2164853   0.7829890  )
        28           Pb  tau(  28) = (   0.5000128   0.4329862   1.1744777  )
        29           Pb  tau(  29) = (   0.5000026   0.4329952   0.3914920  )
        30           Pb  tau(  30) = (   0.5000077   0.4329907   0.7829849  )
        31           Pb  tau(  31) = (   0.3750119   0.6494915   1.1744736  )
        32           Pb  tau(  32) = (   0.3750017   0.6495006   0.3914879  )
        33           Pb  tau(  33) = (   0.3750068   0.6494960   0.7829808  )
        34           Pb  tau(  34) = (   0.2500111   0.8659969   1.1744695  )
        35           Pb  tau(  35) = (   0.2500009   0.8660059   0.3914838  )
        36           Pb  tau(  36) = (   0.2500060   0.8660014   0.7829766  )
        37           Pb  tau(  37) = (   0.8750136   0.2164798   1.1744851  )
        38           Pb  tau(  38) = (   0.8750034   0.2164889   0.3914994  )
        39           Pb  tau(  39) = (   0.8750085   0.2164844   0.7829923  )
        40           Pb  tau(  40) = (   0.7500128   0.4329852   1.1744810  )
        41           Pb  tau(  41) = (   0.7500026   0.4329942   0.3914953  )
        42           Pb  tau(  42) = (   0.7500077   0.4329897   0.7829881  )
        43           Pb  tau(  43) = (   0.6250119   0.6494906   1.1744769  )
        44           Pb  tau(  44) = (   0.6250017   0.6494996   0.3914912  )
        45           Pb  tau(  45) = (   0.6250068   0.6494951   0.7829840  )
        46           Pb  tau(  46) = (   0.5000111   0.8659959   1.1744727  )
        47           Pb  tau(  47) = (   0.5000009   0.8660050   0.3914870  )
        48           Pb  tau(  48) = (   0.5000060   0.8660004   0.7829799  )
        49           I   tau(  49) = (   0.1250105   0.0721505   0.6824253  )
        50           I   tau(  50) = (   0.1250156   0.0721459   1.0739182  )
        51           I   tau(  51) = (   0.0000045   0.2886603   0.2909283  )
        52           I   tau(  52) = (   0.0000096   0.2886558   0.6824212  )
        53           I   tau(  53) = (   0.0000147   0.2886513   1.0739140  )
        54           I   tau(  54) = (  -0.1249963   0.5051657   0.2909242  )
        55           I   tau(  55) = (  -0.1249912   0.5051612   0.6824171  )
        56           I   tau(  56) = (  -0.1249861   0.5051566   1.0739099  )
        57           I   tau(  57) = (  -0.2499971   0.7216710   0.2909201  )
        58           I   tau(  58) = (  -0.2499920   0.7216665   0.6824129  )
        59           I   tau(  59) = (  -0.2499869   0.7216620   1.0739058  )
        60           I   tau(  60) = (   0.3750054   0.0721540   0.2909357  )
[...]
       130           I   tau( 130) = (   0.1250009   0.7938394   0.4920425  )
       131           I   tau( 131) = (   0.1250060   0.7938348   0.8835353  )
       132           I   tau( 132) = (   0.7499983   0.1443268   0.1005653  )
       133           I   tau( 133) = (   0.7500034   0.1443223   0.4920581  )
       134           I   tau( 134) = (   0.7500085   0.1443178   0.8835509  )
       135           I   tau( 135) = (   0.6249975   0.3608322   0.1005611  )
       136           I   tau( 136) = (   0.6250026   0.3608277   0.4920540  )
       137           I   tau( 137) = (   0.6250077   0.3608232   0.8835468  )
       138           I   tau( 138) = (   0.4999966   0.5773376   0.1005570  )
       139           I   tau( 139) = (   0.5000017   0.5773330   0.4920499  )
       140           I   tau( 140) = (   0.5000068   0.5773285   0.8835427  )
       141           I   tau( 141) = (   0.3749958   0.7938429   0.1005529  )
       142           I   tau( 142) = (   0.3750009   0.7938384   0.4920457  )
       143           I   tau( 143) = (   0.3750060   0.7938339   0.8835386  )
       144           Pb  tau( 144) = (   0.1250054   0.0721550   0.2909325  )

   Crystallographic axes

     site n.     atom                  positions (cryst. coord.)
         1           Pb  tau(   1) = (  0.2500000  0.2499727  0.9999973  )
         2           Pb  tau(   2) = (  0.2499950  0.2499832  0.3333306  )
         3           Pb  tau(   3) = (  0.2499975  0.2499780  0.6666639  )
         4           Pb  tau(   4) = (  0.2499986  0.4999716  0.9999938  )
         5           Pb  tau(   5) = (  0.2499936  0.4999820  0.3333271  )
         6           Pb  tau(   6) = (  0.2499961  0.4999768  0.6666604  )
         7           Pb  tau(   7) = (  0.2499972  0.7499704  0.9999902  )
[...]
     atom   55 type  2   force =     0.00000000    0.00000000    0.00000000
     atom   56 type  2   force =     0.00000000    0.00000000    0.00000000
     atom   57 type  2   force =     0.00000000    0.00000000    0.00000000
     atom   58 type  2   force =     0.00000000    0.00000000    0.00000000
     atom   59 type  2   force =     0.00000000    0.00000000    0.00000000
     atom   60 type  2   force =     0.00000000    0.00000000    0.00000000
[...]
     atom  130 type  2   force =     0.00000000    0.00000000    0.00000000
     atom  131 type  2   force =     0.00000000    0.00000000    0.00000000
     atom  132 type  2   force =     0.00000000    0.00000000    0.00000000
     atom  133 type  2   force =     0.00000000    0.00000000    0.00000000
     atom  134 type  2   force =     0.00000000    0.00000000    0.00000000
     atom  135 type  2   force =     0.00000000    0.00000000    0.00000000
     atom  136 type  2   force =     0.00000000    0.00000000    0.00000000
     atom  137 type  2   force =     0.00000000    0.00000000    0.00000000
     atom  138 type  2   force =     0.00000000    0.00000000    0.00000000
     atom  139 type  2   force =     0.00000000    0.00000000    0.00000000
     atom  140 type  2   force =     0.00000000    0.00000000    0.00000000
     atom  141 type  2   force =     0.00000000    0.00000000    0.00000000
     atom  142 type  2   force =     0.00000000    0.00000000    0.00000000
     atom  143 type  2   force =     0.00000000    0.00000000    0.00000000
     atom  144 type  1   force =     0.00000000    0.00000000    0.00000000
     The SCF correction term to forces
     atom    1 type  1   force =    -0.00000003    0.00000592    0.00000853
     atom    2 type  1   force =    -0.00000007    0.00000363    0.00000319
     atom    3 type  1   force =    -0.00000008    0.00000397   -0.00000080
     atom    4 type  1   force =     0.00000040    0.00000063   -0.00000456
     atom    5 type  1   force =     0.00000122    0.00001578    0.00000827
     atom    6 type  1   force =    -0.00000566    0.00000956    0.00000118
     atom    7 type  1   force =     0.00000069    0.00000007   -0.00000452
     atom    8 type  1   force =     0.00001434   -0.00000702    0.00000830
     atom    9 type  1   force =     0.00000544   -0.00000968    0.00000117
     atom   10 type  1   force =     0.00000516   -0.00000295    0.00000869
     atom   11 type  1   force =     0.00000332   -0.00000183    0.00000393
     atom   12 type  1   force =     0.00000332   -0.00000206   -0.00000076
     atom   13 type  1   force =    -0.00000525   -0.00000299   -0.00000923
     atom   14 type  1   force =    -0.00000508   -0.00000306   -0.00000475
     atom   15 type  1   force =     0.00001137    0.00000656    0.00000809
     atom   16 type  1   force =    -0.00000048    0.00000062   -0.00000460
     atom   17 type  1   force =    -0.00000133    0.00001582    0.00000833
     atom   18 type  1   force =     0.00000557    0.00000967    0.00000109
     atom   19 type  1   force =     0.00000003   -0.00000013   -0.00000144
     atom   20 type  1   force =     0.00000006   -0.00000014    0.00000139
     atom   21 type  1   force =     0.00000004    0.00000001   -0.00000036
     atom   22 type  1   force =     0.00000032   -0.00000072   -0.00000459
     atom   23 type  1   force =     0.00001328   -0.00000891    0.00000831
     atom   24 type  1   force =     0.00001113    0.00000003    0.00000111
     atom   25 type  1   force =     0.00000003   -0.00000731   -0.00002635
     atom   26 type  1   force =    -0.00000000   -0.00002661    0.00001024
     atom   27 type  1   force =     0.00000003    0.00000106    0.00000390
     atom   28 type  1   force =    -0.00000626    0.00000368   -0.00002650
     atom   29 type  1   force =    -0.00002279    0.00001329    0.00001021
     atom   30 type  1   force =     0.00000094   -0.00000047    0.00000394
     atom   31 type  1   force =    -0.00000070    0.00000011   -0.00000457
     atom   32 type  1   force =    -0.00001431   -0.00000692    0.00000838
     atom   33 type  1   force =    -0.00000548   -0.00000963    0.00000109
     atom   34 type  1   force =    -0.00000034   -0.00000076   -0.00000461
     atom   35 type  1   force =    -0.00001321   -0.00000891    0.00000835
     atom   36 type  1   force =    -0.00001106    0.00000004    0.00000105
     atom   37 type  1   force =     0.00000534   -0.00000301   -0.00000915
     atom   38 type  1   force =     0.00000514   -0.00000301   -0.00000481
     atom   39 type  1   force =    -0.00001130    0.00000657    0.00000830
     atom   40 type  1   force =     0.00000635    0.00000374   -0.00002638
     atom   41 type  1   force =     0.00002277    0.00001326    0.00001013
     atom   42 type  1   force =    -0.00000091   -0.00000053    0.00000390
     atom   43 type  1   force =    -0.00000003    0.00000587   -0.00000929
     atom   44 type  1   force =     0.00000002    0.00000586   -0.00000468
     atom   45 type  1   force =     0.00000001   -0.00001309    0.00000811
     atom   46 type  1   force =    -0.00000524   -0.00000288    0.00000862
     atom   47 type  1   force =    -0.00000365   -0.00000185    0.00000420
     atom   48 type  1   force =    -0.00000342   -0.00000201   -0.00000088
     atom   49 type  2   force =    -0.00000001   -0.00000022    0.00000173
     atom   50 type  2   force =     0.00000002    0.00000023    0.00002290
     atom   51 type  2   force =     0.00000399    0.00000174   -0.00000904
     atom   52 type  2   force =    -0.00000504    0.00001288    0.00000503
     atom   53 type  2   force =    -0.00000772    0.00001031    0.00000898
     atom   54 type  2   force =     0.00001703    0.00000980    0.00001089
     atom   55 type  2   force =     0.00000368    0.00000191    0.00000649
     atom   56 type  2   force =    -0.00000249   -0.00000121   -0.00000251
     atom   57 type  2   force =     0.00000314    0.00000261   -0.00000866
     atom   58 type  2   force =     0.00000842   -0.00001085    0.00000522
     atom   59 type  2   force =     0.00000469   -0.00001187    0.00000910
     atom   60 type  2   force =    -0.00000059   -0.00000406   -0.00000876
[...]
     atom  130 type  2   force =     0.00000008   -0.00000500   -0.00000404
     atom  131 type  2   force =     0.00000000   -0.00000642   -0.00000626
     atom  132 type  2   force =     0.00000907   -0.00001432   -0.00001507
     atom  133 type  2   force =    -0.00001170   -0.00001897    0.00000323
     atom  134 type  2   force =    -0.00000744    0.00000771    0.00000091
     atom  135 type  2   force =     0.00000016   -0.00000026   -0.00002620
     atom  136 type  2   force =    -0.00000007    0.00000006    0.00001330
     atom  137 type  2   force =     0.00000002    0.00000011    0.00000384
     atom  138 type  2   force =    -0.00000779    0.00001530   -0.00001528
     atom  139 type  2   force =    -0.00002254   -0.00000056    0.00000333
     atom  140 type  2   force =     0.00000289   -0.00001034    0.00000081
     atom  141 type  2   force =    -0.00000057   -0.00000024   -0.00000746
     atom  142 type  2   force =    -0.00001090   -0.00000595    0.00000053
     atom  143 type  2   force =    -0.00001261   -0.00000729    0.00000359
     atom  144 type  1   force =    -0.00000005    0.00000015   -0.00000872

     Total force =     0.008770     Total SCF correction =     0.000173

     Computing stress (Cartesian axis) and pressure

[...]

          total   stress  (Ry/bohr**3)                   (kbar)     P=       -5.54
  -0.00003752  -0.00000000   0.00000000           -5.52       -0.00        0.00
  -0.00000000  -0.00003753  -0.00000000           -0.00       -5.52       -0.00
   0.00000000  -0.00000000  -0.00003801            0.00       -0.00       -5.59

     kinetic stress (kbar)  15037.00     -0.00      0.00
                               -0.00  15036.99     -0.00
                                0.00     -0.00  15047.82

     local   stress (kbar)  -7314.09      0.01     -0.04
                                0.01  -7314.05      0.11
                               -0.04      0.11   1183.93

     nonloc. stress (kbar)  -1147.38     -0.00      0.00
                               -0.00  -1147.38     -0.00
                                0.00     -0.00  -1153.45

     hartree stress (kbar)  11906.95     -0.00      0.02
                               -0.00  11906.94     -0.05
                                0.02     -0.05   8082.96

     exc-cor stress (kbar)   6923.95     -0.00      0.00
                               -0.00   6923.95     -0.00
                                0.00     -0.00   6922.86

     corecor stress (kbar) -11275.50     -0.00     -0.00
                               -0.00 -11275.50      0.00
                               -0.00      0.00 -11275.42

     ewald   stress (kbar) -14219.38     -0.00      0.02
                               -0.00 -14219.40     -0.06
                                0.02     -0.06 -18898.50

     hubbard stress (kbar)      0.00      0.00      0.00
                                0.00      0.00      0.00
                                0.00      0.00      0.00

     DFT-D   stress (kbar)      0.00      0.00      0.00
                                0.00      0.00      0.00
                                0.00      0.00      0.00

     XDM     stress (kbar)      0.00      0.00      0.00
                                0.00      0.00      0.00
                                0.00      0.00      0.00

     dft-nl  stress (kbar)     82.93      0.00     -0.00
                                0.00     82.93      0.00
                               -0.00      0.00     84.21

     TS-vdW  stress (kbar)      0.00      0.00      0.00
                                0.00      0.00      0.00
                                0.00      0.00      0.00

     MDB     stress (kbar)      0.00      0.00      0.00
                                0.00      0.00      0.00
                                0.00      0.00      0.00

     3D-RISM stress (kbar)      0.00      0.00      0.00
                                0.00      0.00      0.00
                                0.00      0.00      0.00

     Energy error            =      5.5E-04 Ry
     Gradient error          =      2.3E-03 Ry/Bohr

     number of scf cycles    =  17
     number of bfgs steps    =  16

     energy             old  =  -97468.0023274690 Ry
     energy             new  =  -97468.0028808314 Ry

     CASE: energy            _new < energy            _old

     new trust radius        =       0.0572484208 bohr
     new conv_thr            =       0.0000000023 Ry

ATOMIC_POSITIONS (angstrom)
Pb            2.3558304095        4.2146367641       21.9555502130
Pb            2.3557475376        4.2832797679        7.5910825753
Pb            2.3557264413        4.0820459884       14.7740418153
Pb            0.0123501493        8.2124970040       22.1358508027
Pb           -0.0487029157        8.1879883771        7.3537996293
Pb            0.0032613951        8.1621303375       14.7594925277
Pb           -2.3036431067       12.2239126945       22.1358920878
Pb           -2.3554085014       12.1834373256        7.3537953876
Pb           -2.3519961835       12.2415597600       14.7594700053
Pb           -4.5940172454       16.2521152516       21.9550472410
Pb           -4.5347578476       16.2181100579        7.5912297884
Pb           -4.7092336496       16.3189147022       14.7740367856
Pb            7.2230637854        4.1696665535       22.0715303908
Pb            7.0881034025        4.0918557134        7.4221815252
Pb            7.0666528568        4.0796053946       14.7706687707
Pb            4.6991723218        8.2125165505       22.1358186313
Pb            4.7602018889        8.1879929552        7.3537435410
Pb            4.7082003605        8.1621205019       14.7594856004
Pb            2.3557456005       12.2398918264       22.1114383821
Pb            2.3557560964       12.2398453157        7.3399977923
Pb            2.3557406178       12.2399076023       14.7296657749
Pb            0.0398099062       16.2829971801       22.1359357027
Pb            0.0490498935       16.3480549858        7.3538808962
Pb            0.0004729799       16.3161382710       14.7594451462
Pb           11.7783484123        4.0319506034       22.2108806247
Pb           11.7782830122        4.1140979623        7.4099699856
Pb           11.7782617338        4.0767632122       14.7702911122
Pb            9.3813095833        8.1835125663       22.2107240889
Pb            9.4524354239        8.1425988007        7.4098817805
Pb            9.4200053502        8.1613869110       14.7702948986
Pb            7.0151761150       12.2239483108       22.1358466048
Pb            7.0669368269       12.1834683959        7.3537716524
Pb            7.0634593642       12.2415539240       14.7594846109
Pb            4.6717630598       16.2829964970       22.1359202529
Pb            4.6624949081       16.3480665765        7.3539154252
Pb            4.7109761936       16.3161367273       14.7594693471
Pb           16.3336783997        4.1696236044       22.0717120335
Pb           16.4684533724        4.0918750541        7.4222552473
Pb           16.4898695799        4.0796069042       14.7707062869
Pb           14.1753295783        8.1834802703       22.2107900913
Pb           14.1041301499        8.1425984880        7.4099198335
Pb           14.1365223027        8.1613897326       14.7703049151
Pb           11.7783336039       12.0593787492       22.0711442556
Pb           11.7782947146       12.2155488075        7.4221018788
Pb           11.7782647804       12.2403536445       14.7706860133
Pb            9.3056779356       16.2521158757       21.9552002872
Pb            9.2462904322       16.2181309082        7.5911871267
Pb            9.4206863567       16.3189146092       14.7740586722
I             2.3557015836        1.3597984982       12.8928249029
I             2.3557576420        1.3596463986       20.2878687410
I             0.0311374269        5.4002054587        5.5093621560
I            -0.0023323020        5.4364082139       12.8856894008
I            -0.0182479735        5.4315221443       20.2423895295
I            -2.3520891221        9.5218297766        5.4676281834
I            -2.3611838420        9.5167141095       12.8793096580
I            -2.3587841536        9.5179017606       20.2683326686
I            -4.7297048355       13.6465241759        5.5093314026
I            -4.7154062066       13.5997068776       12.8856860101
I            -4.7271267047       13.5876607919       20.2420222188
I             7.0174286754        1.3524506392        5.5094126528
[...]
I             2.3557388984       14.9818552121        9.2274643823
I             2.3557040470       14.9414058802       16.6403131148
I            14.1337614048        2.7266639724        1.9103855996
I            14.1234999881        2.7093061185        9.2681544691
I            14.1354107163        2.7106158754       16.6572240769
I            11.7782614544        6.7998480982        1.8873604867
I            11.7782586253        6.7998508118        9.2946426172
I            11.7782476087        6.7998859629       16.6815925363
I             9.4286223226       10.8762004745        1.9100453847
I             9.4084275247       10.8761820121        9.2679955948
I             9.4154592223       10.8858860494       16.6572373226
I             7.0654731841       14.9590371091        1.8703737310
I             7.0933298045       14.9750850802        9.3504778460
I             7.0618251506       14.9570894971       16.6561393004
Pb            2.3560307172        1.3587876425        3.6410634965

     Writing config-only to output data dir ./PbI2.save/
     NEW-OLD atomic charge density approx. for the potential

     Check: negative core charge=   -0.000001

[...]

     Self-consistent Calculation

[...]

     c_bands:  1 eigenvalues not converged
     ethr =  4.07E-08,  avg # of iterations = 20.0

[...]

     ethr =  1.58E-11,  avg # of iterations = 19.0

     Non-local corr. energy    =      68.74240241 Ry

     total energy              =  -97468.00340754 Ry
     estimated scf accuracy    <       0.00000020 Ry

     iteration # 12     ecut=    70.00 Ry     beta= 0.70
     Davidson diagonalization with overlap

     max_seconds     =  154800.00
     Calculation stopped in k-point loop, point #     1
     Calculation stopped in scf loop at iteration #    11

     Writing config to output data dir ./PbI2.save/
     Message from routine punch:
     wavefunctions written to file

     General routines

     Parallel routines

     PAW routines

   This run was terminated on:  16:33: 7  26Mar2024

   JOB DONE.