     Program PWSCF v.7.1 starts on  3Mar2024 at  8:13:16

     Reading input from espresso.pwi
Warning: card &CELL ignored
Warning: card    CELL_DYNAMICS    = 'BFGS' ignored
Warning: card / ignored

     Current dimensions of program PWSCF are:
     Max number of different atomic species (ntypx) = 10
     Max number of k-points (npk) =  40000
     Max angular momentum in pseudopotentials (lmaxx) =  4
     file Pb.pbe-dn-kjpaw_psl.1.0.0.UPF: wavefunction(s)  6S 6P 5D renormalized
     file I.pbe-dn-kjpaw_psl.1.0.0.UPF: wavefunction(s)  5S 5P renormalized

     IMPORTANT: XC functional enforced from input :
     Exchange-correlation= BEEF-VDW
                           (   1   4  43  14   2   0   0)
     Any further DFT definition will be discarded
     Please, verify this is what you really want

     R & G space division:  proc/nbgrp/npool/nimage =     128
     Subspace diagonalization in iterative solution of the eigenvalue problem:
     a serial algorithm will be used

     Using Slab Decomposition

     bravais-lattice index     =            4
     lattice parameter (alat)  =      35.6073  a.u.
     unit-cell volume          =   30614.2220 (a.u.)^3
     number of atoms/cell      =           96
     number of atomic types    =            2
     number of electrons       =      1532.00
     number of Kohn-Sham states=          919
     kinetic-energy cutoff     =      70.0000  Ry
     charge density cutoff     =     350.0000  Ry
     scf convergence threshold =      1.0E-07
     mixing beta               =       0.7000
     number of iterations used =            8  plain     mixing
     Exchange-correlation= BEEF-VDW
                           (   1   4  43  14   2   0   0)

     celldm(1)=  35.607290  celldm(2)=   0.000000  celldm(3)=   0.783025
     celldm(4)=   0.000000  celldm(5)=   0.000000  celldm(6)=   0.000000

     crystal axes: (cart. coord. in units of alat)
               a(1) = (   1.000000   0.000000   0.000000 )
               a(2) = (  -0.500000   0.866025   0.000000 )
               a(3) = (   0.000000   0.000000   0.783025 )

     reciprocal axes: (cart. coord. in units 2 pi/alat)
               b(1) = (  1.000000  0.577350 -0.000000 )
               b(2) = (  0.000000  1.154701  0.000000 )
               b(3) = (  0.000000 -0.000000  1.277098 )

     PseudoPot. # 1 for Pb read from file:
     /trace/group/acmegroup/atimmins/packages/espresso/pseudo/psl_1.0.0/pslibrary.1.0.0/pbe/PSEUDOPOTENTIALS/Pb.pbe-dn-kjpaw_psl.1.0.0.UPF
     MD5 check sum: 39ab5b8a6bbd56b7735ad9f188aac93a
     Pseudo is Projector augmented-wave + core cor, Zval = 14.0
     Generated using 'atomic' code by A. Dal Corso  v.7.1
     Shape of augmentation charge: PSQ
     Using radial grid of 1281 points,  6 beta functions with:
                l(1) =   0
                l(2) =   0
                l(3) =   1
                l(4) =   1
                l(5) =   2
                l(6) =   2
     Q(r) pseudized with 0 coefficients

     PseudoPot. # 2 for I  read from file:
     /trace/group/acmegroup/atimmins/packages/espresso/pseudo/psl_1.0.0/pslibrary.1.0.0/pbe/PSEUDOPOTENTIALS/I.pbe-dn-kjpaw_psl.1.0.0.UPF
     MD5 check sum: bfa8781bc1224d19af3f3980e3fab11e
     Pseudo is Projector augmented-wave + core cor, Zval = 17.0
     Generated using 'atomic' code by A. Dal Corso  v.7.1
     Shape of augmentation charge: PSQ
     Using radial grid of 1247 points,  6 beta functions with:
                l(1) =   0
                l(2) =   0
                l(3) =   1
                l(4) =   1
                l(5) =   2
                l(6) =   2
     Q(r) pseudized with 0 coefficients

     atomic species   valence    mass     pseudopotential
        Pb            14.00   207.20000     Pb( 1.00)
        I             17.00   126.90447     I ( 1.00)

     No symmetry found

                                    s                        frac. trans.

      isym =  1     identity

 cryst.   s( 1) = (     1          0          0      )
                  (     0          1          0      )
                  (     0          0          1      )

 cart.    s( 1) = (  1.0000000  0.0000000  0.0000000 )
                  (  0.0000000  1.0000000  0.0000000 )
                  (  0.0000000  0.0000000  1.0000000 )

     point group C_1 (1)
     there are  1 classes
     the character table:

       E
A      1.00

     the symmetry operations in each class and the name of the first element:

     E        1
          identity

   Cartesian axes

     site n.     atom                  positions (alat units)
         1           Pb  tau(   1) = (   0.1250086   0.2164870   0.7830203  )
         2           Pb  tau(   2) = (   0.1250034   0.2164916   0.3915076  )
         3           Pb  tau(   3) = (   0.0000077   0.4329922   0.7830161  )
         4           Pb  tau(   4) = (   0.0000025   0.4329968   0.3915034  )
         5           Pb  tau(   5) = (  -0.1249932   0.6494975   0.7830119  )
         6           Pb  tau(   6) = (  -0.1249984   0.6495021   0.3914992  )
         7           Pb  tau(   7) = (  -0.2499941   0.8660028   0.7830077  )
         8           Pb  tau(   8) = (  -0.2499993   0.8660074   0.3914950  )
         9           Pb  tau(   9) = (   0.3750086   0.2164859   0.7830237  )
        10           Pb  tau(  10) = (   0.3750034   0.2164905   0.3915110  )
        11           Pb  tau(  11) = (   0.2500077   0.4329912   0.7830194  )
        12           Pb  tau(  12) = (   0.2500025   0.4329958   0.3915068  )
        13           Pb  tau(  13) = (   0.1250068   0.6494965   0.7830152  )
        14           Pb  tau(  14) = (   0.1250016   0.6495011   0.3915026  )
        15           Pb  tau(  15) = (   0.0000059   0.8660017   0.7830110  )
        16           Pb  tau(  16) = (   0.0000007   0.8660063   0.3914983  )
        17           Pb  tau(  17) = (   0.6250086   0.2164849   0.7830270  )
        18           Pb  tau(  18) = (   0.6250034   0.2164895   0.3915143  )
        19           Pb  tau(  19) = (   0.5000077   0.4329901   0.7830228  )
        20           Pb  tau(  20) = (   0.5000025   0.4329947   0.3915101  )
        21           Pb  tau(  21) = (   0.3750068   0.6494954   0.7830186  )
        22           Pb  tau(  22) = (   0.3750016   0.6495000   0.3915059  )
        23           Pb  tau(  23) = (   0.2500059   0.8660007   0.7830144  )
        24           Pb  tau(  24) = (   0.2500007   0.8660053   0.3915017  )
        25           Pb  tau(  25) = (   0.8750086   0.2164838   0.7830303  )
        26           Pb  tau(  26) = (   0.8750034   0.2164884   0.3915177  )
        27           Pb  tau(  27) = (   0.7500077   0.4329891   0.7830261  )
        28           Pb  tau(  28) = (   0.7500025   0.4329937   0.3915135  )
        29           Pb  tau(  29) = (   0.6250068   0.6494944   0.7830219  )
        30           Pb  tau(  30) = (   0.6250016   0.6494990   0.3915092  )
        31           Pb  tau(  31) = (   0.5000059   0.8659996   0.7830177  )
        32           Pb  tau(  32) = (   0.5000007   0.8660042   0.3915050  )
        33           I   tau(  33) = (   0.1250108   0.0721500   0.6824290  )
        34           I   tau(  34) = (   0.0000047   0.2886599   0.2909121  )
        35           I   tau(  35) = (   0.0000099   0.2886553   0.6824248  )
        36           I   tau(  36) = (  -0.1249962   0.5051652   0.2909079  )
        37           I   tau(  37) = (  -0.1249910   0.5051606   0.6824206  )
        38           I   tau(  38) = (  -0.2499972   0.7216704   0.2909037  )
        39           I   tau(  39) = (  -0.2499919   0.7216658   0.6824164  )
        40           I   tau(  40) = (   0.3750056   0.0721536   0.2909197  )
        41           I   tau(  41) = (   0.3750108   0.0721490   0.6824324  )
        42           I   tau(  42) = (   0.2500047   0.2886589   0.2909155  )
        43           I   tau(  43) = (   0.2500099   0.2886543   0.6824282  )
        44           I   tau(  44) = (   0.1250038   0.5051641   0.2909113  )
        45           I   tau(  45) = (   0.1250090   0.5051595   0.6824240  )
        46           I   tau(  46) = (   0.0000028   0.7216694   0.2909071  )
        47           I   tau(  47) = (   0.0000081   0.7216648   0.6824197  )
        48           I   tau(  48) = (   0.6250056   0.0721525   0.2909230  )
        49           I   tau(  49) = (   0.6250108   0.0721479   0.6824357  )
        50           I   tau(  50) = (   0.5000047   0.2886578   0.2909188  )
        51           I   tau(  51) = (   0.5000099   0.2886532   0.6824315  )
        52           I   tau(  52) = (   0.3750038   0.5051631   0.2909146  )
        53           I   tau(  53) = (   0.3750090   0.5051585   0.6824273  )
        54           I   tau(  54) = (   0.2500028   0.7216683   0.2909104  )
        55           I   tau(  55) = (   0.2500081   0.7216637   0.6824231  )
        56           I   tau(  56) = (   0.8750056   0.0721515   0.2909264  )
        57           I   tau(  57) = (   0.8750108   0.0721469   0.6824391  )
        58           I   tau(  58) = (   0.7500047   0.2886567   0.2909222  )
        59           I   tau(  59) = (   0.7500099   0.2886521   0.6824348  )
        60           I   tau(  60) = (   0.6250038   0.5051620   0.2909180  )
[...]
        82           I   tau(  82) = (   0.3749973   0.3608329   0.1005958  )
        83           I   tau(  83) = (   0.3750025   0.3608283   0.4921084  )
        84           I   tau(  84) = (   0.2499964   0.5773382   0.1005915  )
        85           I   tau(  85) = (   0.2500016   0.5773336   0.4921042  )
        86           I   tau(  86) = (   0.1249955   0.7938434   0.1005873  )
        87           I   tau(  87) = (   0.1250007   0.7938388   0.4921000  )
        88           I   tau(  88) = (   0.7499982   0.1443266   0.1006033  )
        89           I   tau(  89) = (   0.7500034   0.1443220   0.4921160  )
        90           I   tau(  90) = (   0.6249973   0.3608319   0.1005991  )
        91           I   tau(  91) = (   0.6250025   0.3608273   0.4921118  )
        92           I   tau(  92) = (   0.4999964   0.5773371   0.1005949  )
        93           I   tau(  93) = (   0.5000016   0.5773325   0.4921076  )
        94           I   tau(  94) = (   0.3749955   0.7938424   0.1005907  )
        95           I   tau(  95) = (   0.3750007   0.7938378   0.4921034  )
        96           Pb  tau(  96) = (   0.1250056   0.0721546   0.2909163  )

   Crystallographic axes

     site n.     atom                  positions (cryst. coord.)
         1           Pb  tau(   1) = (  0.2499975  0.2499776  0.9999935  )
         2           Pb  tau(   2) = (  0.2499949  0.2499829  0.4999935  )
         3           Pb  tau(   3) = (  0.2499959  0.4999764  0.9999882  )
         4           Pb  tau(   4) = (  0.2499933  0.4999817  0.4999882  )
         5           Pb  tau(   5) = (  0.2499944  0.7499751  0.9999828  )
         6           Pb  tau(   6) = (  0.2499918  0.7499804  0.4999828  )
         7           Pb  tau(   7) = (  0.2499928  0.9999739  0.9999774  )
         8           Pb  tau(   8) = (  0.2499903  0.9999792  0.4999774  )
         9           Pb  tau(   9) = (  0.4999968  0.2499764  0.9999978  )
[...]
     atom   26 type  1   force =     0.00000000    0.00000000    0.00000000
     atom   27 type  1   force =     0.00000000    0.00000000    0.00000000
     atom   28 type  1   force =     0.00000000    0.00000000    0.00000000
     atom   29 type  1   force =     0.00000000    0.00000000    0.00000000
     atom   30 type  1   force =     0.00000000    0.00000000    0.00000000
     atom   31 type  1   force =     0.00000000    0.00000000    0.00000000
     atom   32 type  1   force =     0.00000000    0.00000000    0.00000000
     atom   33 type  2   force =     0.00000000    0.00000000    0.00000000
     atom   34 type  2   force =     0.00000000    0.00000000    0.00000000
     atom   35 type  2   force =     0.00000000    0.00000000    0.00000000
     atom   36 type  2   force =     0.00000000    0.00000000    0.00000000
     atom   37 type  2   force =     0.00000000    0.00000000    0.00000000
     atom   38 type  2   force =     0.00000000    0.00000000    0.00000000
     atom   39 type  2   force =     0.00000000    0.00000000    0.00000000
     atom   40 type  2   force =     0.00000000    0.00000000    0.00000000
     atom   41 type  2   force =     0.00000000    0.00000000    0.00000000
     atom   42 type  2   force =     0.00000000    0.00000000    0.00000000
     atom   43 type  2   force =     0.00000000    0.00000000    0.00000000
     atom   44 type  2   force =     0.00000000    0.00000000    0.00000000
     atom   45 type  2   force =     0.00000000    0.00000000    0.00000000
     atom   46 type  2   force =     0.00000000    0.00000000    0.00000000
     atom   47 type  2   force =     0.00000000    0.00000000    0.00000000
     atom   48 type  2   force =     0.00000000    0.00000000    0.00000000
     atom   49 type  2   force =     0.00000000    0.00000000    0.00000000
     atom   50 type  2   force =     0.00000000    0.00000000    0.00000000
     atom   51 type  2   force =     0.00000000    0.00000000    0.00000000
     atom   52 type  2   force =     0.00000000    0.00000000    0.00000000
     atom   53 type  2   force =     0.00000000    0.00000000    0.00000000
     atom   54 type  2   force =     0.00000000    0.00000000    0.00000000
     atom   55 type  2   force =     0.00000000    0.00000000    0.00000000
     atom   56 type  2   force =     0.00000000    0.00000000    0.00000000
     atom   57 type  2   force =     0.00000000    0.00000000    0.00000000
     atom   58 type  2   force =     0.00000000    0.00000000    0.00000000
     atom   59 type  2   force =     0.00000000    0.00000000    0.00000000
     atom   60 type  2   force =     0.00000000    0.00000000    0.00000000
[...]
     atom   82 type  2   force =     0.00000000    0.00000000    0.00000000
     atom   83 type  2   force =     0.00000000    0.00000000    0.00000000
     atom   84 type  2   force =     0.00000000    0.00000000    0.00000000
     atom   85 type  2   force =     0.00000000    0.00000000    0.00000000
     atom   86 type  2   force =     0.00000000    0.00000000    0.00000000
     atom   87 type  2   force =     0.00000000    0.00000000    0.00000000
     atom   88 type  2   force =     0.00000000    0.00000000    0.00000000
     atom   89 type  2   force =     0.00000000    0.00000000    0.00000000
     atom   90 type  2   force =     0.00000000    0.00000000    0.00000000
     atom   91 type  2   force =     0.00000000    0.00000000    0.00000000
     atom   92 type  2   force =     0.00000000    0.00000000    0.00000000
     atom   93 type  2   force =     0.00000000    0.00000000    0.00000000
     atom   94 type  2   force =     0.00000000    0.00000000    0.00000000
     atom   95 type  2   force =     0.00000000    0.00000000    0.00000000
     atom   96 type  1   force =     0.00000000    0.00000000    0.00000000
     The SCF correction term to forces
     atom    1 type  1   force =     0.00003431   -0.00005110    0.00000021
     atom    2 type  1   force =     0.00005117   -0.00000951    0.00000212
     atom    3 type  1   force =    -0.00004684   -0.00000165   -0.00000191
     atom    4 type  1   force =    -0.00004664    0.00001655    0.00000138
     atom    5 type  1   force =    -0.00005400    0.00000579   -0.00000176
     atom    6 type  1   force =    -0.00004598    0.00001512    0.00000451
     atom    7 type  1   force =    -0.00000573    0.00000650    0.00000093
     atom    8 type  1   force =     0.00006054   -0.00002961    0.00000378
     atom    9 type  1   force =     0.00001921   -0.00001558    0.00000551
     atom   10 type  1   force =     0.00003372   -0.00002000   -0.00001034
     atom   11 type  1   force =     0.00004980   -0.00003507   -0.00000252
     atom   12 type  1   force =     0.00004963   -0.00002004   -0.00000317
     atom   13 type  1   force =    -0.00002612    0.00001170   -0.00001404
     atom   14 type  1   force =    -0.00003097    0.00001405    0.00000930
     atom   15 type  1   force =    -0.00003494    0.00004502   -0.00000161
     atom   16 type  1   force =    -0.00003905    0.00003374    0.00000394
     atom   17 type  1   force =    -0.00002940    0.00003034    0.00001779
     atom   18 type  1   force =    -0.00003247    0.00000744   -0.00001729
     atom   19 type  1   force =     0.00003495   -0.00002307    0.00001722
     atom   20 type  1   force =     0.00001704   -0.00001333   -0.00002142
     atom   21 type  1   force =     0.00005248   -0.00003060   -0.00000237
     atom   22 type  1   force =     0.00003852   -0.00004024   -0.00000365
     atom   23 type  1   force =    -0.00002472    0.00004280   -0.00000157
     atom   24 type  1   force =    -0.00004276    0.00003419    0.00000035
     atom   25 type  1   force =    -0.00002626    0.00001850    0.00000420
     atom   26 type  1   force =    -0.00004596    0.00003123   -0.00000559
     atom   27 type  1   force =    -0.00003810    0.00000910    0.00001784
     atom   28 type  1   force =    -0.00001944    0.00002292   -0.00001665
     atom   29 type  1   force =     0.00002625   -0.00001109    0.00000550
     atom   30 type  1   force =     0.00003849   -0.00002288   -0.00000984
     atom   31 type  1   force =     0.00006430    0.00000066    0.00000029
     atom   32 type  1   force =     0.00003893   -0.00003102    0.00000184
     atom   33 type  2   force =     0.00005348   -0.00002523    0.00001951
     atom   34 type  2   force =    -0.00003430    0.00001831   -0.00003012
     atom   35 type  2   force =    -0.00002072   -0.00001976    0.00000275
     atom   36 type  2   force =    -0.00006921    0.00001523   -0.00000103
     atom   37 type  2   force =    -0.00005905    0.00001592    0.00000778
     atom   38 type  2   force =     0.00000539   -0.00000563    0.00000306
     atom   39 type  2   force =    -0.00001881    0.00000150    0.00000416
     atom   40 type  2   force =     0.00000526    0.00000373    0.00000354
     atom   41 type  2   force =    -0.00001247    0.00002011    0.00000442
     atom   42 type  2   force =     0.00007888   -0.00003041   -0.00002124
     atom   43 type  2   force =     0.00005922   -0.00005553    0.00000970
     atom   44 type  2   force =    -0.00000848   -0.00000956   -0.00000507
     atom   45 type  2   force =    -0.00000898    0.00000016   -0.00001038
     atom   46 type  2   force =    -0.00006899    0.00003838    0.00000851
     atom   47 type  2   force =    -0.00005062    0.00002743   -0.00001158
     atom   48 type  2   force =    -0.00005270    0.00005478   -0.00000141
     atom   49 type  2   force =    -0.00004785    0.00004567    0.00000817
     atom   50 type  2   force =     0.00000319   -0.00001002   -0.00001851
     atom   51 type  2   force =    -0.00000107   -0.00001214    0.00003657
     atom   52 type  2   force =     0.00006670   -0.00004439   -0.00000534
     atom   53 type  2   force =     0.00005698   -0.00003819    0.00001243
     atom   54 type  2   force =    -0.00000210    0.00000734   -0.00000673
     atom   55 type  2   force =    -0.00000933    0.00000326   -0.00001016
     atom   56 type  2   force =    -0.00003319    0.00002945   -0.00003300
     atom   57 type  2   force =     0.00000837    0.00003473    0.00000324
     atom   58 type  2   force =    -0.00004545    0.00002798   -0.00002423
     atom   59 type  2   force =    -0.00003733    0.00002347    0.00002998
     atom   60 type  2   force =     0.00001177   -0.00000281   -0.00001898
[...]
     atom   82 type  2   force =     0.00006291   -0.00004635   -0.00000506
     atom   83 type  2   force =     0.00004225   -0.00003156   -0.00000334
     atom   84 type  2   force =     0.00003449   -0.00002523   -0.00000192
     atom   85 type  2   force =     0.00002451   -0.00002074    0.00001043
     atom   86 type  2   force =    -0.00004643    0.00004921   -0.00000472
     atom   87 type  2   force =    -0.00005510    0.00004200    0.00000524
     atom   88 type  2   force =    -0.00004221    0.00005761   -0.00000570
     atom   89 type  2   force =    -0.00004923    0.00003194    0.00000266
     atom   90 type  2   force =    -0.00001391    0.00000722   -0.00001029
     atom   91 type  2   force =    -0.00001235    0.00000618   -0.00000413
     atom   92 type  2   force =     0.00007052   -0.00003779   -0.00000479
     atom   93 type  2   force =     0.00004801   -0.00002874   -0.00000196
     atom   94 type  2   force =     0.00003942    0.00000369    0.00000366
     atom   95 type  2   force =     0.00001083   -0.00001154    0.00003248
     atom   96 type  1   force =     0.00006084   -0.00002842   -0.00006197

     Total force =     0.004394     Total SCF correction =     0.000524
     SCF correction compared to forces is large: reduce conv_thr to get better values

     Computing stress (Cartesian axis) and pressure

[...]

          total   stress  (Ry/bohr**3)                   (kbar)     P=       -2.68
  -0.00001892  -0.00000000   0.00000000           -2.78       -0.00        0.00
  -0.00000000  -0.00001893  -0.00000000           -0.00       -2.78       -0.00
   0.00000000  -0.00000000  -0.00001688            0.00       -0.00       -2.48

     kinetic stress (kbar)  15067.65      0.00     -0.00
                                0.00  15067.65      0.00
                               -0.00      0.00  15079.79

     local   stress (kbar)  -7294.75      0.05     -0.02
                                0.05  -7294.49      0.03
                               -0.02      0.03   1280.37

     nonloc. stress (kbar)  -1183.38      0.00     -0.00
                                0.00  -1183.38      0.00
                               -0.00      0.00  -1187.39

     hartree stress (kbar)  11883.19     -0.02      0.00
                               -0.02  11883.09     -0.01
                                0.00     -0.01   8019.83

     exc-cor stress (kbar)   6913.47     -0.00      0.00
                               -0.00   6913.47     -0.00
                                0.00     -0.00   6912.48

     corecor stress (kbar) -11262.24     -0.00      0.00
                               -0.00 -11262.24     -0.00
                                0.00     -0.00 -11262.20

     ewald   stress (kbar) -14209.48     -0.03      0.01
                               -0.03 -14209.64     -0.03
                                0.01     -0.03 -18929.38

     hubbard stress (kbar)      0.00      0.00      0.00
                                0.00      0.00      0.00
                                0.00      0.00      0.00

     DFT-D   stress (kbar)      0.00      0.00      0.00
                                0.00      0.00      0.00
                                0.00      0.00      0.00

     XDM     stress (kbar)      0.00      0.00      0.00
                                0.00      0.00      0.00
                                0.00      0.00      0.00

     dft-nl  stress (kbar)     82.77      0.00     -0.00
                                0.00     82.77      0.00
                               -0.00      0.00     84.02

     TS-vdW  stress (kbar)      0.00      0.00      0.00
                                0.00      0.00      0.00
                                0.00      0.00      0.00

     MDB     stress (kbar)      0.00      0.00      0.00
                                0.00      0.00      0.00
                                0.00      0.00      0.00

     3D-RISM stress (kbar)      0.00      0.00      0.00
                                0.00      0.00      0.00
                                0.00      0.00      0.00

[...]

     Non-local corr. energy    =      45.71461521 Ry

 BEEFens 2000 ensemble energies
             -0.385000115013738E+02
             -0.387366232678474E+03
             -0.176296206191376E+03
              0.135327837893118E+03
             -0.296164852864493E+03
             -0.362545248436266E+03
              0.186114944001759E+03
              0.692996383202626E+00
              0.313540175055540E+03
             -0.198366196662264E+02
              0.160661464359774E+03
              0.163182008436127E+02
             -0.123442842899077E+02
             -0.100351827176605E+02
              0.200027057328567E+03
             -0.150819056976544E+03
             -0.295858507550160E+03
             -0.954903641871888E+02
              0.854743979850247E+02
             -0.191881979116715E+01
              0.436286996957209E+03
              0.364102256970667E+03
             -0.224275595342393E+03
              0.775010656962322E+02
             -0.467301645314894E+03
              0.383541733399031E+03
              0.131211050194858E+03
              0.346307537121977E+03
              0.233369439089764E+03
             -0.108344655454590E+03
              0.854535921874242E+02
             -0.152562359587415E+03
              0.637703997200601E+02
              0.232249847688258E+03
              0.250020838271750E+03
             -0.108547891318494E+03
              0.551225495433219E+03
             -0.221961725060595E+03
             -0.147690803194210E+03
              0.220465137288359E+03
              0.972294410352342E+02
              0.167645128486963E+03
             -0.323652633250549E+03
             -0.210411548604934E+02
              0.310495515162518E+03
              0.405868697795393E+03
             -0.412153684680393E+03
              0.263730124820019E+02
              0.142893698330278E+03
              0.923063857724778E+02
              0.161070048017537E+03
              0.353806114925595E+03
             -0.229851012363857E+03
             -0.223113198507288E+03
             -0.310645210647431E+03
             -0.449684176143533E+02
             -0.264976014238929E+03
              0.342053857070539E+02
             -0.382064572533341E+02
             -0.210272841700675E+03
[...]
              0.262562651943655E+03
              0.168134877214431E+03
              0.171417416195568E+03
             -0.317312005005187E+03
             -0.327687715239073E+03
             -0.738798963709041E+02
             -0.292895733208871E+03
              0.465031494990722E+03
              0.391650064258919E+03
              0.184775229815964E+03
              0.509261714510671E+03
             -0.254409378922016E+03
             -0.109651524166834E+03
             -0.158080827698779E+03
              0.440661428304833E+03

 BEEF-vdW xc energy contributions
            1 :    -3982.748512677119
            2 :     3649.193744465778
            3 :    -3080.625079712496
            4 :     2428.884509682937
            5 :    -1836.838535542242
            6 :     1392.179148193775
            7 :    -1113.092909898871
            8 :     961.7397801438055
            9 :    -872.9057764778045
           10 :     785.3582865319067
           11 :    -665.1055737986244
           12 :     512.6084905663779
           13 :    -352.9497806275940
           14 :     216.6495469794654
           15 :    -122.6361619075506
           16 :     71.17029342328351
           17 :    -47.36499323324097
           18 :     30.90323435548453
           19 :    -6.348129528896607
           20 :    -30.46030251702359
           21 :     72.35019256225041
           22 :    -106.6443144211635
           23 :     123.4082110599229
           24 :    -121.3854829262264
           25 :     108.4918601594673
           26 :    -97.13341027835304
           27 :     97.40680132460693
           28 :    -111.9239912390021
           29 :     134.7584643133623
           30 :    -154.8296167014214
           31 :    -343.4216002509984
           32 :    -247.1364186543433

     Writing all to output data dir ./PbI2.save/

     General routines

     Parallel routines

     PAW routines

   This run was terminated on:   8:20: 6   3Mar2024

   JOB DONE.