     Program PWSCF v.7.1 starts on 18Feb2024 at 20:16:32

     Reading input from espresso.pwi
Warning: card &CELL ignored
Warning: card    CELL_DYNAMICS    = 'BFGS' ignored
Warning: card / ignored

     Current dimensions of program PWSCF are:
     Max number of different atomic species (ntypx) = 10
     Max number of k-points (npk) =  40000
     Max angular momentum in pseudopotentials (lmaxx) =  4
     file C.pbe-n-kjpaw_psl.1.0.0.UPF: wavefunction(s)  2S 2P renormalized

     IMPORTANT: XC functional enforced from input :
     Exchange-correlation= BEEF-VDW
                           (   1   4  43  14   2   0   0)
     Any further DFT definition will be discarded
     Please, verify this is what you really want

     R & G space division:  proc/nbgrp/npool/nimage =     256
     wavefunctions fft division:  task group distribution
                                  #TG    x Z-proc =       8     32
     Subspace diagonalization in iterative solution of the eigenvalue problem:
     a serial algorithm will be used

     Using Pencil Decomposition

     bravais-lattice index     =            1
     lattice parameter (alat)  =      27.0027  a.u.
     unit-cell volume          =   19688.9026 (a.u.)^3
     number of atoms/cell      =          511
     number of atomic types    =            1
     number of electrons       =      2042.00
     number of Kohn-Sham states=         1225
     kinetic-energy cutoff     =      70.0000  Ry
     charge density cutoff     =     350.0000  Ry
     scf convergence threshold =      1.0E-07
     mixing beta               =       0.7000
     number of iterations used =            8  plain     mixing
     energy convergence thresh.=      1.0E-04
     force convergence thresh. =      1.0E-03
     Exchange-correlation= BEEF-VDW
                           (   1   4  43  14   2   0   0)
     nstep                     =           50

     celldm(1)=  27.002699  celldm(2)=   0.000000  celldm(3)=   0.000000
     celldm(4)=   0.000000  celldm(5)=   0.000000  celldm(6)=   0.000000

     crystal axes: (cart. coord. in units of alat)
               a(1) = (   1.000000   0.000000   0.000000 )
               a(2) = (   0.000000   1.000000   0.000000 )
               a(3) = (   0.000000   0.000000   1.000000 )

     reciprocal axes: (cart. coord. in units 2 pi/alat)
               b(1) = (  1.000000  0.000000  0.000000 )
               b(2) = (  0.000000  1.000000  0.000000 )
               b(3) = (  0.000000  0.000000  1.000000 )

     PseudoPot. # 1 for C  read from file:
     /trace/group/acmegroup/atimmins/packages/espresso/pseudo/psl_1.0.0/pslibrary.1.0.0/pbe/PSEUDOPOTENTIALS/C.pbe-n-kjpaw_psl.1.0.0.UPF
     MD5 check sum: 5459cf7f2c8c37df2f7cde8914797f4d
     Pseudo is Projector augmented-wave + core cor, Zval =  4.0
     Generated using 'atomic' code by A. Dal Corso  v.7.1
     Shape of augmentation charge: PSQ
     Using radial grid of 1073 points,  4 beta functions with:
                l(1) =   0
                l(2) =   0
                l(3) =   1
                l(4) =   1
     Q(r) pseudized with 0 coefficients

     atomic species   valence    mass     pseudopotential
        C              4.00    12.01100     C ( 1.00)

      6 Sym. Ops. (no inversion) found ( 4 have fractional translation)

                                    s                        frac. trans.

      isym =  1     identity

 cryst.   s( 1) = (     1          0          0      )
                  (     0          1          0      )
                  (     0          0          1      )

 cart.    s( 1) = (  1.0000000  0.0000000  0.0000000 )
                  (  0.0000000  1.0000000  0.0000000 )
                  (  0.0000000  0.0000000  1.0000000 )

      isym =  2     120 deg rotation - cart. axis [1,-1,1]

 cryst.   s( 2) = (     0          0          1      )    f =( -0.2500000 )
                  (    -1          0          0      )       ( -0.2500000 )
                  (     0         -1          0      )       (  0.0000000 )

 cart.    s( 2) = (  0.0000000 -1.0000000  0.0000000 )    f =( -0.2500000 )
                  (  0.0000000  0.0000000 -1.0000000 )       ( -0.2500000 )
                  (  1.0000000  0.0000000  0.0000000 )       (  0.0000000 )

      isym =  3     120 deg rotation - cart. axis [-1,1,-1]

[...]

      isym =  4     inv. 180 deg rotation - cart. axis [1,1,0]

[...]

 cryst.   s( 5) = (     0          0          1      )
                  (     0          1          0      )
                  (     1          0          0      )

 cart.    s( 5) = (  0.0000000  0.0000000  1.0000000 )
                  (  0.0000000  1.0000000  0.0000000 )
                  (  1.0000000  0.0000000  0.0000000 )

      isym =  6     inv. 180 deg rotation - cart. axis [0,1,1]

 cryst.   s( 6) = (     1          0          0      )    f =(  0.0000000 )
                  (     0          0         -1      )       ( -0.2500000 )
                  (     0         -1          0      )       ( -0.2500000 )

 cart.    s( 6) = (  1.0000000  0.0000000  0.0000000 )    f =(  0.0000000 )
                  (  0.0000000  0.0000000 -1.0000000 )       ( -0.2500000 )
                  (  0.0000000 -1.0000000  0.0000000 )       ( -0.2500000 )

     point group C_3v (3m)
     there are  3 classes
     the character table:

       E     2C3   3s_v
A_1    1.00  1.00  1.00
A_2    1.00  1.00 -1.00
E      2.00 -1.00  0.00

     the symmetry operations in each class and the name of the first element:

     E        1
          identity
     2C3      2    3
          120 deg rotation - cart. axis [1,-1,1]
     3s_v     4    5    6
          inv. 180 deg rotation - cart. axis [1,1,0]

   Cartesian axes

     site n.     atom                  positions (alat units)
         1           C   tau(   1) = (   0.0625015   0.1874985   0.3125015  )
         2           C   tau(   2) = (   0.0625015   0.1874985   0.5625015  )
         3           C   tau(   3) = (   0.0625015   0.1874985   0.8125015  )
         4           C   tau(   4) = (   0.0625015   0.4374985   0.0625015  )
         5           C   tau(   5) = (   0.0625015   0.4374985   0.3125015  )
         6           C   tau(   6) = (   0.0625015   0.4374985   0.5625015  )
         7           C   tau(   7) = (   0.0625015   0.4374985   0.8125015  )
         8           C   tau(   8) = (   0.0625015   0.6874985   0.0625015  )
         9           C   tau(   9) = (   0.0625015   0.6874985   0.3125015  )
        10           C   tau(  10) = (   0.0625015   0.6874985   0.5625015  )
        11           C   tau(  11) = (   0.0625015   0.6874985   0.8125015  )
        12           C   tau(  12) = (   0.0625015   0.9374985   0.0625015  )
        13           C   tau(  13) = (   0.0625015   0.9374985   0.3125015  )
        14           C   tau(  14) = (   0.0625015   0.9374985   0.5625015  )
        15           C   tau(  15) = (   0.0625015   0.9374985   0.8125015  )
        16           C   tau(  16) = (   0.3125015   0.1874985   0.0625015  )
        17           C   tau(  17) = (   0.3125015   0.1874985   0.3125015  )
        18           C   tau(  18) = (   0.3125015   0.1874985   0.5625015  )
        19           C   tau(  19) = (   0.3125015   0.1874985   0.8125015  )
        20           C   tau(  20) = (   0.3125015   0.4374985   0.0625015  )
        21           C   tau(  21) = (   0.3125015   0.4374985   0.3125015  )
        22           C   tau(  22) = (   0.3125015   0.4374985   0.5625015  )
        23           C   tau(  23) = (   0.3125015   0.4374985   0.8125015  )
        24           C   tau(  24) = (   0.3125015   0.6874985   0.0625015  )
        25           C   tau(  25) = (   0.3125015   0.6874985   0.3125015  )
        26           C   tau(  26) = (   0.3125015   0.6874985   0.5625015  )
        27           C   tau(  27) = (   0.3125015   0.6874985   0.8125015  )
        28           C   tau(  28) = (   0.3125015   0.9374985   0.0625015  )
        29           C   tau(  29) = (   0.3125015   0.9374985   0.3125015  )
        30           C   tau(  30) = (   0.3125015   0.9374985   0.5625015  )
        31           C   tau(  31) = (   0.3125015   0.9374985   0.8125015  )
        32           C   tau(  32) = (   0.5625015   0.1874985   0.0625015  )
        33           C   tau(  33) = (   0.5625015   0.1874985   0.3125015  )
        34           C   tau(  34) = (   0.5625015   0.1874985   0.5625015  )
        35           C   tau(  35) = (   0.5625015   0.1874985   0.8125015  )
        36           C   tau(  36) = (   0.5625015   0.4374985   0.0625015  )
        37           C   tau(  37) = (   0.5625015   0.4374985   0.3125015  )
        38           C   tau(  38) = (   0.5625015   0.4374985   0.5625015  )
        39           C   tau(  39) = (   0.5625015   0.4374985   0.8125015  )
        40           C   tau(  40) = (   0.5625015   0.6874985   0.0625015  )
        41           C   tau(  41) = (   0.5625015   0.6874985   0.3125015  )
        42           C   tau(  42) = (   0.5625015   0.6874985   0.5625015  )
        43           C   tau(  43) = (   0.5625015   0.6874985   0.8125015  )
        44           C   tau(  44) = (   0.5625015   0.9374985   0.0625015  )
        45           C   tau(  45) = (   0.5625015   0.9374985   0.3125015  )
        46           C   tau(  46) = (   0.5625015   0.9374985   0.5625015  )
        47           C   tau(  47) = (   0.5625015   0.9374985   0.8125015  )
        48           C   tau(  48) = (   0.8125015   0.1874985   0.0625015  )
        49           C   tau(  49) = (   0.8125015   0.1874985   0.3125015  )
        50           C   tau(  50) = (   0.8125015   0.1874985   0.5625015  )
        51           C   tau(  51) = (   0.8125015   0.1874985   0.8125015  )
        52           C   tau(  52) = (   0.8125015   0.4374985   0.0625015  )
        53           C   tau(  53) = (   0.8125015   0.4374985   0.3125015  )
        54           C   tau(  54) = (   0.8125015   0.4374985   0.5625015  )
        55           C   tau(  55) = (   0.8125015   0.4374985   0.8125015  )
        56           C   tau(  56) = (   0.8125015   0.6874985   0.0625015  )
        57           C   tau(  57) = (   0.8125015   0.6874985   0.3125015  )
        58           C   tau(  58) = (   0.8125015   0.6874985   0.5625015  )
        59           C   tau(  59) = (   0.8125015   0.6874985   0.8125015  )
        60           C   tau(  60) = (   0.8125015   0.9374985   0.0625015  )
[...]
       497           C   tau( 497) = (   0.8750000   0.1250000   0.3750000  )
       498           C   tau( 498) = (   0.8750000   0.1250000   0.6250000  )
       499           C   tau( 499) = (   0.8750000   0.1250000   0.8750000  )
       500           C   tau( 500) = (   0.8750000   0.3750000   0.1250000  )
       501           C   tau( 501) = (   0.8750000   0.3750000   0.3750000  )
       502           C   tau( 502) = (   0.8750000   0.3750000   0.6250000  )
       503           C   tau( 503) = (   0.8750000   0.3750000   0.8750000  )
       504           C   tau( 504) = (   0.8750000   0.6250000   0.1250000  )
       505           C   tau( 505) = (   0.8750000   0.6250000   0.3750000  )
[...]
     atom   45 type  1   force =     0.00000000    0.00000000    0.00000000
     atom   46 type  1   force =     0.00000000    0.00000000    0.00000000
     atom   47 type  1   force =     0.00000000    0.00000000    0.00000000
     atom   48 type  1   force =     0.00000000    0.00000000    0.00000000
     atom   49 type  1   force =     0.00000000    0.00000000    0.00000000
     atom   50 type  1   force =     0.00000000    0.00000000    0.00000000
     atom   51 type  1   force =     0.00000000    0.00000000    0.00000000
     atom   52 type  1   force =     0.00000000    0.00000000    0.00000000
     atom   53 type  1   force =     0.00000000    0.00000000    0.00000000
     atom   54 type  1   force =     0.00000000    0.00000000    0.00000000
     atom   55 type  1   force =     0.00000000    0.00000000    0.00000000
     atom   56 type  1   force =     0.00000000    0.00000000    0.00000000
     atom   57 type  1   force =     0.00000000    0.00000000    0.00000000
     atom   58 type  1   force =     0.00000000    0.00000000    0.00000000
     atom   59 type  1   force =     0.00000000    0.00000000    0.00000000
     atom   60 type  1   force =     0.00000000    0.00000000    0.00000000
[...]
     atom  497 type  1   force =     0.00000000    0.00000000    0.00000000
     atom  498 type  1   force =     0.00000000    0.00000000    0.00000000
     atom  499 type  1   force =     0.00000000    0.00000000    0.00000000
     atom  500 type  1   force =     0.00000000    0.00000000    0.00000000
     atom  501 type  1   force =     0.00000000    0.00000000    0.00000000
     atom  502 type  1   force =     0.00000000    0.00000000    0.00000000
     atom  503 type  1   force =     0.00000000    0.00000000    0.00000000
     atom  504 type  1   force =     0.00000000    0.00000000    0.00000000
     atom  505 type  1   force =     0.00000000    0.00000000    0.00000000
     atom  506 type  1   force =     0.00000000    0.00000000    0.00000000
     atom  507 type  1   force =     0.00000000    0.00000000    0.00000000
     atom  508 type  1   force =     0.00000000    0.00000000    0.00000000
     atom  509 type  1   force =     0.00000000    0.00000000    0.00000000
     atom  510 type  1   force =     0.00000000    0.00000000    0.00000000
     atom  511 type  1   force =     0.00000000    0.00000000    0.00000000
     The SCF correction term to forces
     atom    1 type  1   force =     0.00001917   -0.00001917   -0.00001686
     atom    2 type  1   force =     0.00000594   -0.00000594   -0.00001044
     atom    3 type  1   force =     0.00000857   -0.00000857   -0.00000084
     atom    4 type  1   force =     0.00000857    0.00000084    0.00000857
     atom    5 type  1   force =     0.00000834    0.00000019    0.00000483
     atom    6 type  1   force =     0.00000424   -0.00000430   -0.00000671
     atom    7 type  1   force =     0.00000289    0.00000723   -0.00000723
     atom    8 type  1   force =     0.00000594    0.00001044    0.00000594
     atom    9 type  1   force =     0.00000470    0.00000851   -0.00000532
     atom   10 type  1   force =     0.00000344    0.00000488   -0.00000488
     atom   11 type  1   force =     0.00000424    0.00000671    0.00000430
     atom   12 type  1   force =     0.00001917    0.00001686    0.00001917
     atom   13 type  1   force =     0.00001282    0.00001008   -0.00001008
     atom   14 type  1   force =     0.00000470    0.00000532   -0.00000851
     atom   15 type  1   force =     0.00000834   -0.00000483   -0.00000019
     atom   16 type  1   force =    -0.00001686   -0.00001917    0.00001917
     atom   17 type  1   force =    -0.00001008   -0.00001282   -0.00001008
     atom   18 type  1   force =    -0.00000532   -0.00000470   -0.00000851
     atom   19 type  1   force =     0.00000483   -0.00000834   -0.00000019
     atom   20 type  1   force =     0.00000483    0.00000019    0.00000834
     atom   21 type  1   force =     0.00000743    0.00000363    0.00000743
     atom   22 type  1   force =     0.00001677    0.00001540   -0.00000101
     atom   23 type  1   force =     0.00001576    0.00001312   -0.00001312
     atom   24 type  1   force =    -0.00000532    0.00000851    0.00000470
     atom   25 type  1   force =     0.00001429    0.00001086    0.00001429
     atom   26 type  1   force =     0.00004315    0.00000390   -0.00000390
     atom   27 type  1   force =     0.00001677    0.00000101   -0.00001540
     atom   28 type  1   force =    -0.00001008    0.00001008    0.00001282
     atom   29 type  1   force =     0.00000111   -0.00000111    0.00000111
     atom   30 type  1   force =     0.00001429   -0.00001429   -0.00001086
     atom   31 type  1   force =     0.00000743   -0.00000743   -0.00000363
     atom   32 type  1   force =    -0.00001044   -0.00000594    0.00000594
     atom   33 type  1   force =    -0.00000851   -0.00000470   -0.00000532
     atom   34 type  1   force =    -0.00000488   -0.00000344   -0.00000488
     atom   35 type  1   force =    -0.00000671   -0.00000424    0.00000430
     atom   36 type  1   force =    -0.00000671   -0.00000430    0.00000424
     atom   37 type  1   force =    -0.00000101    0.00001540    0.00001677
     atom   38 type  1   force =    -0.00000394    0.00004354   -0.00000394
     atom   39 type  1   force =    -0.00000943    0.00001700   -0.00001700
     atom   40 type  1   force =    -0.00000488    0.00000488    0.00000344
     atom   41 type  1   force =    -0.00000390    0.00000390    0.00004315
     atom   42 type  1   force =    -0.00000325    0.00000325   -0.00000325
     atom   43 type  1   force =    -0.00000394    0.00000394   -0.00004354
     atom   44 type  1   force =    -0.00000851    0.00000532    0.00000470
     atom   45 type  1   force =    -0.00001086   -0.00001429    0.00001429
     atom   46 type  1   force =    -0.00000390   -0.00004315   -0.00000390
     atom   47 type  1   force =    -0.00000101   -0.00001677   -0.00001540
     atom   48 type  1   force =    -0.00000084   -0.00000857    0.00000857
     atom   49 type  1   force =    -0.00000019   -0.00000834    0.00000483
     atom   50 type  1   force =     0.00000430   -0.00000424   -0.00000671
     atom   51 type  1   force =    -0.00000723   -0.00000289   -0.00000723
     atom   52 type  1   force =    -0.00000723    0.00000723    0.00000289
     atom   53 type  1   force =    -0.00001312    0.00001312    0.00001576
     atom   54 type  1   force =    -0.00001700    0.00001700   -0.00000943
     atom   55 type  1   force =    -0.00001150    0.00001150   -0.00001150
     atom   56 type  1   force =     0.00000430    0.00000671    0.00000424
     atom   57 type  1   force =    -0.00001540    0.00000101    0.00001677
     atom   58 type  1   force =    -0.00004354    0.00000394   -0.00000394
     atom   59 type  1   force =    -0.00001700    0.00000943   -0.00001700
     atom   60 type  1   force =    -0.00000019   -0.00000483    0.00000834
[...]
     atom  497 type  1   force =     0.00000403   -0.00001154   -0.00000092
     atom  498 type  1   force =     0.00000040   -0.00000984   -0.00000985
     atom  499 type  1   force =    -0.00000304   -0.00001035   -0.00000304
     atom  500 type  1   force =    -0.00000304    0.00000304    0.00001035
     atom  501 type  1   force =    -0.00000913    0.00000913    0.00000750
     atom  502 type  1   force =    -0.00000821    0.00000821   -0.00000779
     atom  503 type  1   force =    -0.00000804    0.00000804   -0.00000804
     atom  504 type  1   force =     0.00000040    0.00000985    0.00000984
     atom  505 type  1   force =    -0.00002296    0.00000389    0.00000448
     atom  506 type  1   force =    -0.00003422    0.00000581   -0.00000581
     atom  507 type  1   force =    -0.00000821    0.00000779   -0.00000821
     atom  508 type  1   force =     0.00000403    0.00000092    0.00001154
     atom  509 type  1   force =    -0.00001000    0.00000000   -0.00000000
     atom  510 type  1   force =    -0.00002296   -0.00000448   -0.00000389
     atom  511 type  1   force =    -0.00000913   -0.00000750   -0.00000913

     Total force =     0.004273     Total SCF correction =     0.000492
     SCF correction compared to forces is large: reduce conv_thr to get better values

     Computing stress (Cartesian axis) and pressure

     Non-local corr. energy    =      17.47845340 Ry

          total   stress  (Ry/bohr**3)                   (kbar)     P=      -18.59
  -0.00012639  -0.00000001   0.00000001          -18.59       -0.00        0.00
  -0.00000001  -0.00012639  -0.00000001           -0.00      -18.59       -0.00
   0.00000001  -0.00000001  -0.00012639            0.00       -0.00      -18.59

     kinetic stress (kbar)  18932.11      0.00     -0.00
                                0.00  18932.11      0.00
                               -0.00      0.00  18932.11

     local   stress (kbar)  -3535.29      0.05     -0.05
                                0.05  -3535.29      0.05
                               -0.05      0.05  -3535.29

     nonloc. stress (kbar)   4317.23     -0.00      0.00
                               -0.00   4317.23     -0.00
                                0.00     -0.00   4317.23

     hartree stress (kbar)   1287.07     -0.01      0.01
                               -0.01   1287.07     -0.01
                                0.01     -0.01   1287.07

     exc-cor stress (kbar)   -407.73     -0.00      0.00
                               -0.00   -407.73     -0.00
                                0.00     -0.00   -407.73

     corecor stress (kbar)  -4425.89      0.00     -0.00
                                0.00  -4425.89      0.00
                               -0.00      0.00  -4425.89

     ewald   stress (kbar) -16210.87     -0.04      0.04
                               -0.04 -16210.87     -0.04
                                0.04     -0.04 -16210.87

     hubbard stress (kbar)      0.00      0.00      0.00
                                0.00      0.00      0.00
                                0.00      0.00      0.00

     DFT-D   stress (kbar)      0.00      0.00      0.00
                                0.00      0.00      0.00
                                0.00      0.00      0.00

     XDM     stress (kbar)      0.00      0.00      0.00
                                0.00      0.00      0.00
                                0.00      0.00      0.00

     dft-nl  stress (kbar)     24.78      0.00     -0.00
                                0.00     24.78      0.00
                               -0.00      0.00     24.78

     TS-vdW  stress (kbar)      0.00      0.00      0.00
                                0.00      0.00      0.00
                                0.00      0.00      0.00

     MDB     stress (kbar)      0.00      0.00      0.00
                                0.00      0.00      0.00
                                0.00      0.00      0.00

     3D-RISM stress (kbar)      0.00      0.00      0.00
                                0.00      0.00      0.00
                                0.00      0.00      0.00

     BFGS Geometry Optimization
     Energy error            =      0.0E+00 Ry
     Gradient error          =      3.2E-04 Ry/Bohr

     bfgs converged in   1 scf cycles and   0 bfgs steps
     (criteria: energy <  1.0E-04 Ry, force <  1.0E-03 Ry/Bohr)

     End of BFGS Geometry Optimization

     Final energy             =   -9706.8531778115 Ry
Begin final coordinates

ATOMIC_POSITIONS (angstrom)
C             0.8931403112        2.6791628658        4.4655581435
C             0.8931014300        2.6792017470        8.0377181134
C             0.8931115161        2.6791916609       11.6099308664
C             0.8931115161        6.2515850153        0.8931115161
C             0.8960972492        6.2519076315        4.4658130412
C             0.8931043429        6.2514301969        8.0377072436
C             0.8901331413        6.2519536140       11.6095622677
C             0.8931014300        9.8237977682        0.8931014300
C             0.8931077008        9.8238039413        4.4653403036
C             0.8931094452        9.8238058592        8.0377100224
C             0.8931043429        9.8238086380       11.6100856848
C             0.8931403112       13.3959577382        0.8931403112
C             0.8900474174       13.3956128421        4.4659030396
C             0.8931077008       13.3961755781        8.0377119403
C             0.8960972492       13.3957028405       11.6096082503
C             4.4655581435        2.6791628658        0.8931403112
C             4.4659030396        2.6822557596        4.4659030396
C             4.4653403036        2.6791954762        8.0377119403
C             4.4658130412        2.6762059278       11.6096082503
C             4.4658130412        6.2519076315        0.8960972492
C             4.4648549174        6.2509566971        4.4648549174
C             4.4654355824        6.2515348265        8.0374396375
C             4.4655485406        6.2516268177       11.6098890640
C             4.4653403036        9.8238039413        0.8931077008
C             4.4654343505        9.8235321306        4.4654343505
C             4.4652938438        9.8238068858        8.0377089958
C             4.4654355824        9.8240762441       11.6099810552
C             4.4659030396       13.3956128421        0.8900474174
C             4.4655042527       13.3960116290        4.4655042527
C             4.4654343505       13.3960815312        8.0379837511
C             4.4648549174       13.3966609643       11.6105591846
C             8.0377181134        2.6792017470        0.8931014300
C             8.0377119403        2.6791954762        4.4653403036
C             8.0377100224        2.6791937318        8.0377100224
C             8.0377072436        2.6791988341       11.6100856848
C             8.0377072436        6.2514301969        0.8931043429
C             8.0374396375        6.2515348265        4.4654355824
C             8.0377099195        6.2513917348        8.0377099195
C             8.0379952331        6.2515300893       11.6099857924
C             8.0377100224        9.8238058592        0.8931094452
C             8.0377089958        9.8238068858        4.4652938438
C             8.0377102595        9.8238056221        8.0377102595
C             8.0377099195        9.8238059621       11.6101241469
C             8.0377119403       13.3961755781        0.8931077008
C             8.0379837511       13.3960815312        4.4654343505
C             8.0377089958       13.3962220379        8.0377089958
C             8.0374396375       13.3960802993       11.6099810552
C            11.6099308664        2.6791916609        0.8931115161
C            11.6096082503        2.6762059278        4.4658130412
C            11.6100856848        2.6791988341        8.0377072436
C            11.6095622677        2.6821700357       11.6095622677
C            11.6095622677        6.2519536140        0.8901331413
C            11.6098890640        6.2516268177        4.4655485406
C            11.6099857924        6.2515300893        8.0379952331
C            11.6105970617        6.2509188200       11.6105970617
C            11.6100856848        9.8238086380        0.8931043429
C            11.6099810552        9.8240762441        4.4654355824
C            11.6101241469        9.8238059621        8.0377099195
C            11.6099857924        9.8235206486       11.6099857924
C            11.6096082503       13.3957028405        0.8960972492
[...]
C            12.5042543809        1.7867518478        5.3581079787
C            12.5030382953        1.7860763813        8.9301565200
C            12.4914285763        1.7726453746       12.4914285763
C            12.4914285763        5.3700873054        1.7996578024
C            12.4997178708        5.3617980109        5.3631008364
C            12.5032557862        5.3582600955        8.9313503514
C            12.5052746793        5.3562412024       12.5052746793
C            12.5030382953        8.9313593616        1.7862267957
C            12.5024474616        8.9318397943        5.3590757995
C            12.5029251384        8.9305641329        8.9309517488
C            12.5032557862        8.9301655302       12.5032557862
C            12.5042543809       12.5034079030        1.7855513292
C            12.5032913033       12.5038300383        5.3576858434
C            12.5024474616       12.5024400822        8.9296760873
C            12.4997178708       12.4984150453       12.4997178708
End final coordinates

     Writing all to output data dir ./diamond.save/

     General routines

     Parallel routines

     PAW routines

   This run was terminated on:  20:56:43  18Feb2024

   JOB DONE.