     Program PWSCF v.7.1 starts on 19Feb2024 at 12:21:21

     Reading input from espresso.pwi
Warning: card &CELL ignored
Warning: card    CELL_DYNAMICS    = 'BFGS' ignored
Warning: card / ignored

     Current dimensions of program PWSCF are:
     Max number of different atomic species (ntypx) = 10
     Max number of k-points (npk) =  40000
     Max angular momentum in pseudopotentials (lmaxx) =  4
     file C.pbe-n-kjpaw_psl.1.0.0.UPF: wavefunction(s)  2S 2P renormalized

     IMPORTANT: XC functional enforced from input :
     Exchange-correlation= BEEF-VDW
                           (   1   4  43  14   2   0   0)
     Any further DFT definition will be discarded
     Please, verify this is what you really want

     R & G space division:  proc/nbgrp/npool/nimage =     256
     wavefunctions fft division:  task group distribution
                                  #TG    x Z-proc =       8     32
     Subspace diagonalization in iterative solution of the eigenvalue problem:
     a serial algorithm will be used

     Using Pencil Decomposition

     bravais-lattice index     =            1
     lattice parameter (alat)  =      27.0027  a.u.
     unit-cell volume          =   19688.9026 (a.u.)^3
     number of atoms/cell      =          511
     number of atomic types    =            1
     number of electrons       =      2042.00
     number of Kohn-Sham states=         1225
     kinetic-energy cutoff     =      70.0000  Ry
     charge density cutoff     =     350.0000  Ry
     scf convergence threshold =      1.0E-07
     mixing beta               =       0.7000
     number of iterations used =            8  plain     mixing
     Exchange-correlation= BEEF-VDW
                           (   1   4  43  14   2   0   0)

     celldm(1)=  27.002699  celldm(2)=   0.000000  celldm(3)=   0.000000
     celldm(4)=   0.000000  celldm(5)=   0.000000  celldm(6)=   0.000000

     crystal axes: (cart. coord. in units of alat)
               a(1) = (   1.000000   0.000000   0.000000 )
               a(2) = (   0.000000   1.000000   0.000000 )
               a(3) = (   0.000000   0.000000   1.000000 )

     reciprocal axes: (cart. coord. in units 2 pi/alat)
               b(1) = (  1.000000  0.000000  0.000000 )
               b(2) = (  0.000000  1.000000  0.000000 )
               b(3) = (  0.000000  0.000000  1.000000 )

     PseudoPot. # 1 for C  read from file:
     /trace/group/acmegroup/atimmins/packages/espresso/pseudo/psl_1.0.0/pslibrary.1.0.0/pbe/PSEUDOPOTENTIALS/C.pbe-n-kjpaw_psl.1.0.0.UPF
     MD5 check sum: 5459cf7f2c8c37df2f7cde8914797f4d
     Pseudo is Projector augmented-wave + core cor, Zval =  4.0
     Generated using 'atomic' code by A. Dal Corso  v.7.1
     Shape of augmentation charge: PSQ
     Using radial grid of 1073 points,  4 beta functions with:
                l(1) =   0
                l(2) =   0
                l(3) =   1
                l(4) =   1
     Q(r) pseudized with 0 coefficients

     atomic species   valence    mass     pseudopotential
        C              4.00    12.01100     C ( 1.00)

      6 Sym. Ops. (no inversion) found ( 4 have fractional translation)

                                    s                        frac. trans.

      isym =  1     identity

 cryst.   s( 1) = (     1          0          0      )
                  (     0          1          0      )
                  (     0          0          1      )

 cart.    s( 1) = (  1.0000000  0.0000000  0.0000000 )
                  (  0.0000000  1.0000000  0.0000000 )
                  (  0.0000000  0.0000000  1.0000000 )

      isym =  2     120 deg rotation - cart. axis [1,-1,1]

 cryst.   s( 2) = (     0          0          1      )    f =( -0.2500000 )
                  (    -1          0          0      )       ( -0.2500000 )
                  (     0         -1          0      )       (  0.0000000 )

 cart.    s( 2) = (  0.0000000 -1.0000000  0.0000000 )    f =( -0.2500000 )
                  (  0.0000000  0.0000000 -1.0000000 )       ( -0.2500000 )
                  (  1.0000000  0.0000000  0.0000000 )       (  0.0000000 )

      isym =  3     120 deg rotation - cart. axis [-1,1,-1]

[...]

      isym =  4     inv. 180 deg rotation - cart. axis [1,1,0]

[...]

 cryst.   s( 5) = (     0          0          1      )
                  (     0          1          0      )
                  (     1          0          0      )

 cart.    s( 5) = (  0.0000000  0.0000000  1.0000000 )
                  (  0.0000000  1.0000000  0.0000000 )
                  (  1.0000000  0.0000000  0.0000000 )

      isym =  6     inv. 180 deg rotation - cart. axis [0,1,1]

 cryst.   s( 6) = (     1          0          0      )    f =(  0.0000000 )
                  (     0          0         -1      )       ( -0.2500000 )
                  (     0         -1          0      )       ( -0.2500000 )

 cart.    s( 6) = (  1.0000000  0.0000000  0.0000000 )    f =(  0.0000000 )
                  (  0.0000000  0.0000000 -1.0000000 )       ( -0.2500000 )
                  (  0.0000000 -1.0000000  0.0000000 )       ( -0.2500000 )

     point group C_3v (3m)
     there are  3 classes
     the character table:

       E     2C3   3s_v
A_1    1.00  1.00  1.00
A_2    1.00  1.00 -1.00
E      2.00 -1.00  0.00

     the symmetry operations in each class and the name of the first element:

     E        1
          identity
     2C3      2    3
          120 deg rotation - cart. axis [1,-1,1]
     3s_v     4    5    6
          inv. 180 deg rotation - cart. axis [1,1,0]

   Cartesian axes

     site n.     atom                  positions (alat units)
         1           C   tau(   1) = (   0.0625015   0.1874985   0.3125015  )
         2           C   tau(   2) = (   0.0625015   0.1874985   0.5625015  )
         3           C   tau(   3) = (   0.0625015   0.1874985   0.8125015  )
         4           C   tau(   4) = (   0.0625015   0.4374985   0.0625015  )
         5           C   tau(   5) = (   0.0625015   0.4374985   0.3125015  )
         6           C   tau(   6) = (   0.0625015   0.4374985   0.5625015  )
         7           C   tau(   7) = (   0.0625015   0.4374985   0.8125015  )
         8           C   tau(   8) = (   0.0625015   0.6874985   0.0625015  )
         9           C   tau(   9) = (   0.0625015   0.6874985   0.3125015  )
        10           C   tau(  10) = (   0.0625015   0.6874985   0.5625015  )
        11           C   tau(  11) = (   0.0625015   0.6874985   0.8125015  )
        12           C   tau(  12) = (   0.0625015   0.9374985   0.0625015  )
        13           C   tau(  13) = (   0.0625015   0.9374985   0.3125015  )
        14           C   tau(  14) = (   0.0625015   0.9374985   0.5625015  )
        15           C   tau(  15) = (   0.0625015   0.9374985   0.8125015  )
        16           C   tau(  16) = (   0.3125015   0.1874985   0.0625015  )
        17           C   tau(  17) = (   0.3125015   0.1874985   0.3125015  )
        18           C   tau(  18) = (   0.3125015   0.1874985   0.5625015  )
        19           C   tau(  19) = (   0.3125015   0.1874985   0.8125015  )
        20           C   tau(  20) = (   0.3125015   0.4374985   0.0625015  )
        21           C   tau(  21) = (   0.3125015   0.4374985   0.3125015  )
        22           C   tau(  22) = (   0.3125015   0.4374985   0.5625015  )
        23           C   tau(  23) = (   0.3125015   0.4374985   0.8125015  )
        24           C   tau(  24) = (   0.3125015   0.6874985   0.0625015  )
        25           C   tau(  25) = (   0.3125015   0.6874985   0.3125015  )
        26           C   tau(  26) = (   0.3125015   0.6874985   0.5625015  )
        27           C   tau(  27) = (   0.3125015   0.6874985   0.8125015  )
        28           C   tau(  28) = (   0.3125015   0.9374985   0.0625015  )
        29           C   tau(  29) = (   0.3125015   0.9374985   0.3125015  )
        30           C   tau(  30) = (   0.3125015   0.9374985   0.5625015  )
        31           C   tau(  31) = (   0.3125015   0.9374985   0.8125015  )
        32           C   tau(  32) = (   0.5625015   0.1874985   0.0625015  )
        33           C   tau(  33) = (   0.5625015   0.1874985   0.3125015  )
        34           C   tau(  34) = (   0.5625015   0.1874985   0.5625015  )
        35           C   tau(  35) = (   0.5625015   0.1874985   0.8125015  )
        36           C   tau(  36) = (   0.5625015   0.4374985   0.0625015  )
        37           C   tau(  37) = (   0.5625015   0.4374985   0.3125015  )
        38           C   tau(  38) = (   0.5625015   0.4374985   0.5625015  )
        39           C   tau(  39) = (   0.5625015   0.4374985   0.8125015  )
        40           C   tau(  40) = (   0.5625015   0.6874985   0.0625015  )
        41           C   tau(  41) = (   0.5625015   0.6874985   0.3125015  )
        42           C   tau(  42) = (   0.5625015   0.6874985   0.5625015  )
        43           C   tau(  43) = (   0.5625015   0.6874985   0.8125015  )
        44           C   tau(  44) = (   0.5625015   0.9374985   0.0625015  )
        45           C   tau(  45) = (   0.5625015   0.9374985   0.3125015  )
        46           C   tau(  46) = (   0.5625015   0.9374985   0.5625015  )
        47           C   tau(  47) = (   0.5625015   0.9374985   0.8125015  )
        48           C   tau(  48) = (   0.8125015   0.1874985   0.0625015  )
        49           C   tau(  49) = (   0.8125015   0.1874985   0.3125015  )
        50           C   tau(  50) = (   0.8125015   0.1874985   0.5625015  )
        51           C   tau(  51) = (   0.8125015   0.1874985   0.8125015  )
        52           C   tau(  52) = (   0.8125015   0.4374985   0.0625015  )
        53           C   tau(  53) = (   0.8125015   0.4374985   0.3125015  )
        54           C   tau(  54) = (   0.8125015   0.4374985   0.5625015  )
        55           C   tau(  55) = (   0.8125015   0.4374985   0.8125015  )
        56           C   tau(  56) = (   0.8125015   0.6874985   0.0625015  )
        57           C   tau(  57) = (   0.8125015   0.6874985   0.3125015  )
        58           C   tau(  58) = (   0.8125015   0.6874985   0.5625015  )
        59           C   tau(  59) = (   0.8125015   0.6874985   0.8125015  )
        60           C   tau(  60) = (   0.8125015   0.9374985   0.0625015  )
[...]
       497           C   tau( 497) = (   0.8750000   0.1250000   0.3750000  )
       498           C   tau( 498) = (   0.8750000   0.1250000   0.6250000  )
       499           C   tau( 499) = (   0.8750000   0.1250000   0.8750000  )
       500           C   tau( 500) = (   0.8750000   0.3750000   0.1250000  )
       501           C   tau( 501) = (   0.8750000   0.3750000   0.3750000  )
       502           C   tau( 502) = (   0.8750000   0.3750000   0.6250000  )
       503           C   tau( 503) = (   0.8750000   0.3750000   0.8750000  )
       504           C   tau( 504) = (   0.8750000   0.6250000   0.1250000  )
       505           C   tau( 505) = (   0.8750000   0.6250000   0.3750000  )
       506           C   tau( 506) = (   0.8750000   0.6250000   0.6250000  )
       507           C   tau( 507) = (   0.8750000   0.6250000   0.8750000  )
[...]
     atom   26 type  1   force =     0.00000000    0.00000000    0.00000000
     atom   27 type  1   force =     0.00000000    0.00000000    0.00000000
     atom   28 type  1   force =     0.00000000    0.00000000    0.00000000
     atom   29 type  1   force =     0.00000000    0.00000000    0.00000000
     atom   30 type  1   force =     0.00000000    0.00000000    0.00000000
     atom   31 type  1   force =     0.00000000    0.00000000    0.00000000
     atom   32 type  1   force =     0.00000000    0.00000000    0.00000000
     atom   33 type  1   force =     0.00000000    0.00000000    0.00000000
     atom   34 type  1   force =     0.00000000    0.00000000    0.00000000
     atom   35 type  1   force =     0.00000000    0.00000000    0.00000000
     atom   36 type  1   force =     0.00000000    0.00000000    0.00000000
     atom   37 type  1   force =     0.00000000    0.00000000    0.00000000
     atom   38 type  1   force =     0.00000000    0.00000000    0.00000000
     atom   39 type  1   force =     0.00000000    0.00000000    0.00000000
     atom   40 type  1   force =     0.00000000    0.00000000    0.00000000
     atom   41 type  1   force =     0.00000000    0.00000000    0.00000000
     atom   42 type  1   force =     0.00000000    0.00000000    0.00000000
     atom   43 type  1   force =     0.00000000    0.00000000    0.00000000
     atom   44 type  1   force =     0.00000000    0.00000000    0.00000000
     atom   45 type  1   force =     0.00000000    0.00000000    0.00000000
     atom   46 type  1   force =     0.00000000    0.00000000    0.00000000
     atom   47 type  1   force =     0.00000000    0.00000000    0.00000000
     atom   48 type  1   force =     0.00000000    0.00000000    0.00000000
     atom   49 type  1   force =     0.00000000    0.00000000    0.00000000
     atom   50 type  1   force =     0.00000000    0.00000000    0.00000000
     atom   51 type  1   force =     0.00000000    0.00000000    0.00000000
     atom   52 type  1   force =     0.00000000    0.00000000    0.00000000
     atom   53 type  1   force =     0.00000000    0.00000000    0.00000000
     atom   54 type  1   force =     0.00000000    0.00000000    0.00000000
     atom   55 type  1   force =     0.00000000    0.00000000    0.00000000
     atom   56 type  1   force =     0.00000000    0.00000000    0.00000000
     atom   57 type  1   force =     0.00000000    0.00000000    0.00000000
     atom   58 type  1   force =     0.00000000    0.00000000    0.00000000
     atom   59 type  1   force =     0.00000000    0.00000000    0.00000000
     atom   60 type  1   force =     0.00000000    0.00000000    0.00000000
[...]
     atom  497 type  1   force =     0.00000000    0.00000000    0.00000000
     atom  498 type  1   force =     0.00000000    0.00000000    0.00000000
     atom  499 type  1   force =     0.00000000    0.00000000    0.00000000
     atom  500 type  1   force =     0.00000000    0.00000000    0.00000000
     atom  501 type  1   force =     0.00000000    0.00000000    0.00000000
     atom  502 type  1   force =     0.00000000    0.00000000    0.00000000
     atom  503 type  1   force =     0.00000000    0.00000000    0.00000000
     atom  504 type  1   force =     0.00000000    0.00000000    0.00000000
     atom  505 type  1   force =     0.00000000    0.00000000    0.00000000
     atom  506 type  1   force =     0.00000000    0.00000000    0.00000000
     atom  507 type  1   force =     0.00000000    0.00000000    0.00000000
     atom  508 type  1   force =     0.00000000    0.00000000    0.00000000
     atom  509 type  1   force =     0.00000000    0.00000000    0.00000000
     atom  510 type  1   force =     0.00000000    0.00000000    0.00000000
     atom  511 type  1   force =     0.00000000    0.00000000    0.00000000
     The SCF correction term to forces
     atom    1 type  1   force =    -0.00003088    0.00003088   -0.00000257
     atom    2 type  1   force =    -0.00001184    0.00001184    0.00002051
     atom    3 type  1   force =    -0.00001822    0.00001822    0.00002768
     atom    4 type  1   force =    -0.00001822   -0.00002768   -0.00001822
     atom    5 type  1   force =    -0.00001492   -0.00000218   -0.00001109
     atom    6 type  1   force =    -0.00000795   -0.00001402    0.00001366
     atom    7 type  1   force =    -0.00000817   -0.00001658    0.00001658
     atom    8 type  1   force =    -0.00001184   -0.00002051   -0.00001184
     atom    9 type  1   force =    -0.00000873   -0.00001694   -0.00001314
     atom   10 type  1   force =    -0.00000493   -0.00001067    0.00001067
     atom   11 type  1   force =    -0.00000795   -0.00001366    0.00001402
     atom   12 type  1   force =    -0.00003088    0.00000257   -0.00003088
     atom   13 type  1   force =    -0.00002030   -0.00001146    0.00001146
     atom   14 type  1   force =    -0.00000873    0.00001314    0.00001694
     atom   15 type  1   force =    -0.00001492    0.00001109    0.00000218
     atom   16 type  1   force =    -0.00000257    0.00003088   -0.00003088
     atom   17 type  1   force =     0.00001146    0.00002030    0.00001146
     atom   18 type  1   force =    -0.00001314    0.00000873    0.00001694
     atom   19 type  1   force =    -0.00001109    0.00001492    0.00000218
     atom   20 type  1   force =    -0.00001109   -0.00000218   -0.00001492
     atom   21 type  1   force =     0.00000433    0.00001292    0.00000433
     atom   22 type  1   force =     0.00001138    0.00001689    0.00001772
     atom   23 type  1   force =    -0.00000054    0.00000559   -0.00000559
     atom   24 type  1   force =    -0.00001314   -0.00001694   -0.00000873
     atom   25 type  1   force =     0.00001786   -0.00000680    0.00001786
     atom   26 type  1   force =     0.00005152   -0.00000825    0.00000825
     atom   27 type  1   force =     0.00001138   -0.00001772   -0.00001689
     atom   28 type  1   force =     0.00001146   -0.00001146   -0.00002030
     atom   29 type  1   force =     0.00002312   -0.00002312    0.00002312
     atom   30 type  1   force =     0.00001786   -0.00001786    0.00000680
     atom   31 type  1   force =     0.00000433   -0.00000433   -0.00001292
     atom   32 type  1   force =     0.00002051    0.00001184   -0.00001184
     atom   33 type  1   force =     0.00001694    0.00000873   -0.00001314
     atom   34 type  1   force =     0.00001067    0.00000493    0.00001067
     atom   35 type  1   force =     0.00001366    0.00000795    0.00001402
     atom   36 type  1   force =     0.00001366   -0.00001402   -0.00000795
     atom   37 type  1   force =     0.00001772    0.00001689    0.00001138
     atom   38 type  1   force =     0.00000763    0.00005168    0.00000763
     atom   39 type  1   force =     0.00000315    0.00001158   -0.00001158
     atom   40 type  1   force =     0.00001067   -0.00001067   -0.00000493
     atom   41 type  1   force =     0.00000825   -0.00000825    0.00005152
     atom   42 type  1   force =     0.00000543   -0.00000543    0.00000543
     atom   43 type  1   force =     0.00000763   -0.00000763   -0.00005168
     atom   44 type  1   force =     0.00001694    0.00001314   -0.00000873
     atom   45 type  1   force =     0.00000680   -0.00001786    0.00001786
     atom   46 type  1   force =     0.00000825   -0.00005152    0.00000825
     atom   47 type  1   force =     0.00001772   -0.00001138   -0.00001689
     atom   48 type  1   force =     0.00002768    0.00001822   -0.00001822
     atom   49 type  1   force =     0.00000218    0.00001492   -0.00001109
     atom   50 type  1   force =     0.00001402    0.00000795    0.00001366
     atom   51 type  1   force =     0.00001658    0.00000817    0.00001658
     atom   52 type  1   force =     0.00001658   -0.00001658   -0.00000817
     atom   53 type  1   force =    -0.00000559    0.00000559   -0.00000054
     atom   54 type  1   force =    -0.00001158    0.00001158    0.00000315
     atom   55 type  1   force =     0.00000501   -0.00000501    0.00000501
     atom   56 type  1   force =     0.00001402   -0.00001366   -0.00000795
     atom   57 type  1   force =    -0.00001689   -0.00001772    0.00001138
     atom   58 type  1   force =    -0.00005168   -0.00000763    0.00000763
     atom   59 type  1   force =    -0.00001158   -0.00000315   -0.00001158
     atom   60 type  1   force =     0.00000218    0.00001109   -0.00001492
[...]
     atom  497 type  1   force =    -0.00000978    0.00000970    0.00000098
     atom  498 type  1   force =     0.00000220    0.00000536    0.00001758
     atom  499 type  1   force =     0.00001418    0.00001927    0.00001418
     atom  500 type  1   force =     0.00001418   -0.00001418   -0.00001927
     atom  501 type  1   force =    -0.00001120    0.00001120   -0.00000373
     atom  502 type  1   force =    -0.00000358    0.00000358    0.00001498
     atom  503 type  1   force =     0.00000806   -0.00000806    0.00000806
     atom  504 type  1   force =     0.00000220   -0.00001758   -0.00000536
     atom  505 type  1   force =    -0.00003080   -0.00001510   -0.00000082
     atom  506 type  1   force =    -0.00004114   -0.00001065    0.00001065
     atom  507 type  1   force =    -0.00000358   -0.00001498   -0.00000358
     atom  508 type  1   force =    -0.00000978   -0.00000098   -0.00000970
     atom  509 type  1   force =    -0.00002513   -0.00000459    0.00000459
     atom  510 type  1   force =    -0.00003080    0.00000082    0.00001510
     atom  511 type  1   force =    -0.00001120    0.00000373   -0.00001120

     Total force =     0.004273     Total SCF correction =     0.000675
     SCF correction compared to forces is large: reduce conv_thr to get better values

     Computing stress (Cartesian axis) and pressure

[...]

          total   stress  (Ry/bohr**3)                   (kbar)     P=      -18.59
  -0.00012639  -0.00000001   0.00000001          -18.59       -0.00        0.00
  -0.00000001  -0.00012639  -0.00000001           -0.00      -18.59       -0.00
   0.00000001  -0.00000001  -0.00012639            0.00       -0.00      -18.59

     kinetic stress (kbar)  18932.11     -0.00      0.00
                               -0.00  18932.11     -0.00
                                0.00     -0.00  18932.11

     local   stress (kbar)  -3535.29      0.05     -0.05
                                0.05  -3535.29      0.05
                               -0.05      0.05  -3535.29

     nonloc. stress (kbar)   4317.23     -0.00      0.00
                               -0.00   4317.23     -0.00
                                0.00     -0.00   4317.23

     hartree stress (kbar)   1287.07     -0.01      0.01
                               -0.01   1287.07     -0.01
                                0.01     -0.01   1287.07

     exc-cor stress (kbar)   -407.73     -0.00      0.00
                               -0.00   -407.73     -0.00
                                0.00     -0.00   -407.73

     corecor stress (kbar)  -4425.89      0.00     -0.00
                                0.00  -4425.89      0.00
                               -0.00      0.00  -4425.89

     ewald   stress (kbar) -16210.87     -0.04      0.04
                               -0.04 -16210.87     -0.04
                                0.04     -0.04 -16210.87

     hubbard stress (kbar)      0.00      0.00      0.00
                                0.00      0.00      0.00
                                0.00      0.00      0.00

     DFT-D   stress (kbar)      0.00      0.00      0.00
                                0.00      0.00      0.00
                                0.00      0.00      0.00

     XDM     stress (kbar)      0.00      0.00      0.00
                                0.00      0.00      0.00
                                0.00      0.00      0.00

     dft-nl  stress (kbar)     24.78      0.00     -0.00
                                0.00     24.78      0.00
                               -0.00      0.00     24.78

     TS-vdW  stress (kbar)      0.00      0.00      0.00
                                0.00      0.00      0.00
                                0.00      0.00      0.00

     MDB     stress (kbar)      0.00      0.00      0.00
                                0.00      0.00      0.00
                                0.00      0.00      0.00

     3D-RISM stress (kbar)      0.00      0.00      0.00
                                0.00      0.00      0.00
                                0.00      0.00      0.00

[...]

     Non-local corr. energy    =      17.47845385 Ry

 BEEFens 2000 ensemble energies
             -0.309199160649714E+02
             -0.215193294938059E+03
             -0.763731372644264E+02
              0.845498531420320E+02
             -0.142347474116584E+03
             -0.199186456579543E+03
              0.117952161077726E+03
             -0.245439229191398E+02
              0.163572186779797E+03
             -0.266969374440475E+01
              0.665475497524114E+02
              0.329275230158248E+01
              0.920030250008659E+01
             -0.194827102363482E+02
              0.110725776420420E+03
             -0.828491200298773E+02
             -0.190058770853560E+03
             -0.526679010257368E+02
              0.429013210158272E+02
              0.459734434946336E+01
              0.227426952968046E+03
              0.206205719353307E+03
             -0.101281722442229E+03
              0.568998880372538E+02
             -0.258383685801384E+03
              0.208085760932934E+03
              0.745109034945380E+02
              0.219103557147246E+03
              0.138169906358863E+03
             -0.863443783272944E+02
              0.539438182948792E+02
             -0.112125637840972E+03
              0.324509898204641E+01
              0.110220770260095E+03
              0.142301833703018E+03
             -0.349384927665193E+02
              0.306607408137074E+03
             -0.107385289825971E+03
             -0.775848617910128E+02
              0.118842391936204E+03
              0.408859269525930E+02
              0.100071666375823E+03
             -0.174780211055819E+03
             -0.716411608296494E+01
              0.185245586466302E+03
              0.225977669869189E+03
             -0.204757710125751E+03
              0.169278200502194E+02
              0.807032788128204E+02
              0.188301096723458E+02
              0.987256385635195E+02
              0.198074265337206E+03
             -0.132737872583539E+03
             -0.139730302767081E+03
             -0.176999569751676E+03
             -0.487917194161738E+02
             -0.147758040295902E+03
              0.787053593186749E+01
             -0.392822365242014E+02
             -0.134081769665870E+03
[...]
              0.173909987227923E+03
              0.710519623796174E+02
              0.121214307843154E+03
             -0.173521918649707E+03
             -0.135165505829163E+03
             -0.550631893219837E+02
             -0.148710220524662E+03
              0.268049865643075E+03
              0.229917853608188E+03
              0.999142702953805E+02
              0.271050539345231E+03
             -0.145380481653906E+03
             -0.699440899333075E+02
             -0.721993810917145E+02
              0.213867685016893E+03

 BEEF-vdW xc energy contributions
            1 :    -2089.889215627069
            2 :     1843.675701693666
            3 :    -1419.184061863689
            4 :     926.6130090881106
            5 :    -478.4023355949130
            6 :     152.0475867955379
            7 :     29.32438535591382
            8 :    -92.66795171726153
            9 :     92.08609402613592
           10 :    -79.96781566139089
           11 :     85.80548737697836
           12 :    -110.6749555719089
           13 :     136.6756153562087
           14 :    -143.5399241259129
           15 :     122.4766024905925
           16 :    -80.53558868262189
           17 :     34.96483157071452
           18 :    -2.504549697094262
           19 :    -9.486750899411618
           20 :     5.311018811029498
           21 :     3.687585799400495
           22 :    -6.958326936964113
           23 :    0.7972839698168173
           24 :     10.64156630406160
           25 :    -19.23833665745860
           26 :     18.68963996583079
           27 :    -8.438863961013794
           28 :    -6.403139180695689
           29 :     18.61887181604607
           30 :    -23.34498619541910
           31 :    -273.4365641110244
           32 :    -198.3483928685146

     Writing all to output data dir ./diamond.save/

     General routines

     Parallel routines

     PAW routines

   This run was terminated on:  13: 3:22  19Feb2024

   JOB DONE.