     Program PWSCF v.7.1 starts on 21Feb2024 at  8:46:47

     Reading input from espresso.pwi
Warning: card &CELL ignored
Warning: card    CELL_DYNAMICS    = 'BFGS' ignored
Warning: card / ignored

     Current dimensions of program PWSCF are:
     Max number of different atomic species (ntypx) = 10
     Max number of k-points (npk) =  40000
     Max angular momentum in pseudopotentials (lmaxx) =  4
     file Ga.pbe-dn-kjpaw_psl.1.0.0.UPF: wavefunction(s)  4S renormalized
     file N.pbe-n-kjpaw_psl.1.0.0.UPF: wavefunction(s)  2S renormalized

     IMPORTANT: XC functional enforced from input :
     Exchange-correlation= BEEF-VDW
                           (   1   4  43  14   2   0   0)
     Any further DFT definition will be discarded
     Please, verify this is what you really want

     Found identity + (  0.0000  0.5000  0.5000) symmetry
     This is a supercell, fractional translations are disabled

     K-points division:     npool     =       8
     R & G space division:  proc/nbgrp/npool/nimage =      16
     Subspace diagonalization in iterative solution of the eigenvalue problem:
     a serial algorithm will be used

     Using Slab Decomposition

     bravais-lattice index     =            1
     lattice parameter (alat)  =       8.1321  a.u.
     unit-cell volume          =     537.7814 (a.u.)^3
     number of atoms/cell      =            8
     number of atomic types    =            2
     number of electrons       =        72.00
     number of Kohn-Sham states=           43
     kinetic-energy cutoff     =      70.0000  Ry
     charge density cutoff     =     350.0000  Ry
     scf convergence threshold =      1.0E-07
     mixing beta               =       0.7000
     number of iterations used =            8  plain     mixing
     Exchange-correlation= BEEF-VDW
                           (   1   4  43  14   2   0   0)

     celldm(1)=   8.132085  celldm(2)=   0.000000  celldm(3)=   0.000000
     celldm(4)=   0.000000  celldm(5)=   0.000000  celldm(6)=   0.000000

     crystal axes: (cart. coord. in units of alat)
               a(1) = (   1.000000   0.000000   0.000000 )
               a(2) = (   0.000000   1.000000   0.000000 )
               a(3) = (   0.000000   0.000000   1.000000 )

     reciprocal axes: (cart. coord. in units 2 pi/alat)
               b(1) = (  1.000000  0.000000  0.000000 )
               b(2) = (  0.000000  1.000000  0.000000 )
               b(3) = (  0.000000  0.000000  1.000000 )

     PseudoPot. # 1 for Ga read from file:
     //group///packages/espresso/pseudo/psl_1.0.0/pslibrary.1.0.0/pbe/PSEUDOPOTENTIALS/Ga.pbe-dn-kjpaw_psl.1.0.0.UPF
     MD5 check sum: cd2a01e492f15b435d17032472d8505c
     Pseudo is Projector augmented-wave + core cor, Zval = 13.0
     Generated using 'atomic' code by A. Dal Corso  v.7.1
     Shape of augmentation charge: PSQ
     Using radial grid of 1205 points,  6 beta functions with:
                l(1) =   0
                l(2) =   0
                l(3) =   1
                l(4) =   1
                l(5) =   2
                l(6) =   2
     Q(r) pseudized with 0 coefficients

     PseudoPot. # 2 for N  read from file:
     //group///packages/espresso/pseudo/psl_1.0.0/pslibrary.1.0.0/pbe/PSEUDOPOTENTIALS/N.pbe-n-kjpaw_psl.1.0.0.UPF
     MD5 check sum: f77f775694dac7e2c3fe1c82443d1a16
     Pseudo is Projector augmented-wave + core cor, Zval =  5.0
     Generated using 'atomic' code by A. Dal Corso  v.7.1
     Shape of augmentation charge: PSQ
     Using radial grid of 1085 points,  4 beta functions with:
                l(1) =   0
                l(2) =   0
                l(3) =   1
                l(4) =   1
     Q(r) pseudized with 0 coefficients

     atomic species   valence    mass     pseudopotential
        Ga            13.00    69.72300     Ga( 1.00)
        N              5.00    14.00700     N ( 1.00)

     48 Sym. Ops., with inversion, found

                                    s                        frac. trans.

      isym =  1     identity

 cryst.   s( 1) = (     1          0          0      )
                  (     0          1          0      )
                  (     0          0          1      )

 cart.    s( 1) = (  1.0000000  0.0000000  0.0000000 )
                  (  0.0000000  1.0000000  0.0000000 )
                  (  0.0000000  0.0000000  1.0000000 )

      isym =  2     180 deg rotation - cart. axis [0,0,1]

[...]

 cryst.   s( 9) = (     0          0          1      )
                  (     0         -1          0      )
                  (     1          0          0      )

 cart.    s( 9) = (  0.0000000  0.0000000  1.0000000 )
                  (  0.0000000 -1.0000000  0.0000000 )
                  (  1.0000000  0.0000000  0.0000000 )

[...]

 cryst.   s(10) = (     0          0         -1      )
                  (     0         -1          0      )
                  (    -1          0          0      )

 cart.    s(10) = (  0.0000000  0.0000000 -1.0000000 )
                  (  0.0000000 -1.0000000  0.0000000 )
                  ( -1.0000000  0.0000000  0.0000000 )

[...]

      isym = 24     120 deg rotation - cart. axis [-1,-1,1]

[...]

      isym = 25     inversion

[...]

      isym = 26     inv. 180 deg rotation - cart. axis [0,0,1]

[...]

      isym = 48     inv. 120 deg rotation - cart. axis [-1,-1,1]

 cryst.   s(48) = (     0         -1          0      )
                  (     0          0          1      )
                  (     1          0          0      )

 cart.    s(48) = (  0.0000000  0.0000000  1.0000000 )
                  ( -1.0000000  0.0000000  0.0000000 )
                  (  0.0000000  1.0000000  0.0000000 )

     point group O_h (m-3m)
     there are 10 classes
     the character table:

       E     8C3   3C2   6C4   6C2'  i     8S6   3s_h  6S4   6s_d
A_1g   1.00  1.00  1.00  1.00  1.00  1.00  1.00  1.00  1.00  1.00
A_2g   1.00  1.00  1.00 -1.00 -1.00  1.00  1.00  1.00 -1.00 -1.00
E_g    2.00 -1.00  2.00  0.00  0.00  2.00 -1.00  2.00  0.00  0.00
T_1g   3.00  0.00 -1.00  1.00 -1.00  3.00  0.00 -1.00  1.00 -1.00
T_2g   3.00  0.00 -1.00 -1.00  1.00  3.00  0.00 -1.00 -1.00  1.00
A_1u   1.00  1.00  1.00  1.00  1.00 -1.00 -1.00 -1.00 -1.00 -1.00
A_2u   1.00  1.00  1.00 -1.00 -1.00 -1.00 -1.00 -1.00  1.00  1.00
E_u    2.00 -1.00  2.00  0.00  0.00 -2.00  1.00 -2.00  0.00  0.00
T_1u   3.00  0.00 -1.00  1.00 -1.00 -3.00  0.00  1.00 -1.00  1.00
T_2u   3.00  0.00 -1.00 -1.00  1.00 -3.00  0.00  1.00  1.00 -1.00

     the symmetry operations in each class and the name of the first element:

     E        1
          identity
     8C3     17   19   20   18   24   21   22   23
          120 deg rotation - cart. axis [-1,-1,-1]
     3C2      2    4    3
          180 deg rotation - cart. axis [0,0,1]
     6C4      7    8   15   16   12   11
           90 deg rotation - cart. axis [0,0,-1]
     6C2'     5    6   14   13   10    9
          180 deg rotation - cart. axis [1,1,0]
     i       25
          inversion
     8S6     41   43   44   42   48   45   46   47
          inv. 120 deg rotation - cart. axis [-1,-1,-1]
     3s_h    26   28   27
          inv. 180 deg rotation - cart. axis [0,0,1]
     6S4     31   32   39   40   36   35
          inv.  90 deg rotation - cart. axis [0,0,-1]
     6s_d    29   30   38   37   34   33
          inv. 180 deg rotation - cart. axis [1,1,0]

   Cartesian axes

     site n.     atom                  positions (alat units)
         1           Ga  tau(   1) = (   0.0000000   0.0000000   0.0000000  )
         2           Ga  tau(   2) = (   0.0000000   0.5000000   0.5000000  )
         3           Ga  tau(   3) = (   0.5000000   0.0000000   0.5000000  )
         4           Ga  tau(   4) = (   0.5000000   0.5000000   0.0000000  )
         5           N   tau(   5) = (   0.5000000   0.0000000   0.0000000  )
         6           N   tau(   6) = (   0.5000000   0.5000000   0.5000000  )
         7           N   tau(   7) = (   0.0000000   0.0000000   0.5000000  )
         8           N   tau(   8) = (   0.0000000   0.5000000   0.0000000  )

   Crystallographic axes

     site n.     atom                  positions (cryst. coord.)
         1           Ga  tau(   1) = (  0.0000000  0.0000000  0.0000000  )
         2           Ga  tau(   2) = (  0.0000000  0.5000000  0.5000000  )
         3           Ga  tau(   3) = (  0.5000000  0.0000000  0.5000000  )
         4           Ga  tau(   4) = (  0.5000000  0.5000000  0.0000000  )
         5           N   tau(   5) = (  0.5000000  0.0000000  0.0000000  )
         6           N   tau(   6) = (  0.5000000  0.5000000  0.5000000  )
         7           N   tau(   7) = (  0.0000000  0.0000000  0.5000000  )
         8           N   tau(   8) = (  0.0000000  0.5000000  0.0000000  )

     number of k points=    10  Gaussian smearing, width (Ry)=  0.0100
                       cart. coord. in units 2pi/alat
        k(    1) = (   0.0000000   0.0000000   0.0000000), wk =   0.0312500
        k(    2) = (   0.0000000   0.0000000   0.2500000), wk =   0.1875000
        k(    3) = (   0.0000000   0.0000000  -0.5000000), wk =   0.0937500
        k(    4) = (   0.0000000   0.2500000   0.2500000), wk =   0.3750000
        k(    5) = (   0.0000000   0.2500000  -0.5000000), wk =   0.3750000
        k(    6) = (   0.0000000  -0.5000000  -0.5000000), wk =   0.0937500
        k(    7) = (   0.2500000   0.2500000   0.2500000), wk =   0.2500000
        k(    8) = (   0.2500000   0.2500000  -0.5000000), wk =   0.3750000
        k(    9) = (   0.2500000  -0.5000000  -0.5000000), wk =   0.1875000
        k(   10) = (  -0.5000000  -0.5000000  -0.5000000), wk =   0.0312500

                       cryst. coord.
        k(    1) = (   0.0000000   0.0000000   0.0000000), wk =   0.0312500
        k(    2) = (   0.0000000   0.0000000   0.2500000), wk =   0.1875000
        k(    3) = (   0.0000000   0.0000000  -0.5000000), wk =   0.0937500
        k(    4) = (   0.0000000   0.2500000   0.2500000), wk =   0.3750000
        k(    5) = (   0.0000000   0.2500000  -0.5000000), wk =   0.3750000
        k(    6) = (   0.0000000  -0.5000000  -0.5000000), wk =   0.0937500
        k(    7) = (   0.2500000   0.2500000   0.2500000), wk =   0.2500000
        k(    8) = (   0.2500000   0.2500000  -0.5000000), wk =   0.3750000
        k(    9) = (   0.2500000  -0.5000000  -0.5000000), wk =   0.1875000
        k(   10) = (  -0.5000000  -0.5000000  -0.5000000), wk =   0.0312500

     Atomic positions and unit cell read from directory:
     ./PbI2.save/

     Check: negative core charge=   -0.000003

     The initial density is read from file :
     ./PbI2.save/charge-density

     %%%%%%%%%%%%%%%%%%%%%%%%%%%%%%%%%%%%%%%%%%%%%%%%%%%%%%%%%%%%%%%%%%%%%%%%
     %                                                                      %
     % You are using vdW-DF, which was implemented by the Thonhauser group. %
     % Please cite the following two papers that made this development      %
     % possible and the two reviews that describe the various versions:     %
     %                                                                      %
     %   T. Thonhauser et al., PRL 115, 136402 (2015).                      %
[...]
     %%%%%%%%%%%%%%%%%%%%%%%%%%%%%%%%%%%%%%%%%%%%%%%%%%%%%%%%%%%%%%%%%%%%%%%%

     %%%%%%%%%%%%%%%%%%%%%%%%%%%%%%%%%%%%%%%%%%%%%%%%%%%%%%%%%%%%%%%%%%%%%%%%
     %                                                                      %
     %  vdW-DF NEWS:                                                        %
     %                                                                      %
     %  * vdW-DF3 is now available. DOI: 10.1021/acs.jctc.0c00471           %
     %    use with input_dft = 'vdW-DF3-opt1' or 'vdW-DF3-opt2'             %
     %                                                                      %
     %  * Unscreened and range-separated vdW-DF hybrid functionals          %
     %    DOI: 10.1063/1.4986522 and 10.1088/1361-648X/ac2ad2               %
     %    use with input_dft = 'vdW-DF-cx0' (etc) and 'vdW-DF-ahcx'         %
     %                                                                      %
     %%%%%%%%%%%%%%%%%%%%%%%%%%%%%%%%%%%%%%%%%%%%%%%%%%%%%%%%%%%%%%%%%%%%%%%%

     Carrying out vdW-DF run using the following parameters:
     Nqs    =  20  Npoints =  1024  r_max =  100.000
     q_mesh =  0.00001000  0.04494208  0.09755937  0.15916263
               0.23128650  0.31572767  0.41458969  0.53033537
               0.66584808  0.82450364  1.01025438  1.22772762
               1.48234092  1.78043706  2.12944203  2.53805004
               3.01644009  3.57652955  4.23227104  5.00000000

     Non-local corr. energy    =       2.11840423 Ry

     Starting wfcs from file
     Checking if some PAW data can be deallocated...

     Self-consistent Calculation

     iteration #  1     ecut=    70.00 Ry     beta= 0.70
     Davidson diagonalization with overlap

     ethr =  1.00E-05,  avg # of iterations =  1.0

     Threshold (ethr) on eigenvalues was too large:
     Diagonalizing with lowered threshold

     Davidson diagonalization with overlap

[...]

     total energy              =   -1248.83223313 Ry
     estimated scf accuracy    <       0.00000012 Ry

     iteration #  2     ecut=    70.00 Ry     beta= 0.70
     Davidson diagonalization with overlap

     ethr =  1.60E-10,  avg # of iterations =  3.9

[...]

     End of self-consistent calculation

          k = 0.0000 0.0000 0.0000 (  5377 PWs)   bands (ev):

    -4.7258  -3.8645  -3.8645  -3.8645  -2.7337  -2.7337  -2.7337  -2.5937
    -2.5937  -2.5937  -2.5075  -2.5075  -2.4168  -2.4167  -2.4167  -2.3645
    -2.3645  -2.3645  -2.3643  -2.3643  -2.3643   0.6530   0.6530   0.6530
     5.4666   5.4666   5.4666   9.2562   9.2562   9.2562   9.2563   9.2563
     9.2563  11.6149  11.6149  11.6149  12.2511  12.2511  12.2511  13.6114
    20.5133  20.5133  20.5133

     occupation numbers
     1.0000   1.0000   1.0000   1.0000   1.0000   1.0000   1.0000   1.0000
     1.0000   1.0000   1.0000   1.0000   1.0000   1.0000   1.0000   1.0000
     1.0000   1.0000   1.0000   1.0000   1.0000   1.0000   1.0000   1.0000
     1.0000   1.0000   1.0000   1.0000   1.0000   1.0000   1.0000   1.0000
     1.0000   1.0000   1.0000   1.0000   0.2199   0.2199   0.2197   0.0000
     0.0000   0.0000   0.0000

[...]

          k = 0.2500-0.5000-0.5000 (  5304 PWs)   bands (ev):

[...]

          k =-0.5000-0.5000-0.5000 (  5400 PWs)   bands (ev):

    -2.7155  -2.7154  -2.7154  -2.7154  -2.7029  -2.7029  -2.7029  -2.7029
    -2.7029  -2.7029  -2.7027  -2.7027  -2.4065  -2.4065  -2.4065  -2.4064
    -2.4064  -2.4063  -2.4063  -2.4063  -1.8836  -1.8836  -1.8836  -1.8835
     4.1375   4.1375   4.1375   4.1375  11.9759  11.9759  11.9759  11.9759
    11.9759  11.9759  11.9759  11.9759  16.6847  16.6847  16.6847  16.6847
    20.6782  20.6782  20.6782

     occupation numbers
     1.0000   1.0000   1.0000   1.0000   1.0000   1.0000   1.0000   1.0000
     1.0000   1.0000   1.0000   1.0000   1.0000   1.0000   1.0000   1.0000
     1.0000   1.0000   1.0000   1.0000   1.0000   1.0000   1.0000   1.0000
     1.0000   1.0000   1.0000   1.0000   0.9816   0.9816   0.9816   0.9816
     0.9816   0.9816   0.9816   0.9816   0.0000   0.0000   0.0000   0.0000
     0.0000   0.0000   0.0000

     the Fermi energy is    12.1767 ev

!    total energy              =   -1248.83223314 Ry
     total all-electron energy =    -16014.686070 Ry
     estimated scf accuracy    <       0.00000003 Ry
     smearing contrib. (-TS)   =      -0.00052602 Ry
     internal energy E=F+TS    =   -1248.83170712 Ry

     The total energy is F=E-TS. E is the sum of the following terms:
     one-electron contribution =    -291.12071597 Ry
     hartree contribution      =     228.81514322 Ry
     xc contribution           =    -182.17806924 Ry
     ewald contribution        =    -507.19020684 Ry
     one-center paw contrib.   =    -497.15785828 Ry
      -> PAW hartree energy AE =     141.50985215 Ry
      -> PAW hartree energy PS =    -140.14132508 Ry
      -> PAW xc energy AE      =    -156.73616192 Ry
      -> PAW xc energy PS      =      39.53644580 Ry
      -> total E_H with PAW    =     230.18367029 Ry
      -> total E_XC with PAW   =    -299.37778537 Ry

     convergence has been achieved in   2 iterations

[...]

     Forces acting on atoms (cartesian axes, Ry/au):

     atom    1 type  1   force =     0.00000000    0.00000000    0.00000000
     atom    2 type  1   force =     0.00000000    0.00000000    0.00000000
     atom    3 type  1   force =     0.00000000    0.00000000    0.00000000
     atom    4 type  1   force =     0.00000000    0.00000000    0.00000000
     atom    5 type  2   force =     0.00000000    0.00000000    0.00000000
     atom    6 type  2   force =     0.00000000    0.00000000    0.00000000
     atom    7 type  2   force =     0.00000000    0.00000000    0.00000000
     atom    8 type  2   force =     0.00000000    0.00000000    0.00000000
     The non-local contrib.  to forces
     atom    1 type  1   force =     0.00000000    0.00000000    0.00000000
     atom    2 type  1   force =     0.00000000    0.00000000    0.00000000
     atom    3 type  1   force =     0.00000000    0.00000000    0.00000000
     atom    4 type  1   force =     0.00000000    0.00000000    0.00000000
     atom    5 type  2   force =     0.00000000    0.00000000    0.00000000
     atom    6 type  2   force =     0.00000000    0.00000000    0.00000000
     atom    7 type  2   force =     0.00000000    0.00000000    0.00000000
     atom    8 type  2   force =     0.00000000    0.00000000    0.00000000
     The ionic contribution  to forces
     atom    1 type  1   force =    -0.00000040   -0.00000040   -0.00000040
     atom    2 type  1   force =    -0.00000040    0.00000040    0.00000040
     atom    3 type  1   force =     0.00000040   -0.00000040    0.00000040
     atom    4 type  1   force =     0.00000040    0.00000040   -0.00000040
     atom    5 type  2   force =     0.00000022   -0.00000022   -0.00000022
     atom    6 type  2   force =     0.00000022    0.00000022    0.00000022
     atom    7 type  2   force =    -0.00000022   -0.00000022    0.00000022
     atom    8 type  2   force =    -0.00000022    0.00000022   -0.00000022
     The local contribution  to forces
     atom    1 type  1   force =    -0.00000000   -0.00000000    0.00000000
     atom    2 type  1   force =    -0.00000000    0.00000357    0.00000357
     atom    3 type  1   force =     0.00000357   -0.00000000    0.00000357
     atom    4 type  1   force =     0.00000357    0.00000357    0.00000000
     atom    5 type  2   force =     0.00000028   -0.00000000   -0.00000000
     atom    6 type  2   force =     0.00000028    0.00000028    0.00000028
     atom    7 type  2   force =    -0.00000000   -0.00000000    0.00000028
     atom    8 type  2   force =    -0.00000000    0.00000028   -0.00000000
     The core correction contribution to forces
     atom    1 type  1   force =     0.00000000    0.00000000    0.00000000
     atom    2 type  1   force =     0.00000000    0.00000027    0.00000027
     atom    3 type  1   force =     0.00000027    0.00000000    0.00000027
     atom    4 type  1   force =     0.00000027    0.00000027    0.00000000
     atom    5 type  2   force =    -0.00000001    0.00000000    0.00000000
     atom    6 type  2   force =    -0.00000001   -0.00000001   -0.00000001
     atom    7 type  2   force =     0.00000000    0.00000000   -0.00000001
     atom    8 type  2   force =     0.00000000   -0.00000001    0.00000000
     The Hubbard contrib.    to forces
     atom    1 type  1   force =     0.00000000    0.00000000    0.00000000
     atom    2 type  1   force =     0.00000000    0.00000000    0.00000000
     atom    3 type  1   force =     0.00000000    0.00000000    0.00000000
     atom    4 type  1   force =     0.00000000    0.00000000    0.00000000
     atom    5 type  2   force =     0.00000000    0.00000000    0.00000000
     atom    6 type  2   force =     0.00000000    0.00000000    0.00000000
     atom    7 type  2   force =     0.00000000    0.00000000    0.00000000
     atom    8 type  2   force =     0.00000000    0.00000000    0.00000000
     The SCF correction term to forces
     atom    1 type  1   force =     0.00000000   -0.00000000    0.00000000
     atom    2 type  1   force =     0.00000000    0.00000000    0.00000000
     atom    3 type  1   force =     0.00000000    0.00000000    0.00000000
     atom    4 type  1   force =     0.00000000    0.00000000    0.00000000
     atom    5 type  2   force =    -0.00000000    0.00000000    0.00000000
     atom    6 type  2   force =    -0.00000000   -0.00000000   -0.00000000
     atom    7 type  2   force =     0.00000000    0.00000000   -0.00000000
     atom    8 type  2   force =     0.00000000   -0.00000000    0.00000000

     Total force =     0.000000     Total SCF correction =     0.000000

     Computing stress (Cartesian axis) and pressure

[...]

          total   stress  (Ry/bohr**3)                   (kbar)     P=        0.97
   0.00000662   0.00000000   0.00000000            0.97        0.00        0.00
   0.00000000   0.00000662   0.00000000            0.00        0.97        0.00
   0.00000000   0.00000000   0.00000662            0.00        0.00        0.97

     kinetic stress (kbar)  22498.69      0.00      0.00
                                0.00  22498.69      0.00
                                0.00      0.00  22498.69

     local   stress (kbar)  13609.66     -0.00     -0.00
                               -0.00  13609.66     -0.00
                               -0.00     -0.00  13609.66

     nonloc. stress (kbar)   -163.37      0.00      0.00
                                0.00   -163.37      0.00
                                0.00      0.00   -163.37

     hartree stress (kbar)  20863.41     -0.00     -0.00
                               -0.00  20863.41     -0.00
                               -0.00     -0.00  20863.41

     exc-cor stress (kbar)   6312.73      0.00      0.00
                                0.00   6312.73      0.00
                                0.00      0.00   6312.73

     corecor stress (kbar) -17064.52     -0.00     -0.00
                               -0.00 -17064.52     -0.00
                               -0.00     -0.00 -17064.52

     ewald   stress (kbar) -46245.71      0.00      0.00
                                0.00 -46245.71      0.00
                                0.00      0.00 -46245.71

     hubbard stress (kbar)      0.00      0.00      0.00
                                0.00      0.00      0.00
                                0.00      0.00      0.00

     DFT-D   stress (kbar)      0.00      0.00      0.00
                                0.00      0.00      0.00
                                0.00      0.00      0.00

     XDM     stress (kbar)      0.00      0.00      0.00
                                0.00      0.00      0.00
                                0.00      0.00      0.00

     dft-nl  stress (kbar)    190.08      0.00     -0.00
                                0.00    190.08     -0.00
                               -0.00     -0.00    190.08

     TS-vdW  stress (kbar)      0.00      0.00      0.00
                                0.00      0.00      0.00
                                0.00      0.00      0.00

     MDB     stress (kbar)      0.00      0.00      0.00
                                0.00      0.00      0.00
                                0.00      0.00      0.00

     3D-RISM stress (kbar)      0.00      0.00      0.00
                                0.00      0.00      0.00
                                0.00      0.00      0.00

[...]

     Non-local corr. energy    =       2.11843519 Ry

 BEEFens 2000 ensemble energies
             -0.174082408412781E+01
             -0.158569582913903E+02
             -0.677407297362972E+01
              0.549875010029300E+01
             -0.112908170239312E+02
             -0.145908986801632E+02
              0.741475013683618E+01
             -0.697337824802922E+00
              0.125802751954532E+02
             -0.554613465362102E+00
              0.611216934718146E+01
              0.270612025156581E+00
              0.347157672091107E+00
             -0.398300758787855E+00
              0.828585516589865E+01
             -0.586279680494560E+01
             -0.123089025342586E+02
             -0.405373940012714E+01
              0.303332669470964E+01
             -0.200498874439177E+00
              0.179703192597758E+02
              0.153512300601202E+02
             -0.876388255001974E+01
              0.318724207560279E+01
             -0.191771008953367E+02
              0.153862225340455E+02
              0.496988422823750E+01
              0.149511189739511E+02
              0.986661130936793E+01
             -0.477423768445266E+01
              0.355679560797670E+01
             -0.718384934018415E+01
              0.204444301859357E+01
              0.962733238522776E+01
              0.100885234237485E+02
             -0.377375039906322E+01
              0.226857518364180E+02
             -0.847979578794082E+01
             -0.631255765374599E+01
              0.915133359475200E+01
              0.412172316439242E+01
              0.667561378294111E+01
             -0.128960865552024E+02
             -0.378981886828171E+00
              0.126111000874098E+02
              0.163930223370039E+02
             -0.163008614178689E+02
              0.123619694625478E+01
              0.627522430074956E+01
              0.299910088098366E+01
              0.694350930611842E+01
              0.145405381826878E+02
             -0.871322675028975E+01
             -0.951672460667018E+01
             -0.124918181659119E+02
             -0.198119277380565E+01
             -0.114798809104919E+02
              0.116186643842667E+01
             -0.214760558465623E+01
             -0.884515023429094E+01
[...]
              0.110602235791065E+02
              0.619903261977366E+01
              0.780926970088549E+01
             -0.125760017824192E+02
             -0.120754753817139E+02
             -0.304519731833860E+01
             -0.118822055459611E+02
              0.189143013607951E+02
              0.162552654845442E+02
              0.777533322520508E+01
              0.210792177548565E+02
             -0.109938882989310E+02
             -0.442065106557711E+01
             -0.616955251221486E+01
              0.173533598359736E+02

 BEEF-vdW xc energy contributions
            1 :    -159.5959595582386
            2 :     143.9693811446242
            3 :    -117.7347205914223
            4 :     88.45003811421377
            5 :    -62.73966496444390
            6 :     43.81395146302503
            7 :    -31.19655085712645
            8 :     22.40663516321081
            9 :    -15.19999959225800
           10 :     8.876430711612670
           11 :    -4.055706580423703
           12 :     1.477811917911026
           13 :   -0.9608903171820202
           14 :     1.323383986585867
           15 :    -1.205526882409259
           16 :    2.5906344280826943E-002
           17 :     1.713914367260202
           18 :    -2.971353171124122
           19 :     3.062009640976157
           20 :    -2.191043291264748
           21 :     1.243785655723343
           22 :    -1.071831766279956
           23 :     1.876878625820041
           24 :    -3.154275399017365
           25 :     4.170945463164600
           26 :    -4.536610004268994
           27 :     4.406273376376618
           28 :    -4.204159788262473
           29 :     4.164863005875389
           30 :    -4.110627446533414
           31 :    -13.69709192838548
           32 :    -9.472419841825882

     Writing all to output data dir ./PbI2.save/

     General routines

     Parallel routines

     PAW routines

   This run was terminated on:   8:46:55  21Feb2024

   JOB DONE.