     Program PWSCF v.7.1 starts on 18Feb2024 at 18:24:26

     Reading input from espresso.pwi
Warning: card &CELL ignored
Warning: card    CELL_DYNAMICS    = 'BFGS' ignored
Warning: card / ignored

     Current dimensions of program PWSCF are:
     Max number of different atomic species (ntypx) = 10
     Max number of k-points (npk) =  40000
     Max angular momentum in pseudopotentials (lmaxx) =  4
     file C.pbe-n-kjpaw_psl.1.0.0.UPF: wavefunction(s)  2S 2P renormalized

     IMPORTANT: XC functional enforced from input :
     Exchange-correlation= BEEF-VDW
                           (   1   4  43  14   2   0   0)
     Any further DFT definition will be discarded
     Please, verify this is what you really want

     R & G space division:  proc/nbgrp/npool/nimage =     256
     wavefunctions fft division:  task group distribution
                                  #TG    x Z-proc =       8     32
     Subspace diagonalization in iterative solution of the eigenvalue problem:
     a serial algorithm will be used

     Using Pencil Decomposition

     bravais-lattice index     =            1
     lattice parameter (alat)  =      27.0027  a.u.
     unit-cell volume          =   19688.9026 (a.u.)^3
     number of atoms/cell      =          511
     number of atomic types    =            1
     number of electrons       =      2044.00
     number of Kohn-Sham states=         1226
     kinetic-energy cutoff     =      70.0000  Ry
     charge density cutoff     =     350.0000  Ry
     scf convergence threshold =      1.0E-07
     mixing beta               =       0.7000
     number of iterations used =            8  plain     mixing
     energy convergence thresh.=      1.0E-04
     force convergence thresh. =      1.0E-03
     Exchange-correlation= BEEF-VDW
                           (   1   4  43  14   2   0   0)
     nstep                     =           50

     celldm(1)=  27.002699  celldm(2)=   0.000000  celldm(3)=   0.000000
     celldm(4)=   0.000000  celldm(5)=   0.000000  celldm(6)=   0.000000

     crystal axes: (cart. coord. in units of alat)
               a(1) = (   1.000000   0.000000   0.000000 )
               a(2) = (   0.000000   1.000000   0.000000 )
               a(3) = (   0.000000   0.000000   1.000000 )

     reciprocal axes: (cart. coord. in units 2 pi/alat)
               b(1) = (  1.000000  0.000000  0.000000 )
               b(2) = (  0.000000  1.000000  0.000000 )
               b(3) = (  0.000000  0.000000  1.000000 )

     PseudoPot. # 1 for C  read from file:
     //group///packages/espresso/pseudo/psl_1.0.0/pslibrary.1.0.0/pbe/PSEUDOPOTENTIALS/C.pbe-n-kjpaw_psl.1.0.0.UPF
     MD5 check sum: 5459cf7f2c8c37df2f7cde8914797f4d
     Pseudo is Projector augmented-wave + core cor, Zval =  4.0
     Generated using 'atomic' code by A. Dal Corso  v.7.1
     Shape of augmentation charge: PSQ
     Using radial grid of 1073 points,  4 beta functions with:
                l(1) =   0
                l(2) =   0
                l(3) =   1
                l(4) =   1
     Q(r) pseudized with 0 coefficients

     atomic species   valence    mass     pseudopotential
        C              4.00    12.01100     C ( 1.00)

      6 Sym. Ops. (no inversion) found ( 4 have fractional translation)

                                    s                        frac. trans.

      isym =  1     identity

 cryst.   s( 1) = (     1          0          0      )
                  (     0          1          0      )
                  (     0          0          1      )

 cart.    s( 1) = (  1.0000000  0.0000000  0.0000000 )
                  (  0.0000000  1.0000000  0.0000000 )
                  (  0.0000000  0.0000000  1.0000000 )

      isym =  2     120 deg rotation - cart. axis [1,-1,1]

 cryst.   s( 2) = (     0          0          1      )    f =( -0.2500000 )
                  (    -1          0          0      )       ( -0.2500000 )
                  (     0         -1          0      )       (  0.0000000 )

 cart.    s( 2) = (  0.0000000 -1.0000000  0.0000000 )    f =( -0.2500000 )
                  (  0.0000000  0.0000000 -1.0000000 )       ( -0.2500000 )
                  (  1.0000000  0.0000000  0.0000000 )       (  0.0000000 )

      isym =  3     120 deg rotation - cart. axis [-1,1,-1]

[...]

      isym =  4     inv. 180 deg rotation - cart. axis [1,1,0]

[...]

 cryst.   s( 5) = (     0          0          1      )
                  (     0          1          0      )
                  (     1          0          0      )

 cart.    s( 5) = (  0.0000000  0.0000000  1.0000000 )
                  (  0.0000000  1.0000000  0.0000000 )
                  (  1.0000000  0.0000000  0.0000000 )

      isym =  6     inv. 180 deg rotation - cart. axis [0,1,1]

 cryst.   s( 6) = (     1          0          0      )    f =(  0.0000000 )
                  (     0          0         -1      )       ( -0.2500000 )
                  (     0         -1          0      )       ( -0.2500000 )

 cart.    s( 6) = (  1.0000000  0.0000000  0.0000000 )    f =(  0.0000000 )
                  (  0.0000000  0.0000000 -1.0000000 )       ( -0.2500000 )
                  (  0.0000000 -1.0000000  0.0000000 )       ( -0.2500000 )

     point group C_3v (3m)
     there are  3 classes
     the character table:

       E     2C3   3s_v
A_1    1.00  1.00  1.00
A_2    1.00  1.00 -1.00
E      2.00 -1.00  0.00

     the symmetry operations in each class and the name of the first element:

     E        1
          identity
     2C3      2    3
          120 deg rotation - cart. axis [1,-1,1]
     3s_v     4    5    6
          inv. 180 deg rotation - cart. axis [1,1,0]

   Cartesian axes

     site n.     atom                  positions (alat units)
         1           C   tau(   1) = (   0.0625015   0.1874985   0.3125015  )
         2           C   tau(   2) = (   0.0625015   0.1874985   0.5625015  )
         3           C   tau(   3) = (   0.0625015   0.1874985   0.8125015  )
         4           C   tau(   4) = (   0.0625015   0.4374985   0.0625015  )
         5           C   tau(   5) = (   0.0625015   0.4374985   0.3125015  )
         6           C   tau(   6) = (   0.0625015   0.4374985   0.5625015  )
         7           C   tau(   7) = (   0.0625015   0.4374985   0.8125015  )
         8           C   tau(   8) = (   0.0625015   0.6874985   0.0625015  )
         9           C   tau(   9) = (   0.0625015   0.6874985   0.3125015  )
        10           C   tau(  10) = (   0.0625015   0.6874985   0.5625015  )
        11           C   tau(  11) = (   0.0625015   0.6874985   0.8125015  )
        12           C   tau(  12) = (   0.0625015   0.9374985   0.0625015  )
        13           C   tau(  13) = (   0.0625015   0.9374985   0.3125015  )
        14           C   tau(  14) = (   0.0625015   0.9374985   0.5625015  )
        15           C   tau(  15) = (   0.0625015   0.9374985   0.8125015  )
        16           C   tau(  16) = (   0.3125015   0.1874985   0.0625015  )
        17           C   tau(  17) = (   0.3125015   0.1874985   0.3125015  )
        18           C   tau(  18) = (   0.3125015   0.1874985   0.5625015  )
        19           C   tau(  19) = (   0.3125015   0.1874985   0.8125015  )
        20           C   tau(  20) = (   0.3125015   0.4374985   0.0625015  )
        21           C   tau(  21) = (   0.3125015   0.4374985   0.3125015  )
        22           C   tau(  22) = (   0.3125015   0.4374985   0.5625015  )
        23           C   tau(  23) = (   0.3125015   0.4374985   0.8125015  )
        24           C   tau(  24) = (   0.3125015   0.6874985   0.0625015  )
        25           C   tau(  25) = (   0.3125015   0.6874985   0.3125015  )
        26           C   tau(  26) = (   0.3125015   0.6874985   0.5625015  )
        27           C   tau(  27) = (   0.3125015   0.6874985   0.8125015  )
        28           C   tau(  28) = (   0.3125015   0.9374985   0.0625015  )
        29           C   tau(  29) = (   0.3125015   0.9374985   0.3125015  )
        30           C   tau(  30) = (   0.3125015   0.9374985   0.5625015  )
        31           C   tau(  31) = (   0.3125015   0.9374985   0.8125015  )
        32           C   tau(  32) = (   0.5625015   0.1874985   0.0625015  )
        33           C   tau(  33) = (   0.5625015   0.1874985   0.3125015  )
        34           C   tau(  34) = (   0.5625015   0.1874985   0.5625015  )
        35           C   tau(  35) = (   0.5625015   0.1874985   0.8125015  )
        36           C   tau(  36) = (   0.5625015   0.4374985   0.0625015  )
        37           C   tau(  37) = (   0.5625015   0.4374985   0.3125015  )
        38           C   tau(  38) = (   0.5625015   0.4374985   0.5625015  )
        39           C   tau(  39) = (   0.5625015   0.4374985   0.8125015  )
        40           C   tau(  40) = (   0.5625015   0.6874985   0.0625015  )
        41           C   tau(  41) = (   0.5625015   0.6874985   0.3125015  )
        42           C   tau(  42) = (   0.5625015   0.6874985   0.5625015  )
        43           C   tau(  43) = (   0.5625015   0.6874985   0.8125015  )
        44           C   tau(  44) = (   0.5625015   0.9374985   0.0625015  )
        45           C   tau(  45) = (   0.5625015   0.9374985   0.3125015  )
        46           C   tau(  46) = (   0.5625015   0.9374985   0.5625015  )
        47           C   tau(  47) = (   0.5625015   0.9374985   0.8125015  )
        48           C   tau(  48) = (   0.8125015   0.1874985   0.0625015  )
        49           C   tau(  49) = (   0.8125015   0.1874985   0.3125015  )
        50           C   tau(  50) = (   0.8125015   0.1874985   0.5625015  )
        51           C   tau(  51) = (   0.8125015   0.1874985   0.8125015  )
        52           C   tau(  52) = (   0.8125015   0.4374985   0.0625015  )
        53           C   tau(  53) = (   0.8125015   0.4374985   0.3125015  )
        54           C   tau(  54) = (   0.8125015   0.4374985   0.5625015  )
        55           C   tau(  55) = (   0.8125015   0.4374985   0.8125015  )
        56           C   tau(  56) = (   0.8125015   0.6874985   0.0625015  )
        57           C   tau(  57) = (   0.8125015   0.6874985   0.3125015  )
        58           C   tau(  58) = (   0.8125015   0.6874985   0.5625015  )
        59           C   tau(  59) = (   0.8125015   0.6874985   0.8125015  )
        60           C   tau(  60) = (   0.8125015   0.9374985   0.0625015  )
[...]
       497           C   tau( 497) = (   0.8750000   0.1250000   0.3750000  )
       498           C   tau( 498) = (   0.8750000   0.1250000   0.6250000  )
       499           C   tau( 499) = (   0.8750000   0.1250000   0.8750000  )
       500           C   tau( 500) = (   0.8750000   0.3750000   0.1250000  )
       501           C   tau( 501) = (   0.8750000   0.3750000   0.3750000  )
       502           C   tau( 502) = (   0.8750000   0.3750000   0.6250000  )
       503           C   tau( 503) = (   0.8750000   0.3750000   0.8750000  )
       504           C   tau( 504) = (   0.8750000   0.6250000   0.1250000  )
       505           C   tau( 505) = (   0.8750000   0.6250000   0.3750000  )
       506           C   tau( 506) = (   0.8750000   0.6250000   0.6250000  )
[...]
     atom   45 type  1   force =     0.00000000    0.00000000    0.00000000
     atom   46 type  1   force =     0.00000000    0.00000000    0.00000000
     atom   47 type  1   force =     0.00000000    0.00000000    0.00000000
     atom   48 type  1   force =     0.00000000    0.00000000    0.00000000
     atom   49 type  1   force =     0.00000000    0.00000000    0.00000000
     atom   50 type  1   force =     0.00000000    0.00000000    0.00000000
     atom   51 type  1   force =     0.00000000    0.00000000    0.00000000
     atom   52 type  1   force =     0.00000000    0.00000000    0.00000000
     atom   53 type  1   force =     0.00000000    0.00000000    0.00000000
     atom   54 type  1   force =     0.00000000    0.00000000    0.00000000
     atom   55 type  1   force =     0.00000000    0.00000000    0.00000000
     atom   56 type  1   force =     0.00000000    0.00000000    0.00000000
     atom   57 type  1   force =     0.00000000    0.00000000    0.00000000
     atom   58 type  1   force =     0.00000000    0.00000000    0.00000000
     atom   59 type  1   force =     0.00000000    0.00000000    0.00000000
     atom   60 type  1   force =     0.00000000    0.00000000    0.00000000
[...]
     atom  497 type  1   force =     0.00000000    0.00000000    0.00000000
     atom  498 type  1   force =     0.00000000    0.00000000    0.00000000
     atom  499 type  1   force =     0.00000000    0.00000000    0.00000000
     atom  500 type  1   force =     0.00000000    0.00000000    0.00000000
     atom  501 type  1   force =     0.00000000    0.00000000    0.00000000
     atom  502 type  1   force =     0.00000000    0.00000000    0.00000000
     atom  503 type  1   force =     0.00000000    0.00000000    0.00000000
     atom  504 type  1   force =     0.00000000    0.00000000    0.00000000
     atom  505 type  1   force =     0.00000000    0.00000000    0.00000000
     atom  506 type  1   force =     0.00000000    0.00000000    0.00000000
     atom  507 type  1   force =     0.00000000    0.00000000    0.00000000
     atom  508 type  1   force =     0.00000000    0.00000000    0.00000000
     atom  509 type  1   force =     0.00000000    0.00000000    0.00000000
     atom  510 type  1   force =     0.00000000    0.00000000    0.00000000
     atom  511 type  1   force =     0.00000000    0.00000000    0.00000000
     The SCF correction term to forces
     atom    1 type  1   force =     0.00003371   -0.00003371   -0.00002241
     atom    2 type  1   force =     0.00001235   -0.00001235   -0.00001641
     atom    3 type  1   force =     0.00001285   -0.00001285   -0.00000924
     atom    4 type  1   force =     0.00001285    0.00000924    0.00001285
     atom    5 type  1   force =     0.00001698    0.00000695    0.00001135
     atom    6 type  1   force =     0.00001026    0.00000917   -0.00001126
     atom    7 type  1   force =     0.00000636    0.00001239   -0.00001239
     atom    8 type  1   force =     0.00001235    0.00001641    0.00001235
     atom    9 type  1   force =     0.00001298    0.00001685    0.00000900
     atom   10 type  1   force =     0.00001086    0.00001210   -0.00001210
     atom   11 type  1   force =     0.00001026    0.00001126   -0.00000917
     atom   12 type  1   force =     0.00003371    0.00002241    0.00003371
     atom   13 type  1   force =     0.00002618    0.00001093   -0.00001093
     atom   14 type  1   force =     0.00001298   -0.00000900   -0.00001685
     atom   15 type  1   force =     0.00001698   -0.00001135   -0.00000695
     atom   16 type  1   force =    -0.00002241   -0.00003371    0.00003371
     atom   17 type  1   force =    -0.00001093   -0.00002618   -0.00001093
     atom   18 type  1   force =     0.00000900   -0.00001298   -0.00001685
     atom   19 type  1   force =     0.00001135   -0.00001698   -0.00000695
     atom   20 type  1   force =     0.00001135    0.00000695    0.00001698
     atom   21 type  1   force =    -0.00000061   -0.00000469   -0.00000061
     atom   22 type  1   force =    -0.00000268   -0.00000378   -0.00001012
     atom   23 type  1   force =     0.00000615    0.00000516   -0.00000516
     atom   24 type  1   force =     0.00000900    0.00001685    0.00001298
     atom   25 type  1   force =    -0.00000429    0.00001880   -0.00000429
     atom   26 type  1   force =    -0.00001342    0.00001242   -0.00001242
     atom   27 type  1   force =    -0.00000268    0.00001012    0.00000378
     atom   28 type  1   force =    -0.00001093    0.00001093    0.00002618
     atom   29 type  1   force =    -0.00000789    0.00000789   -0.00000789
     atom   30 type  1   force =    -0.00000429    0.00000429   -0.00001880
     atom   31 type  1   force =    -0.00000061    0.00000061    0.00000469
     atom   32 type  1   force =    -0.00001641   -0.00001235    0.00001235
     atom   33 type  1   force =    -0.00001685   -0.00001298    0.00000900
     atom   34 type  1   force =    -0.00001210   -0.00001086   -0.00001210
     atom   35 type  1   force =    -0.00001126   -0.00001026   -0.00000917
     atom   36 type  1   force =    -0.00001126    0.00000917    0.00001026
     atom   37 type  1   force =    -0.00001012   -0.00000378   -0.00000268
     atom   38 type  1   force =    -0.00001019   -0.00001344   -0.00001019
     atom   39 type  1   force =    -0.00001118   -0.00000267    0.00000267
     atom   40 type  1   force =    -0.00001210    0.00001210    0.00001086
     atom   41 type  1   force =    -0.00001242    0.00001242   -0.00001342
     atom   42 type  1   force =    -0.00001074    0.00001074   -0.00001074
     atom   43 type  1   force =    -0.00001019    0.00001019    0.00001344
     atom   44 type  1   force =    -0.00001685   -0.00000900    0.00001298
     atom   45 type  1   force =    -0.00001880    0.00000429   -0.00000429
     atom   46 type  1   force =    -0.00001242    0.00001342   -0.00001242
     atom   47 type  1   force =    -0.00001012    0.00000268    0.00000378
     atom   48 type  1   force =    -0.00000924   -0.00001285    0.00001285
     atom   49 type  1   force =    -0.00000695   -0.00001698    0.00001135
     atom   50 type  1   force =    -0.00000917   -0.00001026   -0.00001126
     atom   51 type  1   force =    -0.00001239   -0.00000636   -0.00001239
     atom   52 type  1   force =    -0.00001239    0.00001239    0.00000636
     atom   53 type  1   force =    -0.00000516    0.00000516    0.00000615
     atom   54 type  1   force =     0.00000267   -0.00000267   -0.00001118
     atom   55 type  1   force =    -0.00000189    0.00000189   -0.00000189
     atom   56 type  1   force =    -0.00000917    0.00001126    0.00001026
     atom   57 type  1   force =     0.00000378    0.00001012   -0.00000268
     atom   58 type  1   force =     0.00001344    0.00001019   -0.00001019
     atom   59 type  1   force =     0.00000267    0.00001118    0.00000267
     atom   60 type  1   force =    -0.00000695   -0.00001135    0.00001698
[...]
     atom  497 type  1   force =     0.00000332   -0.00001666   -0.00000103
     atom  498 type  1   force =    -0.00000498   -0.00001159   -0.00001291
     atom  499 type  1   force =    -0.00001028   -0.00001345   -0.00001028
     atom  500 type  1   force =    -0.00001028    0.00001028    0.00001345
     atom  501 type  1   force =    -0.00000185    0.00000185    0.00000313
     atom  502 type  1   force =     0.00000118   -0.00000118   -0.00001038
     atom  503 type  1   force =    -0.00000535    0.00000535   -0.00000535
     atom  504 type  1   force =    -0.00000498    0.00001291    0.00001159
     atom  505 type  1   force =     0.00000980    0.00000844   -0.00000300
     atom  506 type  1   force =     0.00001516    0.00001002   -0.00001002
     atom  507 type  1   force =     0.00000118    0.00001038    0.00000118
     atom  508 type  1   force =     0.00000332    0.00000103    0.00001666
     atom  509 type  1   force =     0.00001216    0.00000603   -0.00000603
     atom  510 type  1   force =     0.00000980    0.00000300   -0.00000844
     atom  511 type  1   force =    -0.00000185   -0.00000313   -0.00000185

     Total force =     0.004405     Total SCF correction =     0.000537
     SCF correction compared to forces is large: reduce conv_thr to get better values

     Computing stress (Cartesian axis) and pressure

     Non-local corr. energy    =      17.48207758 Ry

          total   stress  (Ry/bohr**3)                   (kbar)     P=        0.87
   0.00000592   0.00000002  -0.00000002            0.87        0.00       -0.00
   0.00000002   0.00000592   0.00000002            0.00        0.87        0.00
  -0.00000002   0.00000002   0.00000592           -0.00        0.00        0.87

     kinetic stress (kbar)  18958.17      0.01     -0.01
                                0.01  18958.17      0.01
                               -0.01      0.01  18958.17

     local   stress (kbar)  -3531.94      0.05     -0.05
                                0.05  -3531.94      0.05
                               -0.05      0.05  -3531.94

     nonloc. stress (kbar)   4316.45     -0.00      0.00
                               -0.00   4316.45     -0.00
                                0.00     -0.00   4316.45

     hartree stress (kbar)   1285.74     -0.02      0.02
                               -0.02   1285.74     -0.02
                                0.02     -0.02   1285.74

     exc-cor stress (kbar)   -412.74      0.00     -0.00
                                0.00   -412.74      0.00
                               -0.00      0.00   -412.74

     corecor stress (kbar)  -4426.45     -0.00      0.00
                               -0.00  -4426.45     -0.00
                                0.00     -0.00  -4426.45

     ewald   stress (kbar) -16213.18     -0.03      0.03
                               -0.03 -16213.18     -0.03
                                0.03     -0.03 -16213.18

     hubbard stress (kbar)      0.00      0.00      0.00
                                0.00      0.00      0.00
                                0.00      0.00      0.00

     DFT-D   stress (kbar)      0.00      0.00      0.00
                                0.00      0.00      0.00
                                0.00      0.00      0.00

     XDM     stress (kbar)      0.00      0.00      0.00
                                0.00      0.00      0.00
                                0.00      0.00      0.00

     dft-nl  stress (kbar)     24.81      0.00     -0.00
                                0.00     24.81      0.00
                               -0.00      0.00     24.81

     TS-vdW  stress (kbar)      0.00      0.00      0.00
                                0.00      0.00      0.00
                                0.00      0.00      0.00

     MDB     stress (kbar)      0.00      0.00      0.00
                                0.00      0.00      0.00
                                0.00      0.00      0.00

     3D-RISM stress (kbar)      0.00      0.00      0.00
                                0.00      0.00      0.00
                                0.00      0.00      0.00

     BFGS Geometry Optimization
     Energy error            =      0.0E+00 Ry
     Gradient error          =      3.2E-04 Ry/Bohr

     bfgs converged in   1 scf cycles and   0 bfgs steps
     (criteria: energy <  1.0E-04 Ry, force <  1.0E-03 Ry/Bohr)

     End of BFGS Geometry Optimization

     Final energy             =   -9704.7987136070 Ry
Begin final coordinates

ATOMIC_POSITIONS (angstrom)
C             0.8931457000        2.6791574770        4.4624483379
C             0.8931047885        2.6791983885        8.0377156120
C             0.8930864916        2.6792166855       11.6130080976
C             0.8930864916        6.2485077842        0.8930864916
C             0.8935534432        6.2535044953        4.4674176526
C             0.8931047072        6.2512779519        8.0377109793
C             0.8926739875        6.2535325390       11.6079833427
C             0.8931047885        9.8238002696        0.8931047885
C             0.8931061557        9.8238039036        4.4651869999
C             0.8931051976        9.8238043176        8.0377115640
C             0.8931047072        9.8238049023       11.6102379298
C             0.8931457000       13.3990675438        0.8931457000
C             0.8925993340       13.3940728116        4.4674430701
C             0.8931061557       13.3963288818        8.0377119780
C             0.8935534432       13.3940982291       11.6080113864
C             4.4624483379        2.6791574770        0.8931457000
C             4.4674430701        2.6797038430        4.4674430701
C             4.4651869999        2.6791970213        8.0377119780
C             4.4674176526        2.6787497338       11.6080113864
C             4.4674176526        6.2535044953        0.8935534432
C             4.4644229279        6.2505142535        4.4644229279
C             4.4653927591        6.2514859384        8.0375871311
C             4.4651467519        6.2512360484       11.6102798333
C             4.4651869999        9.8238039036        0.8931061557
C             4.4653918585        9.8236779562        4.4653918585
C             4.4653815963        9.8238042770        8.0377116046
C             4.4653927591        9.8239287505       11.6100299433
C             4.4674430701       13.3940728116        0.8925993340
C             4.4651349066       13.3963809752        4.4651349066
C             4.4653918585       13.3961240232        8.0378379254
C             4.4644229279       13.3970929538       11.6110016282
C             8.0377156120        2.6791983885        0.8931047885
C             8.0377119780        2.6791970213        4.4651869999
C             8.0377115640        2.6791979794        8.0377115640
C             8.0377109793        2.6791984698       11.6102379298
C             8.0377109793        6.2512779519        0.8931047072
C             8.0375871311        6.2514859384        4.4653927591
C             8.0377113299        6.2514745781        8.0377113299
C             8.0378393335        6.2514846568       11.6100312249
C             8.0377115640        9.8238043176        0.8931051976
C             8.0377116046        9.8238042770        4.4653815963
C             8.0377118244        9.8238040572        8.0377118244
C             8.0377113299        9.8238045517       11.6100413036
C             8.0377119780       13.3963288818        0.8931061557
C             8.0378379254       13.3961240232        4.4653918585
C             8.0377116046       13.3961342854        8.0377116046
C             8.0375871311       13.3961231226       11.6100299433
C            11.6130080976        2.6792166855        0.8930864916
C            11.6080113864        2.6787497338        4.4674176526
C            11.6102379298        2.6791984698        8.0377109793
C            11.6079833427        2.6796291895       11.6079833427
C            11.6079833427        6.2535325390        0.8926739875
C            11.6102798333        6.2512360484        4.4651467519
C            11.6100312249        6.2514846568        8.0378393335
C            11.6110169281        6.2504989536       11.6110169281
C            11.6102379298        9.8238049023        0.8931047072
C            11.6100299433        9.8239287505        4.4653927591
C            11.6100413036        9.8238045517        8.0377113299
C            11.6100312249        9.8236765481       11.6100312249
C            11.6080113864       13.3940982291        0.8935534432
[...]
C            12.5039125782        1.7864007118        5.3574641623
C            12.5032473016        1.7862739296        8.9308421269
C            12.4951574480        1.7829762545       12.4951574480
C            12.4951574480        5.3663584337        1.7893269225
C            12.5024343499        5.3590815318        5.3599209692
C            12.5031586839        5.3583571978        8.9310288752
C            12.5052565179        5.3562593638       12.5052565179
C            12.5032473016        8.9306737547        1.7860292474
C            12.5029926081        8.9310433389        5.3585373037
C            12.5030685521        8.9306695513        8.9308463303
C            12.5031586839        8.9304870065       12.5031586839
C            12.5039125782       12.5040517194        1.7859024652
C            12.5032173476       12.5036414062        5.3578744755
C            12.5029926081       12.5029785780        8.9304725427
C            12.5024343499       12.5015949125       12.5024343499
End final coordinates

     Writing all to output data dir ./diamond.save/

     General routines

     Parallel routines

     PAW routines

   This run was terminated on:  18:53:58  18Feb2024

   JOB DONE.