     Program PWSCF v.7.1 starts on 26Feb2024 at  7:35:35

     Reading input from espresso.pwi
Warning: card &CELL ignored
Warning: card    CELL_DYNAMICS    = 'BFGS' ignored
Warning: card / ignored

     Current dimensions of program PWSCF are:
     Max number of different atomic species (ntypx) = 10
     Max number of k-points (npk) =  40000
     Max angular momentum in pseudopotentials (lmaxx) =  4
     file C.pbe-n-kjpaw_psl.1.0.0.UPF: wavefunction(s)  2S 2P renormalized

     IMPORTANT: XC functional enforced from input :
     Exchange-correlation= BEEF-VDW
                           (   1   4  43  14   2   0   0)
     Any further DFT definition will be discarded
     Please, verify this is what you really want

     R & G space division:  proc/nbgrp/npool/nimage =     256
     wavefunctions fft division:  task group distribution
                                  #TG    x Z-proc =       8     32
     Subspace diagonalization in iterative solution of the eigenvalue problem:
     a serial algorithm will be used

     Using Pencil Decomposition

     bravais-lattice index     =            1
     lattice parameter (alat)  =      33.7534  a.u.
     unit-cell volume          =   38454.8879 (a.u.)^3
     number of atoms/cell      =          999
     number of atomic types    =            1
     number of electrons       =      3997.00
     number of Kohn-Sham states=         2399
     kinetic-energy cutoff     =      70.0000  Ry
     charge density cutoff     =     350.0000  Ry
     scf convergence threshold =      1.0E-07
     mixing beta               =       0.7000
     number of iterations used =            8  plain     mixing
     Exchange-correlation= BEEF-VDW
                           (   1   4  43  14   2   0   0)

     celldm(1)=  33.753373  celldm(2)=   0.000000  celldm(3)=   0.000000
     celldm(4)=   0.000000  celldm(5)=   0.000000  celldm(6)=   0.000000

     crystal axes: (cart. coord. in units of alat)
               a(1) = (   1.000000   0.000000   0.000000 )
               a(2) = (   0.000000   1.000000   0.000000 )
               a(3) = (   0.000000   0.000000   1.000000 )

     reciprocal axes: (cart. coord. in units 2 pi/alat)
               b(1) = (  1.000000  0.000000  0.000000 )
               b(2) = (  0.000000  1.000000  0.000000 )
               b(3) = (  0.000000  0.000000  1.000000 )

     PseudoPot. # 1 for C  read from file:
     /trace/group/acmegroup/atimmins/packages/espresso/pseudo/psl_1.0.0/pslibrary.1.0.0/pbe/PSEUDOPOTENTIALS/C.pbe-n-kjpaw_psl.1.0.0.UPF
     MD5 check sum: 5459cf7f2c8c37df2f7cde8914797f4d
     Pseudo is Projector augmented-wave + core cor, Zval =  4.0
     Generated using 'atomic' code by A. Dal Corso  v.7.1
     Shape of augmentation charge: PSQ
     Using radial grid of 1073 points,  4 beta functions with:
                l(1) =   0
                l(2) =   0
                l(3) =   1
                l(4) =   1
     Q(r) pseudized with 0 coefficients

     atomic species   valence    mass     pseudopotential
        C              4.00    12.01100     C ( 1.00)

      2 Sym. Ops. (no inversion) found

                                    s                        frac. trans.

      isym =  1     identity

 cryst.   s( 1) = (     1          0          0      )
                  (     0          1          0      )
                  (     0          0          1      )

 cart.    s( 1) = (  1.0000000  0.0000000  0.0000000 )
                  (  0.0000000  1.0000000  0.0000000 )
                  (  0.0000000  0.0000000  1.0000000 )

      isym =  2     inv. 180 deg rotation - cart. axis [-1,0,1]

 cryst.   s( 2) = (     0          0          1      )
                  (     0          1          0      )
                  (     1          0          0      )

 cart.    s( 2) = (  0.0000000  0.0000000  1.0000000 )
                  (  0.0000000  1.0000000  0.0000000 )
                  (  1.0000000  0.0000000  0.0000000 )

     point group C_s (m)
     there are  2 classes
     the character table:

       E     s
A'     1.00  1.00
A''    1.00 -1.00

     the symmetry operations in each class and the name of the first element:

     E        1
          identity
     s        2
          inv. 180 deg rotation - cart. axis [-1,0,1]

   Cartesian axes

     site n.     atom                  positions (alat units)
         1           C   tau(   1) = (   0.0500012   0.1499988   0.2500012  )
         2           C   tau(   2) = (   0.0500012   0.1499988   0.4500012  )
         3           C   tau(   3) = (   0.0500012   0.1499988   0.6500012  )
         4           C   tau(   4) = (   0.0500012   0.1499988   0.8500012  )
         5           C   tau(   5) = (   0.0500012   0.3499988   0.0500012  )
         6           C   tau(   6) = (   0.0500012   0.3499988   0.2500012  )
         7           C   tau(   7) = (   0.0500012   0.3499988   0.4500012  )
         8           C   tau(   8) = (   0.0500012   0.3499988   0.6500012  )
         9           C   tau(   9) = (   0.0500012   0.3499988   0.8500012  )
        10           C   tau(  10) = (   0.0500012   0.5499988   0.0500012  )
        11           C   tau(  11) = (   0.0500012   0.5499988   0.2500012  )
        12           C   tau(  12) = (   0.0500012   0.5499988   0.4500012  )
        13           C   tau(  13) = (   0.0500012   0.5499988   0.6500012  )
        14           C   tau(  14) = (   0.0500012   0.5499988   0.8500012  )
        15           C   tau(  15) = (   0.0500012   0.7499988   0.0500012  )
        16           C   tau(  16) = (   0.0500012   0.7499988   0.2500012  )
        17           C   tau(  17) = (   0.0500012   0.7499988   0.4500012  )
        18           C   tau(  18) = (   0.0500012   0.7499988   0.6500012  )
        19           C   tau(  19) = (   0.0500012   0.7499988   0.8500012  )
        20           C   tau(  20) = (   0.0500012   0.9499988   0.0500012  )
        21           C   tau(  21) = (   0.0500012   0.9499988   0.2500012  )
        22           C   tau(  22) = (   0.0500012   0.9499988   0.4500012  )
        23           C   tau(  23) = (   0.0500012   0.9499988   0.6500012  )
        24           C   tau(  24) = (   0.0500012   0.9499988   0.8500012  )
        25           C   tau(  25) = (   0.2500012   0.1499988   0.0500012  )
        26           C   tau(  26) = (   0.2500012   0.1499988   0.2500012  )
        27           C   tau(  27) = (   0.2500012   0.1499988   0.4500012  )
        28           C   tau(  28) = (   0.2500012   0.1499988   0.6500012  )
        29           C   tau(  29) = (   0.2500012   0.1499988   0.8500012  )
        30           C   tau(  30) = (   0.2500012   0.3499988   0.0500012  )
        31           C   tau(  31) = (   0.2500012   0.3499988   0.2500012  )
        32           C   tau(  32) = (   0.2500012   0.3499988   0.4500012  )
        33           C   tau(  33) = (   0.2500012   0.3499988   0.6500012  )
        34           C   tau(  34) = (   0.2500012   0.3499988   0.8500012  )
        35           C   tau(  35) = (   0.2500012   0.5499988   0.0500012  )
        36           C   tau(  36) = (   0.2500012   0.5499988   0.2500012  )
        37           C   tau(  37) = (   0.2500012   0.5499988   0.4500012  )
        38           C   tau(  38) = (   0.2500012   0.5499988   0.6500012  )
        39           C   tau(  39) = (   0.2500012   0.5499988   0.8500012  )
        40           C   tau(  40) = (   0.2500012   0.7499988   0.0500012  )
        41           C   tau(  41) = (   0.2500012   0.7499988   0.2500012  )
        42           C   tau(  42) = (   0.2500012   0.7499988   0.4500012  )
        43           C   tau(  43) = (   0.2500012   0.7499988   0.6500012  )
        44           C   tau(  44) = (   0.2500012   0.7499988   0.8500012  )
        45           C   tau(  45) = (   0.2500012   0.9499988   0.0500012  )
        46           C   tau(  46) = (   0.2500012   0.9499988   0.2500012  )
        47           C   tau(  47) = (   0.2500012   0.9499988   0.4500012  )
        48           C   tau(  48) = (   0.2500012   0.9499988   0.6500012  )
        49           C   tau(  49) = (   0.2500012   0.9499988   0.8500012  )
        50           C   tau(  50) = (   0.4500012   0.1499988   0.0500012  )
        51           C   tau(  51) = (   0.4500012   0.1499988   0.2500012  )
        52           C   tau(  52) = (   0.4500012   0.1499988   0.4500012  )
        53           C   tau(  53) = (   0.4500012   0.1499988   0.6500012  )
        54           C   tau(  54) = (   0.4500012   0.1499988   0.8500012  )
        55           C   tau(  55) = (   0.4500012   0.3499988   0.0500012  )
        56           C   tau(  56) = (   0.4500012   0.3499988   0.2500012  )
        57           C   tau(  57) = (   0.4500012   0.3499988   0.4500012  )
        58           C   tau(  58) = (   0.4500012   0.3499988   0.6500012  )
        59           C   tau(  59) = (   0.4500012   0.3499988   0.8500012  )
        60           C   tau(  60) = (   0.4500012   0.5499988   0.0500012  )
[...]
       985           C   tau( 985) = (   0.9000000   0.5000000   0.1000000  )
       986           C   tau( 986) = (   0.9000000   0.5000000   0.3000000  )
       987           C   tau( 987) = (   0.9000000   0.5000000   0.5000000  )
       988           C   tau( 988) = (   0.9000000   0.5000000   0.7000000  )
       989           C   tau( 989) = (   0.9000000   0.5000000   0.9000000  )
       990           C   tau( 990) = (   0.9000000   0.7000000   0.1000000  )
       991           C   tau( 991) = (   0.9000000   0.7000000   0.3000000  )
       992           C   tau( 992) = (   0.9000000   0.7000000   0.5000000  )
       993           C   tau( 993) = (   0.9000000   0.7000000   0.7000000  )
       994           C   tau( 994) = (   0.9000000   0.7000000   0.9000000  )
       995           C   tau( 995) = (   0.9000000   0.9000000   0.1000000  )
       996           C   tau( 996) = (   0.9000000   0.9000000   0.3000000  )
       997           C   tau( 997) = (   0.9000000   0.9000000   0.5000000  )
       998           C   tau( 998) = (   0.9000000   0.9000000   0.7000000  )
       999           C   tau( 999) = (   0.9000000   0.9000000   0.9000000  )

   Crystallographic axes

     site n.     atom                  positions (cryst. coord.)
         1           C   tau(   1) = (  0.0500012  0.1499988  0.2500012  )
         2           C   tau(   2) = (  0.0500012  0.1499988  0.4500012  )
         3           C   tau(   3) = (  0.0500012  0.1499988  0.6500012  )
         4           C   tau(   4) = (  0.0500012  0.1499988  0.8500012  )
         5           C   tau(   5) = (  0.0500012  0.3499988  0.0500012  )
         6           C   tau(   6) = (  0.0500012  0.3499988  0.2500012  )
         7           C   tau(   7) = (  0.0500012  0.3499988  0.4500012  )
         8           C   tau(   8) = (  0.0500012  0.3499988  0.6500012  )
         9           C   tau(   9) = (  0.0500012  0.3499988  0.8500012  )
        10           C   tau(  10) = (  0.0500012  0.5499988  0.0500012  )
        11           C   tau(  11) = (  0.0500012  0.5499988  0.2500012  )
        12           C   tau(  12) = (  0.0500012  0.5499988  0.4500012  )
[...]
     atom   26 type  1   force =     0.00000000    0.00000000    0.00000000
     atom   27 type  1   force =     0.00000000    0.00000000    0.00000000
     atom   28 type  1   force =     0.00000000    0.00000000    0.00000000
     atom   29 type  1   force =     0.00000000    0.00000000    0.00000000
     atom   30 type  1   force =     0.00000000    0.00000000    0.00000000
     atom   31 type  1   force =     0.00000000    0.00000000    0.00000000
     atom   32 type  1   force =     0.00000000    0.00000000    0.00000000
     atom   33 type  1   force =     0.00000000    0.00000000    0.00000000
     atom   34 type  1   force =     0.00000000    0.00000000    0.00000000
     atom   35 type  1   force =     0.00000000    0.00000000    0.00000000
     atom   36 type  1   force =     0.00000000    0.00000000    0.00000000
     atom   37 type  1   force =     0.00000000    0.00000000    0.00000000
     atom   38 type  1   force =     0.00000000    0.00000000    0.00000000
     atom   39 type  1   force =     0.00000000    0.00000000    0.00000000
     atom   40 type  1   force =     0.00000000    0.00000000    0.00000000
     atom   41 type  1   force =     0.00000000    0.00000000    0.00000000
     atom   42 type  1   force =     0.00000000    0.00000000    0.00000000
     atom   43 type  1   force =     0.00000000    0.00000000    0.00000000
     atom   44 type  1   force =     0.00000000    0.00000000    0.00000000
     atom   45 type  1   force =     0.00000000    0.00000000    0.00000000
     atom   46 type  1   force =     0.00000000    0.00000000    0.00000000
     atom   47 type  1   force =     0.00000000    0.00000000    0.00000000
     atom   48 type  1   force =     0.00000000    0.00000000    0.00000000
     atom   49 type  1   force =     0.00000000    0.00000000    0.00000000
     atom   50 type  1   force =     0.00000000    0.00000000    0.00000000
     atom   51 type  1   force =     0.00000000    0.00000000    0.00000000
     atom   52 type  1   force =     0.00000000    0.00000000    0.00000000
     atom   53 type  1   force =     0.00000000    0.00000000    0.00000000
     atom   54 type  1   force =     0.00000000    0.00000000    0.00000000
     atom   55 type  1   force =     0.00000000    0.00000000    0.00000000
     atom   56 type  1   force =     0.00000000    0.00000000    0.00000000
     atom   57 type  1   force =     0.00000000    0.00000000    0.00000000
     atom   58 type  1   force =     0.00000000    0.00000000    0.00000000
     atom   59 type  1   force =     0.00000000    0.00000000    0.00000000
     atom   60 type  1   force =     0.00000000    0.00000000    0.00000000
[...]
     atom  985 type  1   force =     0.00000000    0.00000000    0.00000000
     atom  986 type  1   force =     0.00000000    0.00000000    0.00000000
     atom  987 type  1   force =     0.00000000    0.00000000    0.00000000
     atom  988 type  1   force =     0.00000000    0.00000000    0.00000000
     atom  989 type  1   force =     0.00000000    0.00000000    0.00000000
     atom  990 type  1   force =     0.00000000    0.00000000    0.00000000
     atom  991 type  1   force =     0.00000000    0.00000000    0.00000000
     atom  992 type  1   force =     0.00000000    0.00000000    0.00000000
     atom  993 type  1   force =     0.00000000    0.00000000    0.00000000
     atom  994 type  1   force =     0.00000000    0.00000000    0.00000000
     atom  995 type  1   force =     0.00000000    0.00000000    0.00000000
     atom  996 type  1   force =     0.00000000    0.00000000    0.00000000
     atom  997 type  1   force =     0.00000000    0.00000000    0.00000000
     atom  998 type  1   force =     0.00000000    0.00000000    0.00000000
     atom  999 type  1   force =     0.00000000    0.00000000    0.00000000
     The SCF correction term to forces
     atom    1 type  1   force =     0.00000097    0.00000851   -0.00000546
     atom    2 type  1   force =     0.00000276    0.00000276   -0.00000097
     atom    3 type  1   force =     0.00000500    0.00000416   -0.00001071
     atom    4 type  1   force =     0.00002335    0.00002415   -0.00001336
     atom    5 type  1   force =     0.00000439   -0.00001304    0.00000439
     atom    6 type  1   force =    -0.00000240   -0.00001080   -0.00000906
     atom    7 type  1   force =     0.00000299    0.00000464    0.00000539
     atom    8 type  1   force =     0.00000322    0.00000666   -0.00001181
     atom    9 type  1   force =     0.00001169   -0.00000675    0.00001180
     atom   10 type  1   force =     0.00000345   -0.00000018    0.00000345
     atom   11 type  1   force =     0.00000301    0.00000591    0.00000598
     atom   12 type  1   force =     0.00000175    0.00000555    0.00000578
     atom   13 type  1   force =     0.00000350    0.00000552   -0.00001015
     atom   14 type  1   force =     0.00000307    0.00000634   -0.00000512
     atom   15 type  1   force =     0.00000462   -0.00001243    0.00000462
     atom   16 type  1   force =     0.00000310   -0.00001340    0.00000882
     atom   17 type  1   force =     0.00000348   -0.00000968    0.00000605
     atom   18 type  1   force =     0.00000212   -0.00001138   -0.00001201
     atom   19 type  1   force =     0.00000433   -0.00001796   -0.00000753
     atom   20 type  1   force =     0.00002014   -0.00001385    0.00002014
     atom   21 type  1   force =     0.00000789    0.00001036   -0.00000108
     atom   22 type  1   force =     0.00000283   -0.00000337    0.00000695
     atom   23 type  1   force =     0.00000445   -0.00000505   -0.00001740
     atom   24 type  1   force =     0.00001212   -0.00000635   -0.00000907
     atom   25 type  1   force =    -0.00000546    0.00000851    0.00000097
     atom   26 type  1   force =    -0.00000598    0.00000138   -0.00000598
     atom   27 type  1   force =     0.00000612    0.00000264    0.00000635
     atom   28 type  1   force =     0.00000756    0.00000271   -0.00001133
     atom   29 type  1   force =    -0.00000359    0.00001199    0.00001041
     atom   30 type  1   force =    -0.00000906   -0.00001080   -0.00000240
     atom   31 type  1   force =     0.00000228    0.00000119    0.00000228
     atom   32 type  1   force =     0.00001005    0.00000857    0.00000816
     atom   33 type  1   force =     0.00001164    0.00001040   -0.00001406
     atom   34 type  1   force =    -0.00000434   -0.00000598    0.00000684
     atom   35 type  1   force =     0.00000598    0.00000591    0.00000301
     atom   36 type  1   force =     0.00000945    0.00000846    0.00000945
     atom   37 type  1   force =     0.00000901    0.00000444    0.00000526
     atom   38 type  1   force =     0.00001029    0.00000331   -0.00000789
     atom   39 type  1   force =     0.00001140    0.00000934   -0.00000973
     atom   40 type  1   force =     0.00000882   -0.00001340    0.00000310
     atom   41 type  1   force =     0.00001238   -0.00001520    0.00001238
     atom   42 type  1   force =     0.00001005   -0.00000679    0.00000357
     atom   43 type  1   force =     0.00000943   -0.00000918   -0.00001003
     atom   44 type  1   force =     0.00001176   -0.00001506   -0.00000905
     atom   45 type  1   force =    -0.00000108    0.00001036    0.00000789
     atom   46 type  1   force =    -0.00000082    0.00000561   -0.00000082
     atom   47 type  1   force =     0.00001204   -0.00000888    0.00001067
     atom   48 type  1   force =     0.00001176   -0.00000724   -0.00001544
     atom   49 type  1   force =     0.00000969   -0.00000037   -0.00000338
     atom   50 type  1   force =    -0.00000097    0.00000276    0.00000276
     atom   51 type  1   force =     0.00000635    0.00000264    0.00000612
     atom   52 type  1   force =     0.00000588    0.00000132    0.00000588
     atom   53 type  1   force =     0.00000599    0.00000278   -0.00001029
     atom   54 type  1   force =     0.00000523    0.00000245   -0.00000456
     atom   55 type  1   force =     0.00000539    0.00000464    0.00000299
     atom   56 type  1   force =     0.00000816    0.00000857    0.00001005
     atom   57 type  1   force =     0.00000517    0.00000794    0.00000517
     atom   58 type  1   force =     0.00000404    0.00000924   -0.00000821
     atom   59 type  1   force =     0.00000951    0.00001021   -0.00000985
     atom   60 type  1   force =     0.00000578    0.00000555    0.00000175
[...]
     atom  985 type  1   force =     0.00000091    0.00000014    0.00000521
     atom  986 type  1   force =    -0.00000776    0.00000993    0.00000987
     atom  987 type  1   force =    -0.00000790    0.00000553    0.00000160
     atom  988 type  1   force =    -0.00000731    0.00000941   -0.00001329
     atom  989 type  1   force =    -0.00000285    0.00000663   -0.00000285
     atom  990 type  1   force =    -0.00000459   -0.00001299    0.00000646
     atom  991 type  1   force =    -0.00000757   -0.00001102    0.00001023
     atom  992 type  1   force =    -0.00000582   -0.00000576    0.00000084
     atom  993 type  1   force =    -0.00000799   -0.00000786   -0.00001036
     atom  994 type  1   force =    -0.00000736   -0.00001435   -0.00000736
     atom  995 type  1   force =     0.00000376   -0.00000495    0.00001265
     atom  996 type  1   force =    -0.00000387   -0.00000438    0.00000941
     atom  997 type  1   force =    -0.00000795   -0.00000856    0.00000433
     atom  998 type  1   force =    -0.00001023   -0.00001288   -0.00002162
     atom  999 type  1   force =    -0.00000337   -0.00000938   -0.00000337

     Total force =     0.004099     Total SCF correction =     0.000491
     SCF correction compared to forces is large: reduce conv_thr to get better values

     Computing stress (Cartesian axis) and pressure

[...]

          total   stress  (Ry/bohr**3)                   (kbar)     P=        5.36
   0.00003670   0.00000004  -0.00000003            5.40        0.01       -0.00
   0.00000004   0.00003595   0.00000004            0.01        5.29        0.01
  -0.00000003   0.00000004   0.00003670           -0.00        0.01        5.40

     kinetic stress (kbar)  18983.72      0.01     -0.00
                                0.01  18983.61      0.01
                               -0.00      0.01  18983.72

     local   stress (kbar)  -3508.29     -0.04     -0.02
                               -0.04  -3508.51     -0.04
                               -0.02     -0.04  -3508.29

     nonloc. stress (kbar)   4319.98      0.00     -0.00
                                0.00   4319.98      0.00
                               -0.00      0.00   4319.98

     hartree stress (kbar)   1276.53      0.00      0.02
                                0.00   1276.62      0.00
                                0.02      0.00   1276.53

     exc-cor stress (kbar)   -414.82      0.00     -0.00
                                0.00   -414.81      0.00
                               -0.00      0.00   -414.82

     corecor stress (kbar)  -4430.74     -0.00      0.00
                               -0.00  -4430.76     -0.00
                                0.00     -0.00  -4430.74

     ewald   stress (kbar) -16245.80      0.04      0.00
                                0.04 -16245.66      0.04
                                0.00      0.04 -16245.80

     hubbard stress (kbar)      0.00      0.00      0.00
                                0.00      0.00      0.00
                                0.00      0.00      0.00

     DFT-D   stress (kbar)      0.00      0.00      0.00
                                0.00      0.00      0.00
                                0.00      0.00      0.00

     XDM     stress (kbar)      0.00      0.00      0.00
                                0.00      0.00      0.00
                                0.00      0.00      0.00

     dft-nl  stress (kbar)     24.82     -0.00      0.00
                               -0.00     24.82     -0.00
                                0.00     -0.00     24.82

     TS-vdW  stress (kbar)      0.00      0.00      0.00
                                0.00      0.00      0.00
                                0.00      0.00      0.00

     MDB     stress (kbar)      0.00      0.00      0.00
                                0.00      0.00      0.00
                                0.00      0.00      0.00

     3D-RISM stress (kbar)      0.00      0.00      0.00
                                0.00      0.00      0.00
                                0.00      0.00      0.00

[...]

     Non-local corr. energy    =      34.16110231 Ry

 BEEFens 2000 ensemble energies
             -0.604612205566918E+02
             -0.421214354990184E+03
             -0.149540621972284E+03
              0.165370081249866E+03
             -0.278588749476743E+03
             -0.389719625816302E+03
              0.230706136434745E+03
             -0.477993925468936E+02
              0.320187195232584E+03
             -0.529637196560975E+01
              0.130154984340880E+03
              0.655362142041599E+01
              0.180000992249104E+02
             -0.379536007376637E+02
              0.216778104638654E+03
             -0.162084930846628E+03
             -0.371898912316017E+03
             -0.103098316914517E+03
              0.840410336286247E+02
              0.904911195857403E+01
              0.445034860197218E+03
              0.403609287513028E+03
             -0.198326527888093E+03
              0.111338324835019E+03
             -0.505636947688030E+03
              0.407243098434555E+03
              0.145756027528472E+03
              0.428737593683746E+03
              0.270486306314001E+03
             -0.168940992921400E+03
              0.105514336562068E+03
             -0.219471808131570E+03
              0.651140066587129E+01
              0.215734715148946E+03
              0.278364539281162E+03
             -0.685798067049980E+02
              0.600092978630169E+03
             -0.210102801903119E+03
             -0.151934600171234E+03
              0.232550527411000E+03
              0.801209337312744E+02
              0.195722240820697E+03
             -0.341972291503309E+03
             -0.140587630973810E+02
              0.362458830086934E+03
              0.442120398996967E+03
             -0.400691446970703E+03
              0.331758309146083E+02
              0.157957313881053E+03
              0.368966360690847E+02
              0.193167129148935E+03
              0.387602738664127E+03
             -0.259684526919261E+03
             -0.273164461881925E+03
             -0.346308500365646E+03
             -0.954513090648084E+02
             -0.289171396226206E+03
              0.154491158218100E+02
             -0.768638987388399E+02
             -0.262286330684183E+03
[...]
              0.340171608270979E+03
              0.139167017751773E+03
              0.237173369205331E+03
             -0.339593885904921E+03
             -0.264677049075050E+03
             -0.107688355644936E+03
             -0.291043073144577E+03
              0.524544051288948E+03
              0.449926297687808E+03
              0.195544392233326E+03
              0.530453341705028E+03
             -0.284565647188302E+03
             -0.136864952605357E+03
             -0.141283222949595E+03
              0.418559082055767E+03

 BEEF-vdW xc energy contributions
            1 :    -4090.961948976489
            2 :     3609.773797796944
            3 :    -2779.931488021984
            4 :     1816.513268482163
            5 :    -939.1652148569547
            6 :     299.5617945359982
            7 :     56.62800101659741
            8 :    -181.6029100793667
            9 :     180.8743868846477
           10 :    -156.9787878405241
           11 :     167.9787396897764
           12 :    -216.4162672305329
           13 :     267.5038768929016
           14 :    -281.4846088004133
           15 :     240.7985487756441
           16 :    -158.8612885656266
           17 :     69.26216004885100
           18 :    -4.912587815312691
           19 :    -19.41274718334807
           20 :     11.74732576952738
           21 :     5.911906284066390
           22 :    -12.87440800633794
           23 :     1.681143657379835
           24 :     19.77449344488650
           25 :    -35.76529957374623
           26 :     34.04886777615957
           27 :    -13.62904786101899
           28 :    -15.35296866529097
           29 :     38.63751581197630
           30 :    -46.71282720647469
           31 :    -535.1978776116484
           32 :    -388.3941674330499

     Writing all to output data dir ./diamond.save/

     General routines

     Parallel routines

     PAW routines

   This run was terminated on:  12:58:43  26Feb2024

   JOB DONE.