     Program PWSCF v.7.1 starts on 18Feb2024 at 15:12:46

     Reading input from espresso.pwi
Warning: card &CELL ignored
Warning: card    CELL_DYNAMICS    = 'BFGS' ignored
Warning: card / ignored

     Current dimensions of program PWSCF are:
     Max number of different atomic species (ntypx) = 10
     Max number of k-points (npk) =  40000
     Max angular momentum in pseudopotentials (lmaxx) =  4
     file Pb.pbe-dn-kjpaw_psl.1.0.0.UPF: wavefunction(s)  6S 6P 5D renormalized
     file I.pbe-dn-kjpaw_psl.1.0.0.UPF: wavefunction(s)  5S 5P renormalized

     IMPORTANT: XC functional enforced from input :
     Exchange-correlation= BEEF-VDW
                           (   1   4  43  14   2   0   0)
     Any further DFT definition will be discarded
     Please, verify this is what you really want

     K-points division:     npool     =       2
     R & G space division:  proc/nbgrp/npool/nimage =      64
     Subspace diagonalization in iterative solution of the eigenvalue problem:
     a serial algorithm will be used

     Using Slab Decomposition

     bravais-lattice index     =            4
     lattice parameter (alat)  =      26.7090  a.u.
     unit-cell volume          =   17226.5091 (a.u.)^3
     number of atoms/cell      =           53
     number of atomic types    =            2
     number of electrons       =       852.00
     number of Kohn-Sham states=          511
     kinetic-energy cutoff     =      70.0000  Ry
     charge density cutoff     =     350.0000  Ry
     scf convergence threshold =      1.0E-07
     mixing beta               =       0.7000
     number of iterations used =            8  plain     mixing
     Exchange-correlation= BEEF-VDW
                           (   1   4  43  14   2   0   0)

     celldm(1)=  26.709025  celldm(2)=   0.000000  celldm(3)=   1.043981
     celldm(4)=   0.000000  celldm(5)=   0.000000  celldm(6)=   0.000000

     crystal axes: (cart. coord. in units of alat)
               a(1) = (   1.000000   0.000000   0.000000 )
               a(2) = (  -0.500000   0.866025   0.000000 )
               a(3) = (   0.000000   0.000000   1.043981 )

     reciprocal axes: (cart. coord. in units 2 pi/alat)
               b(1) = (  1.000000  0.577350 -0.000000 )
               b(2) = (  0.000000  1.154701  0.000000 )
               b(3) = (  0.000000 -0.000000  0.957872 )

     PseudoPot. # 1 for Pb read from file:
     /trace/group/acmegroup/atimmins/packages/espresso/pseudo/psl_1.0.0/pslibrary.1.0.0/pbe/PSEUDOPOTENTIALS/Pb.pbe-dn-kjpaw_psl.1.0.0.UPF
     MD5 check sum: 39ab5b8a6bbd56b7735ad9f188aac93a
     Pseudo is Projector augmented-wave + core cor, Zval = 14.0
     Generated using 'atomic' code by A. Dal Corso  v.7.1
     Shape of augmentation charge: PSQ
     Using radial grid of 1281 points,  6 beta functions with:
                l(1) =   0
                l(2) =   0
                l(3) =   1
                l(4) =   1
                l(5) =   2
                l(6) =   2
     Q(r) pseudized with 0 coefficients

     PseudoPot. # 2 for I  read from file:
     /trace/group/acmegroup/atimmins/packages/espresso/pseudo/psl_1.0.0/pslibrary.1.0.0/pbe/PSEUDOPOTENTIALS/I.pbe-dn-kjpaw_psl.1.0.0.UPF
     MD5 check sum: bfa8781bc1224d19af3f3980e3fab11e
     Pseudo is Projector augmented-wave + core cor, Zval = 17.0
     Generated using 'atomic' code by A. Dal Corso  v.7.1
     Shape of augmentation charge: PSQ
     Using radial grid of 1247 points,  6 beta functions with:
                l(1) =   0
                l(2) =   0
                l(3) =   1
                l(4) =   1
                l(5) =   2
                l(6) =   2
     Q(r) pseudized with 0 coefficients

     atomic species   valence    mass     pseudopotential
        Pb            14.00   207.20000     Pb( 1.00)
        I             17.00   126.90447     I ( 1.00)

     No symmetry found

                                    s                        frac. trans.

      isym =  1     identity

 cryst.   s( 1) = (     1          0          0      )
                  (     0          1          0      )
                  (     0          0          1      )

 cart.    s( 1) = (  1.0000000  0.0000000  0.0000000 )
                  (  0.0000000  1.0000000  0.0000000 )
                  (  0.0000000  0.0000000  1.0000000 )

     point group C_1 (1)
     there are  1 classes
     the character table:

       E
A      1.00

     the symmetry operations in each class and the name of the first element:

     E        1
          identity

   Cartesian axes

     site n.     atom                  positions (alat units)
         1           Pb  tau(   1) = (   0.1666712   0.2886557   0.5219862  )
         2           Pb  tau(   2) = (   0.0000102   0.5773235   1.0439712  )
         3           Pb  tau(   3) = (   0.0000034   0.5773295   0.5219807  )
         4           Pb  tau(   4) = (  -0.1666576   0.8659973   1.0439657  )
         5           Pb  tau(   5) = (  -0.1666644   0.8660033   0.5219752  )
         6           Pb  tau(   6) = (   0.5000113   0.2886484   1.0439810  )
         7           Pb  tau(   7) = (   0.5000045   0.2886544   0.5219905  )
         8           Pb  tau(   8) = (   0.3333436   0.5773222   1.0439755  )
         9           Pb  tau(   9) = (   0.3333367   0.5773282   0.5219850  )
        10           Pb  tau(  10) = (   0.1666758   0.8659960   1.0439700  )
        11           Pb  tau(  11) = (   0.1666690   0.8660020   0.5219795  )
        12           Pb  tau(  12) = (   0.8333447   0.2886471   1.0439853  )
        13           Pb  tau(  13) = (   0.8333379   0.2886531   0.5219949  )
        14           Pb  tau(  14) = (   0.6666769   0.5773209   1.0439798  )
        15           Pb  tau(  15) = (   0.6666701   0.5773269   0.5219894  )
        16           Pb  tau(  16) = (   0.5000091   0.8659947   1.0439743  )
        17           Pb  tau(  17) = (   0.5000023   0.8660007   0.5219839  )
        18           I   tau(  18) = (   0.1666738   0.0962066   0.3879099  )
        19           I   tau(  19) = (   0.1666806   0.0962006   0.9099004  )
        20           I   tau(  20) = (   0.0000060   0.3848804   0.3879044  )
        21           I   tau(  21) = (   0.0000129   0.3848744   0.9098949  )
        22           I   tau(  22) = (  -0.1666617   0.6735542   0.3878990  )
        23           I   tau(  23) = (  -0.1666549   0.6735482   0.9098894  )
        24           I   tau(  24) = (   0.5000071   0.0962053   0.3879143  )
        25           I   tau(  25) = (   0.5000140   0.0961993   0.9099047  )
        26           I   tau(  26) = (   0.3333394   0.3848792   0.3879088  )
        27           I   tau(  27) = (   0.3333462   0.3848731   0.9098993  )
        28           I   tau(  28) = (   0.1666716   0.6735530   0.3879033  )
        29           I   tau(  29) = (   0.1666784   0.6735469   0.9098938  )
        30           I   tau(  30) = (   0.8333405   0.0962041   0.3879186  )
        31           I   tau(  31) = (   0.8333473   0.0961980   0.9099091  )
        32           I   tau(  32) = (   0.6666727   0.3848779   0.3879131  )
        33           I   tau(  33) = (   0.6666795   0.3848718   0.9099036  )
        34           I   tau(  34) = (   0.5000049   0.6735517   0.3879076  )
        35           I   tau(  35) = (   0.5000117   0.6735457   0.9098981  )
        36           I   tau(  36) = (  -0.0000023   0.1924396   0.1340740  )
        37           I   tau(  37) = (   0.0000045   0.1924336   0.6560644  )
        38           I   tau(  38) = (  -0.1666701   0.4811134   0.1340685  )
        39           I   tau(  39) = (  -0.1666632   0.4811074   0.6560589  )
        40           I   tau(  40) = (  -0.3333378   0.7697873   0.1340630  )
        41           I   tau(  41) = (  -0.3333310   0.7697812   0.6560534  )
        42           I   tau(  42) = (   0.3333311   0.1924384   0.1340783  )
        43           I   tau(  43) = (   0.3333379   0.1924323   0.6560688  )
        44           I   tau(  44) = (   0.1666633   0.4811122   0.1340728  )
        45           I   tau(  45) = (   0.1666701   0.4811061   0.6560633  )
        46           I   tau(  46) = (  -0.0000045   0.7697860   0.1340673  )
        47           I   tau(  47) = (   0.0000023   0.7697799   0.6560578  )
        48           I   tau(  48) = (   0.6666644   0.1924371   0.1340827  )
        49           I   tau(  49) = (   0.6666712   0.1924310   0.6560731  )
        50           I   tau(  50) = (   0.4999966   0.4811109   0.1340772  )
        51           I   tau(  51) = (   0.5000034   0.4811049   0.6560676  )
        52           I   tau(  52) = (   0.3333288   0.7697847   0.1340717  )
        53           I   tau(  53) = (   0.3333356   0.7697787   0.6560621  )

   Crystallographic axes

     site n.     atom                  positions (cryst. coord.)
         1           Pb  tau(   1) = (  0.3333266  0.3333109  0.4999959  )
         2           Pb  tau(   2) = (  0.3333281  0.6666357  0.9999906  )
         3           Pb  tau(   3) = (  0.3333248  0.6666427  0.4999906  )
         4           Pb  tau(   4) = (  0.3333262  0.9999675  0.9999854  )
         5           Pb  tau(   5) = (  0.3333229  0.9999745  0.4999854  )
         6           Pb  tau(   6) = (  0.6666626  0.3333025  1.0000001  )
         7           Pb  tau(   7) = (  0.6666592  0.3333094  0.5000001  )
         8           Pb  tau(   8) = (  0.6666607  0.6666343  0.9999948  )
         9           Pb  tau(   9) = (  0.6666573  0.6666412  0.4999948  )
        10           Pb  tau(  10) = (  0.6666588  0.9999661  0.9999895  )
        11           Pb  tau(  11) = (  0.6666555  0.9999730  0.4999895  )
        12           Pb  tau(  12) = (  0.9999951  0.3333010  1.0000042  )
        13           Pb  tau(  13) = (  0.9999918  0.3333079  0.5000042  )
        14           Pb  tau(  14) = (  0.9999933  0.6666328  0.9999990  )
        15           Pb  tau(  15) = (  0.9999899  0.6666397  0.4999990  )
        16           Pb  tau(  16) = (  0.9999914  0.9999646  0.9999937  )
        17           Pb  tau(  17) = (  0.9999881  0.9999715  0.4999937  )
        18           I   tau(  18) = (  0.2222187  0.1110899  0.3715680  )
        19           I   tau(  19) = (  0.2222221  0.1110829  0.8715680  )
        20           I   tau(  20) = (  0.2222169  0.4444217  0.3715628  )
        21           I   tau(  21) = (  0.2222202  0.4444147  0.8715628  )
        22           I   tau(  22) = (  0.2222150  0.7777534  0.3715575  )
        23           I   tau(  23) = (  0.2222183  0.7777465  0.8715575  )
        24           I   tau(  24) = (  0.5555513  0.1110884  0.3715722  )
        25           I   tau(  25) = (  0.5555547  0.1110814  0.8715722  )
        26           I   tau(  26) = (  0.5555495  0.4444202  0.3715669  )
        27           I   tau(  27) = (  0.5555528  0.4444132  0.8715669  )
        28           I   tau(  28) = (  0.5555476  0.7777520  0.3715617  )
        29           I   tau(  29) = (  0.5555509  0.7777450  0.8715617  )
        30           I   tau(  30) = (  0.8888839  0.1110869  0.3715764  )
        31           I   tau(  31) = (  0.8888873  0.1110799  0.8715764  )
[...]
     atom   35 type  2   force =    -0.00089091    0.00032761   -0.00419524
     atom   36 type  2   force =     0.00245295    0.00131900    0.00369248
     atom   37 type  2   force =    -0.00001247    0.00019696    0.00558861
     atom   38 type  2   force =    -0.00028630    0.00032025    0.00478454
     atom   39 type  2   force =     0.00020698    0.00001712    0.00562159
     atom   40 type  2   force =     0.00015631   -0.00054819    0.00477975
     atom   41 type  2   force =     0.00017977   -0.00002717    0.00563069
     atom   42 type  2   force =    -0.00266904    0.00131663    0.00369316
     atom   43 type  2   force =    -0.00005649    0.00003465    0.00561474
     atom   44 type  2   force =    -0.00010821   -0.00316825    0.00368684
     atom   45 type  2   force =    -0.00013513    0.00008035    0.00559490
     atom   46 type  2   force =    -0.00081890   -0.00051550    0.00419297
     atom   47 type  2   force =     0.00005589   -0.00012607    0.00545418
     atom   48 type  2   force =    -0.00011957    0.00075621    0.00422442
     atom   49 type  2   force =     0.00008525    0.00004527    0.00548341
     atom   50 type  2   force =     0.00033320    0.00027076    0.00475240
     atom   51 type  2   force =     0.00000785   -0.00001591    0.00565464
     atom   52 type  2   force =     0.00072735   -0.00060805    0.00419127
     atom   53 type  2   force =    -0.00014884   -0.00005612    0.00545818
     The Hubbard contrib.    to forces
     atom    1 type  1   force =     0.00000000    0.00000000    0.00000000
     atom    2 type  1   force =     0.00000000    0.00000000    0.00000000
     atom    3 type  1   force =     0.00000000    0.00000000    0.00000000
     atom    4 type  1   force =     0.00000000    0.00000000    0.00000000
     atom    5 type  1   force =     0.00000000    0.00000000    0.00000000
     atom    6 type  1   force =     0.00000000    0.00000000    0.00000000
     atom    7 type  1   force =     0.00000000    0.00000000    0.00000000
     atom    8 type  1   force =     0.00000000    0.00000000    0.00000000
     atom    9 type  1   force =     0.00000000    0.00000000    0.00000000
     atom   10 type  1   force =     0.00000000    0.00000000    0.00000000
     atom   11 type  1   force =     0.00000000    0.00000000    0.00000000
     atom   12 type  1   force =     0.00000000    0.00000000    0.00000000
     atom   13 type  1   force =     0.00000000    0.00000000    0.00000000
     atom   14 type  1   force =     0.00000000    0.00000000    0.00000000
     atom   15 type  1   force =     0.00000000    0.00000000    0.00000000
     atom   16 type  1   force =     0.00000000    0.00000000    0.00000000
     atom   17 type  1   force =     0.00000000    0.00000000    0.00000000
     atom   18 type  2   force =     0.00000000    0.00000000    0.00000000
     atom   19 type  2   force =     0.00000000    0.00000000    0.00000000
     atom   20 type  2   force =     0.00000000    0.00000000    0.00000000
     atom   21 type  2   force =     0.00000000    0.00000000    0.00000000
     atom   22 type  2   force =     0.00000000    0.00000000    0.00000000
     atom   23 type  2   force =     0.00000000    0.00000000    0.00000000
     atom   24 type  2   force =     0.00000000    0.00000000    0.00000000
     atom   25 type  2   force =     0.00000000    0.00000000    0.00000000
     atom   26 type  2   force =     0.00000000    0.00000000    0.00000000
     atom   27 type  2   force =     0.00000000    0.00000000    0.00000000
     atom   28 type  2   force =     0.00000000    0.00000000    0.00000000
     atom   29 type  2   force =     0.00000000    0.00000000    0.00000000
     atom   30 type  2   force =     0.00000000    0.00000000    0.00000000
     atom   31 type  2   force =     0.00000000    0.00000000    0.00000000
     atom   32 type  2   force =     0.00000000    0.00000000    0.00000000
     atom   33 type  2   force =     0.00000000    0.00000000    0.00000000
     atom   34 type  2   force =     0.00000000    0.00000000    0.00000000
     atom   35 type  2   force =     0.00000000    0.00000000    0.00000000
     atom   36 type  2   force =     0.00000000    0.00000000    0.00000000
     atom   37 type  2   force =     0.00000000    0.00000000    0.00000000
     atom   38 type  2   force =     0.00000000    0.00000000    0.00000000
     atom   39 type  2   force =     0.00000000    0.00000000    0.00000000
     atom   40 type  2   force =     0.00000000    0.00000000    0.00000000
     atom   41 type  2   force =     0.00000000    0.00000000    0.00000000
     atom   42 type  2   force =     0.00000000    0.00000000    0.00000000
     atom   43 type  2   force =     0.00000000    0.00000000    0.00000000
     atom   44 type  2   force =     0.00000000    0.00000000    0.00000000
     atom   45 type  2   force =     0.00000000    0.00000000    0.00000000
     atom   46 type  2   force =     0.00000000    0.00000000    0.00000000
     atom   47 type  2   force =     0.00000000    0.00000000    0.00000000
     atom   48 type  2   force =     0.00000000    0.00000000    0.00000000
     atom   49 type  2   force =     0.00000000    0.00000000    0.00000000
     atom   50 type  2   force =     0.00000000    0.00000000    0.00000000
     atom   51 type  2   force =     0.00000000    0.00000000    0.00000000
     atom   52 type  2   force =     0.00000000    0.00000000    0.00000000
     atom   53 type  2   force =     0.00000000    0.00000000    0.00000000
     The SCF correction term to forces
     atom    1 type  1   force =    -0.00002400   -0.00004414   -0.00006806
     atom    2 type  1   force =    -0.00002827    0.00002882    0.00004654
     atom    3 type  1   force =    -0.00007982    0.00005591   -0.00005468
     atom    4 type  1   force =    -0.00000059   -0.00003909    0.00006448
     atom    5 type  1   force =     0.00001732   -0.00006133   -0.00007223
     atom    6 type  1   force =     0.00003912    0.00000181    0.00005686
     atom    7 type  1   force =     0.00008507   -0.00003141   -0.00005517
     atom    8 type  1   force =     0.00002975    0.00003679    0.00005166
     atom    9 type  1   force =     0.00004208    0.00006188   -0.00005601
     atom   10 type  1   force =     0.00001325    0.00000642    0.00009855
     atom   11 type  1   force =    -0.00001301    0.00003583   -0.00000323
     atom   12 type  1   force =    -0.00003336   -0.00000881    0.00004231
     atom   13 type  1   force =    -0.00005985   -0.00000216   -0.00003972
     atom   14 type  1   force =    -0.00000363    0.00001438   -0.00000582
     atom   15 type  1   force =     0.00003773    0.00001074   -0.00009418
     atom   16 type  1   force =    -0.00001364   -0.00003698    0.00005128
     atom   17 type  1   force =    -0.00000794   -0.00002460   -0.00005567
     atom   18 type  2   force =     0.00000080   -0.00007851    0.00025525
     atom   19 type  2   force =    -0.00002597   -0.00016463    0.00011390
     atom   20 type  2   force =    -0.00008026    0.00000167    0.00026128
     atom   21 type  2   force =    -0.00014256    0.00005381    0.00009857
     atom   22 type  2   force =    -0.00004072    0.00000406    0.00024705
     atom   23 type  2   force =    -0.00003379   -0.00000617    0.00007972
     atom   24 type  2   force =     0.00002432   -0.00003781    0.00024851
     atom   25 type  2   force =     0.00002375   -0.00000709    0.00009195
     atom   26 type  2   force =     0.00004620   -0.00002172    0.00023395
     atom   27 type  2   force =     0.00012688    0.00006493    0.00011573
     atom   28 type  2   force =    -0.00003911    0.00008054    0.00021856
     atom   29 type  2   force =    -0.00000173    0.00003054    0.00010179
     atom   30 type  2   force =    -0.00002547   -0.00000143    0.00024781
     atom   31 type  2   force =     0.00000651   -0.00000807    0.00009833
     atom   32 type  2   force =     0.00002873    0.00002273    0.00024045
     atom   33 type  2   force =     0.00001464    0.00001827    0.00007748
     atom   34 type  2   force =     0.00006969    0.00002751    0.00020760
     atom   35 type  2   force =     0.00003442    0.00001993    0.00010577
     atom   36 type  2   force =    -0.00011885   -0.00008692   -0.00002122
     atom   37 type  2   force =    -0.00007171   -0.00003909   -0.00034892
     atom   38 type  2   force =    -0.00002367    0.00000525   -0.00000353
     atom   39 type  2   force =    -0.00006079    0.00002329   -0.00032721
     atom   40 type  2   force =    -0.00000001    0.00000034   -0.00001354
     atom   41 type  2   force =     0.00001666   -0.00004423   -0.00034000
     atom   42 type  2   force =     0.00010937   -0.00009953   -0.00000556
     atom   43 type  2   force =     0.00005213   -0.00006741   -0.00035877
     atom   44 type  2   force =    -0.00000002    0.00013196   -0.00002610
     atom   45 type  2   force =    -0.00004403    0.00003823   -0.00032017
     atom   46 type  2   force =    -0.00000869    0.00001507   -0.00000438
     atom   47 type  2   force =    -0.00001518    0.00002090   -0.00032102
     atom   48 type  2   force =     0.00001430   -0.00001116   -0.00001371
     atom   49 type  2   force =     0.00002186   -0.00001761   -0.00031927
     atom   50 type  2   force =     0.00002162    0.00001381   -0.00002775
     atom   51 type  2   force =     0.00010143    0.00002023   -0.00030204
     atom   52 type  2   force =     0.00001742    0.00003134   -0.00002717
     atom   53 type  2   force =     0.00000171    0.00006742   -0.00028694

     Total force =     0.004185     Total SCF correction =     0.001374
     SCF correction compared to forces is large: reduce conv_thr to get better values

     Computing stress (Cartesian axis) and pressure

[...]

          total   stress  (Ry/bohr**3)                   (kbar)     P=       13.48
   0.00009048   0.00000006  -0.00000014           13.31        0.01       -0.02
   0.00000006   0.00009054   0.00000008            0.01       13.32        0.01
  -0.00000014   0.00000008   0.00009379           -0.02        0.01       13.80

     kinetic stress (kbar)  14631.61     -0.00     -0.01
                               -0.00  14631.61      0.01
                               -0.01      0.01  14642.35

     local   stress (kbar)  -7373.78     -3.31      2.34
                               -3.31  -7377.50     -1.32
                                2.34     -1.32    661.37

     nonloc. stress (kbar)   -919.45      0.01     -0.01
                                0.01   -919.44      0.01
                               -0.01      0.01   -923.80

     hartree stress (kbar)  11884.16      1.41     -0.95
                                1.41  11885.74      0.54
                               -0.95      0.54   8259.41

     exc-cor stress (kbar)   6857.97      0.00     -0.00
                                0.00   6857.98      0.00
                               -0.00      0.00   6857.05

     corecor stress (kbar) -11162.01     -0.00      0.00
                               -0.00 -11162.01     -0.00
                                0.00     -0.00 -11161.96

     ewald   stress (kbar) -13987.76      1.90     -1.39
                                1.90 -13985.62      0.78
                               -1.39      0.78 -18404.30

     hubbard stress (kbar)      0.00      0.00      0.00
                                0.00      0.00      0.00
                                0.00      0.00      0.00

     DFT-D   stress (kbar)      0.00      0.00      0.00
                                0.00      0.00      0.00
                                0.00      0.00      0.00

     XDM     stress (kbar)      0.00      0.00      0.00
                                0.00      0.00      0.00
                                0.00      0.00      0.00

     dft-nl  stress (kbar)     82.56     -0.00      0.00
                               -0.00     82.56     -0.00
                                0.00     -0.00     83.69

     TS-vdW  stress (kbar)      0.00      0.00      0.00
                                0.00      0.00      0.00
                                0.00      0.00      0.00

     MDB     stress (kbar)      0.00      0.00      0.00
                                0.00      0.00      0.00
                                0.00      0.00      0.00

     3D-RISM stress (kbar)      0.00      0.00      0.00
                                0.00      0.00      0.00
                                0.00      0.00      0.00

[...]

     Non-local corr. energy    =      25.64390596 Ry

 BEEFens 2000 ensemble energies
             -0.214991690306077E+02
             -0.216229310423625E+03
             -0.983547441043569E+02
              0.754970600638820E+02
             -0.165178002693213E+03
             -0.202313622956723E+03
              0.103830907780850E+03
              0.493987525039643E+00
              0.175035509700100E+03
             -0.110868496297837E+02
              0.895511899197200E+02
              0.918568883769842E+01
             -0.683558889409187E+01
             -0.550443899624088E+01
              0.111756086705040E+03
             -0.840516337860790E+02
             -0.165160495908909E+03
             -0.532974324980227E+02
              0.478055073663319E+02
             -0.951657759735554E+00
              0.243432978730231E+03
              0.203244360010683E+03
             -0.125151889018294E+03
              0.433026832620623E+02
             -0.260786922338987E+03
              0.214100357047054E+03
              0.732007721499641E+02
              0.193339083076817E+03
              0.130325512376754E+03
             -0.605287985904447E+02
              0.476503559502313E+02
             -0.853591245867276E+02
              0.355745631769203E+02
              0.129593443439639E+03
              0.139391975643618E+03
             -0.606603365317520E+02
              0.307716591479149E+03
             -0.123726858781009E+03
             -0.825430035203748E+02
              0.123084348577443E+03
              0.542453838678723E+02
              0.934350074633542E+02
             -0.180573733850908E+03
             -0.117434147178560E+02
              0.173269050931135E+03
              0.226435181092476E+03
             -0.229849117272398E+03
              0.148137962758195E+02
              0.797908952623773E+02
              0.514606367189683E+02
              0.899510869675594E+02
              0.197446868391928E+03
             -0.128200527245490E+03
             -0.124382180537420E+03
             -0.173381159999909E+03
             -0.252380540675629E+02
             -0.147937468508511E+03
              0.191107215441258E+02
             -0.213542645484742E+02
             -0.117315155346188E+03
[...]
              0.146522571759818E+03
              0.938687491261253E+02
              0.957089028573105E+02
             -0.177066057906981E+03
             -0.182840986635169E+03
             -0.412388886734579E+02
             -0.163469395859609E+03
              0.259535142800806E+03
              0.218662450507631E+03
              0.103099623506092E+03
              0.284252637270685E+03
             -0.142087016271688E+03
             -0.611708940711085E+02
             -0.881345404436818E+02
              0.245853325490623E+03

 BEEF-vdW xc energy contributions
            1 :    -2222.841200466212
            2 :     2036.938602147580
            3 :    -1719.901752062038
            4 :     1356.113025566870
            5 :    -1025.028800770637
            6 :     775.6530933015267
            7 :    -618.6167881847605
            8 :     533.4455977004100
            9 :    -484.1053354503501
           10 :     436.2283365791179
           11 :    -370.2387858923321
           12 :     285.8137168772337
           13 :    -196.7560518569826
           14 :     120.3182392934450
           15 :    -67.46246449734690
           16 :     38.65011070793344
           17 :    -25.68011144098000
           18 :     17.11778176016651
           19 :    -4.125422541899752
           20 :    -15.84880651735875
           21 :     38.91173009239401
           22 :    -57.91909454914276
           23 :     67.15315027297584
           24 :    -65.79012652648180
           25 :     58.27771198283017
           26 :    -51.68940921221065
           27 :     51.80615937736638
           28 :    -60.11678694947841
           29 :     73.19344200364685
           30 :    -84.62085124049327
           31 :    -191.0383780549955
           32 :    -137.3993292863925

     Writing all to output data dir ./PbI2.save/

     General routines

     Parallel routines

     PAW routines

   This run was terminated on:  15:20: 9  18Feb2024

   JOB DONE.