     Program PWSCF v.7.1 starts on 11Feb2024 at  9:54:42

     Reading input from espresso.pwi
Warning: card &CELL ignored
Warning: card    CELL_DYNAMICS    = 'BFGS' ignored
Warning: card / ignored

     Current dimensions of program PWSCF are:
     Max number of different atomic species (ntypx) = 10
     Max number of k-points (npk) =  40000
     Max angular momentum in pseudopotentials (lmaxx) =  4
     file Pb.pbe-dn-kjpaw_psl.1.0.0.UPF: wavefunction(s)  6S 6P 5D renormalized
     file I.pbe-dn-kjpaw_psl.1.0.0.UPF: wavefunction(s)  5S 5P renormalized

     IMPORTANT: XC functional enforced from input :
     Exchange-correlation= BEEF-VDW
                           (   1   4  43  14   2   0   0)
     Any further DFT definition will be discarded
     Please, verify this is what you really want

     K-points division:     npool     =       2
     R & G space division:  proc/nbgrp/npool/nimage =      64
     Subspace diagonalization in iterative solution of the eigenvalue problem:
     a serial algorithm will be used

     Using Slab Decomposition

     bravais-lattice index     =            4
     lattice parameter (alat)  =      26.7090  a.u.
     unit-cell volume          =   17226.5091 (a.u.)^3
     number of atoms/cell      =           53
     number of atomic types    =            2
     number of electrons       =       852.00
     number of Kohn-Sham states=          511
     kinetic-energy cutoff     =      70.0000  Ry
     charge density cutoff     =     350.0000  Ry
     scf convergence threshold =      1.0E-07
     mixing beta               =       0.7000
     number of iterations used =            8  plain     mixing
     energy convergence thresh.=      1.0E-04
     force convergence thresh. =      1.0E-03
     Exchange-correlation= BEEF-VDW
                           (   1   4  43  14   2   0   0)
     nstep                     =           50

     celldm(1)=  26.709025  celldm(2)=   0.000000  celldm(3)=   1.043981
     celldm(4)=   0.000000  celldm(5)=   0.000000  celldm(6)=   0.000000

     crystal axes: (cart. coord. in units of alat)
               a(1) = (   1.000000   0.000000   0.000000 )
               a(2) = (  -0.500000   0.866025   0.000000 )
               a(3) = (   0.000000   0.000000   1.043981 )

     reciprocal axes: (cart. coord. in units 2 pi/alat)
               b(1) = (  1.000000  0.577350 -0.000000 )
               b(2) = (  0.000000  1.154701  0.000000 )
               b(3) = (  0.000000 -0.000000  0.957872 )

     PseudoPot. # 1 for Pb read from file:
     //group///packages/espresso/pseudo/psl_1.0.0/pslibrary.1.0.0/pbe/PSEUDOPOTENTIALS/Pb.pbe-dn-kjpaw_psl.1.0.0.UPF
     MD5 check sum: 39ab5b8a6bbd56b7735ad9f188aac93a
     Pseudo is Projector augmented-wave + core cor, Zval = 14.0
     Generated using 'atomic' code by A. Dal Corso  v.7.1
     Shape of augmentation charge: PSQ
     Using radial grid of 1281 points,  6 beta functions with:
                l(1) =   0
                l(2) =   0
                l(3) =   1
                l(4) =   1
                l(5) =   2
                l(6) =   2
     Q(r) pseudized with 0 coefficients

     PseudoPot. # 2 for I  read from file:
     //group///packages/espresso/pseudo/psl_1.0.0/pslibrary.1.0.0/pbe/PSEUDOPOTENTIALS/I.pbe-dn-kjpaw_psl.1.0.0.UPF
     MD5 check sum: bfa8781bc1224d19af3f3980e3fab11e
     Pseudo is Projector augmented-wave + core cor, Zval = 17.0
     Generated using 'atomic' code by A. Dal Corso  v.7.1
     Shape of augmentation charge: PSQ
     Using radial grid of 1247 points,  6 beta functions with:
                l(1) =   0
                l(2) =   0
                l(3) =   1
                l(4) =   1
                l(5) =   2
                l(6) =   2
     Q(r) pseudized with 0 coefficients

     atomic species   valence    mass     pseudopotential
        Pb            14.00   207.20000     Pb( 1.00)
        I             17.00   126.90447     I ( 1.00)

     No symmetry found

                                    s                        frac. trans.

      isym =  1     identity

 cryst.   s( 1) = (     1          0          0      )
                  (     0          1          0      )
                  (     0          0          1      )

 cart.    s( 1) = (  1.0000000  0.0000000  0.0000000 )
                  (  0.0000000  1.0000000  0.0000000 )
                  (  0.0000000  0.0000000  1.0000000 )

     point group C_1 (1)
     there are  1 classes
     the character table:

       E
A      1.00

     the symmetry operations in each class and the name of the first element:

     E        1
          identity

   Cartesian axes

     site n.     atom                  positions (alat units)
         1           Pb  tau(   1) = (   0.1666712   0.2886557   0.5219862  )
         2           Pb  tau(   2) = (   0.0000102   0.5773235   1.0439712  )
         3           Pb  tau(   3) = (   0.0000034   0.5773295   0.5219807  )
         4           Pb  tau(   4) = (  -0.1666576   0.8659973   1.0439657  )
         5           Pb  tau(   5) = (  -0.1666644   0.8660033   0.5219752  )
         6           Pb  tau(   6) = (   0.5000113   0.2886484   1.0439810  )
         7           Pb  tau(   7) = (   0.5000045   0.2886544   0.5219905  )
         8           Pb  tau(   8) = (   0.3333436   0.5773222   1.0439755  )
         9           Pb  tau(   9) = (   0.3333367   0.5773282   0.5219850  )
        10           Pb  tau(  10) = (   0.1666758   0.8659960   1.0439700  )
        11           Pb  tau(  11) = (   0.1666690   0.8660020   0.5219795  )
        12           Pb  tau(  12) = (   0.8333447   0.2886471   1.0439853  )
        13           Pb  tau(  13) = (   0.8333379   0.2886531   0.5219949  )
        14           Pb  tau(  14) = (   0.6666769   0.5773209   1.0439798  )
        15           Pb  tau(  15) = (   0.6666701   0.5773269   0.5219894  )
        16           Pb  tau(  16) = (   0.5000091   0.8659947   1.0439743  )
        17           Pb  tau(  17) = (   0.5000023   0.8660007   0.5219839  )
        18           I   tau(  18) = (   0.1666738   0.0962066   0.3879099  )
        19           I   tau(  19) = (   0.1666806   0.0962006   0.9099004  )
        20           I   tau(  20) = (   0.0000060   0.3848804   0.3879044  )
        21           I   tau(  21) = (   0.0000129   0.3848744   0.9098949  )
        22           I   tau(  22) = (  -0.1666617   0.6735542   0.3878990  )
        23           I   tau(  23) = (  -0.1666549   0.6735482   0.9098894  )
        24           I   tau(  24) = (   0.5000071   0.0962053   0.3879143  )
        25           I   tau(  25) = (   0.5000140   0.0961993   0.9099047  )
        26           I   tau(  26) = (   0.3333394   0.3848792   0.3879088  )
        27           I   tau(  27) = (   0.3333462   0.3848731   0.9098993  )
        28           I   tau(  28) = (   0.1666716   0.6735530   0.3879033  )
        29           I   tau(  29) = (   0.1666784   0.6735469   0.9098938  )
        30           I   tau(  30) = (   0.8333405   0.0962041   0.3879186  )
        31           I   tau(  31) = (   0.8333473   0.0961980   0.9099091  )
        32           I   tau(  32) = (   0.6666727   0.3848779   0.3879131  )
        33           I   tau(  33) = (   0.6666795   0.3848718   0.9099036  )
        34           I   tau(  34) = (   0.5000049   0.6735517   0.3879076  )
        35           I   tau(  35) = (   0.5000117   0.6735457   0.9098981  )
        36           I   tau(  36) = (  -0.0000023   0.1924396   0.1340740  )
        37           I   tau(  37) = (   0.0000045   0.1924336   0.6560644  )
        38           I   tau(  38) = (  -0.1666701   0.4811134   0.1340685  )
        39           I   tau(  39) = (  -0.1666632   0.4811074   0.6560589  )
        40           I   tau(  40) = (  -0.3333378   0.7697873   0.1340630  )
        41           I   tau(  41) = (  -0.3333310   0.7697812   0.6560534  )
        42           I   tau(  42) = (   0.3333311   0.1924384   0.1340783  )
        43           I   tau(  43) = (   0.3333379   0.1924323   0.6560688  )
        44           I   tau(  44) = (   0.1666633   0.4811122   0.1340728  )
        45           I   tau(  45) = (   0.1666701   0.4811061   0.6560633  )
        46           I   tau(  46) = (  -0.0000045   0.7697860   0.1340673  )
        47           I   tau(  47) = (   0.0000023   0.7697799   0.6560578  )
        48           I   tau(  48) = (   0.6666644   0.1924371   0.1340827  )
        49           I   tau(  49) = (   0.6666712   0.1924310   0.6560731  )
        50           I   tau(  50) = (   0.4999966   0.4811109   0.1340772  )
        51           I   tau(  51) = (   0.5000034   0.4811049   0.6560676  )
        52           I   tau(  52) = (   0.3333288   0.7697847   0.1340717  )
        53           I   tau(  53) = (   0.3333356   0.7697787   0.6560621  )

   Crystallographic axes

     site n.     atom                  positions (cryst. coord.)
         1           Pb  tau(   1) = (  0.3333266  0.3333109  0.4999959  )
         2           Pb  tau(   2) = (  0.3333281  0.6666357  0.9999906  )
         3           Pb  tau(   3) = (  0.3333248  0.6666427  0.4999906  )
         4           Pb  tau(   4) = (  0.3333262  0.9999675  0.9999854  )
         5           Pb  tau(   5) = (  0.3333229  0.9999745  0.4999854  )
         6           Pb  tau(   6) = (  0.6666626  0.3333025  1.0000001  )
         7           Pb  tau(   7) = (  0.6666592  0.3333094  0.5000001  )
         8           Pb  tau(   8) = (  0.6666607  0.6666343  0.9999948  )
         9           Pb  tau(   9) = (  0.6666573  0.6666412  0.4999948  )
        10           Pb  tau(  10) = (  0.6666588  0.9999661  0.9999895  )
        11           Pb  tau(  11) = (  0.6666555  0.9999730  0.4999895  )
        12           Pb  tau(  12) = (  0.9999951  0.3333010  1.0000042  )
        13           Pb  tau(  13) = (  0.9999918  0.3333079  0.5000042  )
        14           Pb  tau(  14) = (  0.9999933  0.6666328  0.9999990  )
        15           Pb  tau(  15) = (  0.9999899  0.6666397  0.4999990  )
        16           Pb  tau(  16) = (  0.9999914  0.9999646  0.9999937  )
        17           Pb  tau(  17) = (  0.9999881  0.9999715  0.4999937  )
        18           I   tau(  18) = (  0.2222187  0.1110899  0.3715680  )
        19           I   tau(  19) = (  0.2222221  0.1110829  0.8715680  )
        20           I   tau(  20) = (  0.2222169  0.4444217  0.3715628  )
        21           I   tau(  21) = (  0.2222202  0.4444147  0.8715628  )
        22           I   tau(  22) = (  0.2222150  0.7777534  0.3715575  )
        23           I   tau(  23) = (  0.2222183  0.7777465  0.8715575  )
        24           I   tau(  24) = (  0.5555513  0.1110884  0.3715722  )
        25           I   tau(  25) = (  0.5555547  0.1110814  0.8715722  )
        26           I   tau(  26) = (  0.5555495  0.4444202  0.3715669  )
        27           I   tau(  27) = (  0.5555528  0.4444132  0.8715669  )
        28           I   tau(  28) = (  0.5555476  0.7777520  0.3715617  )
        29           I   tau(  29) = (  0.5555509  0.7777450  0.8715617  )
        30           I   tau(  30) = (  0.8888839  0.1110869  0.3715764  )
[...]
     atom   34 type  2   force =     0.00002585   -0.00015928   -0.00545063
     atom   35 type  2   force =    -0.00088953    0.00032711   -0.00418927
     atom   36 type  2   force =     0.00244919    0.00131698    0.00368789
     atom   37 type  2   force =    -0.00001284    0.00019676    0.00558152
     atom   38 type  2   force =    -0.00028574    0.00031988    0.00477876
     atom   39 type  2   force =     0.00020667    0.00001737    0.00561448
     atom   40 type  2   force =     0.00015653   -0.00054757    0.00477358
     atom   41 type  2   force =     0.00017977   -0.00002732    0.00562333
     atom   42 type  2   force =    -0.00266537    0.00131402    0.00368870
     atom   43 type  2   force =    -0.00005617    0.00003427    0.00560753
     atom   44 type  2   force =    -0.00010813   -0.00316391    0.00368229
     atom   45 type  2   force =    -0.00013539    0.00008059    0.00558798
     atom   46 type  2   force =    -0.00081777   -0.00051489    0.00418685
     atom   47 type  2   force =     0.00005570   -0.00012620    0.00544721
     atom   48 type  2   force =    -0.00011934    0.00075469    0.00421821
     atom   49 type  2   force =     0.00008535    0.00004526    0.00547634
     atom   50 type  2   force =     0.00033254    0.00027047    0.00474627
     atom   51 type  2   force =     0.00000833   -0.00001574    0.00564761
     atom   52 type  2   force =     0.00072641   -0.00060711    0.00418521
     atom   53 type  2   force =    -0.00014871   -0.00005580    0.00545130
     The Hubbard contrib.    to forces
     atom    1 type  1   force =     0.00000000    0.00000000    0.00000000
     atom    2 type  1   force =     0.00000000    0.00000000    0.00000000
     atom    3 type  1   force =     0.00000000    0.00000000    0.00000000
     atom    4 type  1   force =     0.00000000    0.00000000    0.00000000
     atom    5 type  1   force =     0.00000000    0.00000000    0.00000000
     atom    6 type  1   force =     0.00000000    0.00000000    0.00000000
     atom    7 type  1   force =     0.00000000    0.00000000    0.00000000
     atom    8 type  1   force =     0.00000000    0.00000000    0.00000000
     atom    9 type  1   force =     0.00000000    0.00000000    0.00000000
     atom   10 type  1   force =     0.00000000    0.00000000    0.00000000
     atom   11 type  1   force =     0.00000000    0.00000000    0.00000000
     atom   12 type  1   force =     0.00000000    0.00000000    0.00000000
     atom   13 type  1   force =     0.00000000    0.00000000    0.00000000
     atom   14 type  1   force =     0.00000000    0.00000000    0.00000000
     atom   15 type  1   force =     0.00000000    0.00000000    0.00000000
     atom   16 type  1   force =     0.00000000    0.00000000    0.00000000
     atom   17 type  1   force =     0.00000000    0.00000000    0.00000000
     atom   18 type  2   force =     0.00000000    0.00000000    0.00000000
     atom   19 type  2   force =     0.00000000    0.00000000    0.00000000
     atom   20 type  2   force =     0.00000000    0.00000000    0.00000000
     atom   21 type  2   force =     0.00000000    0.00000000    0.00000000
     atom   22 type  2   force =     0.00000000    0.00000000    0.00000000
     atom   23 type  2   force =     0.00000000    0.00000000    0.00000000
     atom   24 type  2   force =     0.00000000    0.00000000    0.00000000
     atom   25 type  2   force =     0.00000000    0.00000000    0.00000000
     atom   26 type  2   force =     0.00000000    0.00000000    0.00000000
     atom   27 type  2   force =     0.00000000    0.00000000    0.00000000
     atom   28 type  2   force =     0.00000000    0.00000000    0.00000000
     atom   29 type  2   force =     0.00000000    0.00000000    0.00000000
     atom   30 type  2   force =     0.00000000    0.00000000    0.00000000
     atom   31 type  2   force =     0.00000000    0.00000000    0.00000000
     atom   32 type  2   force =     0.00000000    0.00000000    0.00000000
     atom   33 type  2   force =     0.00000000    0.00000000    0.00000000
     atom   34 type  2   force =     0.00000000    0.00000000    0.00000000
     atom   35 type  2   force =     0.00000000    0.00000000    0.00000000
     atom   36 type  2   force =     0.00000000    0.00000000    0.00000000
     atom   37 type  2   force =     0.00000000    0.00000000    0.00000000
     atom   38 type  2   force =     0.00000000    0.00000000    0.00000000
     atom   39 type  2   force =     0.00000000    0.00000000    0.00000000
     atom   40 type  2   force =     0.00000000    0.00000000    0.00000000
     atom   41 type  2   force =     0.00000000    0.00000000    0.00000000
     atom   42 type  2   force =     0.00000000    0.00000000    0.00000000
     atom   43 type  2   force =     0.00000000    0.00000000    0.00000000
     atom   44 type  2   force =     0.00000000    0.00000000    0.00000000
     atom   45 type  2   force =     0.00000000    0.00000000    0.00000000
     atom   46 type  2   force =     0.00000000    0.00000000    0.00000000
     atom   47 type  2   force =     0.00000000    0.00000000    0.00000000
     atom   48 type  2   force =     0.00000000    0.00000000    0.00000000
     atom   49 type  2   force =     0.00000000    0.00000000    0.00000000
     atom   50 type  2   force =     0.00000000    0.00000000    0.00000000
     atom   51 type  2   force =     0.00000000    0.00000000    0.00000000
     atom   52 type  2   force =     0.00000000    0.00000000    0.00000000
     atom   53 type  2   force =     0.00000000    0.00000000    0.00000000
     The SCF correction term to forces
     atom    1 type  1   force =    -0.00000235   -0.00000410   -0.00000138
     atom    2 type  1   force =     0.00000202   -0.00000316    0.00000015
     atom    3 type  1   force =    -0.00000533    0.00000259   -0.00000054
     atom    4 type  1   force =    -0.00000273    0.00000170    0.00000177
     atom    5 type  1   force =     0.00000103   -0.00000239   -0.00000221
     atom    6 type  1   force =    -0.00000432    0.00000060    0.00000305
     atom    7 type  1   force =     0.00000478   -0.00000345    0.00000013
     atom    8 type  1   force =    -0.00000147   -0.00000337    0.00000171
     atom    9 type  1   force =     0.00000187    0.00000307   -0.00000021
     atom   10 type  1   force =     0.00000183   -0.00000016    0.00001006
     atom   11 type  1   force =    -0.00000167    0.00000315    0.00001207
     atom   12 type  1   force =     0.00000328   -0.00000145    0.00000104
     atom   13 type  1   force =    -0.00000216    0.00000015    0.00000192
     atom   14 type  1   force =    -0.00000105    0.00000120   -0.00000931
     atom   15 type  1   force =     0.00000393    0.00000074   -0.00000979
     atom   16 type  1   force =     0.00000095    0.00000163    0.00000124
     atom   17 type  1   force =     0.00000035    0.00000018   -0.00000039
     atom   18 type  2   force =    -0.00000012   -0.00000269    0.00002340
     atom   19 type  2   force =    -0.00000264   -0.00000050   -0.00000615
     atom   20 type  2   force =    -0.00000375   -0.00000165    0.00002499
     atom   21 type  2   force =    -0.00000188   -0.00000136   -0.00000902
     atom   22 type  2   force =    -0.00000645   -0.00000306    0.00001219
     atom   23 type  2   force =     0.00000155    0.00000397   -0.00001215
     atom   24 type  2   force =    -0.00000070   -0.00000275    0.00001519
     atom   25 type  2   force =    -0.00000421    0.00000085   -0.00000874
     atom   26 type  2   force =    -0.00000045   -0.00000410    0.00002010
     atom   27 type  2   force =     0.00000137    0.00000060   -0.00000686
     atom   28 type  2   force =    -0.00000396    0.00000255    0.00001195
     atom   29 type  2   force =    -0.00000055   -0.00000373   -0.00000678
     atom   30 type  2   force =     0.00000062    0.00000048    0.00001457
     atom   31 type  2   force =     0.00000594    0.00000156   -0.00000763
     atom   32 type  2   force =     0.00000310    0.00000451    0.00001160
     atom   33 type  2   force =     0.00000154   -0.00000221   -0.00001292
     atom   34 type  2   force =     0.00000841    0.00000034    0.00000767
     atom   35 type  2   force =    -0.00000023    0.00000555   -0.00000958
     atom   36 type  2   force =     0.00000367   -0.00000076    0.00000847
     atom   37 type  2   force =    -0.00000376   -0.00000198   -0.00002731
     atom   38 type  2   force =     0.00000307   -0.00000369    0.00001210
     atom   39 type  2   force =    -0.00000365   -0.00000064   -0.00001613
     atom   40 type  2   force =    -0.00000169    0.00000666    0.00001137
     atom   41 type  2   force =     0.00000072   -0.00000178   -0.00001595
     atom   42 type  2   force =    -0.00000209   -0.00000051    0.00001044
     atom   43 type  2   force =     0.00000203   -0.00000480   -0.00002913
     atom   44 type  2   force =     0.00000020   -0.00000091    0.00000971
     atom   45 type  2   force =    -0.00000340   -0.00000007   -0.00002445
     atom   46 type  2   force =    -0.00000441   -0.00000045    0.00001406
     atom   47 type  2   force =     0.00000171    0.00000453   -0.00001358
     atom   48 type  2   force =     0.00000285    0.00000533    0.00001368
     atom   49 type  2   force =     0.00000066   -0.00000648   -0.00001423
     atom   50 type  2   force =    -0.00000378   -0.00000319    0.00001096
     atom   51 type  2   force =     0.00000574   -0.00000101   -0.00001259
     atom   52 type  2   force =     0.00000643    0.00000206    0.00001183
     atom   53 type  2   force =    -0.00000335    0.00000710   -0.00000966

     Total force =     0.004201     Total SCF correction =     0.000096

     Computing stress (Cartesian axis) and pressure

     Non-local corr. energy    =      25.64384193 Ry

          total   stress  (Ry/bohr**3)                   (kbar)     P=       13.47
   0.00009046   0.00000006  -0.00000014           13.31        0.01       -0.02
   0.00000006   0.00009053   0.00000008            0.01       13.32        0.01
  -0.00000014   0.00000008   0.00009379           -0.02        0.01       13.80

     kinetic stress (kbar)  14631.56     -0.00     -0.01
                               -0.00  14631.55      0.01
                               -0.01      0.01  14642.29

     local   stress (kbar)  -7373.82     -3.31      2.34
                               -3.31  -7377.54     -1.32
                                2.34     -1.32    661.36

     nonloc. stress (kbar)   -919.36      0.01     -0.01
                                0.01   -919.35      0.01
                               -0.01      0.01   -923.71

     hartree stress (kbar)  11884.16      1.41     -0.95
                                1.41  11885.74      0.54
                               -0.95      0.54   8259.38

     exc-cor stress (kbar)   6857.97      0.00     -0.00
                                0.00   6857.98      0.00
                               -0.00      0.00   6857.05

     corecor stress (kbar) -11162.01     -0.00      0.00
                               -0.00 -11162.01     -0.00
                                0.00     -0.00 -11161.96

     ewald   stress (kbar) -13987.76      1.90     -1.39
                                1.90 -13985.62      0.78
                               -1.39      0.78 -18404.30

     hubbard stress (kbar)      0.00      0.00      0.00
                                0.00      0.00      0.00
                                0.00      0.00      0.00

     DFT-D   stress (kbar)      0.00      0.00      0.00
                                0.00      0.00      0.00
                                0.00      0.00      0.00

     XDM     stress (kbar)      0.00      0.00      0.00
                                0.00      0.00      0.00
                                0.00      0.00      0.00

     dft-nl  stress (kbar)     82.56     -0.00      0.00
                               -0.00     82.56     -0.00
                                0.00     -0.00     83.69

     TS-vdW  stress (kbar)      0.00      0.00      0.00
                                0.00      0.00      0.00
                                0.00      0.00      0.00

     MDB     stress (kbar)      0.00      0.00      0.00
                                0.00      0.00      0.00
                                0.00      0.00      0.00

     3D-RISM stress (kbar)      0.00      0.00      0.00
                                0.00      0.00      0.00
                                0.00      0.00      0.00

     Energy error            =      3.3E-05 Ry
     Gradient error          =      9.8E-04 Ry/Bohr

     bfgs converged in   9 scf cycles and   8 bfgs steps
     (criteria: energy <  1.0E-04 Ry, force <  1.0E-03 Ry/Bohr)

     End of BFGS Geometry Optimization

     Final energy             =  -35528.3166948928 Ry

     File ./PbI2.bfgs deleted, as requested
Begin final coordinates

ATOMIC_POSITIONS (angstrom)
Pb            2.3575112356        4.0828695603        7.3777794442
Pb            0.0748650558        8.0324121905       14.7532446729
Pb            0.0040408072        8.1566720413        7.3742773230
Pb           -2.4267711996       12.3664933326       14.7537590952
Pb           -2.3558259662       12.2467979023        7.3778387599
Pb            6.9192204449        4.0807871327       14.7573257758
Pb            7.0622081460        4.0816291451        7.3811733648
Pb            4.6368168291        8.0306706350       14.7553124776
Pb            4.7086989912        8.1552561329        7.3777559722
Pb            2.3550373283       12.2403659215       14.8296768125
Pb            2.3550931662       12.2419426616        7.3702906173
Pb           11.9234620599        4.0813477219       14.7567984627
Pb           11.7843169666        4.0829977847        7.3775701439
Pb            9.4233814910        8.1594719591       14.6808462771
Pb            9.4246604295        8.1603558957        7.3850930022
Pb            7.1391770617       12.3648903806       14.7552965744
Pb            7.0709156881       12.2467182068        7.3777121334
I             2.3604531284        1.3661267670        5.4978185295
I             2.3517992479        1.3205194639       12.8932832774
I             0.0048156401        5.4375379579        5.4949017369
I            -0.0322182974        5.4499582749       12.8941967273
I            -2.3511104337        9.5272764178        5.4971729063
I            -2.3826668819        9.5001409575       12.8680136307
I             7.0700152176        1.3653090147        5.5055427228
I             7.0651044856        1.3683555940       12.8419293149
I             4.7148605065        5.4375771579        5.4964867393
I             4.7362338328        5.4501992721       12.8955786184
I             2.3583230706        9.5265967932        5.5036727128
I             2.3589819108        9.5165621652       12.8419911558
I            11.7728446323        1.3618092864        5.5064256544
I            11.7781221474        1.3650509816       12.8445961068
I             9.4186678108        5.4340112721        5.4984886479
I             9.4196028644        5.4637867646       12.8715983836
I             7.0632502440        9.5210023386        5.4997920040
I             7.0887628652        9.4998362347       12.8707664044
I            -0.0320015355        2.6967912226        1.8618684046
I             0.0031680540        2.7270054652        9.2576494183
I            -2.3472234182        6.8025598764        1.9131562342
I            -2.3523187132        6.8052933009        9.2499206436
I            -4.7063783522       10.8823667082        1.9105322812
I            -4.7066293908       10.8762653411        9.2490482942
I             4.7361996848        2.6969069742        1.8609296555
I             4.7071249440        2.7225235012        9.2606066839
I             2.3522039096        6.8266495019        1.8595997897
I             2.3519375345        6.8018234778        9.2590256775
I             0.0223364991       10.8893662332        1.8834657245
I            -0.0030153344       10.8736817283        9.2569375410
I             9.4189979061        2.6863748226        1.8870249775
I             9.4267761402        2.7272586180        9.2582087335
I             7.0627838957        6.8009705073        1.9131283223
I             7.0716763476        6.8054599896        9.2518199255
I             4.6830079007       10.8887980740        1.8843387764
I             4.7141567173       10.8773520224        9.2556248244
End final coordinates

     Writing all to output data dir ./PbI2.save/

     General routines

     Parallel routines

     PAW routines

   This run was terminated on:  12: 7:32  11Feb2024

   JOB DONE.