     Program PWSCF v.7.1 starts on  8Oct2023 at  8: 9: 7

     Reading input from espresso.pwi
Warning: card &CELL ignored
Warning: card    CELL_DYNAMICS    = 'BFGS' ignored
Warning: card / ignored

     Current dimensions of program PWSCF are:
     Max number of different atomic species (ntypx) = 10
     Max number of k-points (npk) =  40000
     Max angular momentum in pseudopotentials (lmaxx) =  4
     file C.pbe-n-kjpaw_psl.1.0.0.UPF: wavefunction(s)  2S 2P renormalized

     IMPORTANT: XC functional enforced from input :
     Exchange-correlation= BEEF-VDW
                           (   1   4  43  14   2   0   0)
     Any further DFT definition will be discarded
     Please, verify this is what you really want

     Found identity + (  0.0000  0.0000  0.3333) symmetry
     This is a supercell, fractional translations are disabled

     K-points division:     npool     =       4
     R & G space division:  proc/nbgrp/npool/nimage =      64
     Subspace diagonalization in iterative solution of the eigenvalue problem:
     a serial algorithm will be used

     Using Slab Decomposition

     bravais-lattice index     =            1
     lattice parameter (alat)  =      20.2520  a.u.
     unit-cell volume          =    8306.2556 (a.u.)^3
     number of atoms/cell      =          216
     number of atomic types    =            1
     number of electrons       =       864.00
     number of Kohn-Sham states=          518
     kinetic-energy cutoff     =      70.0000  Ry
     charge density cutoff     =     350.0000  Ry
     scf convergence threshold =      1.0E-08
     mixing beta               =       0.7000
     number of iterations used =            8  plain     mixing
     Exchange-correlation= BEEF-VDW
                           (   1   4  43  14   2   0   0)

     celldm(1)=  20.252024  celldm(2)=   0.000000  celldm(3)=   0.000000
     celldm(4)=   0.000000  celldm(5)=   0.000000  celldm(6)=   0.000000

     crystal axes: (cart. coord. in units of alat)
               a(1) = (   1.000000   0.000000   0.000000 )
               a(2) = (   0.000000   1.000000   0.000000 )
               a(3) = (   0.000000   0.000000   1.000000 )

     reciprocal axes: (cart. coord. in units 2 pi/alat)
               b(1) = (  1.000000  0.000000  0.000000 )
               b(2) = (  0.000000  1.000000  0.000000 )
               b(3) = (  0.000000  0.000000  1.000000 )

     PseudoPot. # 1 for C  read from file:
     /trace/group/acmegroup/atimmins/packages/espresso/pseudo/psl_1.0.0/pslibrary.1.0.0/pbe/PSEUDOPOTENTIALS/C.pbe-n-kjpaw_psl.1.0.0.UPF
     MD5 check sum: 5459cf7f2c8c37df2f7cde8914797f4d
     Pseudo is Projector augmented-wave + core cor, Zval =  4.0
     Generated using 'atomic' code by A. Dal Corso  v.7.1
     Shape of augmentation charge: PSQ
     Using radial grid of 1073 points,  4 beta functions with:
                l(1) =   0
                l(2) =   0
                l(3) =   1
                l(4) =   1
     Q(r) pseudized with 0 coefficients

     atomic species   valence    mass     pseudopotential
        C              4.00    12.01100     C ( 1.00)

     24 Sym. Ops. (no inversion) found

                                    s                        frac. trans.

      isym =  1     identity

 cryst.   s( 1) = (     1          0          0      )
                  (     0          1          0      )
                  (     0          0          1      )

 cart.    s( 1) = (  1.0000000  0.0000000  0.0000000 )
                  (  0.0000000  1.0000000  0.0000000 )
                  (  0.0000000  0.0000000  1.0000000 )

      isym =  2     180 deg rotation - cart. axis [0,0,1]

[...]

 cryst.   s( 9) = (     0          1          0      )
                  (     0          0          1      )
                  (     1          0          0      )

 cart.    s( 9) = (  0.0000000  0.0000000  1.0000000 )
                  (  1.0000000  0.0000000  0.0000000 )
                  (  0.0000000  1.0000000  0.0000000 )

[...]

 cryst.   s(10) = (     0         -1          0      )
                  (     0          0         -1      )
                  (     1          0          0      )

 cart.    s(10) = (  0.0000000  0.0000000  1.0000000 )
                  ( -1.0000000  0.0000000  0.0000000 )
                  (  0.0000000 -1.0000000  0.0000000 )

[...]

      isym = 12     120 deg rotation - cart. axis [-1,-1,1]

[...]

      isym = 13     inv. 180 deg rotation - cart. axis [1,1,0]

[...]

      isym = 24     inv.  90 deg rotation - cart. axis [1,0,0]

 cryst.   s(24) = (    -1          0          0      )
                  (     0          0         -1      )
                  (     0          1          0      )

 cart.    s(24) = ( -1.0000000  0.0000000  0.0000000 )
                  (  0.0000000  0.0000000  1.0000000 )
                  (  0.0000000 -1.0000000  0.0000000 )

     point group T_d (-43m)
     there are  5 classes
     the character table:

       E     8C3   3C2   6S4   6s_d
A_1    1.00  1.00  1.00  1.00  1.00
A_2    1.00  1.00  1.00 -1.00 -1.00
E      2.00 -1.00  2.00  0.00  0.00
T_1    3.00  0.00 -1.00  1.00 -1.00
T_2    3.00  0.00 -1.00 -1.00  1.00

     the symmetry operations in each class and the name of the first element:

     E        1
          identity
     8C3      5    7    8    6   12    9   10   11
          120 deg rotation - cart. axis [-1,-1,-1]
     3C2      2    3    4
          180 deg rotation - cart. axis [0,0,1]
     6S4     15   16   20   19   23   24
          inv.  90 deg rotation - cart. axis [0,0,-1]
     6s_d    13   14   17   18   21   22
          inv. 180 deg rotation - cart. axis [1,1,0]

   Cartesian axes

     site n.     atom                  positions (alat units)
         1           C   tau(   1) = (   0.0833353   0.2499980   0.0833353  )
         2           C   tau(   2) = (   0.0833353   0.2499980   0.4166687  )
         3           C   tau(   3) = (   0.0833353   0.2499980   0.7500020  )
         4           C   tau(   4) = (   0.0833353   0.5833313   0.0833353  )
         5           C   tau(   5) = (   0.0833353   0.5833313   0.4166687  )
         6           C   tau(   6) = (   0.0833353   0.5833313   0.7500020  )
         7           C   tau(   7) = (   0.0833353   0.9166647   0.0833353  )
         8           C   tau(   8) = (   0.0833353   0.9166647   0.4166687  )
         9           C   tau(   9) = (   0.0833353   0.9166647   0.7500020  )
        10           C   tau(  10) = (   0.4166687   0.2499980   0.0833353  )
        11           C   tau(  11) = (   0.4166687   0.2499980   0.4166687  )
        12           C   tau(  12) = (   0.4166687   0.2499980   0.7500020  )
        13           C   tau(  13) = (   0.4166687   0.5833313   0.0833353  )
        14           C   tau(  14) = (   0.4166687   0.5833313   0.4166687  )
        15           C   tau(  15) = (   0.4166687   0.5833313   0.7500020  )
        16           C   tau(  16) = (   0.4166687   0.9166647   0.0833353  )
        17           C   tau(  17) = (   0.4166687   0.9166647   0.4166687  )
        18           C   tau(  18) = (   0.4166687   0.9166647   0.7500020  )
        19           C   tau(  19) = (   0.7500020   0.2499980   0.0833353  )
        20           C   tau(  20) = (   0.7500020   0.2499980   0.4166687  )
        21           C   tau(  21) = (   0.7500020   0.2499980   0.7500020  )
        22           C   tau(  22) = (   0.7500020   0.5833313   0.0833353  )
        23           C   tau(  23) = (   0.7500020   0.5833313   0.4166687  )
        24           C   tau(  24) = (   0.7500020   0.5833313   0.7500020  )
        25           C   tau(  25) = (   0.7500020   0.9166647   0.0833353  )
        26           C   tau(  26) = (   0.7500020   0.9166647   0.4166687  )
        27           C   tau(  27) = (   0.7500020   0.9166647   0.7500020  )
        28           C   tau(  28) = (   0.0000000   0.0000000   0.1666667  )
        29           C   tau(  29) = (   0.0000000   0.0000000   0.5000000  )
        30           C   tau(  30) = (   0.0000000   0.0000000   0.8333333  )
        31           C   tau(  31) = (   0.0000000   0.3333333   0.1666667  )
        32           C   tau(  32) = (   0.0000000   0.3333333   0.5000000  )
        33           C   tau(  33) = (   0.0000000   0.3333333   0.8333333  )
        34           C   tau(  34) = (   0.0000000   0.6666667   0.1666667  )
        35           C   tau(  35) = (   0.0000000   0.6666667   0.5000000  )
        36           C   tau(  36) = (   0.0000000   0.6666667   0.8333333  )
        37           C   tau(  37) = (   0.3333333   0.0000000   0.1666667  )
        38           C   tau(  38) = (   0.3333333   0.0000000   0.5000000  )
        39           C   tau(  39) = (   0.3333333   0.0000000   0.8333333  )
        40           C   tau(  40) = (   0.3333333   0.3333333   0.1666667  )
        41           C   tau(  41) = (   0.3333333   0.3333333   0.5000000  )
        42           C   tau(  42) = (   0.3333333   0.3333333   0.8333333  )
        43           C   tau(  43) = (   0.3333333   0.6666667   0.1666667  )
        44           C   tau(  44) = (   0.3333333   0.6666667   0.5000000  )
        45           C   tau(  45) = (   0.3333333   0.6666667   0.8333333  )
        46           C   tau(  46) = (   0.6666667   0.0000000   0.1666667  )
        47           C   tau(  47) = (   0.6666667   0.0000000   0.5000000  )
        48           C   tau(  48) = (   0.6666667   0.0000000   0.8333333  )
        49           C   tau(  49) = (   0.6666667   0.3333333   0.1666667  )
        50           C   tau(  50) = (   0.6666667   0.3333333   0.5000000  )
        51           C   tau(  51) = (   0.6666667   0.3333333   0.8333333  )
        52           C   tau(  52) = (   0.6666667   0.6666667   0.1666667  )
        53           C   tau(  53) = (   0.6666667   0.6666667   0.5000000  )
        54           C   tau(  54) = (   0.6666667   0.6666667   0.8333333  )
        55           C   tau(  55) = (   0.0833353   0.0833353   0.2499980  )
        56           C   tau(  56) = (   0.0833353   0.0833353   0.5833313  )
        57           C   tau(  57) = (   0.0833353   0.0833353   0.9166647  )
        58           C   tau(  58) = (   0.0833353   0.4166687   0.2499980  )
        59           C   tau(  59) = (   0.0833353   0.4166687   0.5833313  )
        60           C   tau(  60) = (   0.0833353   0.4166687   0.9166647  )
[...]
       202           C   tau( 202) = (   0.5000000   0.5000000   0.1666667  )
       203           C   tau( 203) = (   0.5000000   0.5000000   0.5000000  )
       204           C   tau( 204) = (   0.5000000   0.5000000   0.8333333  )
       205           C   tau( 205) = (   0.5000000   0.8333333   0.1666667  )
       206           C   tau( 206) = (   0.5000000   0.8333333   0.5000000  )
       207           C   tau( 207) = (   0.5000000   0.8333333   0.8333333  )
       208           C   tau( 208) = (   0.8333333   0.1666667   0.1666667  )
       209           C   tau( 209) = (   0.8333333   0.1666667   0.5000000  )
       210           C   tau( 210) = (   0.8333333   0.1666667   0.8333333  )
       211           C   tau( 211) = (   0.8333333   0.5000000   0.1666667  )
[...]
     atom   25 type  1   force =     0.00000000    0.00000000    0.00000000
     atom   26 type  1   force =     0.00000000    0.00000000    0.00000000
     atom   27 type  1   force =     0.00000000    0.00000000    0.00000000
     atom   28 type  1   force =     0.00000000    0.00000000    0.00000000
     atom   29 type  1   force =     0.00000000    0.00000000    0.00000000
     atom   30 type  1   force =     0.00000000    0.00000000    0.00000000
     atom   31 type  1   force =     0.00000000    0.00000000    0.00000000
     atom   32 type  1   force =     0.00000000    0.00000000    0.00000000
     atom   33 type  1   force =     0.00000000    0.00000000    0.00000000
     atom   34 type  1   force =     0.00000000    0.00000000    0.00000000
     atom   35 type  1   force =     0.00000000    0.00000000    0.00000000
     atom   36 type  1   force =     0.00000000    0.00000000    0.00000000
     atom   37 type  1   force =     0.00000000    0.00000000    0.00000000
     atom   38 type  1   force =     0.00000000    0.00000000    0.00000000
     atom   39 type  1   force =     0.00000000    0.00000000    0.00000000
     atom   40 type  1   force =     0.00000000    0.00000000    0.00000000
     atom   41 type  1   force =     0.00000000    0.00000000    0.00000000
     atom   42 type  1   force =     0.00000000    0.00000000    0.00000000
     atom   43 type  1   force =     0.00000000    0.00000000    0.00000000
     atom   44 type  1   force =     0.00000000    0.00000000    0.00000000
     atom   45 type  1   force =     0.00000000    0.00000000    0.00000000
     atom   46 type  1   force =     0.00000000    0.00000000    0.00000000
     atom   47 type  1   force =     0.00000000    0.00000000    0.00000000
     atom   48 type  1   force =     0.00000000    0.00000000    0.00000000
     atom   49 type  1   force =     0.00000000    0.00000000    0.00000000
     atom   50 type  1   force =     0.00000000    0.00000000    0.00000000
     atom   51 type  1   force =     0.00000000    0.00000000    0.00000000
     atom   52 type  1   force =     0.00000000    0.00000000    0.00000000
     atom   53 type  1   force =     0.00000000    0.00000000    0.00000000
     atom   54 type  1   force =     0.00000000    0.00000000    0.00000000
     atom   55 type  1   force =     0.00000000    0.00000000    0.00000000
     atom   56 type  1   force =     0.00000000    0.00000000    0.00000000
     atom   57 type  1   force =     0.00000000    0.00000000    0.00000000
     atom   58 type  1   force =     0.00000000    0.00000000    0.00000000
     atom   59 type  1   force =     0.00000000    0.00000000    0.00000000
     atom   60 type  1   force =     0.00000000    0.00000000    0.00000000
[...]
     atom  202 type  1   force =     0.00000000    0.00000000    0.00000000
     atom  203 type  1   force =     0.00000000    0.00000000    0.00000000
     atom  204 type  1   force =     0.00000000    0.00000000    0.00000000
     atom  205 type  1   force =     0.00000000    0.00000000    0.00000000
     atom  206 type  1   force =     0.00000000    0.00000000    0.00000000
     atom  207 type  1   force =     0.00000000    0.00000000    0.00000000
     atom  208 type  1   force =     0.00000000    0.00000000    0.00000000
     atom  209 type  1   force =     0.00000000    0.00000000    0.00000000
     atom  210 type  1   force =     0.00000000    0.00000000    0.00000000
     atom  211 type  1   force =     0.00000000    0.00000000    0.00000000
     atom  212 type  1   force =     0.00000000    0.00000000    0.00000000
     atom  213 type  1   force =     0.00000000    0.00000000    0.00000000
     atom  214 type  1   force =     0.00000000    0.00000000    0.00000000
     atom  215 type  1   force =     0.00000000    0.00000000    0.00000000
     atom  216 type  1   force =     0.00000000    0.00000000    0.00000000
     The SCF correction term to forces
     atom    1 type  1   force =    -0.00000590   -0.00000042   -0.00000590
     atom    2 type  1   force =    -0.00000511   -0.00000916    0.00000048
     atom    3 type  1   force =    -0.00001132   -0.00000568    0.00000568
     atom    4 type  1   force =    -0.00001236   -0.00000735   -0.00001236
     atom    5 type  1   force =    -0.00000610   -0.00000223    0.00000223
     atom    6 type  1   force =    -0.00000511   -0.00000048    0.00000916
     atom    7 type  1   force =    -0.00000663    0.00000663   -0.00000663
     atom    8 type  1   force =    -0.00001236    0.00001236    0.00000735
     atom    9 type  1   force =    -0.00000590    0.00000590    0.00000042
     atom   10 type  1   force =     0.00000048   -0.00000916   -0.00000511
     atom   11 type  1   force =     0.00000112    0.00000036    0.00000112
     atom   12 type  1   force =     0.00000717   -0.00000400    0.00000400
     atom   13 type  1   force =     0.00000223   -0.00000223   -0.00000610
     atom   14 type  1   force =     0.00000738   -0.00000738    0.00000738
     atom   15 type  1   force =     0.00000112   -0.00000112   -0.00000036
     atom   16 type  1   force =     0.00000735    0.00001236   -0.00001236
     atom   17 type  1   force =     0.00000223    0.00000610    0.00000223
     atom   18 type  1   force =     0.00000048    0.00000511    0.00000916
     atom   19 type  1   force =     0.00000568   -0.00000568   -0.00001132
     atom   20 type  1   force =     0.00000400   -0.00000400    0.00000717
     atom   21 type  1   force =     0.00000426   -0.00000426    0.00000426
     atom   22 type  1   force =     0.00000916   -0.00000048   -0.00000511
     atom   23 type  1   force =    -0.00000036   -0.00000112    0.00000112
     atom   24 type  1   force =     0.00000400   -0.00000717    0.00000400
     atom   25 type  1   force =     0.00000042    0.00000590   -0.00000590
     atom   26 type  1   force =     0.00000916    0.00000511    0.00000048
     atom   27 type  1   force =     0.00000568    0.00001132    0.00000568
     atom   28 type  1   force =    -0.00000000   -0.00000000   -0.00000709
     atom   29 type  1   force =    -0.00000000   -0.00000000    0.00000000
     atom   30 type  1   force =     0.00000000    0.00000000    0.00000709
     atom   31 type  1   force =     0.00000473    0.00000350   -0.00001199
     atom   32 type  1   force =     0.00000000   -0.00000311    0.00000000
     atom   33 type  1   force =    -0.00000473    0.00000350    0.00001199
     atom   34 type  1   force =    -0.00000473   -0.00000350   -0.00001199
     atom   35 type  1   force =    -0.00000000    0.00000311    0.00000000
     atom   36 type  1   force =     0.00000473   -0.00000350    0.00001199
     atom   37 type  1   force =     0.00000350    0.00000473   -0.00001199
     atom   38 type  1   force =    -0.00000311    0.00000000    0.00000000
     atom   39 type  1   force =     0.00000350   -0.00000473    0.00001199
     atom   40 type  1   force =    -0.00000222   -0.00000222   -0.00000593
     atom   41 type  1   force =     0.00000435    0.00000435   -0.00000415
     atom   42 type  1   force =     0.00000239    0.00000239    0.00000978
     atom   43 type  1   force =     0.00000239   -0.00000239   -0.00000978
     atom   44 type  1   force =     0.00000435   -0.00000435    0.00000415
     atom   45 type  1   force =    -0.00000222    0.00000222    0.00000593
     atom   46 type  1   force =    -0.00000350   -0.00000473   -0.00001199
     atom   47 type  1   force =     0.00000311   -0.00000000    0.00000000
     atom   48 type  1   force =    -0.00000350    0.00000473    0.00001199
     atom   49 type  1   force =    -0.00000239    0.00000239   -0.00000978
     atom   50 type  1   force =    -0.00000435    0.00000435    0.00000415
     atom   51 type  1   force =     0.00000222   -0.00000222    0.00000593
     atom   52 type  1   force =     0.00000222    0.00000222   -0.00000593
     atom   53 type  1   force =    -0.00000435   -0.00000435   -0.00000415
     atom   54 type  1   force =    -0.00000239   -0.00000239    0.00000978
     atom   55 type  1   force =    -0.00000590   -0.00000590   -0.00000042
     atom   56 type  1   force =    -0.00001236   -0.00001236   -0.00000735
     atom   57 type  1   force =    -0.00000663   -0.00000663    0.00000663
     atom   58 type  1   force =    -0.00000511    0.00000048   -0.00000916
     atom   59 type  1   force =    -0.00000610    0.00000223   -0.00000223
     atom   60 type  1   force =    -0.00001236    0.00000735    0.00001236
[...]
     atom  202 type  1   force =     0.00000000    0.00000000   -0.00000457
     atom  203 type  1   force =     0.00000000    0.00000000    0.00000000
     atom  204 type  1   force =     0.00000000    0.00000000    0.00000457
     atom  205 type  1   force =     0.00000520    0.00001175   -0.00001175
     atom  206 type  1   force =     0.00000000    0.00000457    0.00000000
     atom  207 type  1   force =    -0.00000520    0.00001175    0.00001175
     atom  208 type  1   force =     0.00001131   -0.00001131   -0.00001131
     atom  209 type  1   force =     0.00001175   -0.00001175    0.00000520
     atom  210 type  1   force =     0.00000615   -0.00000615    0.00000615
     atom  211 type  1   force =     0.00001175    0.00000520   -0.00001175
     atom  212 type  1   force =     0.00000457    0.00000000    0.00000000
     atom  213 type  1   force =     0.00001175   -0.00000520    0.00001175
     atom  214 type  1   force =     0.00000615    0.00000615   -0.00000615
     atom  215 type  1   force =     0.00001175    0.00001175   -0.00000520
     atom  216 type  1   force =     0.00001131    0.00001131    0.00001131

     Total force =     0.012852     Total SCF correction =     0.000161

     Computing stress (Cartesian axis) and pressure

[...]

          total   stress  (Ry/bohr**3)                   (kbar)     P=       -0.31
  -0.00000208   0.00000000   0.00000000           -0.31        0.00        0.00
   0.00000000  -0.00000208   0.00000000            0.00       -0.31        0.00
   0.00000000   0.00000000  -0.00000208            0.00        0.00       -0.31

     kinetic stress (kbar)  18998.41      0.00      0.00
                                0.00  18998.41      0.00
                                0.00      0.00  18998.41

     local   stress (kbar)  -3483.68     -0.00     -0.00
                               -0.00  -3483.68     -0.00
                               -0.00     -0.00  -3483.68

     nonloc. stress (kbar)   4322.85      0.00      0.00
                                0.00   4322.85      0.00
                                0.00      0.00   4322.85

     hartree stress (kbar)   1266.97      0.00     -0.00
                                0.00   1266.97     -0.00
                               -0.00     -0.00   1266.97

     exc-cor stress (kbar)   -414.43      0.00      0.00
                                0.00   -414.43      0.00
                                0.00      0.00   -414.43

     corecor stress (kbar)  -4435.10     -0.00     -0.00
                               -0.00  -4435.10     -0.00
                               -0.00     -0.00  -4435.10

     ewald   stress (kbar) -16280.15      0.00      0.00
                                0.00 -16280.15      0.00
                                0.00      0.00 -16280.15

     hubbard stress (kbar)      0.00      0.00      0.00
                                0.00      0.00      0.00
                                0.00      0.00      0.00

     DFT-D   stress (kbar)      0.00      0.00      0.00
                                0.00      0.00      0.00
                                0.00      0.00      0.00

     XDM     stress (kbar)      0.00      0.00      0.00
                                0.00      0.00      0.00
                                0.00      0.00      0.00

     dft-nl  stress (kbar)     24.81     -0.00     -0.00
                               -0.00     24.81     -0.00
                               -0.00     -0.00     24.81

     TS-vdW  stress (kbar)      0.00      0.00      0.00
                                0.00      0.00      0.00
                                0.00      0.00      0.00

     MDB     stress (kbar)      0.00      0.00      0.00
                                0.00      0.00      0.00
                                0.00      0.00      0.00

     3D-RISM stress (kbar)      0.00      0.00      0.00
                                0.00      0.00      0.00
                                0.00      0.00      0.00

[...]

     Non-local corr. energy    =       7.38315906 Ry

 BEEFens 2000 ensemble energies
             -0.130695405366793E+02
             -0.910593272853794E+02
             -0.323248961778212E+02
              0.357464680087083E+02
             -0.602261535506640E+02
             -0.842513386859028E+02
              0.498705151729746E+02
             -0.103331040077140E+02
              0.692170719768478E+02
             -0.114592292997622E+01
              0.281432068031781E+02
              0.141587237626601E+01
              0.389241447308322E+01
             -0.820342498365233E+01
              0.468617619906664E+02
             -0.350383305946127E+02
             -0.803956915378568E+02
             -0.222882562752634E+02
              0.181648898541977E+02
              0.195547330383022E+01
              0.962122001305669E+02
              0.872528233474252E+02
             -0.428791747818232E+02
              0.240668491130734E+02
             -0.109313239327919E+03
              0.880370481173196E+02
              0.315063501827309E+02
              0.926811849446880E+02
              0.584712779081456E+02
             -0.365197446657558E+02
              0.228079203445191E+02
             -0.474435881021569E+02
              0.141338505489482E+01
              0.466409496930194E+02
              0.601764206977591E+02
             -0.148278018809648E+02
              0.129729894922261E+03
             -0.454225162487898E+02
             -0.328494801412905E+02
              0.502769264649290E+02
              0.173268400647965E+02
              0.423125738422941E+02
             -0.739253023961410E+02
             -0.304042382408193E+01
              0.783501664145782E+02
              0.955750266107171E+02
             -0.866217919920454E+02
              0.716963085417208E+01
              0.341470136239342E+02
              0.797994743877899E+01
              0.417591798181304E+02
              0.837913296036742E+02
             -0.561393839926959E+02
             -0.590564472955025E+02
             -0.748660954342571E+02
             -0.206291322181518E+02
             -0.625181839049540E+02
              0.334024791381012E+01
             -0.166158384405668E+02
             -0.567013608605764E+02
[...]
              0.735364924594320E+02
              0.300855792456843E+02
              0.512725132905590E+02
             -0.734136201328221E+02
             -0.572203003062473E+02
             -0.232788653496413E+02
             -0.629243692111818E+02
              0.113395916999716E+03
              0.972626869417714E+02
              0.422738508860081E+02
              0.114679413582685E+03
             -0.615177426686196E+02
             -0.295856011054496E+02
             -0.305456232400951E+02
              0.904846146069029E+02

 BEEF-vdW xc energy contributions
            1 :    -884.4064132324257
            2 :     780.3822289488267
            3 :    -600.9886435181642
            4 :     392.7250915316432
            5 :    -203.0745366350130
            6 :     64.82017225654317
            7 :     12.17431122413029
            8 :    -39.20012908275010
            9 :     39.06662910420994
           10 :    -33.93209779822212
           11 :     36.33673650100741
           12 :    -46.82147416396958
           13 :     57.86585765813766
           14 :    -60.88369909000232
           15 :     52.09015891951560
           16 :    -34.39114449164174
           17 :     15.04257587605287
           18 :    -1.143843676127290
           19 :    -4.128361307694831
           20 :     2.519124079636413
           21 :     1.223942835213961
           22 :    -2.650637238883405
           23 :    0.1765366817404583
           24 :     4.471880975235081
           25 :    -7.892656827459064
           26 :     7.456387323029276
           27 :    -2.975648132805759
           28 :    -3.332142737329264
           29 :     8.373569378880575
           30 :    -10.09944809118042
           31 :    -115.6979889759106
           32 :    -83.96325583857083

     Writing all to output data dir ./diamond.save/

     General routines

     Parallel routines

     PAW routines

   This run was terminated on:   9:17:38   8Oct2023

   JOB DONE.