     Program PWSCF v.7.1 starts on 12Feb2024 at 17:35:58

     Reading input from espresso.pwi
Warning: card &CELL ignored
Warning: card    CELL_DYNAMICS    = 'BFGS' ignored
Warning: card / ignored

     Current dimensions of program PWSCF are:
     Max number of different atomic species (ntypx) = 10
     Max number of k-points (npk) =  40000
     Max angular momentum in pseudopotentials (lmaxx) =  4
     file Ga.pbe-dn-kjpaw_psl.1.0.0.UPF: wavefunction(s)  4S renormalized
     file N.pbe-n-kjpaw_psl.1.0.0.UPF: wavefunction(s)  2S renormalized

     IMPORTANT: XC functional enforced from input :
     Exchange-correlation= BEEF-VDW
                           (   1   4  43  14   2   0   0)
     Any further DFT definition will be discarded
     Please, verify this is what you really want

     K-points division:     npool     =       4
     R & G space division:  proc/nbgrp/npool/nimage =      64
     Subspace diagonalization in iterative solution of the eigenvalue problem:
     a serial algorithm will be used

     Using Slab Decomposition

     bravais-lattice index     =            4
     lattice parameter (alat)  =      24.5252  a.u.
     unit-cell volume          =   15616.6055 (a.u.)^3
     number of atoms/cell      =          191
     number of atomic types    =            2
     number of electrons       =      1717.00
     number of Kohn-Sham states=         1031
     kinetic-energy cutoff     =      70.0000  Ry
     charge density cutoff     =     350.0000  Ry
     scf convergence threshold =      1.0E-07
     mixing beta               =       0.7000
     number of iterations used =            8  plain     mixing
     energy convergence thresh.=      1.0E-04
     force convergence thresh. =      1.0E-03
     Exchange-correlation= BEEF-VDW
                           (   1   4  43  14   2   0   0)
     nstep                     =           50

     celldm(1)=  24.525232  celldm(2)=   0.000000  celldm(3)=   1.222409
     celldm(4)=   0.000000  celldm(5)=   0.000000  celldm(6)=   0.000000

     crystal axes: (cart. coord. in units of alat)
               a(1) = (   1.000000   0.000000   0.000000 )
               a(2) = (  -0.500000   0.866025   0.000000 )
               a(3) = (   0.000000   0.000000   1.222409 )

     reciprocal axes: (cart. coord. in units 2 pi/alat)
               b(1) = (  1.000000  0.577350 -0.000000 )
               b(2) = (  0.000000  1.154701  0.000000 )
               b(3) = (  0.000000 -0.000000  0.818057 )

     PseudoPot. # 1 for Ga read from file:
     /trace/group/acmegroup/atimmins/packages/espresso/pseudo/psl_1.0.0/pslibrary.1.0.0/pbe/PSEUDOPOTENTIALS/Ga.pbe-dn-kjpaw_psl.1.0.0.UPF
     MD5 check sum: cd2a01e492f15b435d17032472d8505c
     Pseudo is Projector augmented-wave + core cor, Zval = 13.0
     Generated using 'atomic' code by A. Dal Corso  v.7.1
     Shape of augmentation charge: PSQ
     Using radial grid of 1205 points,  6 beta functions with:
                l(1) =   0
                l(2) =   0
                l(3) =   1
                l(4) =   1
                l(5) =   2
                l(6) =   2
     Q(r) pseudized with 0 coefficients

     PseudoPot. # 2 for N  read from file:
     /trace/group/acmegroup/atimmins/packages/espresso/pseudo/psl_1.0.0/pslibrary.1.0.0/pbe/PSEUDOPOTENTIALS/N.pbe-n-kjpaw_psl.1.0.0.UPF
     MD5 check sum: f77f775694dac7e2c3fe1c82443d1a16
     Pseudo is Projector augmented-wave + core cor, Zval =  5.0
     Generated using 'atomic' code by A. Dal Corso  v.7.1
     Shape of augmentation charge: PSQ
     Using radial grid of 1085 points,  4 beta functions with:
                l(1) =   0
                l(2) =   0
                l(3) =   1
                l(4) =   1
     Q(r) pseudized with 0 coefficients

     atomic species   valence    mass     pseudopotential
        Ga            13.00    69.72300     Ga( 1.00)
        N              5.00    14.00700     N ( 1.00)

      6 Sym. Ops. (no inversion) found ( 4 have fractional translation)

                                    s                        frac. trans.

      isym =  1     identity

 cryst.   s( 1) = (     1          0          0      )
                  (     0          1          0      )
                  (     0          0          1      )

 cart.    s( 1) = (  1.0000000  0.0000000  0.0000000 )
                  (  0.0000000  1.0000000  0.0000000 )
                  (  0.0000000  0.0000000  1.0000000 )

      isym =  2     120 deg rotation - cryst. axis [0,0,1]

 cryst.   s( 2) = (     0          1          0      )    f =( -0.2500000 )
                  (    -1         -1          0      )       (  0.0000002 )
                  (     0          0          1      )       (  0.0000000 )

 cart.    s( 2) = ( -0.5000000 -0.8660254  0.0000000 )    f =( -0.2500001 )
                  (  0.8660254 -0.5000000  0.0000000 )       (  0.0000002 )
                  (  0.0000000  0.0000000  1.0000000 )       (  0.0000000 )

      isym =  3     120 deg rotation - cryst. axis [0,0,-1]

[...]

      isym =  4     inv. 180 deg rotation - cart. axis [1,0,0]

[...]

      isym =  5     inv. 180 deg rotation - cryst. axis [0,1,0]

 cryst.   s( 5) = (     1          1          0      )
                  (     0         -1          0      )
                  (     0          0          1      )

 cart.    s( 5) = (  0.5000000  0.8660254  0.0000000 )
                  (  0.8660254 -0.5000000  0.0000000 )
                  (  0.0000000  0.0000000  1.0000000 )

      isym =  6     inv. 180 deg rotation - cryst. axis [1,1,0]

 cryst.   s( 6) = (     0         -1          0      )    f =( -0.2500000 )
                  (    -1          0          0      )       ( -0.2500000 )
                  (     0          0          1      )       (  0.0000000 )

 cart.    s( 6) = (  0.5000000 -0.8660254  0.0000000 )    f =( -0.1250000 )
                  ( -0.8660254 -0.5000000  0.0000000 )       ( -0.2165064 )
                  (  0.0000000  0.0000000  1.0000000 )       (  0.0000000 )

     point group C_3v (3m)
     there are  3 classes
     the character table:

       E     2C3   3s_v
A_1    1.00  1.00  1.00
A_2    1.00  1.00 -1.00
E      2.00 -1.00  0.00

     the symmetry operations in each class and the name of the first element:

     E        1
          identity
     2C3      2    3
          120 deg rotation - cryst. axis [0,0,1]
     3s_v     4    5    6
          inv. 180 deg rotation - cart. axis [1,0,0]

   Cartesian axes

     site n.     atom                  positions (alat units)
         1           Ga  tau(   1) = (   0.1250001   0.0721687   0.6108633  )
         2           Ga  tau(   2) = (   0.1250001   0.0721687   1.0183331  )
         3           Ga  tau(   3) = (   0.0000001   0.2886751   0.2033935  )
         4           Ga  tau(   4) = (   0.0000001   0.2886751   0.6108633  )
         5           Ga  tau(   5) = (   0.0000001   0.2886751   1.0183331  )
         6           Ga  tau(   6) = (  -0.1249999   0.5051814   0.2033935  )
         7           Ga  tau(   7) = (  -0.1249999   0.5051814   0.6108633  )
         8           Ga  tau(   8) = (  -0.1249999   0.5051814   1.0183331  )
         9           Ga  tau(   9) = (  -0.2499999   0.7216878   0.2033935  )
        10           Ga  tau(  10) = (  -0.2499999   0.7216878   0.6108633  )
        11           Ga  tau(  11) = (  -0.2499999   0.7216878   1.0183331  )
        12           Ga  tau(  12) = (   0.3750001   0.0721687   0.2033935  )
        13           Ga  tau(  13) = (   0.3750001   0.0721687   0.6108633  )
        14           Ga  tau(  14) = (   0.3750001   0.0721687   1.0183331  )
        15           Ga  tau(  15) = (   0.2500001   0.2886751   0.2033935  )
        16           Ga  tau(  16) = (   0.2500001   0.2886751   0.6108633  )
        17           Ga  tau(  17) = (   0.2500001   0.2886751   1.0183331  )
        18           Ga  tau(  18) = (   0.1250001   0.5051814   0.2033935  )
        19           Ga  tau(  19) = (   0.1250001   0.5051814   0.6108633  )
        20           Ga  tau(  20) = (   0.1250001   0.5051814   1.0183331  )
        21           Ga  tau(  21) = (   0.0000001   0.7216878   0.2033935  )
        22           Ga  tau(  22) = (   0.0000001   0.7216878   0.6108633  )
        23           Ga  tau(  23) = (   0.0000001   0.7216878   1.0183331  )
        24           Ga  tau(  24) = (   0.6250001   0.0721687   0.2033935  )
        25           Ga  tau(  25) = (   0.6250001   0.0721687   0.6108633  )
        26           Ga  tau(  26) = (   0.6250001   0.0721687   1.0183331  )
        27           Ga  tau(  27) = (   0.5000001   0.2886751   0.2033935  )
        28           Ga  tau(  28) = (   0.5000001   0.2886751   0.6108633  )
        29           Ga  tau(  29) = (   0.5000001   0.2886751   1.0183331  )
        30           Ga  tau(  30) = (   0.3750001   0.5051814   0.2033935  )
        31           Ga  tau(  31) = (   0.3750001   0.5051814   0.6108633  )
        32           Ga  tau(  32) = (   0.3750001   0.5051814   1.0183331  )
        33           Ga  tau(  33) = (   0.2500001   0.7216878   0.2033935  )
        34           Ga  tau(  34) = (   0.2500001   0.7216878   0.6108633  )
        35           Ga  tau(  35) = (   0.2500001   0.7216878   1.0183331  )
        36           Ga  tau(  36) = (   0.8750001   0.0721687   0.2033935  )
        37           Ga  tau(  37) = (   0.8750001   0.0721687   0.6108633  )
        38           Ga  tau(  38) = (   0.8750001   0.0721687   1.0183331  )
        39           Ga  tau(  39) = (   0.7500001   0.2886751   0.2033935  )
        40           Ga  tau(  40) = (   0.7500001   0.2886751   0.6108633  )
        41           Ga  tau(  41) = (   0.7500001   0.2886751   1.0183331  )
        42           Ga  tau(  42) = (   0.6250001   0.5051814   0.2033935  )
        43           Ga  tau(  43) = (   0.6250001   0.5051814   0.6108633  )
        44           Ga  tau(  44) = (   0.6250001   0.5051814   1.0183331  )
        45           Ga  tau(  45) = (   0.5000001   0.7216878   0.2033935  )
        46           Ga  tau(  46) = (   0.5000001   0.7216878   0.6108633  )
        47           Ga  tau(  47) = (   0.5000001   0.7216878   1.0183331  )
        48           Ga  tau(  48) = (  -0.0000002   0.1443377   0.4071284  )
        49           Ga  tau(  49) = (  -0.0000002   0.1443377   0.8145982  )
        50           Ga  tau(  50) = (  -0.0000002   0.1443377   1.2220680  )
        51           Ga  tau(  51) = (  -0.1250002   0.3608440   0.4071284  )
        52           Ga  tau(  52) = (  -0.1250002   0.3608440   0.8145982  )
        53           Ga  tau(  53) = (  -0.1250002   0.3608440   1.2220680  )
        54           Ga  tau(  54) = (  -0.2500002   0.5773504   0.4071284  )
        55           Ga  tau(  55) = (  -0.2500002   0.5773504   0.8145982  )
        56           Ga  tau(  56) = (  -0.2500002   0.5773504   1.2220680  )
        57           Ga  tau(  57) = (  -0.3750001   0.7938567   0.4071284  )
        58           Ga  tau(  58) = (  -0.3750001   0.7938567   0.8145982  )
        59           Ga  tau(  59) = (  -0.3750001   0.7938567   1.2220680  )
[...]
     atom   45 type  1   force =     0.00000000    0.00000000    0.00000000
     atom   46 type  1   force =     0.00000000    0.00000000    0.00000000
     atom   47 type  1   force =     0.00000000    0.00000000    0.00000000
     atom   48 type  1   force =     0.00000000    0.00000000    0.00000000
     atom   49 type  1   force =     0.00000000    0.00000000    0.00000000
     atom   50 type  1   force =     0.00000000    0.00000000    0.00000000
     atom   51 type  1   force =     0.00000000    0.00000000    0.00000000
     atom   52 type  1   force =     0.00000000    0.00000000    0.00000000
     atom   53 type  1   force =     0.00000000    0.00000000    0.00000000
     atom   54 type  1   force =     0.00000000    0.00000000    0.00000000
     atom   55 type  1   force =     0.00000000    0.00000000    0.00000000
     atom   56 type  1   force =     0.00000000    0.00000000    0.00000000
     atom   57 type  1   force =     0.00000000    0.00000000    0.00000000
     atom   58 type  1   force =     0.00000000    0.00000000    0.00000000
     atom   59 type  1   force =     0.00000000    0.00000000    0.00000000
     atom   60 type  1   force =     0.00000000    0.00000000    0.00000000
[...]
     atom  177 type  2   force =     0.00000000    0.00000000    0.00000000
     atom  178 type  2   force =     0.00000000    0.00000000    0.00000000
     atom  179 type  2   force =     0.00000000    0.00000000    0.00000000
     atom  180 type  2   force =     0.00000000    0.00000000    0.00000000
     atom  181 type  2   force =     0.00000000    0.00000000    0.00000000
     atom  182 type  2   force =     0.00000000    0.00000000    0.00000000
     atom  183 type  2   force =     0.00000000    0.00000000    0.00000000
     atom  184 type  2   force =     0.00000000    0.00000000    0.00000000
     atom  185 type  2   force =     0.00000000    0.00000000    0.00000000
     atom  186 type  2   force =     0.00000000    0.00000000    0.00000000
     atom  187 type  2   force =     0.00000000    0.00000000    0.00000000
     atom  188 type  2   force =     0.00000000    0.00000000    0.00000000
     atom  189 type  2   force =     0.00000000    0.00000000    0.00000000
     atom  190 type  2   force =     0.00000000    0.00000000    0.00000000
     atom  191 type  2   force =     0.00000000    0.00000000    0.00000000
     The SCF correction term to forces
     atom    1 type  1   force =     0.00000000   -0.00000000   -0.00000371
     atom    2 type  1   force =     0.00000000   -0.00000000   -0.00001739
     atom    3 type  1   force =     0.00001861   -0.00002019    0.00002151
     atom    4 type  1   force =     0.00000057   -0.00001238    0.00001831
     atom    5 type  1   force =    -0.00000014   -0.00000781   -0.00003863
     atom    6 type  1   force =     0.00000492    0.00000284    0.00002166
     atom    7 type  1   force =    -0.00000391   -0.00000226    0.00003688
     atom    8 type  1   force =    -0.00000500   -0.00000289   -0.00005386
     atom    9 type  1   force =    -0.00000818    0.00002621    0.00002151
     atom   10 type  1   force =    -0.00001044    0.00000669    0.00001831
     atom   11 type  1   force =    -0.00000683    0.00000379   -0.00003863
     atom   12 type  1   force =    -0.00002679   -0.00000603    0.00002151
     atom   13 type  1   force =    -0.00001101    0.00000570    0.00001831
     atom   14 type  1   force =    -0.00000669    0.00000402   -0.00003863
     atom   15 type  1   force =    -0.00001861   -0.00002019    0.00002151
     atom   16 type  1   force =    -0.00000057   -0.00001238    0.00001831
     atom   17 type  1   force =     0.00000014   -0.00000781   -0.00003863
     atom   18 type  1   force =     0.00000000   -0.00002016    0.00001975
     atom   19 type  1   force =     0.00000000   -0.00001052    0.00003716
     atom   20 type  1   force =     0.00000000   -0.00000724   -0.00005414
     atom   21 type  1   force =    -0.00001746    0.00001008    0.00001975
     atom   22 type  1   force =    -0.00000911    0.00000526    0.00003716
     atom   23 type  1   force =    -0.00000627    0.00000362   -0.00005414
     atom   24 type  1   force =     0.00000000   -0.00000568    0.00002166
     atom   25 type  1   force =     0.00000000    0.00000451    0.00003688
     atom   26 type  1   force =     0.00000000    0.00000578   -0.00005386
     atom   27 type  1   force =    -0.00002644   -0.00001526    0.00002169
     atom   28 type  1   force =    -0.00000879   -0.00000508    0.00004252
     atom   29 type  1   force =    -0.00000575   -0.00000332   -0.00005803
     atom   30 type  1   force =    -0.00000492    0.00000284    0.00002166
     atom   31 type  1   force =     0.00000391   -0.00000226    0.00003688
     atom   32 type  1   force =     0.00000500   -0.00000289   -0.00005386
     atom   33 type  1   force =     0.00001746    0.00001008    0.00001975
     atom   34 type  1   force =     0.00000911    0.00000526    0.00003716
     atom   35 type  1   force =     0.00000627    0.00000362   -0.00005414
     atom   36 type  1   force =     0.00002679   -0.00000603    0.00002151
     atom   37 type  1   force =     0.00001101    0.00000570    0.00001831
     atom   38 type  1   force =     0.00000669    0.00000402   -0.00003863
     atom   39 type  1   force =     0.00002644   -0.00001526    0.00002169
     atom   40 type  1   force =     0.00000879   -0.00000508    0.00004252
     atom   41 type  1   force =     0.00000575   -0.00000332   -0.00005803
     atom   42 type  1   force =    -0.00000000    0.00003053    0.00002169
     atom   43 type  1   force =     0.00000000    0.00001015    0.00004252
     atom   44 type  1   force =     0.00000000    0.00000664   -0.00005803
     atom   45 type  1   force =     0.00000818    0.00002621    0.00002151
     atom   46 type  1   force =     0.00001044    0.00000669    0.00001831
     atom   47 type  1   force =     0.00000683    0.00000379   -0.00003863
     atom   48 type  1   force =     0.00002259   -0.00001304    0.00004154
     atom   49 type  1   force =    -0.00000880    0.00000508   -0.00002835
     atom   50 type  1   force =     0.00002039   -0.00001177   -0.00001771
     atom   51 type  1   force =     0.00001472   -0.00001280    0.00004884
     atom   52 type  1   force =    -0.00000765    0.00000087   -0.00002451
     atom   53 type  1   force =     0.00001282   -0.00001023   -0.00002825
     atom   54 type  1   force =    -0.00000373    0.00001915    0.00004884
     atom   55 type  1   force =    -0.00000307   -0.00000707   -0.00002451
     atom   56 type  1   force =    -0.00000245    0.00001622   -0.00002825
     atom   57 type  1   force =    -0.00000000    0.00002608    0.00004154
     atom   58 type  1   force =    -0.00000000   -0.00001016   -0.00002835
     atom   59 type  1   force =    -0.00000000    0.00002355   -0.00001771
     atom   60 type  1   force =    -0.00002259   -0.00001304    0.00004154
[...]
     atom  177 type  2   force =    -0.00000000    0.00000523    0.00000564
     atom  178 type  2   force =     0.00000000    0.00000463    0.00001847
     atom  179 type  2   force =     0.00000000    0.00000288   -0.00002260
     atom  180 type  2   force =     0.00000802   -0.00000362    0.00000634
     atom  181 type  2   force =     0.00000513   -0.00000096    0.00001841
     atom  182 type  2   force =     0.00000021    0.00000195   -0.00002093
     atom  183 type  2   force =    -0.00000000    0.00000000    0.00000505
     atom  184 type  2   force =    -0.00000000    0.00000000    0.00002395
     atom  185 type  2   force =     0.00000000   -0.00000000   -0.00002445
     atom  186 type  2   force =     0.00000087    0.00000876    0.00000634
     atom  187 type  2   force =     0.00000174    0.00000492    0.00001841
     atom  188 type  2   force =     0.00000180   -0.00000079   -0.00002093
     atom  189 type  2   force =     0.00001018    0.00000587    0.00000664
     atom  190 type  2   force =     0.00000697    0.00000403    0.00001408
     atom  191 type  2   force =     0.00000168    0.00000097   -0.00001724

     Total force =     0.003837     Total SCF correction =     0.000406
     SCF correction compared to forces is large: reduce conv_thr to get better values

     Computing stress (Cartesian axis) and pressure

     Non-local corr. energy    =      51.87809644 Ry

          total   stress  (Ry/bohr**3)                   (kbar)     P=       22.00
   0.00014602   0.00000000   0.00000000           21.48        0.00        0.00
   0.00000000   0.00014602   0.00000000            0.00       21.48        0.00
   0.00000000   0.00000000   0.00015664            0.00        0.00       23.04

     kinetic stress (kbar)  18368.43     -0.00      0.00
                               -0.00  18368.43      0.00
                                0.00      0.00  18365.62

     local   stress (kbar)   4935.71     -0.07     -0.00
                               -0.07   4935.62      0.00
                               -0.00      0.00   3347.24

     nonloc. stress (kbar)     38.52     -0.00      0.00
                               -0.00     38.52     -0.00
                                0.00     -0.00     49.28

     hartree stress (kbar)  19607.59     -0.00     -0.00
                               -0.00  19607.59      0.00
                               -0.00      0.00  20332.82

     exc-cor stress (kbar)   5148.72      0.00     -0.00
                                0.00   5148.72      0.00
                               -0.00      0.00   5149.03

     corecor stress (kbar) -13970.04     -0.00     -0.00
                               -0.00 -13970.04      0.00
                               -0.00      0.00 -13969.58

     ewald   stress (kbar) -34268.14      0.09      0.00
                                0.09 -34268.02     -0.00
                                0.00     -0.00 -33411.21

     hubbard stress (kbar)      0.00      0.00      0.00
                                0.00      0.00      0.00
                                0.00      0.00      0.00

     DFT-D   stress (kbar)      0.00      0.00      0.00
                                0.00      0.00      0.00
                                0.00      0.00      0.00

     XDM     stress (kbar)      0.00      0.00      0.00
                                0.00      0.00      0.00
                                0.00      0.00      0.00

     dft-nl  stress (kbar)    160.68     -0.00     -0.00
                               -0.00    160.68     -0.00
                               -0.00     -0.00    159.83

     TS-vdW  stress (kbar)      0.00      0.00      0.00
                                0.00      0.00      0.00
                                0.00      0.00      0.00

     MDB     stress (kbar)      0.00      0.00      0.00
                                0.00      0.00      0.00
                                0.00      0.00      0.00

     3D-RISM stress (kbar)      0.00      0.00      0.00
                                0.00      0.00      0.00
                                0.00      0.00      0.00

     BFGS Geometry Optimization
     Energy error            =      0.0E+00 Ry
     Gradient error          =      6.2E-04 Ry/Bohr

     bfgs converged in   1 scf cycles and   0 bfgs steps
     (criteria: energy <  1.0E-04 Ry, force <  1.0E-03 Ry/Bohr)

     End of BFGS Geometry Optimization

     Final energy             =  -29694.6853467674 Ry
Begin final coordinates

ATOMIC_POSITIONS (angstrom)
Ga            1.6222756606        0.9366198184        7.8803235043
Ga            1.6222756606        0.9366198184       13.2289042421
Ga            0.0163682956        3.7088739480        2.6359629466
Ga           -0.0021162123        3.7421005236        7.9224091629
Ga            0.0019691973        3.7434065920       13.2223128826
Ga           -1.6213639983        6.5568671964        2.6419441135
Ga           -1.6240568755        6.5553124630        7.9212457929
Ga           -1.6241497030        6.5552588690       13.2270616894
Ga           -3.2689323542        9.3991815916        2.6359629466
Ga           -3.2493995495        9.3665602504        7.9224091629
Ga           -3.2462257563        9.3694452847       13.2223128826
Ga            4.8260718450        0.9412493279        2.6359629466
Ga            4.8640891576        0.9406440935        7.9224091629
Ga            4.8631775411        0.9364529908       13.2223128826
Ga            3.2281830256        3.7088739480        2.6359629466
Ga            3.2466675335        3.7421005236        7.9224091629
Ga            3.2425821239        3.7434065920       13.2223128826
Ga            1.6222756606        6.5499105070        2.6381814636
Ga            1.6222756606        6.5530688004        7.9226375495
Ga            1.6222756606        6.5538015686       13.2230555572
Ga           -0.0055688386        9.3694198864        2.6381814636
Ga           -0.0028336763        9.3678407397        7.9226375495
Ga           -0.0021990803        9.3674743556       13.2230555572
Ga            8.1113724947        0.9355704748        2.6419441135
Ga            8.1113724947        0.9386799416        7.9212457929
Ga            8.1113724947        0.9387871296       13.2270616894
Ga            6.4790948857        3.7407057055        2.6293671382
Ga            6.4879944015        3.7458438433        7.9203210586
Ga            6.4870495291        3.7452983210       13.2270273192
Ga            4.8659153195        6.5568671964        2.6419441135
Ga            4.8686081967        6.5553124630        7.9212457929
Ga            4.8687010242        6.5552588690       13.2270616894
Ga            3.2501201598        9.3694198864        2.6381814636
Ga            3.2473849975        9.3678407397        7.9226375495
Ga            3.2467504015        9.3674743556       13.2230555572
Ga           11.3966731445        0.9412493279        2.6359629466
Ga           11.3586558319        0.9406440935        7.9224091629
Ga           11.3595674484        0.9364529908       13.2223128826
Ga            9.7436501038        3.7407057055        2.6293671382
Ga            9.7347505880        3.7458438433        7.9203210586
Ga            9.7356954604        3.7452983210       13.2270273192
Ga            8.1113724947        6.5678934565        2.6293671382
Ga            8.1113724947        6.5576171809        7.9203210586
Ga            8.1113724947        6.5587082256       13.2270273192
Ga            6.5134836754        9.3991815916        2.6359629466
Ga            6.4939508707        9.3665602504        7.9224091629
Ga            6.4907770775        9.3694452847       13.2223128826
Ga            0.0288307635        1.8565958630        5.2489886285
Ga            0.0050986597        1.8702975996       10.5636306690
Ga            0.0120578062        1.8662797345       15.9070586234
Ga           -1.6158196704        4.6788508624        5.2735391965
Ga           -1.6209597962        4.6825101735       10.5736597559
Ga           -1.6109050338        4.6763758658       15.8779589123
Ga           -3.2450052821        7.5006831168        5.2735391965
Ga           -3.2444062887        7.4944019818       10.5736597559
Ga           -3.2446913737        7.5061768153       15.8779589123
Ga           -4.8668245904       10.3361196726        5.2489886285
Ga           -4.8668245904       10.3087161995       10.5636306690
Ga           -4.8668245904       10.3167519297       15.9070586234
Ga            3.2157137240        1.8565958630        5.2489886285
[...]
N             1.6222722437       10.2986510585        1.9911491066
N             1.6222722437       10.3021357651        7.2755531046
N             1.6222722437       10.3033809983       12.5637751858
N             9.7173968187        1.8654982316        1.9954826586
N             9.7306391977        1.8735057682        7.2736597741
N             9.7328282573        1.8739940247       12.5627440506
N             8.1113690779        4.6831037996        1.9920918278
N             8.1113690779        4.6831037996        7.2715696098
N             8.1113690779        4.6831037996       12.5662282022
N             6.4742649486        7.4827674064        1.9954826586
N             6.4878208682        7.4902318747        7.2736597741
N             6.4893382406        7.4918835277       12.5627440506
N             4.8592923424       10.2984800291        1.9871461434
N             4.8662711890       10.3025092680        7.2768069590
N             4.8653047932       10.3019513191       12.5583013161
End final coordinates

     Writing all to output data dir ./GaN.save/

     General routines

     Parallel routines

     PAW routines

   This run was terminated on:  18:13:47  12Feb2024

   JOB DONE.