     Program PWSCF v.7.1 starts on 13Feb2024 at 10:35:29

     Reading input from espresso.pwi
Warning: card &CELL ignored
Warning: card    CELL_DYNAMICS    = 'BFGS' ignored
Warning: card / ignored

     Current dimensions of program PWSCF are:
     Max number of different atomic species (ntypx) = 10
     Max number of k-points (npk) =  40000
     Max angular momentum in pseudopotentials (lmaxx) =  4
     file Ga.pbe-dn-kjpaw_psl.1.0.0.UPF: wavefunction(s)  4S renormalized
     file N.pbe-n-kjpaw_psl.1.0.0.UPF: wavefunction(s)  2S renormalized

     IMPORTANT: XC functional enforced from input :
     Exchange-correlation= BEEF-VDW
                           (   1   4  43  14   2   0   0)
     Any further DFT definition will be discarded
     Please, verify this is what you really want

     K-points division:     npool     =       4
     R & G space division:  proc/nbgrp/npool/nimage =      64
     Subspace diagonalization in iterative solution of the eigenvalue problem:
     a serial algorithm will be used

     Using Slab Decomposition

     bravais-lattice index     =            4
     lattice parameter (alat)  =      24.5252  a.u.
     unit-cell volume          =   15616.6055 (a.u.)^3
     number of atoms/cell      =          191
     number of atomic types    =            2
     number of electrons       =      1717.00
     number of Kohn-Sham states=         1031
     kinetic-energy cutoff     =      70.0000  Ry
     charge density cutoff     =     350.0000  Ry
     scf convergence threshold =      1.0E-07
     mixing beta               =       0.7000
     number of iterations used =            8  plain     mixing
     Exchange-correlation= BEEF-VDW
                           (   1   4  43  14   2   0   0)

     celldm(1)=  24.525232  celldm(2)=   0.000000  celldm(3)=   1.222409
     celldm(4)=   0.000000  celldm(5)=   0.000000  celldm(6)=   0.000000

     crystal axes: (cart. coord. in units of alat)
               a(1) = (   1.000000   0.000000   0.000000 )
               a(2) = (  -0.500000   0.866025   0.000000 )
               a(3) = (   0.000000   0.000000   1.222409 )

     reciprocal axes: (cart. coord. in units 2 pi/alat)
               b(1) = (  1.000000  0.577350 -0.000000 )
               b(2) = (  0.000000  1.154701  0.000000 )
               b(3) = (  0.000000 -0.000000  0.818057 )

     PseudoPot. # 1 for Ga read from file:
     //group///packages/espresso/pseudo/psl_1.0.0/pslibrary.1.0.0/pbe/PSEUDOPOTENTIALS/Ga.pbe-dn-kjpaw_psl.1.0.0.UPF
     MD5 check sum: cd2a01e492f15b435d17032472d8505c
     Pseudo is Projector augmented-wave + core cor, Zval = 13.0
     Generated using 'atomic' code by A. Dal Corso  v.7.1
     Shape of augmentation charge: PSQ
     Using radial grid of 1205 points,  6 beta functions with:
                l(1) =   0
                l(2) =   0
                l(3) =   1
                l(4) =   1
                l(5) =   2
                l(6) =   2
     Q(r) pseudized with 0 coefficients

     PseudoPot. # 2 for N  read from file:
     //group///packages/espresso/pseudo/psl_1.0.0/pslibrary.1.0.0/pbe/PSEUDOPOTENTIALS/N.pbe-n-kjpaw_psl.1.0.0.UPF
     MD5 check sum: f77f775694dac7e2c3fe1c82443d1a16
     Pseudo is Projector augmented-wave + core cor, Zval =  5.0
     Generated using 'atomic' code by A. Dal Corso  v.7.1
     Shape of augmentation charge: PSQ
     Using radial grid of 1085 points,  4 beta functions with:
                l(1) =   0
                l(2) =   0
                l(3) =   1
                l(4) =   1
     Q(r) pseudized with 0 coefficients

     atomic species   valence    mass     pseudopotential
        Ga            13.00    69.72300     Ga( 1.00)
        N              5.00    14.00700     N ( 1.00)

      6 Sym. Ops. (no inversion) found ( 4 have fractional translation)

                                    s                        frac. trans.

      isym =  1     identity

 cryst.   s( 1) = (     1          0          0      )
                  (     0          1          0      )
                  (     0          0          1      )

 cart.    s( 1) = (  1.0000000  0.0000000  0.0000000 )
                  (  0.0000000  1.0000000  0.0000000 )
                  (  0.0000000  0.0000000  1.0000000 )

      isym =  2     120 deg rotation - cryst. axis [0,0,1]

 cryst.   s( 2) = (     0          1          0      )    f =( -0.2500000 )
                  (    -1         -1          0      )       (  0.0000002 )
                  (     0          0          1      )       (  0.0000000 )

 cart.    s( 2) = ( -0.5000000 -0.8660254  0.0000000 )    f =( -0.2500001 )
                  (  0.8660254 -0.5000000  0.0000000 )       (  0.0000002 )
                  (  0.0000000  0.0000000  1.0000000 )       (  0.0000000 )

      isym =  3     120 deg rotation - cryst. axis [0,0,-1]

[...]

      isym =  4     inv. 180 deg rotation - cart. axis [1,0,0]

[...]

      isym =  5     inv. 180 deg rotation - cryst. axis [0,1,0]

 cryst.   s( 5) = (     1          1          0      )
                  (     0         -1          0      )
                  (     0          0          1      )

 cart.    s( 5) = (  0.5000000  0.8660254  0.0000000 )
                  (  0.8660254 -0.5000000  0.0000000 )
                  (  0.0000000  0.0000000  1.0000000 )

      isym =  6     inv. 180 deg rotation - cryst. axis [1,1,0]

 cryst.   s( 6) = (     0         -1          0      )    f =( -0.2500000 )
                  (    -1          0          0      )       ( -0.2500000 )
                  (     0          0          1      )       (  0.0000000 )

 cart.    s( 6) = (  0.5000000 -0.8660254  0.0000000 )    f =( -0.1250000 )
                  ( -0.8660254 -0.5000000  0.0000000 )       ( -0.2165064 )
                  (  0.0000000  0.0000000  1.0000000 )       (  0.0000000 )

     point group C_3v (3m)
     there are  3 classes
     the character table:

       E     2C3   3s_v
A_1    1.00  1.00  1.00
A_2    1.00  1.00 -1.00
E      2.00 -1.00  0.00

     the symmetry operations in each class and the name of the first element:

     E        1
          identity
     2C3      2    3
          120 deg rotation - cryst. axis [0,0,1]
     3s_v     4    5    6
          inv. 180 deg rotation - cart. axis [1,0,0]

   Cartesian axes

     site n.     atom                  positions (alat units)
         1           Ga  tau(   1) = (   0.1250001   0.0721687   0.6108633  )
         2           Ga  tau(   2) = (   0.1250001   0.0721687   1.0183331  )
         3           Ga  tau(   3) = (   0.0000001   0.2886751   0.2033935  )
         4           Ga  tau(   4) = (   0.0000001   0.2886751   0.6108633  )
         5           Ga  tau(   5) = (   0.0000001   0.2886751   1.0183331  )
         6           Ga  tau(   6) = (  -0.1249999   0.5051814   0.2033935  )
         7           Ga  tau(   7) = (  -0.1249999   0.5051814   0.6108633  )
         8           Ga  tau(   8) = (  -0.1249999   0.5051814   1.0183331  )
         9           Ga  tau(   9) = (  -0.2499999   0.7216878   0.2033935  )
        10           Ga  tau(  10) = (  -0.2499999   0.7216878   0.6108633  )
        11           Ga  tau(  11) = (  -0.2499999   0.7216878   1.0183331  )
        12           Ga  tau(  12) = (   0.3750001   0.0721687   0.2033935  )
        13           Ga  tau(  13) = (   0.3750001   0.0721687   0.6108633  )
        14           Ga  tau(  14) = (   0.3750001   0.0721687   1.0183331  )
        15           Ga  tau(  15) = (   0.2500001   0.2886751   0.2033935  )
        16           Ga  tau(  16) = (   0.2500001   0.2886751   0.6108633  )
        17           Ga  tau(  17) = (   0.2500001   0.2886751   1.0183331  )
        18           Ga  tau(  18) = (   0.1250001   0.5051814   0.2033935  )
        19           Ga  tau(  19) = (   0.1250001   0.5051814   0.6108633  )
        20           Ga  tau(  20) = (   0.1250001   0.5051814   1.0183331  )
        21           Ga  tau(  21) = (   0.0000001   0.7216878   0.2033935  )
        22           Ga  tau(  22) = (   0.0000001   0.7216878   0.6108633  )
        23           Ga  tau(  23) = (   0.0000001   0.7216878   1.0183331  )
        24           Ga  tau(  24) = (   0.6250001   0.0721687   0.2033935  )
        25           Ga  tau(  25) = (   0.6250001   0.0721687   0.6108633  )
        26           Ga  tau(  26) = (   0.6250001   0.0721687   1.0183331  )
        27           Ga  tau(  27) = (   0.5000001   0.2886751   0.2033935  )
        28           Ga  tau(  28) = (   0.5000001   0.2886751   0.6108633  )
        29           Ga  tau(  29) = (   0.5000001   0.2886751   1.0183331  )
        30           Ga  tau(  30) = (   0.3750001   0.5051814   0.2033935  )
        31           Ga  tau(  31) = (   0.3750001   0.5051814   0.6108633  )
        32           Ga  tau(  32) = (   0.3750001   0.5051814   1.0183331  )
        33           Ga  tau(  33) = (   0.2500001   0.7216878   0.2033935  )
        34           Ga  tau(  34) = (   0.2500001   0.7216878   0.6108633  )
        35           Ga  tau(  35) = (   0.2500001   0.7216878   1.0183331  )
        36           Ga  tau(  36) = (   0.8750001   0.0721687   0.2033935  )
        37           Ga  tau(  37) = (   0.8750001   0.0721687   0.6108633  )
        38           Ga  tau(  38) = (   0.8750001   0.0721687   1.0183331  )
        39           Ga  tau(  39) = (   0.7500001   0.2886751   0.2033935  )
        40           Ga  tau(  40) = (   0.7500001   0.2886751   0.6108633  )
        41           Ga  tau(  41) = (   0.7500001   0.2886751   1.0183331  )
        42           Ga  tau(  42) = (   0.6250001   0.5051814   0.2033935  )
        43           Ga  tau(  43) = (   0.6250001   0.5051814   0.6108633  )
        44           Ga  tau(  44) = (   0.6250001   0.5051814   1.0183331  )
        45           Ga  tau(  45) = (   0.5000001   0.7216878   0.2033935  )
        46           Ga  tau(  46) = (   0.5000001   0.7216878   0.6108633  )
        47           Ga  tau(  47) = (   0.5000001   0.7216878   1.0183331  )
        48           Ga  tau(  48) = (  -0.0000002   0.1443377   0.4071284  )
        49           Ga  tau(  49) = (  -0.0000002   0.1443377   0.8145982  )
        50           Ga  tau(  50) = (  -0.0000002   0.1443377   1.2220680  )
        51           Ga  tau(  51) = (  -0.1250002   0.3608440   0.4071284  )
        52           Ga  tau(  52) = (  -0.1250002   0.3608440   0.8145982  )
        53           Ga  tau(  53) = (  -0.1250002   0.3608440   1.2220680  )
        54           Ga  tau(  54) = (  -0.2500002   0.5773504   0.4071284  )
        55           Ga  tau(  55) = (  -0.2500002   0.5773504   0.8145982  )
        56           Ga  tau(  56) = (  -0.2500002   0.5773504   1.2220680  )
        57           Ga  tau(  57) = (  -0.3750001   0.7938567   0.4071284  )
        58           Ga  tau(  58) = (  -0.3750001   0.7938567   0.8145982  )
        59           Ga  tau(  59) = (  -0.3750001   0.7938567   1.2220680  )
        60           Ga  tau(  60) = (   0.2499998   0.1443377   0.4071284  )
[...]
       177           N   tau( 177) = (   0.1249998   0.7938567   0.1531425  )
       178           N   tau( 178) = (   0.1249998   0.7938567   0.5606123  )
[...]
     atom   25 type  1   force =     0.00000000    0.00000000    0.00000000
     atom   26 type  1   force =     0.00000000    0.00000000    0.00000000
     atom   27 type  1   force =     0.00000000    0.00000000    0.00000000
     atom   28 type  1   force =     0.00000000    0.00000000    0.00000000
     atom   29 type  1   force =     0.00000000    0.00000000    0.00000000
     atom   30 type  1   force =     0.00000000    0.00000000    0.00000000
     atom   31 type  1   force =     0.00000000    0.00000000    0.00000000
     atom   32 type  1   force =     0.00000000    0.00000000    0.00000000
     atom   33 type  1   force =     0.00000000    0.00000000    0.00000000
     atom   34 type  1   force =     0.00000000    0.00000000    0.00000000
     atom   35 type  1   force =     0.00000000    0.00000000    0.00000000
     atom   36 type  1   force =     0.00000000    0.00000000    0.00000000
     atom   37 type  1   force =     0.00000000    0.00000000    0.00000000
     atom   38 type  1   force =     0.00000000    0.00000000    0.00000000
     atom   39 type  1   force =     0.00000000    0.00000000    0.00000000
     atom   40 type  1   force =     0.00000000    0.00000000    0.00000000
     atom   41 type  1   force =     0.00000000    0.00000000    0.00000000
     atom   42 type  1   force =     0.00000000    0.00000000    0.00000000
     atom   43 type  1   force =     0.00000000    0.00000000    0.00000000
     atom   44 type  1   force =     0.00000000    0.00000000    0.00000000
     atom   45 type  1   force =     0.00000000    0.00000000    0.00000000
     atom   46 type  1   force =     0.00000000    0.00000000    0.00000000
     atom   47 type  1   force =     0.00000000    0.00000000    0.00000000
     atom   48 type  1   force =     0.00000000    0.00000000    0.00000000
     atom   49 type  1   force =     0.00000000    0.00000000    0.00000000
     atom   50 type  1   force =     0.00000000    0.00000000    0.00000000
     atom   51 type  1   force =     0.00000000    0.00000000    0.00000000
     atom   52 type  1   force =     0.00000000    0.00000000    0.00000000
     atom   53 type  1   force =     0.00000000    0.00000000    0.00000000
     atom   54 type  1   force =     0.00000000    0.00000000    0.00000000
     atom   55 type  1   force =     0.00000000    0.00000000    0.00000000
     atom   56 type  1   force =     0.00000000    0.00000000    0.00000000
     atom   57 type  1   force =     0.00000000    0.00000000    0.00000000
     atom   58 type  1   force =     0.00000000    0.00000000    0.00000000
     atom   59 type  1   force =     0.00000000    0.00000000    0.00000000
     atom   60 type  1   force =     0.00000000    0.00000000    0.00000000
[...]
     atom  177 type  2   force =     0.00000000    0.00000000    0.00000000
     atom  178 type  2   force =     0.00000000    0.00000000    0.00000000
     atom  179 type  2   force =     0.00000000    0.00000000    0.00000000
     atom  180 type  2   force =     0.00000000    0.00000000    0.00000000
     atom  181 type  2   force =     0.00000000    0.00000000    0.00000000
     atom  182 type  2   force =     0.00000000    0.00000000    0.00000000
     atom  183 type  2   force =     0.00000000    0.00000000    0.00000000
     atom  184 type  2   force =     0.00000000    0.00000000    0.00000000
     atom  185 type  2   force =     0.00000000    0.00000000    0.00000000
     atom  186 type  2   force =     0.00000000    0.00000000    0.00000000
     atom  187 type  2   force =     0.00000000    0.00000000    0.00000000
     atom  188 type  2   force =     0.00000000    0.00000000    0.00000000
     atom  189 type  2   force =     0.00000000    0.00000000    0.00000000
     atom  190 type  2   force =     0.00000000    0.00000000    0.00000000
     atom  191 type  2   force =     0.00000000    0.00000000    0.00000000
     The SCF correction term to forces
     atom    1 type  1   force =    -0.00000000    0.00000000   -0.00002520
     atom    2 type  1   force =     0.00000000   -0.00000000    0.00003138
     atom    3 type  1   force =     0.00000023   -0.00000240   -0.00000106
     atom    4 type  1   force =    -0.00000213    0.00000026   -0.00001750
     atom    5 type  1   force =    -0.00000450    0.00000064    0.00001801
     atom    6 type  1   force =    -0.00000360   -0.00000208   -0.00000321
     atom    7 type  1   force =    -0.00000191   -0.00000110   -0.00000545
     atom    8 type  1   force =    -0.00000344   -0.00000199    0.00000909
     atom    9 type  1   force =    -0.00000196    0.00000140   -0.00000106
     atom   10 type  1   force =    -0.00000084   -0.00000197   -0.00001750
     atom   11 type  1   force =    -0.00000170   -0.00000422    0.00001801
     atom   12 type  1   force =    -0.00000219    0.00000100   -0.00000106
     atom   13 type  1   force =     0.00000129    0.00000171   -0.00001750
     atom   14 type  1   force =     0.00000281    0.00000358    0.00001801
     atom   15 type  1   force =    -0.00000023   -0.00000240   -0.00000106
     atom   16 type  1   force =     0.00000213    0.00000026   -0.00001750
     atom   17 type  1   force =     0.00000450    0.00000064    0.00001801
     atom   18 type  1   force =     0.00000000   -0.00001235   -0.00000123
     atom   19 type  1   force =     0.00000000   -0.00000517   -0.00000494
     atom   20 type  1   force =    -0.00000000   -0.00000098    0.00000767
     atom   21 type  1   force =    -0.00001070    0.00000618   -0.00000123
     atom   22 type  1   force =    -0.00000447    0.00000258   -0.00000494
     atom   23 type  1   force =    -0.00000085    0.00000049    0.00000767
     atom   24 type  1   force =     0.00000000    0.00000415   -0.00000321
     atom   25 type  1   force =     0.00000000    0.00000220   -0.00000545
     atom   26 type  1   force =    -0.00000000    0.00000398    0.00000909
     atom   27 type  1   force =    -0.00001543   -0.00000891   -0.00000307
     atom   28 type  1   force =    -0.00000513   -0.00000296   -0.00000208
     atom   29 type  1   force =    -0.00000083   -0.00000048    0.00000651
     atom   30 type  1   force =     0.00000360   -0.00000208   -0.00000321
     atom   31 type  1   force =     0.00000191   -0.00000110   -0.00000545
     atom   32 type  1   force =     0.00000344   -0.00000199    0.00000909
     atom   33 type  1   force =     0.00001070    0.00000618   -0.00000123
     atom   34 type  1   force =     0.00000447    0.00000258   -0.00000494
     atom   35 type  1   force =     0.00000085    0.00000049    0.00000767
     atom   36 type  1   force =     0.00000219    0.00000100   -0.00000106
     atom   37 type  1   force =    -0.00000129    0.00000171   -0.00001750
     atom   38 type  1   force =    -0.00000281    0.00000358    0.00001801
     atom   39 type  1   force =     0.00001543   -0.00000891   -0.00000307
     atom   40 type  1   force =     0.00000513   -0.00000296   -0.00000208
     atom   41 type  1   force =     0.00000083   -0.00000048    0.00000651
     atom   42 type  1   force =    -0.00000000    0.00001781   -0.00000307
     atom   43 type  1   force =    -0.00000000    0.00000592   -0.00000208
     atom   44 type  1   force =    -0.00000000    0.00000096    0.00000651
     atom   45 type  1   force =     0.00000196    0.00000140   -0.00000106
     atom   46 type  1   force =     0.00000084   -0.00000197   -0.00001750
     atom   47 type  1   force =     0.00000170   -0.00000422    0.00001801
     atom   48 type  1   force =    -0.00000224    0.00000129   -0.00001559
     atom   49 type  1   force =    -0.00000943    0.00000545   -0.00000428
     atom   50 type  1   force =     0.00000558   -0.00000322    0.00001560
     atom   51 type  1   force =     0.00000761   -0.00000382   -0.00001561
     atom   52 type  1   force =    -0.00000684    0.00000416   -0.00000229
     atom   53 type  1   force =     0.00000369   -0.00000107    0.00001805
     atom   54 type  1   force =     0.00000049    0.00000850   -0.00001561
     atom   55 type  1   force =     0.00000019   -0.00000800   -0.00000229
     atom   56 type  1   force =     0.00000091    0.00000373    0.00001805
     atom   57 type  1   force =    -0.00000000   -0.00000259   -0.00001559
     atom   58 type  1   force =    -0.00000000   -0.00001089   -0.00000428
     atom   59 type  1   force =     0.00000000    0.00000644    0.00001560
     atom   60 type  1   force =     0.00000224    0.00000129   -0.00001559
[...]
     atom  177 type  2   force =    -0.00000000    0.00000454    0.00000004
     atom  178 type  2   force =    -0.00000000    0.00000288   -0.00000297
     atom  179 type  2   force =     0.00000000    0.00000125    0.00000234
     atom  180 type  2   force =     0.00000230   -0.00000116    0.00000063
     atom  181 type  2   force =     0.00000194   -0.00000072   -0.00000365
     atom  182 type  2   force =    -0.00000172    0.00000129    0.00000349
     atom  183 type  2   force =    -0.00000000    0.00000000   -0.00000087
     atom  184 type  2   force =    -0.00000000    0.00000000   -0.00000028
     atom  185 type  2   force =    -0.00000000    0.00000000    0.00000134
     atom  186 type  2   force =     0.00000015    0.00000257    0.00000063
     atom  187 type  2   force =     0.00000034    0.00000204   -0.00000365
     atom  188 type  2   force =     0.00000026   -0.00000213    0.00000349
     atom  189 type  2   force =     0.00000360    0.00000208    0.00000094
     atom  190 type  2   force =     0.00000219    0.00000127   -0.00000625
     atom  191 type  2   force =    -0.00000151   -0.00000087    0.00000539

     Total force =     0.003793     Total SCF correction =     0.000150

     Computing stress (Cartesian axis) and pressure

[...]

          total   stress  (Ry/bohr**3)                   (kbar)     P=       22.00
   0.00014601  -0.00000000   0.00000000           21.48       -0.00        0.00
  -0.00000000   0.00014601  -0.00000000           -0.00       21.48       -0.00
   0.00000000   0.00000000   0.00015664            0.00        0.00       23.04

     kinetic stress (kbar)  18368.45     -0.00      0.00
                               -0.00  18368.45      0.00
                                0.00      0.00  18365.63

     local   stress (kbar)   4935.72     -0.07     -0.00
                               -0.07   4935.62      0.00
                               -0.00      0.00   3347.25

     nonloc. stress (kbar)     38.49     -0.00      0.00
                               -0.00     38.49     -0.00
                                0.00     -0.00     49.25

     hartree stress (kbar)  19607.60     -0.00     -0.00
                               -0.00  19607.60      0.00
                               -0.00      0.00  20332.83

     exc-cor stress (kbar)   5148.72      0.00     -0.00
                                0.00   5148.72      0.00
                               -0.00      0.00   5149.03

     corecor stress (kbar) -13970.04     -0.00     -0.00
                               -0.00 -13970.04      0.00
                               -0.00      0.00 -13969.58

     ewald   stress (kbar) -34268.14      0.09      0.00
                                0.09 -34268.02     -0.00
                                0.00     -0.00 -33411.21

     hubbard stress (kbar)      0.00      0.00      0.00
                                0.00      0.00      0.00
                                0.00      0.00      0.00

     DFT-D   stress (kbar)      0.00      0.00      0.00
                                0.00      0.00      0.00
                                0.00      0.00      0.00

     XDM     stress (kbar)      0.00      0.00      0.00
                                0.00      0.00      0.00
                                0.00      0.00      0.00

     dft-nl  stress (kbar)    160.68     -0.00     -0.00
                               -0.00    160.68     -0.00
                               -0.00     -0.00    159.83

     TS-vdW  stress (kbar)      0.00      0.00      0.00
                                0.00      0.00      0.00
                                0.00      0.00      0.00

     MDB     stress (kbar)      0.00      0.00      0.00
                                0.00      0.00      0.00
                                0.00      0.00      0.00

     3D-RISM stress (kbar)      0.00      0.00      0.00
                                0.00      0.00      0.00
                                0.00      0.00      0.00

[...]

     Non-local corr. energy    =      51.87811443 Ry

 BEEFens 2000 ensemble energies
             -0.420157772053512E+02
             -0.377912107182095E+03
             -0.162454581402873E+03
              0.133026964709787E+03
             -0.271618576437924E+03
             -0.349395570472180E+03
              0.179591417272427E+03
             -0.189556331313308E+02
              0.299290213055326E+03
             -0.129054359439226E+02
              0.146708261941026E+03
              0.610166583291880E+01
              0.607208320201312E+01
             -0.128488618220219E+02
              0.195867510518755E+03
             -0.142663416682182E+03
             -0.294086660058770E+03
             -0.960405930059455E+02
              0.717915334587317E+02
             -0.641959272950544E+01
              0.428987215139144E+03
              0.365198647119394E+03
             -0.208963966045542E+03
              0.757569167489462E+02
             -0.458337202476820E+03
              0.367512683072009E+03
              0.120050754389398E+03
              0.357375410614602E+03
              0.234814336891990E+03
             -0.114374063883974E+03
              0.865043052333799E+02
             -0.168934436980530E+03
              0.471357173440777E+02
              0.229621761330104E+03
              0.243587512372089E+03
             -0.879286402090797E+02
              0.541118592137495E+03
             -0.205325759700426E+03
             -0.147824484697883E+03
              0.216827905955711E+03
              0.969625649282189E+02
              0.162336361016274E+03
             -0.309350790522091E+03
             -0.870646622815548E+01
              0.303733771614706E+03
              0.394462803374186E+03
             -0.392644414535820E+03
              0.279783680809562E+02
              0.148067692480166E+03
              0.719917104307392E+02
              0.164201470511712E+03
              0.347856911469913E+03
             -0.210303795623482E+03
             -0.230519476799133E+03
             -0.299722002965329E+03
             -0.464584196321512E+02
             -0.273359129657100E+03
              0.267245801039189E+02
             -0.506673296863005E+02
             -0.213139227975947E+03
[...]
              0.266006364089086E+03
              0.146833475248946E+03
              0.186734301206902E+03
             -0.301653623400092E+03
             -0.288623298945911E+03
             -0.730922997937528E+02
             -0.282990871654782E+03
              0.453188440615947E+03
              0.388404109573297E+03
              0.185580571919831E+03
              0.502496053002223E+03
             -0.261528025696026E+03
             -0.106635310053265E+03
             -0.148249993206646E+03
              0.415579714711944E+03

 BEEF-vdW xc energy contributions
            1 :    -3809.605783373457
            2 :     3431.291542245390
            3 :    -2797.388027637996
            4 :     2093.319185679206
            5 :    -1482.333907683118
            6 :     1043.467042929885
            7 :    -762.6605115239422
            8 :     572.9262326601615
            9 :    -411.1874972516957
           10 :     254.8729450777350
           11 :    -120.7361795962793
           12 :     36.02770326518112
           13 :    -8.546466782863263
           14 :     17.72967355418450
           15 :    -29.81860400368214
           16 :     21.86919352881660
           17 :     5.023936821040934
           18 :    -32.09587877062995
           19 :     41.60702941396767
           20 :    -31.99173074681448
           21 :     18.11477701702324
           22 :    -18.06750934700040
           23 :     38.28161503218462
           24 :    -68.90820158261931
           25 :     92.25609768036747
           26 :    -96.60219937361990
           27 :     84.17178923065740
           28 :    -67.65575380315522
           29 :     59.11467003973439
           30 :    -60.72844726485300
           31 :    -326.6892044105339
           32 :    -223.8727591221204

     Writing all to output data dir ./GaN.save/

     General routines

     Parallel routines

     PAW routines

   This run was terminated on:  11: 5:25  13Feb2024

   JOB DONE.