     Program PWSCF v.7.1 starts on 27Mar2024 at 21:33: 2

     Reading input from espresso.pwi
Warning: card &CELL ignored
Warning: card    CELL_DYNAMICS    = 'BFGS' ignored
Warning: card / ignored

     Current dimensions of program PWSCF are:
     Max number of different atomic species (ntypx) = 10
     Max number of k-points (npk) =  40000
     Max angular momentum in pseudopotentials (lmaxx) =  4
     file Pb.pbe-dn-kjpaw_psl.1.0.0.UPF: wavefunction(s)  6S 6P 5D renormalized
     file I.pbe-dn-kjpaw_psl.1.0.0.UPF: wavefunction(s)  5S 5P renormalized

     IMPORTANT: XC functional enforced from input :
     Exchange-correlation= BEEF-VDW
                           (   1   4  43  14   2   0   0)
     Any further DFT definition will be discarded
     Please, verify this is what you really want

     R & G space division:  proc/nbgrp/npool/nimage =      20
     Subspace diagonalization in iterative solution of the eigenvalue problem:
     a serial algorithm will be used

     Using Slab Decomposition

     bravais-lattice index     =            4
     lattice parameter (alat)  =      17.8060  a.u.
     unit-cell volume          =    7656.2263 (a.u.)^3
     number of atoms/cell      =           24
     number of atomic types    =            2
     number of electrons       =       381.00
     number of Kohn-Sham states=          229
     kinetic-energy cutoff     =      70.0000  Ry
     charge density cutoff     =     350.0000  Ry
     scf convergence threshold =      1.0E-07
     mixing beta               =       0.7000
     number of iterations used =            8  plain     mixing
     energy convergence thresh.=      1.0E-04
     force convergence thresh. =      1.0E-03
     Exchange-correlation= BEEF-VDW
                           (   1   4  43  14   2   0   0)
     nstep                     =           50

     celldm(1)=  17.806016  celldm(2)=   0.000000  celldm(3)=   1.565971
     celldm(4)=   0.000000  celldm(5)=   0.000000  celldm(6)=   0.000000

     crystal axes: (cart. coord. in units of alat)
               a(1) = (   1.000000   0.000000   0.000000 )
               a(2) = (  -0.500000   0.866025   0.000000 )
               a(3) = (   0.000000   0.000000   1.565971 )

     reciprocal axes: (cart. coord. in units 2 pi/alat)
               b(1) = (  1.000000  0.577350 -0.000000 )
               b(2) = (  0.000000  1.154701  0.000000 )
               b(3) = (  0.000000 -0.000000  0.638581 )

     PseudoPot. # 1 for Pb read from file:
     /trace/group/acmegroup/atimmins/packages/espresso/pseudo/psl_1.0.0/pslibrary.1.0.0/pbe/PSEUDOPOTENTIALS/Pb.pbe-dn-kjpaw_psl.1.0.0.UPF
     MD5 check sum: 39ab5b8a6bbd56b7735ad9f188aac93a
     Pseudo is Projector augmented-wave + core cor, Zval = 14.0
     Generated using 'atomic' code by A. Dal Corso  v.7.1
     Shape of augmentation charge: PSQ
     Using radial grid of 1281 points,  6 beta functions with:
                l(1) =   0
                l(2) =   0
                l(3) =   1
                l(4) =   1
                l(5) =   2
                l(6) =   2
     Q(r) pseudized with 0 coefficients

     PseudoPot. # 2 for I  read from file:
     /trace/group/acmegroup/atimmins/packages/espresso/pseudo/psl_1.0.0/pslibrary.1.0.0/pbe/PSEUDOPOTENTIALS/I.pbe-dn-kjpaw_psl.1.0.0.UPF
     MD5 check sum: bfa8781bc1224d19af3f3980e3fab11e
     Pseudo is Projector augmented-wave + core cor, Zval = 17.0
     Generated using 'atomic' code by A. Dal Corso  v.7.1
     Shape of augmentation charge: PSQ
     Using radial grid of 1247 points,  6 beta functions with:
                l(1) =   0
                l(2) =   0
                l(3) =   1
                l(4) =   1
                l(5) =   2
                l(6) =   2
     Q(r) pseudized with 0 coefficients

     atomic species   valence    mass     pseudopotential
        Pb            14.00   207.20000     Pb( 1.00)
        I             17.00   126.90447     I ( 1.00)

     No symmetry found

                                    s                        frac. trans.

      isym =  1     identity

 cryst.   s( 1) = (     1          0          0      )
                  (     0          1          0      )
                  (     0          0          1      )

 cart.    s( 1) = (  1.0000000  0.0000000  0.0000000 )
                  (  0.0000000  1.0000000  0.0000000 )
                  (  0.0000000  0.0000000  1.0000000 )

     point group C_1 (1)
     there are  1 classes
     the character table:

       E
A      1.00

     the symmetry operations in each class and the name of the first element:

     E        1
          identity

   Cartesian axes

     site n.     atom                  positions (alat units)
         1           Pb  tau(   1) = (   0.2500170   0.4329745   1.5659650  )
         2           Pb  tau(   2) = (   0.2500068   0.4329836   0.7829793  )
         3           Pb  tau(   3) = (   0.0000153   0.8659852   1.5659567  )
         4           Pb  tau(   4) = (   0.0000051   0.8659943   0.7829710  )
         5           Pb  tau(   5) = (   0.7500170   0.4329726   1.5659715  )
         6           Pb  tau(   6) = (   0.7500068   0.4329816   0.7829858  )
         7           Pb  tau(   7) = (   0.5000153   0.8659833   1.5659633  )
         8           Pb  tau(   8) = (   0.5000051   0.8659923   0.7829776  )
         9           I   tau(   9) = (   0.2500209   0.1443009   1.3648506  )
        10           I   tau(  10) = (   0.0000091   0.5773207   0.5818567  )
        11           I   tau(  11) = (   0.0000193   0.5773116   1.3648424  )
        12           I   tau(  12) = (   0.7500107   0.1443080   0.5818714  )
        13           I   tau(  13) = (   0.7500209   0.1442990   1.3648571  )
        14           I   tau(  14) = (   0.5000091   0.5773187   0.5818632  )
        15           I   tau(  15) = (   0.5000193   0.5773097   1.3648489  )
        16           I   tau(  16) = (  -0.0000034   0.2886595   0.2011110  )
        17           I   tau(  17) = (   0.0000068   0.2886504   0.9840967  )
        18           I   tau(  18) = (  -0.2500051   0.7216702   0.2011027  )
        19           I   tau(  19) = (  -0.2499949   0.7216611   0.9840884  )
        20           I   tau(  20) = (   0.4999966   0.2886575   0.2011175  )
        21           I   tau(  21) = (   0.5000068   0.2886485   0.9841032  )
        22           I   tau(  22) = (   0.2499949   0.7216682   0.2011092  )
        23           I   tau(  23) = (   0.2500051   0.7216592   0.9840949  )
        24           Pb  tau(  24) = (   0.2500107   0.1443099   0.5818649  )

   Crystallographic axes

     site n.     atom                  positions (cryst. coord.)
         1           Pb  tau(   1) = (  0.4999949  0.4999559  0.9999959  )
         2           Pb  tau(   2) = (  0.4999900  0.4999663  0.4999959  )
         3           Pb  tau(   3) = (  0.4999921  0.9999536  0.9999906  )
         4           Pb  tau(   4) = (  0.4999871  0.9999640  0.4999906  )
         5           Pb  tau(   5) = (  0.9999938  0.4999537  1.0000001  )
         6           Pb  tau(   6) = (  0.9999888  0.4999641  0.5000001  )
         7           Pb  tau(   7) = (  0.9999910  0.9999514  0.9999948  )
         8           Pb  tau(   8) = (  0.9999860  0.9999618  0.4999948  )
         9           I   tau(   9) = (  0.3333331  0.1666243  0.8715680  )
        10           I   tau(  10) = (  0.3333253  0.6666325  0.3715628  )
        11           I   tau(  11) = (  0.3333303  0.6666220  0.8715628  )
        12           I   tau(  12) = (  0.8333270  0.1666326  0.3715722  )
        13           I   tau(  13) = (  0.8333320  0.1666221  0.8715722  )
        14           I   tau(  14) = (  0.8333242  0.6666303  0.3715669  )
        15           I   tau(  15) = (  0.8333292  0.6666198  0.8715669  )
        16           I   tau(  16) = (  0.1666542  0.3333152  0.1284257  )
        17           I   tau(  17) = (  0.1666592  0.3333048  0.6284257  )
        18           I   tau(  18) = (  0.1666514  0.8333129  0.1284204  )
        19           I   tau(  19) = (  0.1666564  0.8333025  0.6284204  )
        20           I   tau(  20) = (  0.6666531  0.3333130  0.1284299  )
        21           I   tau(  21) = (  0.6666581  0.3333026  0.6284299  )
        22           I   tau(  22) = (  0.6666503  0.8333107  0.1284246  )
        23           I   tau(  23) = (  0.6666553  0.8333003  0.6284246  )
        24           Pb  tau(  24) = (  0.3333281  0.1666348  0.3715680  )

     number of k points=     4  Gaussian smearing, width (Ry)=  0.0100
                       cart. coord. in units 2pi/alat
        k(    1) = (   0.0000000   0.0000000   0.0000000), wk =   0.5000000
        k(    2) = (   0.0000000  -0.5773503   0.0000000), wk =   0.5000000
        k(    3) = (   0.5000000  -0.2886751   0.0000000), wk =   0.5000000
        k(    4) = (  -0.5000000  -0.2886751   0.0000000), wk =   0.5000000

                       cryst. coord.
        k(    1) = (   0.0000000   0.0000000   0.0000000), wk =   0.5000000
        k(    2) = (   0.0000000  -0.5000000   0.0000000), wk =   0.5000000
        k(    3) = (   0.5000000  -0.5000000   0.0000000), wk =   0.5000000
        k(    4) = (  -0.5000000  -0.0000000   0.0000000), wk =   0.5000000

     Check: negative core charge=   -0.000001

     Initial potential from superposition of free atoms

     starting charge     380.9777, renormalised to     381.0000

     %%%%%%%%%%%%%%%%%%%%%%%%%%%%%%%%%%%%%%%%%%%%%%%%%%%%%%%%%%%%%%%%%%%%%%%%
     %                                                                      %
     % You are using vdW-DF, which was implemented by the Thonhauser group. %
     % Please cite the following two papers that made this development      %
     % possible and the two reviews that describe the various versions:     %
     %                                                                      %
     %   T. Thonhauser et al., PRL 115, 136402 (2015).                      %
     %   T. Thonhauser et al., PRB 76, 125112 (2007).                       %
     %   K. Berland et al., Rep. Prog. Phys. 78, 066501 (2015).             %
     %   D.C. Langreth et al., J. Phys.: Condens. Matter 21, 084203 (2009). %
     %                                                                      %
     % If you are calculating stress with vdW-DF, please also cite:         %
     %                                                                      %
     %   R. Sabatini et al., J. Phys.: Condens. Matter 24, 424209 (2012).   %
     %                                                                      %
     %%%%%%%%%%%%%%%%%%%%%%%%%%%%%%%%%%%%%%%%%%%%%%%%%%%%%%%%%%%%%%%%%%%%%%%%

     %%%%%%%%%%%%%%%%%%%%%%%%%%%%%%%%%%%%%%%%%%%%%%%%%%%%%%%%%%%%%%%%%%%%%%%%
     %                                                                      %
     %  vdW-DF NEWS:                                                        %
     %                                                                      %
     %  * vdW-DF3 is now available. DOI: 10.1021/acs.jctc.0c00471           %
     %    use with input_dft = 'vdW-DF3-opt1' or 'vdW-DF3-opt2'             %
     %                                                                      %
[...]
     atom   19 type  2   force =    -0.00000417    0.00022188   -0.00013514
     atom   20 type  2   force =     0.00011350    0.00006789    0.00016402
     atom   21 type  2   force =    -0.00018781   -0.00010910   -0.00013590
     atom   22 type  2   force =     0.00000177   -0.00000221    0.00057486
     atom   23 type  2   force =    -0.00000342    0.00001007   -0.00006928
     atom   24 type  1   force =     0.00000030   -0.00001740   -0.00069411
     The non-local contrib.  to forces
     atom    1 type  1   force =     0.00001109    0.00484807   -0.00699259
     atom    2 type  1   force =    -0.00000760   -0.02499593    0.03604264
     atom    3 type  1   force =     0.00421534   -0.00247520   -0.00706127
     atom    4 type  1   force =    -0.01875025    0.01116322    0.03823101
     atom    5 type  1   force =    -0.00004164    0.00022124   -0.01055942
     atom    6 type  1   force =     0.00001779    0.00013304   -0.07360233
     atom    7 type  1   force =    -0.00421076   -0.00247079   -0.00700041
     atom    8 type  1   force =     0.01880543    0.01121317    0.03817152
     atom    9 type  2   force =     0.00002220   -0.00002124    0.25520939
     atom   10 type  2   force =    -0.04740933   -0.02752917    0.20752334
     atom   11 type  2   force =    -0.00139442   -0.00074206    0.25702823
     atom   12 type  2   force =     0.00001820    0.05455677    0.20770447
     atom   13 type  2   force =    -0.00003331    0.00154568    0.25703563
     atom   14 type  2   force =     0.04739387   -0.02750669    0.20753085
     atom   15 type  2   force =     0.00141619   -0.00080524    0.25703808
     atom   16 type  2   force =     0.01798956   -0.01034395   -0.22430044
     atom   17 type  2   force =     0.04009378   -0.02353814   -0.24051843
     atom   18 type  2   force =    -0.00003369    0.02038103   -0.22481628
     atom   19 type  2   force =     0.00003551    0.04634248   -0.24035345
     atom   20 type  2   force =    -0.01796312   -0.01027763   -0.22431519
     atom   21 type  2   force =    -0.04009602   -0.02356681   -0.24051449
     atom   22 type  2   force =     0.00002540   -0.00001890   -0.25139029
     atom   23 type  2   force =    -0.00006061    0.00200350   -0.11069612
     atom   24 type  1   force =    -0.00003269    0.00112464    0.20929156
     The ionic contribution  to forces
     atom    1 type  1   force =    -0.00065211    0.17792312   -0.04815446
     atom    2 type  1   force =     0.00020989   -0.58147647   -2.47098169
     atom    3 type  1   force =     0.15340372   -0.08739112   -0.04493444
     atom    4 type  1   force =    -0.56514356    0.29726394   -2.50358535
     atom    5 type  1   force =     0.00115557   -0.00511752    0.22145676
     atom    6 type  1   force =    -0.00028067    0.01218213    0.46398552
     atom    7 type  1   force =    -0.15349108   -0.08694131   -0.04378758
     atom    8 type  1   force =     0.56456405    0.29651094   -2.50508322
     atom    9 type  2   force =    -0.00114699    0.00280092  -14.81837630
     atom   10 type  2   force =     2.18913312    1.28459004  -11.89997367
     atom   11 type  2   force =     0.36498061    0.20528419  -15.24947307
     atom   12 type  2   force =     0.00018410   -2.53418531  -11.92107812
     atom   13 type  2   force =     0.00132429   -0.41432378  -15.23730415
     atom   14 type  2   force =    -2.18918998    1.28491405  -11.89931396
     atom   15 type  2   force =    -0.36518703    0.20713657  -15.25019693
     atom   16 type  2   force =    -0.87502832    0.50023400   14.51787941
     atom   17 type  2   force =    -0.98509723    0.60361816   12.32504157
     atom   18 type  2   force =     0.00078791   -0.99843450   14.53554976
     atom   19 type  2   force =    -0.00141436   -1.15640361   12.30607535
     atom   20 type  2   force =     0.87473232    0.49895336   14.51760408
     atom   21 type  2   force =     0.98499642    0.60490879   12.32397696
     atom   22 type  2   force =    -0.00034231    0.00282252   15.77044666
     atom   23 type  2   force =     0.00170776   -0.07771895   11.43068504
     atom   24 type  1   force =    -0.00020612   -0.03715016   -4.52045815
     The local contribution  to forces
     atom    1 type  1   force =     0.00063840   -0.18233798    0.05528578
     atom    2 type  1   force =    -0.00020408    0.60797891    2.43644137
     atom    3 type  1   force =    -0.15724515    0.08965335    0.05214357
     atom    4 type  1   force =     0.58527439   -0.30921063    2.46688935
     atom    5 type  1   force =    -0.00110898    0.00489748   -0.21188609
     atom    6 type  1   force =     0.00026277   -0.01229971   -0.39102487
     atom    7 type  1   force =     0.15732555    0.08919863    0.05092877
     atom    8 type  1   force =    -0.58474562   -0.30850660    2.46845355
     atom    9 type  2   force =     0.00112169   -0.00278011   14.56903530
     atom   10 type  2   force =    -2.14308989   -1.25783324   11.69684249
     atom   11 type  2   force =    -0.36357865   -0.20453420   14.99814624
     atom   12 type  2   force =    -0.00020038    2.48117551   11.71777928
     atom   13 type  2   force =    -0.00129102    0.41276173   14.98596802
     atom   14 type  2   force =     2.14316148   -1.25817889   11.69617725
     atom   15 type  2   force =     0.36376622   -0.20632591   14.99885603
     atom   16 type  2   force =     0.85732082   -0.49005646  -14.29823377
     atom   17 type  2   force =     0.94605807   -0.58072514  -12.08990127
     atom   18 type  2   force =    -0.00075453    0.97836349  -14.31541728
     atom   19 type  2   force =     0.00137590    1.11131144  -12.07111125
     atom   20 type  2   force =    -0.85705033   -0.48884057  -14.29794557
     atom   21 type  2   force =    -0.94595771   -0.58198617  -12.08884547
     atom   22 type  2   force =     0.00031878   -0.00280255  -15.52388454
     atom   23 type  2   force =    -0.00165163    0.07581986  -11.32253999
     atom   24 type  1   force =     0.00023877    0.03601124    4.31291059
     The core correction contribution to forces
     atom    1 type  1   force =     0.00000000   -0.00011844    0.00009116
     atom    2 type  1   force =     0.00000040   -0.00134406   -0.00144755
     atom    3 type  1   force =    -0.00010268    0.00005993    0.00009113
     atom    4 type  1   force =    -0.00121297    0.00069376   -0.00147963
     atom    5 type  1   force =     0.00000017   -0.00000375    0.00021608
     atom    6 type  1   force =    -0.00000035   -0.00000319    0.00126453
     atom    7 type  1   force =     0.00010279    0.00005999    0.00009105
     atom    8 type  1   force =     0.00121194    0.00069291   -0.00147971
     atom    9 type  2   force =    -0.00000076    0.00000293   -0.00536326
     atom   10 type  2   force =     0.00116275    0.00067957   -0.00441596
     atom   11 type  2   force =     0.00001382    0.00001107   -0.00541222
     atom   12 type  2   force =    -0.00000062   -0.00134011   -0.00441882
     atom   13 type  2   force =    -0.00000013   -0.00001248   -0.00541271
     atom   14 type  2   force =    -0.00116303    0.00067873   -0.00441551
     atom   15 type  2   force =    -0.00001442    0.00001126   -0.00541289
     atom   16 type  2   force =    -0.00039797    0.00023111    0.00494014
     atom   17 type  2   force =    -0.00088010    0.00051870    0.00536734
     atom   18 type  2   force =    -0.00000004   -0.00044358    0.00495825
     atom   19 type  2   force =    -0.00000110   -0.00101550    0.00536461
     atom   20 type  2   force =     0.00039682    0.00023046    0.00494166
     atom   21 type  2   force =     0.00087853    0.00051912    0.00536997
     atom   22 type  2   force =    -0.00000057    0.00000241    0.00552953
     atom   23 type  2   force =    -0.00000006   -0.00006858    0.00259579
     atom   24 type  1   force =     0.00000011   -0.00001648   -0.00232015
     The Hubbard contrib.    to forces
     atom    1 type  1   force =     0.00000000    0.00000000    0.00000000
     atom    2 type  1   force =     0.00000000    0.00000000    0.00000000
     atom    3 type  1   force =     0.00000000    0.00000000    0.00000000
     atom    4 type  1   force =     0.00000000    0.00000000    0.00000000
     atom    5 type  1   force =     0.00000000    0.00000000    0.00000000
     atom    6 type  1   force =     0.00000000    0.00000000    0.00000000
     atom    7 type  1   force =     0.00000000    0.00000000    0.00000000
     atom    8 type  1   force =     0.00000000    0.00000000    0.00000000
     atom    9 type  2   force =     0.00000000    0.00000000    0.00000000
     atom   10 type  2   force =     0.00000000    0.00000000    0.00000000
     atom   11 type  2   force =     0.00000000    0.00000000    0.00000000
     atom   12 type  2   force =     0.00000000    0.00000000    0.00000000
     atom   13 type  2   force =     0.00000000    0.00000000    0.00000000
     atom   14 type  2   force =     0.00000000    0.00000000    0.00000000
     atom   15 type  2   force =     0.00000000    0.00000000    0.00000000
     atom   16 type  2   force =     0.00000000    0.00000000    0.00000000
     atom   17 type  2   force =     0.00000000    0.00000000    0.00000000
     atom   18 type  2   force =     0.00000000    0.00000000    0.00000000
     atom   19 type  2   force =     0.00000000    0.00000000    0.00000000
     atom   20 type  2   force =     0.00000000    0.00000000    0.00000000
     atom   21 type  2   force =     0.00000000    0.00000000    0.00000000
     atom   22 type  2   force =     0.00000000    0.00000000    0.00000000
     atom   23 type  2   force =     0.00000000    0.00000000    0.00000000
     atom   24 type  1   force =     0.00000000    0.00000000    0.00000000
     The SCF correction term to forces
     atom    1 type  1   force =     0.00000026    0.00000297   -0.00000112
     atom    2 type  1   force =     0.00000013   -0.00000803   -0.00000360
     atom    3 type  1   force =     0.00000148   -0.00000244   -0.00000091
     atom    4 type  1   force =    -0.00001096    0.00001082   -0.00000215
     atom    5 type  1   force =    -0.00000017    0.00000156   -0.00000986
     atom    6 type  1   force =    -0.00000018   -0.00000147    0.00000112
     atom    7 type  1   force =    -0.00000110   -0.00000255   -0.00000069
     atom    8 type  1   force =     0.00001069    0.00001057   -0.00000224
     atom    9 type  2   force =     0.00000012    0.00000261   -0.00001168
     atom   10 type  2   force =     0.00000744   -0.00002000   -0.00000319
     atom   11 type  2   force =    -0.00000395   -0.00000638   -0.00000261
     atom   12 type  2   force =     0.00000052    0.00001480   -0.00000878
     atom   13 type  2   force =    -0.00000022    0.00000873   -0.00000043
     atom   14 type  2   force =    -0.00000731   -0.00001946   -0.00000290
     atom   15 type  2   force =     0.00000438   -0.00000680   -0.00000282
     atom   16 type  2   force =     0.00000290    0.00000273    0.00000341
     atom   17 type  2   force =     0.00000929    0.00001576    0.00000105
     atom   18 type  2   force =    -0.00000000    0.00000090    0.00000234
     atom   19 type  2   force =    -0.00000056   -0.00001227    0.00001397
     atom   20 type  2   force =    -0.00000262    0.00000293    0.00000341
     atom   21 type  2   force =    -0.00000947    0.00001663    0.00000150
     atom   22 type  2   force =     0.00000004   -0.00000504   -0.00000213
     atom   23 type  2   force =     0.00000069   -0.00002510    0.00001036
     atom   24 type  1   force =    -0.00000022    0.00001401    0.00000641

     Total force =     0.001756     Total SCF correction =     0.000066

     Computing stress (Cartesian axis) and pressure

     Non-local corr. energy    =      11.19258526 Ry

          total   stress  (Ry/bohr**3)                   (kbar)     P=       -0.40
  -0.00000948   0.00000000  -0.00000001           -1.39        0.00       -0.00
   0.00000000  -0.00000933   0.00000010            0.00       -1.37        0.02
  -0.00000001   0.00000010   0.00001061           -0.00        0.02        1.56

     kinetic stress (kbar)  15280.79      0.00     -0.00
                                0.00  15280.99      0.12
                               -0.00      0.12  15301.03

     local   stress (kbar)  -6853.86     -0.06      0.00
                               -0.06  -6849.69     -0.08
                                0.00     -0.08    918.38

     nonloc. stress (kbar)  -1508.42      0.00     -0.00
                                0.00  -1508.31      0.08
                               -0.00      0.08  -1503.85

     hartree stress (kbar)  11515.02      0.03      0.00
                                0.03  11513.50      0.12
                                0.00      0.12   7991.74

     exc-cor stress (kbar)   6800.93      0.00     -0.00
                                0.00   6800.93      0.00
                               -0.00      0.00   6800.82

     corecor stress (kbar) -11103.21     -0.00      0.00
                               -0.00 -11103.22     -0.00
                                0.00     -0.00 -11103.47

     ewald   stress (kbar) -14213.75      0.03      0.00
                                0.03 -14216.69     -0.21
                                0.00     -0.21 -18485.09

     hubbard stress (kbar)      0.00      0.00      0.00
                                0.00      0.00      0.00
                                0.00      0.00      0.00

     DFT-D   stress (kbar)      0.00      0.00      0.00
                                0.00      0.00      0.00
                                0.00      0.00      0.00

     XDM     stress (kbar)      0.00      0.00      0.00
                                0.00      0.00      0.00
                                0.00      0.00      0.00

     dft-nl  stress (kbar)     81.12     -0.00      0.00
                               -0.00     81.12     -0.00
                                0.00     -0.00     82.02

     TS-vdW  stress (kbar)      0.00      0.00      0.00
                                0.00      0.00      0.00
                                0.00      0.00      0.00

     MDB     stress (kbar)      0.00      0.00      0.00
                                0.00      0.00      0.00
                                0.00      0.00      0.00

     3D-RISM stress (kbar)      0.00      0.00      0.00
                                0.00      0.00      0.00
                                0.00      0.00      0.00

     Energy error            =      2.5E-05 Ry
     Gradient error          =      9.1E-04 Ry/Bohr

     bfgs converged in  29 scf cycles and  28 bfgs steps
     (criteria: energy <  1.0E-04 Ry, force <  1.0E-03 Ry/Bohr)

     End of BFGS Geometry Optimization

     Final energy             =  -16521.5545205221 Ry

     File ./PbI2.bfgs deleted, as requested
Begin final coordinates

ATOMIC_POSITIONS (angstrom)
Pb            2.3556586318        4.0829794899       14.7638968734
Pb            2.3558336771        3.8534301924        7.4630651441
Pb            0.0028162894        8.1581852068       14.7634850156
Pb           -0.1908721508        8.2708230753        7.4668129181
Pb            7.0668201607        4.0800317020       14.7643369012
Pb            7.0670351001        4.0801449197        7.2828601537
Pb            4.7085657878        8.1582877531       14.7638057942
Pb            4.9025037143        8.2708906024        7.4664010131
I             2.3556719262        1.3598522896       12.8953329974
I            -0.0162798762        5.4301031177        5.5202622880
I             0.0018666115        5.4407766832       12.8958706166
I             7.0669179561        1.3789413486        5.5200973192
I             7.0669865085        1.3577019685       12.8960134826
I             4.7278302727        5.4300251599        5.5201253813
I             4.7093907160        5.4409054387       12.8959906661
I             0.0036388332        2.7177531578        1.9217495097
I            -0.0113978312        2.7263851156        9.3494740774
I            -2.3555606187        6.8036306993        1.9211885370
I            -2.3555689767        6.7867186490        9.3496573267
I             4.7076738772        2.7176692902        1.9216505117
I             4.7229651276        2.7264357735        9.3497060357
I             2.3556244591        6.7999302121        1.8958776535
I             2.3557814258        6.8023604338        9.1227562077
Pb            2.3558941553        1.3613151638        4.8641159284
End final coordinates

     Writing all to output data dir ./PbI2.save/

     General routines

     Parallel routines

     PAW routines

   This run was terminated on:   0:35: 7  28Mar2024

   JOB DONE.