     Program PWSCF v.7.1 starts on 18Feb2024 at  7:47:34

     Reading input from espresso.pwi
Warning: card &CELL ignored
Warning: card    CELL_DYNAMICS    = 'BFGS' ignored
Warning: card / ignored

     Current dimensions of program PWSCF are:
     Max number of different atomic species (ntypx) = 10
     Max number of k-points (npk) =  40000
     Max angular momentum in pseudopotentials (lmaxx) =  4
     file Ga.pbe-dn-kjpaw_psl.1.0.0.UPF: wavefunction(s)  4S renormalized
     file N.pbe-n-kjpaw_psl.1.0.0.UPF: wavefunction(s)  2S renormalized

     IMPORTANT: XC functional enforced from input :
     Exchange-correlation= BEEF-VDW
                           (   1   4  43  14   2   0   0)
     Any further DFT definition will be discarded
     Please, verify this is what you really want

     K-points division:     npool     =       4
     R & G space division:  proc/nbgrp/npool/nimage =      32
     Subspace diagonalization in iterative solution of the eigenvalue problem:
     a serial algorithm will be used

     Using Slab Decomposition

     bravais-lattice index     =            4
     lattice parameter (alat)  =      18.3939  a.u.
     unit-cell volume          =    5856.2271 (a.u.)^3
     number of atoms/cell      =           72
     number of atomic types    =            2
     number of electrons       =       653.00
     number of Kohn-Sham states=          392
     kinetic-energy cutoff     =      70.0000  Ry
     charge density cutoff     =     350.0000  Ry
     scf convergence threshold =      1.0E-07
     mixing beta               =       0.7000
     number of iterations used =            8  plain     mixing
     energy convergence thresh.=      1.0E-04
     force convergence thresh. =      1.0E-03
     Exchange-correlation= BEEF-VDW
                           (   1   4  43  14   2   0   0)
     nstep                     =           50

     celldm(1)=  18.393924  celldm(2)=   0.000000  celldm(3)=   1.086586
     celldm(4)=   0.000000  celldm(5)=   0.000000  celldm(6)=   0.000000

     crystal axes: (cart. coord. in units of alat)
               a(1) = (   1.000000   0.000000   0.000000 )
               a(2) = (  -0.500000   0.866025   0.000000 )
               a(3) = (   0.000000   0.000000   1.086586 )

     reciprocal axes: (cart. coord. in units 2 pi/alat)
               b(1) = (  1.000000  0.577350 -0.000000 )
               b(2) = (  0.000000  1.154701  0.000000 )
               b(3) = (  0.000000 -0.000000  0.920314 )

     PseudoPot. # 1 for Ga read from file:
     /trace/group/acmegroup/atimmins/packages/espresso/pseudo/psl_1.0.0/pslibrary.1.0.0/pbe/PSEUDOPOTENTIALS/Ga.pbe-dn-kjpaw_psl.1.0.0.UPF
     MD5 check sum: cd2a01e492f15b435d17032472d8505c
     Pseudo is Projector augmented-wave + core cor, Zval = 13.0
     Generated using 'atomic' code by A. Dal Corso  v.7.1
     Shape of augmentation charge: PSQ
     Using radial grid of 1205 points,  6 beta functions with:
                l(1) =   0
                l(2) =   0
                l(3) =   1
                l(4) =   1
                l(5) =   2
                l(6) =   2
     Q(r) pseudized with 0 coefficients

     PseudoPot. # 2 for N  read from file:
     /trace/group/acmegroup/atimmins/packages/espresso/pseudo/psl_1.0.0/pslibrary.1.0.0/pbe/PSEUDOPOTENTIALS/N.pbe-n-kjpaw_psl.1.0.0.UPF
     MD5 check sum: f77f775694dac7e2c3fe1c82443d1a16
     Pseudo is Projector augmented-wave + core cor, Zval =  5.0
     Generated using 'atomic' code by A. Dal Corso  v.7.1
     Shape of augmentation charge: PSQ
     Using radial grid of 1085 points,  4 beta functions with:
                l(1) =   0
                l(2) =   0
                l(3) =   1
                l(4) =   1
     Q(r) pseudized with 0 coefficients

     atomic species   valence    mass     pseudopotential
        Ga            13.00    69.72300     Ga( 1.00)
        N              5.00    14.00700     N ( 1.00)

      6 Sym. Ops. (no inversion) found ( 4 have fractional translation)

                                    s                        frac. trans.

      isym =  1     identity

 cryst.   s( 1) = (     1          0          0      )
                  (     0          1          0      )
                  (     0          0          1      )

 cart.    s( 1) = (  1.0000000  0.0000000  0.0000000 )
                  (  0.0000000  1.0000000  0.0000000 )
                  (  0.0000000  0.0000000  1.0000000 )

      isym =  2     120 deg rotation - cryst. axis [0,0,1]

 cryst.   s( 2) = (     0          1          0      )    f =( -0.3333334 )
                  (    -1         -1          0      )       (  0.0000003 )
                  (     0          0          1      )       (  0.0000000 )

 cart.    s( 2) = ( -0.5000000 -0.8660254  0.0000000 )    f =( -0.3333335 )
                  (  0.8660254 -0.5000000  0.0000000 )       (  0.0000002 )
                  (  0.0000000  0.0000000  1.0000000 )       (  0.0000000 )

      isym =  3     120 deg rotation - cryst. axis [0,0,-1]

[...]

      isym =  4     inv. 180 deg rotation - cart. axis [1,0,0]

[...]

      isym =  5     inv. 180 deg rotation - cryst. axis [0,1,0]

 cryst.   s( 5) = (     1          1          0      )
                  (     0         -1          0      )
                  (     0          0          1      )

 cart.    s( 5) = (  0.5000000  0.8660254  0.0000000 )
                  (  0.8660254 -0.5000000  0.0000000 )
                  (  0.0000000  0.0000000  1.0000000 )

      isym =  6     inv. 180 deg rotation - cryst. axis [1,1,0]

 cryst.   s( 6) = (     0         -1          0      )    f =( -0.3333334 )
                  (    -1          0          0      )       ( -0.3333334 )
                  (     0          0          1      )       (  0.0000000 )

 cart.    s( 6) = (  0.5000000 -0.8660254  0.0000000 )    f =( -0.1666667 )
                  ( -0.8660254 -0.5000000  0.0000000 )       ( -0.2886752 )
                  (  0.0000000  0.0000000  1.0000000 )       (  0.0000000 )

     point group C_3v (3m)
     there are  3 classes
     the character table:

       E     2C3   3s_v
A_1    1.00  1.00  1.00
A_2    1.00  1.00 -1.00
E      2.00 -1.00  0.00

     the symmetry operations in each class and the name of the first element:

     E        1
          identity
     2C3      2    3
          120 deg rotation - cryst. axis [0,0,1]
     3s_v     4    5    6
          inv. 180 deg rotation - cart. axis [1,0,0]

   Cartesian axes

     site n.     atom                  positions (alat units)
         1           Ga  tau(   1) = (   0.1666668   0.0962250   0.2711914  )
         2           Ga  tau(   2) = (   0.1666668   0.0962250   0.8144844  )
         3           Ga  tau(   3) = (   0.0000001   0.3849001   0.2711914  )
         4           Ga  tau(   4) = (   0.0000001   0.3849001   0.8144844  )
         5           Ga  tau(   5) = (  -0.1666665   0.6735752   0.2711914  )
         6           Ga  tau(   6) = (  -0.1666665   0.6735752   0.8144844  )
         7           Ga  tau(   7) = (   0.5000001   0.0962250   0.2711914  )
         8           Ga  tau(   8) = (   0.5000001   0.0962250   0.8144844  )
         9           Ga  tau(   9) = (   0.3333335   0.3849001   0.2711914  )
        10           Ga  tau(  10) = (   0.3333335   0.3849001   0.8144844  )
        11           Ga  tau(  11) = (   0.1666668   0.6735752   0.2711914  )
        12           Ga  tau(  12) = (   0.1666668   0.6735752   0.8144844  )
        13           Ga  tau(  13) = (   0.8333335   0.0962250   0.2711914  )
        14           Ga  tau(  14) = (   0.8333335   0.0962250   0.8144844  )
        15           Ga  tau(  15) = (   0.6666668   0.3849001   0.2711914  )
        16           Ga  tau(  16) = (   0.6666668   0.3849001   0.8144844  )
        17           Ga  tau(  17) = (   0.5000001   0.6735752   0.2711914  )
        18           Ga  tau(  18) = (   0.5000001   0.6735752   0.8144844  )
        19           Ga  tau(  19) = (  -0.0000002   0.1924502   0.5428379  )
        20           Ga  tau(  20) = (  -0.0000002   0.1924502   1.0861309  )
        21           Ga  tau(  21) = (  -0.1666669   0.4811254   0.5428379  )
        22           Ga  tau(  22) = (  -0.1666669   0.4811254   1.0861309  )
        23           Ga  tau(  23) = (  -0.3333335   0.7698005   0.5428379  )
        24           Ga  tau(  24) = (  -0.3333335   0.7698005   1.0861309  )
        25           Ga  tau(  25) = (   0.3333331   0.1924502   0.5428379  )
        26           Ga  tau(  26) = (   0.3333331   0.1924502   1.0861309  )
        27           Ga  tau(  27) = (   0.1666665   0.4811254   0.5428379  )
        28           Ga  tau(  28) = (   0.1666665   0.4811254   1.0861309  )
        29           Ga  tau(  29) = (  -0.0000002   0.7698005   0.5428379  )
        30           Ga  tau(  30) = (  -0.0000002   0.7698005   1.0861309  )
        31           Ga  tau(  31) = (   0.6666665   0.1924502   0.5428379  )
        32           Ga  tau(  32) = (   0.6666665   0.1924502   1.0861309  )
        33           Ga  tau(  33) = (   0.4999998   0.4811254   0.5428379  )
        34           Ga  tau(  34) = (   0.4999998   0.4811254   1.0861309  )
        35           Ga  tau(  35) = (   0.3333331   0.7698005   0.5428379  )
        36           Ga  tau(  36) = (   0.3333331   0.7698005   1.0861309  )
        37           N   tau(  37) = (   0.1666668   0.0962250   1.0191295  )
        38           N   tau(  38) = (   0.0000001   0.3849001   0.4758365  )
        39           N   tau(  39) = (   0.0000001   0.3849001   1.0191295  )
        40           N   tau(  40) = (  -0.1666665   0.6735752   0.4758365  )
        41           N   tau(  41) = (  -0.1666665   0.6735752   1.0191295  )
        42           N   tau(  42) = (   0.5000001   0.0962250   0.4758365  )
        43           N   tau(  43) = (   0.5000001   0.0962250   1.0191295  )
        44           N   tau(  44) = (   0.3333335   0.3849001   0.4758365  )
        45           N   tau(  45) = (   0.3333335   0.3849001   1.0191295  )
        46           N   tau(  46) = (   0.1666668   0.6735752   0.4758365  )
        47           N   tau(  47) = (   0.1666668   0.6735752   1.0191295  )
        48           N   tau(  48) = (   0.8333335   0.0962250   0.4758365  )
        49           N   tau(  49) = (   0.8333335   0.0962250   1.0191295  )
        50           N   tau(  50) = (   0.6666668   0.3849001   0.4758365  )
        51           N   tau(  51) = (   0.6666668   0.3849001   1.0191295  )
        52           N   tau(  52) = (   0.5000001   0.6735752   0.4758365  )
        53           N   tau(  53) = (   0.5000001   0.6735752   1.0191295  )
        54           N   tau(  54) = (  -0.0000002   0.1924502   0.2041900  )
        55           N   tau(  55) = (  -0.0000002   0.1924502   0.7474830  )
        56           N   tau(  56) = (  -0.1666669   0.4811254   0.2041900  )
        57           N   tau(  57) = (  -0.1666669   0.4811254   0.7474830  )
        58           N   tau(  58) = (  -0.3333335   0.7698005   0.2041900  )
        59           N   tau(  59) = (  -0.3333335   0.7698005   0.7474830  )
[...]
     atom   35 type  1   force =     0.00000000    0.00000000    0.00000000
     atom   36 type  1   force =     0.00000000    0.00000000    0.00000000
     atom   37 type  2   force =     0.00000000    0.00000000    0.00000000
     atom   38 type  2   force =     0.00000000    0.00000000    0.00000000
     atom   39 type  2   force =     0.00000000    0.00000000    0.00000000
     atom   40 type  2   force =     0.00000000    0.00000000    0.00000000
     atom   41 type  2   force =     0.00000000    0.00000000    0.00000000
     atom   42 type  2   force =     0.00000000    0.00000000    0.00000000
     atom   43 type  2   force =     0.00000000    0.00000000    0.00000000
     atom   44 type  2   force =     0.00000000    0.00000000    0.00000000
     atom   45 type  2   force =     0.00000000    0.00000000    0.00000000
     atom   46 type  2   force =     0.00000000    0.00000000    0.00000000
     atom   47 type  2   force =     0.00000000    0.00000000    0.00000000
     atom   48 type  2   force =     0.00000000    0.00000000    0.00000000
     atom   49 type  2   force =     0.00000000    0.00000000    0.00000000
     atom   50 type  2   force =     0.00000000    0.00000000    0.00000000
     atom   51 type  2   force =     0.00000000    0.00000000    0.00000000
     atom   52 type  2   force =     0.00000000    0.00000000    0.00000000
     atom   53 type  2   force =     0.00000000    0.00000000    0.00000000
     atom   54 type  2   force =     0.00000000    0.00000000    0.00000000
     atom   55 type  2   force =     0.00000000    0.00000000    0.00000000
     atom   56 type  2   force =     0.00000000    0.00000000    0.00000000
     atom   57 type  2   force =     0.00000000    0.00000000    0.00000000
     atom   58 type  2   force =     0.00000000    0.00000000    0.00000000
     atom   59 type  2   force =     0.00000000    0.00000000    0.00000000
     atom   60 type  2   force =     0.00000000    0.00000000    0.00000000
     atom   61 type  2   force =     0.00000000    0.00000000    0.00000000
     atom   62 type  2   force =     0.00000000    0.00000000    0.00000000
     atom   63 type  2   force =     0.00000000    0.00000000    0.00000000
     atom   64 type  2   force =     0.00000000    0.00000000    0.00000000
     atom   65 type  2   force =     0.00000000    0.00000000    0.00000000
     atom   66 type  2   force =     0.00000000    0.00000000    0.00000000
     atom   67 type  2   force =     0.00000000    0.00000000    0.00000000
     atom   68 type  2   force =     0.00000000    0.00000000    0.00000000
     atom   69 type  2   force =     0.00000000    0.00000000    0.00000000
     atom   70 type  2   force =     0.00000000    0.00000000    0.00000000
     atom   71 type  2   force =     0.00000000    0.00000000    0.00000000
     atom   72 type  1   force =     0.00000000    0.00000000    0.00000000
     The SCF correction term to forces
     atom    1 type  1   force =    -0.00000000    0.00000000   -0.00000199
     atom    2 type  1   force =    -0.00000000    0.00000000    0.00001821
     atom    3 type  1   force =    -0.00000163    0.00000524    0.00000854
     atom    4 type  1   force =    -0.00000249    0.00000589    0.00000220
     atom    5 type  1   force =     0.00000372   -0.00000403    0.00000854
     atom    6 type  1   force =     0.00000385   -0.00000510    0.00000220
     atom    7 type  1   force =     0.00000535   -0.00000121    0.00000854
     atom    8 type  1   force =     0.00000634   -0.00000079    0.00000220
     atom    9 type  1   force =     0.00000163    0.00000524    0.00000854
     atom   10 type  1   force =     0.00000249    0.00000589    0.00000220
     atom   11 type  1   force =    -0.00000000    0.00000000    0.00000418
     atom   12 type  1   force =    -0.00000000    0.00000000   -0.00000932
     atom   13 type  1   force =    -0.00000536   -0.00000121    0.00000854
     atom   14 type  1   force =    -0.00000634   -0.00000079    0.00000220
     atom   15 type  1   force =    -0.00000000    0.00000000    0.00000633
     atom   16 type  1   force =    -0.00000000    0.00000000   -0.00000055
     atom   17 type  1   force =    -0.00000372   -0.00000403    0.00000854
     atom   18 type  1   force =    -0.00000385   -0.00000510    0.00000220
     atom   19 type  1   force =     0.00000664   -0.00000383   -0.00000183
     atom   20 type  1   force =     0.00000159   -0.00000092   -0.00000161
     atom   21 type  1   force =     0.00000397    0.00000229    0.00001210
     atom   22 type  1   force =     0.00000239    0.00000138    0.00000428
     atom   23 type  1   force =     0.00000000    0.00000766   -0.00000183
     atom   24 type  1   force =     0.00000000    0.00000183   -0.00000161
     atom   25 type  1   force =    -0.00000663   -0.00000383   -0.00000183
     atom   26 type  1   force =    -0.00000159   -0.00000092   -0.00000161
     atom   27 type  1   force =     0.00000000    0.00000566    0.00002009
     atom   28 type  1   force =     0.00000000    0.00000461   -0.00000144
     atom   29 type  1   force =     0.00000491   -0.00000283    0.00002009
     atom   30 type  1   force =     0.00000400   -0.00000231   -0.00000144
     atom   31 type  1   force =     0.00000000   -0.00000458    0.00001210
     atom   32 type  1   force =     0.00000000   -0.00000276    0.00000428
     atom   33 type  1   force =    -0.00000396    0.00000229    0.00001210
     atom   34 type  1   force =    -0.00000238    0.00000138    0.00000428
     atom   35 type  1   force =    -0.00000490   -0.00000283    0.00002009
     atom   36 type  1   force =    -0.00000399   -0.00000231   -0.00000144
     atom   37 type  2   force =     0.00000000   -0.00000000    0.00000152
     atom   38 type  2   force =    -0.00000417    0.00000129    0.00000395
     atom   39 type  2   force =    -0.00000095   -0.00000034   -0.00000679
     atom   40 type  2   force =    -0.00000096   -0.00000425    0.00000395
     atom   41 type  2   force =    -0.00000077   -0.00000065   -0.00000679
     atom   42 type  2   force =     0.00000320    0.00000296    0.00000395
     atom   43 type  2   force =     0.00000018    0.00000099   -0.00000679
     atom   44 type  2   force =     0.00000417    0.00000129    0.00000395
     atom   45 type  2   force =     0.00000095   -0.00000034   -0.00000679
     atom   46 type  2   force =     0.00000000   -0.00000000    0.00000651
     atom   47 type  2   force =     0.00000000   -0.00000000    0.00000253
     atom   48 type  2   force =    -0.00000320    0.00000296    0.00000395
     atom   49 type  2   force =    -0.00000018    0.00000099   -0.00000679
     atom   50 type  2   force =     0.00000000   -0.00000000    0.00000339
     atom   51 type  2   force =     0.00000000   -0.00000000   -0.00000206
     atom   52 type  2   force =     0.00000096   -0.00000425    0.00000395
     atom   53 type  2   force =     0.00000077   -0.00000065   -0.00000679
     atom   54 type  2   force =     0.00000164   -0.00000095   -0.00000136
     atom   55 type  2   force =    -0.00000413    0.00000238   -0.00000189
     atom   56 type  2   force =     0.00000210    0.00000121    0.00000064
     atom   57 type  2   force =     0.00000401    0.00000231   -0.00000037
     atom   58 type  2   force =    -0.00000000    0.00000190   -0.00000136
     atom   59 type  2   force =    -0.00000000   -0.00000476   -0.00000189
     atom   60 type  2   force =    -0.00000164   -0.00000095   -0.00000136
     atom   61 type  2   force =     0.00000413    0.00000238   -0.00000189
     atom   62 type  2   force =    -0.00000000    0.00000507   -0.00000341
     atom   63 type  2   force =    -0.00000000    0.00000688   -0.00000325
     atom   64 type  2   force =     0.00000439   -0.00000254   -0.00000341
     atom   65 type  2   force =     0.00000596   -0.00000344   -0.00000325
     atom   66 type  2   force =    -0.00000000   -0.00000242    0.00000064
     atom   67 type  2   force =    -0.00000000   -0.00000463   -0.00000037
     atom   68 type  2   force =    -0.00000210    0.00000121    0.00000064
     atom   69 type  2   force =    -0.00000401    0.00000231   -0.00000037
     atom   70 type  2   force =    -0.00000439   -0.00000254   -0.00000341
     atom   71 type  2   force =    -0.00000596   -0.00000344   -0.00000325
     atom   72 type  1   force =     0.00000000   -0.00000000   -0.00001142

     Total force =     0.002935     Total SCF correction =     0.000068

     Computing stress (Cartesian axis) and pressure

     Non-local corr. energy    =      20.00136975 Ry

          total   stress  (Ry/bohr**3)                   (kbar)     P=      -45.12
  -0.00029870   0.00000000   0.00000000          -43.94        0.00        0.00
   0.00000000  -0.00029870   0.00000000            0.00      -43.94        0.00
   0.00000000   0.00000000  -0.00032271            0.00        0.00      -47.47

     kinetic stress (kbar)  18447.52      0.00      0.00
                                0.00  18447.52      0.00
                                0.00      0.00  18432.05

     local   stress (kbar)   5852.29     -0.07     -0.00
                               -0.07   5852.19      0.00
                               -0.00      0.00   3944.82

     nonloc. stress (kbar)    153.71      0.00      0.00
                                0.00    153.71     -0.00
                                0.00     -0.00    161.11

     hartree stress (kbar)  19998.69     -0.00     -0.00
                               -0.00  19998.69      0.00
                               -0.00      0.00  20846.20

     exc-cor stress (kbar)   5437.49     -0.00      0.00
                               -0.00   5437.49      0.00
                                0.00      0.00   5437.82

     corecor stress (kbar) -14466.95     -0.00      0.00
                               -0.00 -14466.95      0.00
                                0.00      0.00 -14466.32

     ewald   stress (kbar) -35632.15      0.10      0.00
                                0.10 -35632.02     -0.00
                                0.00     -0.00 -34567.69

     hubbard stress (kbar)      0.00      0.00      0.00
                                0.00      0.00      0.00
                                0.00      0.00      0.00

     DFT-D   stress (kbar)      0.00      0.00      0.00
                                0.00      0.00      0.00
                                0.00      0.00      0.00

     XDM     stress (kbar)      0.00      0.00      0.00
                                0.00      0.00      0.00
                                0.00      0.00      0.00

     dft-nl  stress (kbar)    165.44     -0.00     -0.00
                               -0.00    165.44     -0.00
                               -0.00     -0.00    164.54

     TS-vdW  stress (kbar)      0.00      0.00      0.00
                                0.00      0.00      0.00
                                0.00      0.00      0.00

     MDB     stress (kbar)      0.00      0.00      0.00
                                0.00      0.00      0.00
                                0.00      0.00      0.00

     3D-RISM stress (kbar)      0.00      0.00      0.00
                                0.00      0.00      0.00
                                0.00      0.00      0.00

     BFGS Geometry Optimization
     Energy error            =      0.0E+00 Ry
     Gradient error          =      8.1E-04 Ry/Bohr

     bfgs converged in   1 scf cycles and   0 bfgs steps
     (criteria: energy <  1.0E-04 Ry, force <  1.0E-03 Ry/Bohr)

     End of BFGS Geometry Optimization

     Final energy             =  -11498.6348469072 Ry
Begin final coordinates

ATOMIC_POSITIONS (angstrom)
Ga            1.6222756606        0.9366198184        1.8188465450
Ga            1.6222756606        0.9366198184        7.9265732467
Ga            0.0020571890        3.7667144081        2.6281576693
Ga            0.0051394066        3.7944398534        7.9618330696
Ga           -1.6037223911        6.5480062267        2.6281576693
Ga           -1.5781703424        6.5368127828        7.9618330696
Ga            4.8833187061        0.9247228797        2.6281576693
Ga            4.9057885373        0.9081908783        7.9618330696
Ga            3.2424941322        3.7667144081        2.6281576693
Ga            3.2394119146        3.7944398534        7.9618330696
Ga            1.6222756606        6.5563425246        2.6609997551
Ga            1.6222756606        6.5563425246        7.9605861722
Ga            8.0948778663        0.9247228797        2.6281576693
Ga            8.0724080351        0.9081908783        7.9618330696
Ga            6.4890982862        3.7464811715        2.6494339251
Ga            6.4890982862        3.7464811715        7.9602114165
Ga            4.8482737123        6.5480062267        2.6281576693
Ga            4.8227216636        6.5368127828        7.9618330696
Ga           -0.2926233375        2.0421874748        5.4289587295
Ga           -0.0828754892        1.9210894981       10.4677307810
Ga           -1.6334466699        4.6766545104        5.3092856750
Ga           -1.6320238887        4.6774759535       10.5974581210
Ga           -3.2445503819        7.1550750961        5.4289587295
Ga           -3.2445503819        7.3972710494       10.4677307810
Ga            3.5371678250        2.0421874748        5.4289587295
Ga            3.3274199767        1.9210894981       10.4677307810
Ga            1.6222722437        4.7051408494        5.3200151874
Ga            1.6222722437        4.6982614366       10.5998885202
Ga            0.0190826802        7.4819466278        5.3200151874
Ga            0.0131249339        7.4853863342       10.5998885202
Ga            6.4890948693        1.8861410249        5.3092856750
Ga            6.4890948693        1.8844981387       10.5974581210
Ga            4.8779911574        4.6766545104        5.3092856750
Ga            4.8765683762        4.6774759535       10.5974581210
Ga            3.2254618073        7.4819466278        5.3200151874
Ga            3.2314195536        7.4853863342       10.5998885202
N             1.6222756606        0.9366198184        9.9878683119
N            -0.0013087416        3.7774101535        4.6313119712
N            -0.0007811907        3.7784999151        9.9284867655
N            -1.5961425692        6.5397433725        4.6313119712
N            -1.5949350325        6.5396553642        9.9284867655
N             4.8942644587        0.9222899884        4.6313119712
N             4.8949444445        0.9212882352        9.9284867655
N             3.2458600628        3.7774101535        4.6313119712
N             3.2453325119        3.7784999151        9.9284867655
N             1.6222756606        6.5563425246        4.6459581260
N             1.6222756606        6.5563425246        9.9401786174
N             8.0839321137        0.9222899884        4.6313119712
N             8.0832521279        0.9212882352        9.9284867655
N             6.4890982862        3.7464811715        4.6433682927
N             6.4890982862        3.7464811715        9.9372315500
N             4.8406938904        6.5397433725        4.6313119712
N             4.8394863537        6.5396553642        9.9284867655
N            -0.0388032350        1.8956443703        1.9496909136
N            -0.0197536172        1.8846460683        7.3368093847
N            -1.6254495836        4.6812716303        2.0035565882
N            -1.6268076654        4.6804875414        7.2832741136
N            -3.2445503819        7.4481613051        1.9496909136
N            -3.2445503819        7.4701579091        7.3368093847
N             3.2833477225        1.8956443703        1.9496909136
N             3.2642981047        1.8846460683        7.3368093847
N             1.6222722437        4.6850459853        2.0072169066
N             1.6222722437        4.6900193867        7.2910086137
N             0.0016800174        7.4919940598        2.0072169066
N             0.0059871093        7.4895073591        7.2910086137
N             6.4890948693        1.8769067851        2.0035565882
N             6.4890948693        1.8784749628        7.2832741136
N             4.8699940711        4.6812716303        2.0035565882
N             4.8713521529        4.6804875414        7.2832741136
N             3.2428644701        7.4919940598        2.0072169066
N             3.2385573782        7.4895073591        7.2910086137
Ga            1.6222756606        0.9366198184        4.3282724572
End final coordinates

     Writing all to output data dir ./GaN.save/

     General routines

     Parallel routines

     PAW routines

   This run was terminated on:   7:49:13  18Feb2024

   JOB DONE.