     Program PWSCF v.7.1 starts on  6Mar2024 at 22: 8:58

     Reading input from espresso.pwi
Warning: card &CELL ignored
Warning: card    CELL_DYNAMICS    = 'BFGS' ignored
Warning: card / ignored

     Current dimensions of program PWSCF are:
     Max number of different atomic species (ntypx) = 10
     Max number of k-points (npk) =  40000
     Max angular momentum in pseudopotentials (lmaxx) =  4
     file Ga.pbe-dn-kjpaw_psl.1.0.0.UPF: wavefunction(s)  4S renormalized
     file N.pbe-n-kjpaw_psl.1.0.0.UPF: wavefunction(s)  2S renormalized

     IMPORTANT: XC functional enforced from input :
     Exchange-correlation= BEEF-VDW
                           (   1   4  43  14   2   0   0)
     Any further DFT definition will be discarded
     Please, verify this is what you really want

     K-points division:     npool     =       4
     R & G space division:  proc/nbgrp/npool/nimage =      64
     Subspace diagonalization in iterative solution of the eigenvalue problem:
     a serial algorithm will be used

     Using Slab Decomposition

     bravais-lattice index     =            4
     lattice parameter (alat)  =      24.5252  a.u.
     unit-cell volume          =   15616.6055 (a.u.)^3
     number of atoms/cell      =          191
     number of atomic types    =            2
     number of electrons       =      1723.00
     number of Kohn-Sham states=         1034
     kinetic-energy cutoff     =      70.0000  Ry
     charge density cutoff     =     350.0000  Ry
     scf convergence threshold =      1.0E-07
     mixing beta               =       0.7000
     number of iterations used =            8  plain     mixing
     energy convergence thresh.=      1.0E-04
     force convergence thresh. =      1.0E-03
     Exchange-correlation= BEEF-VDW
                           (   1   4  43  14   2   0   0)
     nstep                     =           50

     celldm(1)=  24.525232  celldm(2)=   0.000000  celldm(3)=   1.222409
     celldm(4)=   0.000000  celldm(5)=   0.000000  celldm(6)=   0.000000

     crystal axes: (cart. coord. in units of alat)
               a(1) = (   1.000000   0.000000   0.000000 )
               a(2) = (  -0.500000   0.866025   0.000000 )
               a(3) = (   0.000000   0.000000   1.222409 )

     reciprocal axes: (cart. coord. in units 2 pi/alat)
               b(1) = (  1.000000  0.577350 -0.000000 )
               b(2) = (  0.000000  1.154701  0.000000 )
               b(3) = (  0.000000 -0.000000  0.818057 )

     PseudoPot. # 1 for Ga read from file:
     /trace/group/acmegroup/atimmins/packages/espresso/pseudo/psl_1.0.0/pslibrary.1.0.0/pbe/PSEUDOPOTENTIALS/Ga.pbe-dn-kjpaw_psl.1.0.0.UPF
     MD5 check sum: cd2a01e492f15b435d17032472d8505c
     Pseudo is Projector augmented-wave + core cor, Zval = 13.0
     Generated using 'atomic' code by A. Dal Corso  v.7.1
     Shape of augmentation charge: PSQ
     Using radial grid of 1205 points,  6 beta functions with:
                l(1) =   0
                l(2) =   0
                l(3) =   1
                l(4) =   1
                l(5) =   2
                l(6) =   2
     Q(r) pseudized with 0 coefficients

     PseudoPot. # 2 for N  read from file:
     /trace/group/acmegroup/atimmins/packages/espresso/pseudo/psl_1.0.0/pslibrary.1.0.0/pbe/PSEUDOPOTENTIALS/N.pbe-n-kjpaw_psl.1.0.0.UPF
     MD5 check sum: f77f775694dac7e2c3fe1c82443d1a16
     Pseudo is Projector augmented-wave + core cor, Zval =  5.0
     Generated using 'atomic' code by A. Dal Corso  v.7.1
     Shape of augmentation charge: PSQ
     Using radial grid of 1085 points,  4 beta functions with:
                l(1) =   0
                l(2) =   0
                l(3) =   1
                l(4) =   1
     Q(r) pseudized with 0 coefficients

     atomic species   valence    mass     pseudopotential
        Ga            13.00    69.72300     Ga( 1.00)
        N              5.00    14.00700     N ( 1.00)

      6 Sym. Ops. (no inversion) found ( 4 have fractional translation)

                                    s                        frac. trans.

      isym =  1     identity

 cryst.   s( 1) = (     1          0          0      )
                  (     0          1          0      )
                  (     0          0          1      )

 cart.    s( 1) = (  1.0000000  0.0000000  0.0000000 )
                  (  0.0000000  1.0000000  0.0000000 )
                  (  0.0000000  0.0000000  1.0000000 )

      isym =  2     120 deg rotation - cryst. axis [0,0,1]

 cryst.   s( 2) = (     0          1          0      )    f =( -0.2500000 )
                  (    -1         -1          0      )       (  0.0000002 )
                  (     0          0          1      )       (  0.0000000 )

 cart.    s( 2) = ( -0.5000000 -0.8660254  0.0000000 )    f =( -0.2500001 )
                  (  0.8660254 -0.5000000  0.0000000 )       (  0.0000002 )
                  (  0.0000000  0.0000000  1.0000000 )       (  0.0000000 )

      isym =  3     120 deg rotation - cryst. axis [0,0,-1]

[...]

      isym =  4     inv. 180 deg rotation - cart. axis [1,0,0]

[...]

      isym =  5     inv. 180 deg rotation - cryst. axis [0,1,0]

 cryst.   s( 5) = (     1          1          0      )
                  (     0         -1          0      )
                  (     0          0          1      )

 cart.    s( 5) = (  0.5000000  0.8660254  0.0000000 )
                  (  0.8660254 -0.5000000  0.0000000 )
                  (  0.0000000  0.0000000  1.0000000 )

      isym =  6     inv. 180 deg rotation - cryst. axis [1,1,0]

 cryst.   s( 6) = (     0         -1          0      )    f =( -0.2500000 )
                  (    -1          0          0      )       ( -0.2500000 )
                  (     0          0          1      )       (  0.0000000 )

 cart.    s( 6) = (  0.5000000 -0.8660254  0.0000000 )    f =( -0.1250000 )
                  ( -0.8660254 -0.5000000  0.0000000 )       ( -0.2165064 )
                  (  0.0000000  0.0000000  1.0000000 )       (  0.0000000 )

     point group C_3v (3m)
     there are  3 classes
     the character table:

       E     2C3   3s_v
A_1    1.00  1.00  1.00
A_2    1.00  1.00 -1.00
E      2.00 -1.00  0.00

     the symmetry operations in each class and the name of the first element:

     E        1
          identity
     2C3      2    3
          120 deg rotation - cryst. axis [0,0,1]
     3s_v     4    5    6
          inv. 180 deg rotation - cart. axis [1,0,0]

   Cartesian axes

     site n.     atom                  positions (alat units)
         1           Ga  tau(   1) = (   0.1250001   0.0721687   0.2033935  )
         2           Ga  tau(   2) = (   0.1250001   0.0721687   0.6108633  )
         3           Ga  tau(   3) = (   0.1250001   0.0721687   1.0183331  )
         4           Ga  tau(   4) = (   0.0000001   0.2886751   0.2033935  )
         5           Ga  tau(   5) = (   0.0000001   0.2886751   0.6108633  )
         6           Ga  tau(   6) = (   0.0000001   0.2886751   1.0183331  )
         7           Ga  tau(   7) = (  -0.1249999   0.5051814   0.2033935  )
         8           Ga  tau(   8) = (  -0.1249999   0.5051814   0.6108633  )
         9           Ga  tau(   9) = (  -0.1249999   0.5051814   1.0183331  )
        10           Ga  tau(  10) = (  -0.2499999   0.7216878   0.2033935  )
        11           Ga  tau(  11) = (  -0.2499999   0.7216878   0.6108633  )
        12           Ga  tau(  12) = (  -0.2499999   0.7216878   1.0183331  )
        13           Ga  tau(  13) = (   0.3750001   0.0721687   0.2033935  )
        14           Ga  tau(  14) = (   0.3750001   0.0721687   0.6108633  )
        15           Ga  tau(  15) = (   0.3750001   0.0721687   1.0183331  )
        16           Ga  tau(  16) = (   0.2500001   0.2886751   0.2033935  )
        17           Ga  tau(  17) = (   0.2500001   0.2886751   0.6108633  )
        18           Ga  tau(  18) = (   0.2500001   0.2886751   1.0183331  )
        19           Ga  tau(  19) = (   0.1250001   0.5051814   0.2033935  )
        20           Ga  tau(  20) = (   0.1250001   0.5051814   0.6108633  )
        21           Ga  tau(  21) = (   0.1250001   0.5051814   1.0183331  )
        22           Ga  tau(  22) = (   0.0000001   0.7216878   0.2033935  )
        23           Ga  tau(  23) = (   0.0000001   0.7216878   0.6108633  )
        24           Ga  tau(  24) = (   0.0000001   0.7216878   1.0183331  )
        25           Ga  tau(  25) = (   0.6250001   0.0721687   0.2033935  )
        26           Ga  tau(  26) = (   0.6250001   0.0721687   0.6108633  )
        27           Ga  tau(  27) = (   0.6250001   0.0721687   1.0183331  )
        28           Ga  tau(  28) = (   0.5000001   0.2886751   0.2033935  )
        29           Ga  tau(  29) = (   0.5000001   0.2886751   0.6108633  )
        30           Ga  tau(  30) = (   0.5000001   0.2886751   1.0183331  )
        31           Ga  tau(  31) = (   0.3750001   0.5051814   0.2033935  )
        32           Ga  tau(  32) = (   0.3750001   0.5051814   0.6108633  )
        33           Ga  tau(  33) = (   0.3750001   0.5051814   1.0183331  )
        34           Ga  tau(  34) = (   0.2500001   0.7216878   0.2033935  )
        35           Ga  tau(  35) = (   0.2500001   0.7216878   0.6108633  )
        36           Ga  tau(  36) = (   0.2500001   0.7216878   1.0183331  )
        37           Ga  tau(  37) = (   0.8750001   0.0721687   0.2033935  )
        38           Ga  tau(  38) = (   0.8750001   0.0721687   0.6108633  )
        39           Ga  tau(  39) = (   0.8750001   0.0721687   1.0183331  )
        40           Ga  tau(  40) = (   0.7500001   0.2886751   0.2033935  )
        41           Ga  tau(  41) = (   0.7500001   0.2886751   0.6108633  )
        42           Ga  tau(  42) = (   0.7500001   0.2886751   1.0183331  )
        43           Ga  tau(  43) = (   0.6250001   0.5051814   0.2033935  )
        44           Ga  tau(  44) = (   0.6250001   0.5051814   0.6108633  )
        45           Ga  tau(  45) = (   0.6250001   0.5051814   1.0183331  )
        46           Ga  tau(  46) = (   0.5000001   0.7216878   0.2033935  )
        47           Ga  tau(  47) = (   0.5000001   0.7216878   0.6108633  )
        48           Ga  tau(  48) = (   0.5000001   0.7216878   1.0183331  )
        49           Ga  tau(  49) = (  -0.0000002   0.1443377   0.4071284  )
        50           Ga  tau(  50) = (  -0.0000002   0.1443377   0.8145982  )
        51           Ga  tau(  51) = (  -0.0000002   0.1443377   1.2220680  )
        52           Ga  tau(  52) = (  -0.1250002   0.3608440   0.4071284  )
        53           Ga  tau(  53) = (  -0.1250002   0.3608440   0.8145982  )
        54           Ga  tau(  54) = (  -0.1250002   0.3608440   1.2220680  )
        55           Ga  tau(  55) = (  -0.2500002   0.5773504   0.4071284  )
        56           Ga  tau(  56) = (  -0.2500002   0.5773504   0.8145982  )
        57           Ga  tau(  57) = (  -0.2500002   0.5773504   1.2220680  )
        58           Ga  tau(  58) = (  -0.3750001   0.7938567   0.4071284  )
        59           Ga  tau(  59) = (  -0.3750001   0.7938567   0.8145982  )
[...]
     atom   44 type  1   force =     0.00000000    0.00000000    0.00000000
     atom   45 type  1   force =     0.00000000    0.00000000    0.00000000
     atom   46 type  1   force =     0.00000000    0.00000000    0.00000000
     atom   47 type  1   force =     0.00000000    0.00000000    0.00000000
     atom   48 type  1   force =     0.00000000    0.00000000    0.00000000
     atom   49 type  1   force =     0.00000000    0.00000000    0.00000000
     atom   50 type  1   force =     0.00000000    0.00000000    0.00000000
     atom   51 type  1   force =     0.00000000    0.00000000    0.00000000
     atom   52 type  1   force =     0.00000000    0.00000000    0.00000000
     atom   53 type  1   force =     0.00000000    0.00000000    0.00000000
     atom   54 type  1   force =     0.00000000    0.00000000    0.00000000
     atom   55 type  1   force =     0.00000000    0.00000000    0.00000000
     atom   56 type  1   force =     0.00000000    0.00000000    0.00000000
     atom   57 type  1   force =     0.00000000    0.00000000    0.00000000
     atom   58 type  1   force =     0.00000000    0.00000000    0.00000000
     atom   59 type  1   force =     0.00000000    0.00000000    0.00000000
     atom   60 type  1   force =     0.00000000    0.00000000    0.00000000
[...]
     atom  177 type  2   force =     0.00000000    0.00000000    0.00000000
     atom  178 type  2   force =     0.00000000    0.00000000    0.00000000
     atom  179 type  2   force =     0.00000000    0.00000000    0.00000000
     atom  180 type  2   force =     0.00000000    0.00000000    0.00000000
     atom  181 type  2   force =     0.00000000    0.00000000    0.00000000
     atom  182 type  2   force =     0.00000000    0.00000000    0.00000000
     atom  183 type  2   force =     0.00000000    0.00000000    0.00000000
     atom  184 type  2   force =     0.00000000    0.00000000    0.00000000
     atom  185 type  2   force =     0.00000000    0.00000000    0.00000000
     atom  186 type  2   force =     0.00000000    0.00000000    0.00000000
     atom  187 type  2   force =     0.00000000    0.00000000    0.00000000
     atom  188 type  2   force =     0.00000000    0.00000000    0.00000000
     atom  189 type  2   force =     0.00000000    0.00000000    0.00000000
     atom  190 type  2   force =     0.00000000    0.00000000    0.00000000
     atom  191 type  2   force =     0.00000000    0.00000000    0.00000000
     The SCF correction term to forces
     atom    1 type  1   force =     0.00000000   -0.00000000    0.00001932
     atom    2 type  1   force =    -0.00000000    0.00000000   -0.00002936
     atom    3 type  1   force =     0.00000000   -0.00000000    0.00001652
     atom    4 type  1   force =     0.00001329   -0.00001519    0.00000457
     atom    5 type  1   force =     0.00000741   -0.00000221   -0.00001924
     atom    6 type  1   force =     0.00000609   -0.00000283    0.00001456
     atom    7 type  1   force =     0.00000803    0.00000464    0.00000163
     atom    8 type  1   force =     0.00000923    0.00000533   -0.00000982
     atom    9 type  1   force =     0.00000836    0.00000483    0.00000765
     atom   10 type  1   force =    -0.00000651    0.00001911    0.00000457
     atom   11 type  1   force =     0.00000179    0.00000752   -0.00001924
     atom   12 type  1   force =     0.00000060    0.00000669    0.00001456
     atom   13 type  1   force =    -0.00001980   -0.00000391    0.00000457
     atom   14 type  1   force =    -0.00000562   -0.00000531   -0.00001924
     atom   15 type  1   force =    -0.00000549   -0.00000386    0.00001456
     atom   16 type  1   force =    -0.00001329   -0.00001519    0.00000457
     atom   17 type  1   force =    -0.00000741   -0.00000221   -0.00001924
     atom   18 type  1   force =    -0.00000609   -0.00000283    0.00001456
     atom   19 type  1   force =    -0.00000000   -0.00000304   -0.00000087
     atom   20 type  1   force =     0.00000000    0.00000277   -0.00000812
     atom   21 type  1   force =     0.00000000    0.00000200    0.00000690
     atom   22 type  1   force =    -0.00000263    0.00000152   -0.00000087
     atom   23 type  1   force =     0.00000239   -0.00000138   -0.00000812
     atom   24 type  1   force =     0.00000174   -0.00000100    0.00000690
     atom   25 type  1   force =    -0.00000000   -0.00000927    0.00000163
     atom   26 type  1   force =     0.00000000   -0.00001066   -0.00000982
     atom   27 type  1   force =     0.00000000   -0.00000966    0.00000765
     atom   28 type  1   force =    -0.00001365   -0.00000788    0.00000308
     atom   29 type  1   force =    -0.00000863   -0.00000498   -0.00000991
     atom   30 type  1   force =    -0.00000693   -0.00000400    0.00000913
     atom   31 type  1   force =    -0.00000803    0.00000464    0.00000163
     atom   32 type  1   force =    -0.00000923    0.00000533   -0.00000982
     atom   33 type  1   force =    -0.00000836    0.00000483    0.00000765
     atom   34 type  1   force =     0.00000263    0.00000152   -0.00000087
     atom   35 type  1   force =    -0.00000239   -0.00000138   -0.00000812
     atom   36 type  1   force =    -0.00000174   -0.00000100    0.00000690
     atom   37 type  1   force =     0.00001980   -0.00000391    0.00000457
     atom   38 type  1   force =     0.00000562   -0.00000531   -0.00001924
     atom   39 type  1   force =     0.00000549   -0.00000386    0.00001456
     atom   40 type  1   force =     0.00001365   -0.00000788    0.00000308
     atom   41 type  1   force =     0.00000863   -0.00000498   -0.00000991
     atom   42 type  1   force =     0.00000693   -0.00000400    0.00000913
     atom   43 type  1   force =    -0.00000000    0.00001576    0.00000308
     atom   44 type  1   force =     0.00000000    0.00000996   -0.00000991
     atom   45 type  1   force =     0.00000000    0.00000800    0.00000913
     atom   46 type  1   force =     0.00000651    0.00001911    0.00000457
     atom   47 type  1   force =    -0.00000179    0.00000752   -0.00001924
     atom   48 type  1   force =    -0.00000060    0.00000669    0.00001456
     atom   49 type  1   force =     0.00003659   -0.00002113   -0.00002705
     atom   50 type  1   force =     0.00000087   -0.00000050   -0.00000066
     atom   51 type  1   force =     0.00001020   -0.00000589    0.00001872
     atom   52 type  1   force =     0.00001377   -0.00000823   -0.00000747
     atom   53 type  1   force =     0.00001040    0.00000058   -0.00000120
     atom   54 type  1   force =     0.00001361   -0.00000614    0.00000939
     atom   55 type  1   force =    -0.00000024    0.00001604   -0.00000747
     atom   56 type  1   force =     0.00000570    0.00000872   -0.00000120
     atom   57 type  1   force =     0.00000149    0.00001486    0.00000939
     atom   58 type  1   force =    -0.00000000    0.00004225   -0.00002705
     atom   59 type  1   force =    -0.00000000    0.00000101   -0.00000066
     atom   60 type  1   force =     0.00000000    0.00001177    0.00001872
[...]
     atom  177 type  2   force =     0.00000000   -0.00000046    0.00000049
     atom  178 type  2   force =     0.00000000   -0.00000123   -0.00000371
     atom  179 type  2   force =     0.00000000   -0.00000201    0.00000260
     atom  180 type  2   force =     0.00000594   -0.00000399    0.00000160
     atom  181 type  2   force =     0.00000314   -0.00000374   -0.00000564
     atom  182 type  2   force =     0.00000216   -0.00000356    0.00000348
     atom  183 type  2   force =    -0.00000000    0.00000000    0.00000125
     atom  184 type  2   force =    -0.00000000    0.00000000   -0.00000495
     atom  185 type  2   force =    -0.00000000    0.00000000    0.00000310
     atom  186 type  2   force =    -0.00000048    0.00000714    0.00000160
     atom  187 type  2   force =    -0.00000167    0.00000459   -0.00000564
     atom  188 type  2   force =    -0.00000200    0.00000365    0.00000348
     atom  189 type  2   force =     0.00000536    0.00000309    0.00000162
     atom  190 type  2   force =     0.00000193    0.00000111   -0.00000592
     atom  191 type  2   force =     0.00000022    0.00000013    0.00000434

     Total force =     0.004279     Total SCF correction =     0.000178

     Computing stress (Cartesian axis) and pressure

     Non-local corr. energy    =      52.24497063 Ry

          total   stress  (Ry/bohr**3)                   (kbar)     P=        3.23
   0.00001647  -0.00000000   0.00000000            2.42       -0.00        0.00
   0.00000000   0.00001647   0.00000000            0.00        2.42        0.00
   0.00000000   0.00000000   0.00003295            0.00        0.00        4.85

     kinetic stress (kbar)  18339.31      0.00      0.00
                                0.00  18339.31      0.00
                                0.00      0.00  18335.32

     local   stress (kbar)   5365.78     -0.07      0.00
                               -0.07   5365.69     -0.00
                                0.00     -0.00   3742.09

     nonloc. stress (kbar)    102.83      0.00      0.00
                                0.00    102.83     -0.00
                                0.00      0.00    113.50

     hartree stress (kbar)  19620.40     -0.00      0.00
                               -0.00  19620.40     -0.00
                                0.00     -0.00  20360.71

     exc-cor stress (kbar)   5229.78      0.00     -0.00
                                0.00   5229.78      0.00
                               -0.00      0.00   5230.09

     corecor stress (kbar) -14103.96     -0.00     -0.00
                               -0.00 -14103.96      0.00
                               -0.00      0.00 -14103.46

     ewald   stress (kbar) -34713.62      0.09     -0.00
                                0.09 -34713.50      0.00
                               -0.00      0.00 -33834.44

     hubbard stress (kbar)      0.00      0.00      0.00
                                0.00      0.00      0.00
                                0.00      0.00      0.00

     DFT-D   stress (kbar)      0.00      0.00      0.00
                                0.00      0.00      0.00
                                0.00      0.00      0.00

     XDM     stress (kbar)      0.00      0.00      0.00
                                0.00      0.00      0.00
                                0.00      0.00      0.00

     dft-nl  stress (kbar)    161.89     -0.00     -0.00
                               -0.00    161.89     -0.00
                               -0.00     -0.00    161.04

     TS-vdW  stress (kbar)      0.00      0.00      0.00
                                0.00      0.00      0.00
                                0.00      0.00      0.00

     MDB     stress (kbar)      0.00      0.00      0.00
                                0.00      0.00      0.00
                                0.00      0.00      0.00

     3D-RISM stress (kbar)      0.00      0.00      0.00
                                0.00      0.00      0.00
                                0.00      0.00      0.00

     Energy error            =      6.4E-05 Ry
     Gradient error          =      9.1E-04 Ry/Bohr

     bfgs converged in   7 scf cycles and   6 bfgs steps
     (criteria: energy <  1.0E-04 Ry, force <  1.0E-03 Ry/Bohr)

     End of BFGS Geometry Optimization

     Final energy             =  -29950.7199960829 Ry

     File ./GaN.bfgs deleted, as requested
Begin final coordinates

ATOMIC_POSITIONS (angstrom)
Ga            1.6222756606        0.9366198184        2.6425875978
Ga            1.6222756606        0.9366198184        7.9424752014
Ga            1.6222756606        0.9366198184       13.2109170967
Ga            0.0010127638        3.7547959360        2.6365302288
Ga            0.0021598546        3.7518447146        7.9279211133
Ga           -0.0002320453        3.7473670895       13.2155974021
Ga           -1.6214012759        6.5568456742        2.6375258502
Ga           -1.6209694028        6.5570950162        7.9305095621
Ga           -1.6217902685        6.5566210892       13.2160339678
Ga           -3.2368405119        9.3629223170        2.6365302288
Ga           -3.2388227992        9.3653913375        7.9279211133
Ga           -3.2438964863        9.3655587039       13.2155974021
Ga            4.8735192191        0.9315866146        2.6365302288
Ga            4.8703898410        0.9320688155        7.9279211133
Ga            4.8677080539        0.9363790741       13.2155974021
Ga            3.2435385574        3.7547959360        2.6365302288
Ga            3.2423914666        3.7518447146        7.9279211133
Ga            3.2447833665        3.7473670895       13.2155974021
Ga            1.6222756606        6.5585335933        2.6384757469
Ga            1.6222756606        6.5595676389        7.9307083643
Ga            1.6222756606        6.5570894367       13.2159644667
Ga            0.0018989733        9.3651083432        2.6384757469
Ga            0.0027944830        9.3645913204        7.9307083643
Ga            0.0006482969        9.3658304216       13.2159644667
Ga            8.1113724947        0.9356135193        2.6375258502
Ga            8.1113724947        0.9351148352        7.9305095621
Ga            8.1113724947        0.9360626892       13.2160339678
Ga            6.4896819421        3.7468181454        2.6384050593
Ga            6.4896646373        3.7468081545        7.9323553484
Ga            6.4894084241        3.7466602297       13.2160375444
Ga            4.8659525971        6.5568456742        2.6375258502
Ga            4.8655207240        6.5570950162        7.9305095621
Ga            4.8663415897        6.5566210892       13.2160339678
Ga            3.2426523479        9.3651083432        2.6384757469
Ga            3.2417568382        9.3645913204        7.9307083643
Ga            3.2439030243        9.3658304216       13.2159644667
Ga           11.3492257704        0.9315866146        2.6365302288
Ga           11.3523551485        0.9320688155        7.9279211133
Ga           11.3550369356        0.9363790741       13.2155974021
Ga            9.7330630474        3.7468181454        2.6384050593
Ga            9.7330803522        3.7468081545        7.9323553484
Ga            9.7333365654        3.7466602297       13.2160375444
Ga            8.1113724947        6.5556685768        2.6384050593
Ga            8.1113724947        6.5556885586        7.9323553484
Ga            8.1113724947        6.5559844082       13.2160375444
Ga            6.4813918331        9.3629223170        2.6365302288
Ga            6.4833741204        9.3653913375        7.9279211133
Ga            6.4884478075        9.3655587039       13.2155974021
Ga            0.0165184517        1.8637043796        5.2756555609
Ga           -0.0012907568        1.8739865309       10.5744198455
Ga            0.0019344035        1.8721244837       15.8528143708
Ga           -1.6269913532        4.6819130324        5.2883677780
Ga           -1.6230414645        4.6832112029       10.5730199238
Ga           -1.6239803612        4.6835411500       15.8586851122
Ga           -3.2479392065        7.4894770708        5.2883677780
Ga           -3.2448400135        7.4922486894       10.5730199238
Ga           -3.2450237193        7.4912706075       15.8586851122
Ga           -4.8668245904       10.3219026396        5.2756555609
Ga           -4.8668245904       10.3013383369       10.5744198455
Ga           -4.8668245904       10.3050624312       15.8528143708
[...]
N             1.6222722437       10.3027826511        1.9867613869
N             1.6222722437       10.3028279372        7.2752741351
N             1.6222722437       10.3028629823       12.5638621675
N             9.7342215386        1.8737494243        1.9872518094
N             9.7345360788        1.8735000744        7.2755812323
N             9.7339761211        1.8730375774       12.5640366783
N             8.1113690779        4.6831037996        1.9874020205
N             8.1113690779        4.6831037996        7.2750783505
N             8.1113690779        4.6831037996       12.5639260155
N             6.4898230510        7.4932124449        1.9872518094
N             6.4897643778        7.4936095197        7.2755812323
N             6.4890838648        7.4933558305       12.5640366783
N             4.8653657961       10.3019865392        1.9854573116
N             4.8642500215       10.3013423464        7.2752732898
N             4.8671620320       10.3030235965       12.5644037776
End final coordinates

     Writing all to output data dir ./GaN.save/

     General routines

     Parallel routines

     PAW routines

   This run was terminated on:   6:18: 6   7Mar2024

   JOB DONE.