     Program PWSCF v.7.1 starts on 27Mar2024 at  9:49:31

     Reading input from espresso.pwi
Warning: card &CELL ignored
Warning: card    CELL_DYNAMICS    = 'BFGS' ignored
Warning: card / ignored

     Current dimensions of program PWSCF are:
     Max number of different atomic species (ntypx) = 10
     Max number of k-points (npk) =  40000
     Max angular momentum in pseudopotentials (lmaxx) =  4
     file Ga.pbe-dn-kjpaw_psl.1.0.0.UPF: wavefunction(s)  4S renormalized
     file N.pbe-n-kjpaw_psl.1.0.0.UPF: wavefunction(s)  2S renormalized

     IMPORTANT: XC functional enforced from input :
     Exchange-correlation= BEEF-VDW
                           (   1   4  43  14   2   0   0)
     Any further DFT definition will be discarded
     Please, verify this is what you really want

     K-points division:     npool     =       3
     R & G space division:  proc/nbgrp/npool/nimage =      60
     Subspace diagonalization in iterative solution of the eigenvalue problem:
     a serial algorithm will be used

     Using Slab Decomposition

     bravais-lattice index     =            4
     lattice parameter (alat)  =      30.6565  a.u.
     unit-cell volume          =   24400.9461 (a.u.)^3
     number of atoms/cell      =          300
     number of atomic types    =            2
     number of electrons       =      2693.00
     number of Kohn-Sham states=         1616
     kinetic-energy cutoff     =      70.0000  Ry
     charge density cutoff     =     350.0000  Ry
     scf convergence threshold =      1.0E-07
     mixing beta               =       0.7000
     number of iterations used =            8  plain     mixing
     energy convergence thresh.=      1.0E-04
     force convergence thresh. =      1.0E-03
     Exchange-correlation= BEEF-VDW
                           (   1   4  43  14   2   0   0)
     nstep                     =           50

     celldm(1)=  30.656540  celldm(2)=   0.000000  celldm(3)=   0.977927
     celldm(4)=   0.000000  celldm(5)=   0.000000  celldm(6)=   0.000000

     crystal axes: (cart. coord. in units of alat)
               a(1) = (   1.000000   0.000000   0.000000 )
               a(2) = (  -0.500000   0.866025   0.000000 )
               a(3) = (   0.000000   0.000000   0.977927 )

     reciprocal axes: (cart. coord. in units 2 pi/alat)
               b(1) = (  1.000000  0.577350 -0.000000 )
               b(2) = (  0.000000  1.154701  0.000000 )
               b(3) = (  0.000000 -0.000000  1.022571 )

     PseudoPot. # 1 for Ga read from file:
     /trace/group/acmegroup/atimmins/packages/espresso/pseudo/psl_1.0.0/pslibrary.1.0.0/pbe/PSEUDOPOTENTIALS/Ga.pbe-dn-kjpaw_psl.1.0.0.UPF
     MD5 check sum: cd2a01e492f15b435d17032472d8505c
     Pseudo is Projector augmented-wave + core cor, Zval = 13.0
     Generated using 'atomic' code by A. Dal Corso  v.7.1
     Shape of augmentation charge: PSQ
     Using radial grid of 1205 points,  6 beta functions with:
                l(1) =   0
                l(2) =   0
                l(3) =   1
                l(4) =   1
                l(5) =   2
                l(6) =   2
     Q(r) pseudized with 0 coefficients

     PseudoPot. # 2 for N  read from file:
     /trace/group/acmegroup/atimmins/packages/espresso/pseudo/psl_1.0.0/pslibrary.1.0.0/pbe/PSEUDOPOTENTIALS/N.pbe-n-kjpaw_psl.1.0.0.UPF
     MD5 check sum: f77f775694dac7e2c3fe1c82443d1a16
     Pseudo is Projector augmented-wave + core cor, Zval =  5.0
     Generated using 'atomic' code by A. Dal Corso  v.7.1
     Shape of augmentation charge: PSQ
     Using radial grid of 1085 points,  4 beta functions with:
                l(1) =   0
                l(2) =   0
                l(3) =   1
                l(4) =   1
     Q(r) pseudized with 0 coefficients

     atomic species   valence    mass     pseudopotential
        Ga            13.00    69.72300     Ga( 1.00)
        N              5.00    14.00700     N ( 1.00)

      2 Sym. Ops. (no inversion) found

                                    s                        frac. trans.

      isym =  1     identity

 cryst.   s( 1) = (     1          0          0      )
                  (     0          1          0      )
                  (     0          0          1      )

 cart.    s( 1) = (  1.0000000  0.0000000  0.0000000 )
                  (  0.0000000  1.0000000  0.0000000 )
                  (  0.0000000  0.0000000  1.0000000 )

      isym =  2     inv. 180 deg rotation - cryst. axis [0,1,0]

 cryst.   s( 2) = (     1          1          0      )
                  (     0         -1          0      )
                  (     0          0          1      )

 cart.    s( 2) = (  0.5000000  0.8660254  0.0000000 )
                  (  0.8660254 -0.5000000  0.0000000 )
                  (  0.0000000  0.0000000  1.0000000 )

     point group C_s (m)
     there are  2 classes
     the character table:

       E     s
A'     1.00  1.00
A''    1.00 -1.00

     the symmetry operations in each class and the name of the first element:

     E        1
          identity
     s        2
          inv. 180 deg rotation - cryst. axis [0,1,0]

   Cartesian axes

     site n.     atom                  positions (alat units)
         1           Ga  tau(   1) = (   0.1000001   0.0577350   0.4886906  )
         2           Ga  tau(   2) = (   0.1000001   0.0577350   0.8146665  )
         3           Ga  tau(   3) = (   0.0000001   0.2309401   0.1627148  )
         4           Ga  tau(   4) = (   0.0000001   0.2309401   0.4886906  )
         5           Ga  tau(   5) = (   0.0000001   0.2309401   0.8146665  )
         6           Ga  tau(   6) = (  -0.0999999   0.4041451   0.1627148  )
         7           Ga  tau(   7) = (  -0.0999999   0.4041451   0.4886906  )
         8           Ga  tau(   8) = (  -0.0999999   0.4041451   0.8146665  )
         9           Ga  tau(   9) = (  -0.1999999   0.5773502   0.1627148  )
        10           Ga  tau(  10) = (  -0.1999999   0.5773502   0.4886906  )
        11           Ga  tau(  11) = (  -0.1999999   0.5773502   0.8146665  )
        12           Ga  tau(  12) = (  -0.2999999   0.7505553   0.1627148  )
        13           Ga  tau(  13) = (  -0.2999999   0.7505553   0.4886906  )
        14           Ga  tau(  14) = (  -0.2999999   0.7505553   0.8146665  )
        15           Ga  tau(  15) = (   0.3000001   0.0577350   0.1627148  )
        16           Ga  tau(  16) = (   0.3000001   0.0577350   0.4886906  )
        17           Ga  tau(  17) = (   0.3000001   0.0577350   0.8146665  )
        18           Ga  tau(  18) = (   0.2000001   0.2309401   0.1627148  )
        19           Ga  tau(  19) = (   0.2000001   0.2309401   0.4886906  )
        20           Ga  tau(  20) = (   0.2000001   0.2309401   0.8146665  )
        21           Ga  tau(  21) = (   0.1000001   0.4041451   0.1627148  )
        22           Ga  tau(  22) = (   0.1000001   0.4041451   0.4886906  )
        23           Ga  tau(  23) = (   0.1000001   0.4041451   0.8146665  )
        24           Ga  tau(  24) = (   0.0000001   0.5773502   0.1627148  )
        25           Ga  tau(  25) = (   0.0000001   0.5773502   0.4886906  )
        26           Ga  tau(  26) = (   0.0000001   0.5773502   0.8146665  )
        27           Ga  tau(  27) = (  -0.0999999   0.7505553   0.1627148  )
        28           Ga  tau(  28) = (  -0.0999999   0.7505553   0.4886906  )
        29           Ga  tau(  29) = (  -0.0999999   0.7505553   0.8146665  )
        30           Ga  tau(  30) = (   0.5000001   0.0577350   0.1627148  )
        31           Ga  tau(  31) = (   0.5000001   0.0577350   0.4886906  )
        32           Ga  tau(  32) = (   0.5000001   0.0577350   0.8146665  )
        33           Ga  tau(  33) = (   0.4000001   0.2309401   0.1627148  )
        34           Ga  tau(  34) = (   0.4000001   0.2309401   0.4886906  )
        35           Ga  tau(  35) = (   0.4000001   0.2309401   0.8146665  )
        36           Ga  tau(  36) = (   0.3000001   0.4041451   0.1627148  )
        37           Ga  tau(  37) = (   0.3000001   0.4041451   0.4886906  )
        38           Ga  tau(  38) = (   0.3000001   0.4041451   0.8146665  )
        39           Ga  tau(  39) = (   0.2000001   0.5773502   0.1627148  )
        40           Ga  tau(  40) = (   0.2000001   0.5773502   0.4886906  )
        41           Ga  tau(  41) = (   0.2000001   0.5773502   0.8146665  )
        42           Ga  tau(  42) = (   0.1000001   0.7505553   0.1627148  )
        43           Ga  tau(  43) = (   0.1000001   0.7505553   0.4886906  )
        44           Ga  tau(  44) = (   0.1000001   0.7505553   0.8146665  )
        45           Ga  tau(  45) = (   0.7000001   0.0577350   0.1627148  )
        46           Ga  tau(  46) = (   0.7000001   0.0577350   0.4886906  )
        47           Ga  tau(  47) = (   0.7000001   0.0577350   0.8146665  )
        48           Ga  tau(  48) = (   0.6000001   0.2309401   0.1627148  )
        49           Ga  tau(  49) = (   0.6000001   0.2309401   0.4886906  )
        50           Ga  tau(  50) = (   0.6000001   0.2309401   0.8146665  )
        51           Ga  tau(  51) = (   0.5000001   0.4041451   0.1627148  )
        52           Ga  tau(  52) = (   0.5000001   0.4041451   0.4886906  )
        53           Ga  tau(  53) = (   0.5000001   0.4041451   0.8146665  )
        54           Ga  tau(  54) = (   0.4000001   0.5773502   0.1627148  )
        55           Ga  tau(  55) = (   0.4000001   0.5773502   0.4886906  )
        56           Ga  tau(  56) = (   0.4000001   0.5773502   0.8146665  )
        57           Ga  tau(  57) = (   0.3000001   0.7505553   0.1627148  )
        58           Ga  tau(  58) = (   0.3000001   0.7505553   0.4886906  )
        59           Ga  tau(  59) = (   0.3000001   0.7505553   0.8146665  )
        60           Ga  tau(  60) = (   0.9000001   0.0577350   0.1627148  )
[...]
       286           N   tau( 286) = (   0.7999999   0.1154701   0.4484898  )
       287           N   tau( 287) = (   0.7999999   0.1154701   0.7744656  )
       288           N   tau( 288) = (   0.6999999   0.2886752   0.1225140  )
       289           N   tau( 289) = (   0.6999999   0.2886752   0.4484898  )
       290           N   tau( 290) = (   0.6999999   0.2886752   0.7744656  )
       291           N   tau( 291) = (   0.5999999   0.4618803   0.1225140  )
       292           N   tau( 292) = (   0.5999999   0.4618803   0.4484898  )
       293           N   tau( 293) = (   0.5999999   0.4618803   0.7744656  )
       294           N   tau( 294) = (   0.4999999   0.6350854   0.1225140  )
       295           N   tau( 295) = (   0.4999999   0.6350854   0.4484898  )
       296           N   tau( 296) = (   0.4999999   0.6350854   0.7744656  )
       297           N   tau( 297) = (   0.3999999   0.8082905   0.1225140  )
       298           N   tau( 298) = (   0.3999999   0.8082905   0.4484898  )
       299           N   tau( 299) = (   0.3999999   0.8082905   0.7744656  )
       300           N   tau( 300) = (   0.1000001   0.0577350   0.1627148  )

   Crystallographic axes

     site n.     atom                  positions (cryst. coord.)
[...]
     atom   55 type  1   force =     0.00000000    0.00000000    0.00000000
     atom   56 type  1   force =     0.00000000    0.00000000    0.00000000
     atom   57 type  1   force =     0.00000000    0.00000000    0.00000000
     atom   58 type  1   force =     0.00000000    0.00000000    0.00000000
     atom   59 type  1   force =     0.00000000    0.00000000    0.00000000
     atom   60 type  1   force =     0.00000000    0.00000000    0.00000000
[...]
     atom  286 type  2   force =     0.00000000    0.00000000    0.00000000
     atom  287 type  2   force =     0.00000000    0.00000000    0.00000000
     atom  288 type  2   force =     0.00000000    0.00000000    0.00000000
     atom  289 type  2   force =     0.00000000    0.00000000    0.00000000
     atom  290 type  2   force =     0.00000000    0.00000000    0.00000000
     atom  291 type  2   force =     0.00000000    0.00000000    0.00000000
     atom  292 type  2   force =     0.00000000    0.00000000    0.00000000
     atom  293 type  2   force =     0.00000000    0.00000000    0.00000000
     atom  294 type  2   force =     0.00000000    0.00000000    0.00000000
     atom  295 type  2   force =     0.00000000    0.00000000    0.00000000
     atom  296 type  2   force =     0.00000000    0.00000000    0.00000000
     atom  297 type  2   force =     0.00000000    0.00000000    0.00000000
     atom  298 type  2   force =     0.00000000    0.00000000    0.00000000
     atom  299 type  2   force =     0.00000000    0.00000000    0.00000000
     atom  300 type  2   force =     0.00000000    0.00000000    0.00000000
     The SCF correction term to forces
     atom    1 type  1   force =     0.00000045    0.00000026    0.00000726
     atom    2 type  1   force =    -0.00000127   -0.00000073   -0.00000711
     atom    3 type  1   force =     0.00000291    0.00001490    0.00000549
     atom    4 type  1   force =     0.00000015    0.00000334   -0.00000784
     atom    5 type  1   force =    -0.00000524    0.00000654    0.00000068
     atom    6 type  1   force =    -0.00000027    0.00000278    0.00000304
     atom    7 type  1   force =    -0.00000023    0.00000011   -0.00000373
     atom    8 type  1   force =    -0.00000327    0.00000448    0.00000184
     atom    9 type  1   force =     0.00000227   -0.00000162    0.00000304
     atom   10 type  1   force =    -0.00000002   -0.00000026   -0.00000373
     atom   11 type  1   force =     0.00000224   -0.00000507    0.00000184
     atom   12 type  1   force =     0.00001435   -0.00000493    0.00000549
     atom   13 type  1   force =     0.00000297   -0.00000154   -0.00000784
     atom   14 type  1   force =     0.00000304   -0.00000781    0.00000068
     atom   15 type  1   force =     0.00000539   -0.00000545    0.00000590
     atom   16 type  1   force =     0.00000412   -0.00000006   -0.00000785
     atom   17 type  1   force =     0.00000976    0.00000434    0.00000146
     atom   18 type  1   force =    -0.00000203    0.00000739    0.00000590
     atom   19 type  1   force =     0.00000200    0.00000360   -0.00000785
     atom   20 type  1   force =     0.00000864    0.00000628    0.00000146
     atom   21 type  1   force =     0.00000134    0.00000905    0.00000257
     atom   22 type  1   force =     0.00000116    0.00000058   -0.00000714
     atom   23 type  1   force =     0.00000184    0.00000889    0.00000168
     atom   24 type  1   force =     0.00000177    0.00000102    0.00000267
     atom   25 type  1   force =     0.00000010    0.00000006    0.00000256
     atom   26 type  1   force =     0.00000236    0.00000136    0.00000357
     atom   27 type  1   force =     0.00000850   -0.00000336    0.00000257
     atom   28 type  1   force =     0.00000108    0.00000072   -0.00000714
     atom   29 type  1   force =     0.00000862   -0.00000285    0.00000168
     atom   30 type  1   force =     0.00000070    0.00000113    0.00000082
     atom   31 type  1   force =     0.00000043    0.00000123   -0.00000331
     atom   32 type  1   force =     0.00000488    0.00000223    0.00000261
     atom   33 type  1   force =     0.00000182    0.00000105    0.00000005
     atom   34 type  1   force =     0.00000209    0.00000120   -0.00000494
     atom   35 type  1   force =     0.00000848    0.00000490    0.00000260
     atom   36 type  1   force =     0.00000133    0.00000004    0.00000082
     atom   37 type  1   force =     0.00000128   -0.00000024   -0.00000331
     atom   38 type  1   force =     0.00000437    0.00000311    0.00000261
     atom   39 type  1   force =     0.00000037   -0.00000003    0.00000171
     atom   40 type  1   force =     0.00000155   -0.00000059    0.00000229
     atom   41 type  1   force =    -0.00000090    0.00000017    0.00000349
     atom   42 type  1   force =     0.00000016    0.00000033    0.00000171
     atom   43 type  1   force =     0.00000027    0.00000163    0.00000229
     atom   44 type  1   force =    -0.00000030   -0.00000087    0.00000349
     atom   45 type  1   force =    -0.00000451   -0.00000026    0.00000191
     atom   46 type  1   force =    -0.00000120    0.00000033   -0.00000387
     atom   47 type  1   force =    -0.00000683    0.00000118    0.00000228
     atom   48 type  1   force =    -0.00000185    0.00000090    0.00000122
     atom   49 type  1   force =    -0.00000066    0.00000052    0.00000219
     atom   50 type  1   force =    -0.00000182    0.00000121    0.00000286
     atom   51 type  1   force =    -0.00000014   -0.00000205    0.00000122
     atom   52 type  1   force =     0.00000012   -0.00000083    0.00000219
     atom   53 type  1   force =     0.00000014   -0.00000218    0.00000286
     atom   54 type  1   force =    -0.00000248   -0.00000378    0.00000191
     atom   55 type  1   force =    -0.00000032   -0.00000121   -0.00000387
     atom   56 type  1   force =    -0.00000239   -0.00000650    0.00000228
     atom   57 type  1   force =    -0.00000504   -0.00000291    0.00000382
     atom   58 type  1   force =    -0.00000056   -0.00000032   -0.00000737
     atom   59 type  1   force =    -0.00000829   -0.00000479    0.00000181
     atom   60 type  1   force =    -0.00000493   -0.00000449    0.00000547
[...]
     atom  286 type  2   force =    -0.00000096   -0.00000045   -0.00000137
     atom  287 type  2   force =    -0.00000394    0.00000108    0.00000020
     atom  288 type  2   force =    -0.00000173    0.00000023    0.00000073
     atom  289 type  2   force =    -0.00000082    0.00000008   -0.00000105
     atom  290 type  2   force =    -0.00000204    0.00000062    0.00000090
     atom  291 type  2   force =    -0.00000067   -0.00000161    0.00000073
     atom  292 type  2   force =    -0.00000035   -0.00000075   -0.00000105
     atom  293 type  2   force =    -0.00000048   -0.00000208    0.00000090
     atom  294 type  2   force =    -0.00000066   -0.00000211    0.00000131
     atom  295 type  2   force =    -0.00000087   -0.00000061   -0.00000137
     atom  296 type  2   force =    -0.00000103   -0.00000396    0.00000020
     atom  297 type  2   force =    -0.00000164   -0.00000094    0.00000180
     atom  298 type  2   force =    -0.00000084   -0.00000049   -0.00000264
     atom  299 type  2   force =    -0.00000407   -0.00000235   -0.00000051
     atom  300 type  2   force =     0.00000069    0.00000040    0.00000240

     Total force =     0.002377     Total SCF correction =     0.000099

     Computing stress (Cartesian axis) and pressure

[...]

          total   stress  (Ry/bohr**3)                   (kbar)     P=        7.53
   0.00002465  -0.00000008  -0.00000004            3.63       -0.01       -0.01
  -0.00000008   0.00002474  -0.00000003           -0.01        3.64       -0.00
  -0.00000004  -0.00000003   0.00010419           -0.01       -0.00       15.33

     kinetic stress (kbar)  18400.14     -0.02     -0.01
                               -0.02  18400.17     -0.00
                               -0.01     -0.00  18431.78

     local   stress (kbar)   5204.28     -1.13      0.60
                               -1.13   5205.41      0.35
                                0.60      0.35   3839.71

     nonloc. stress (kbar)     81.56     -0.01      0.01
                               -0.01     81.57      0.01
                                0.01      0.01     88.04

     hartree stress (kbar)  19557.46      0.41     -0.19
                                0.41  19556.99     -0.11
                               -0.19     -0.11  20195.74

     exc-cor stress (kbar)   5169.84      0.00     -0.00
                                0.00   5169.84     -0.00
                               -0.00     -0.00   5169.52

     corecor stress (kbar) -14024.68     -0.00      0.00
                               -0.00 -14024.68      0.00
                                0.00      0.00 -14024.66

     ewald   stress (kbar) -34546.13      0.76     -0.42
                                0.76 -34546.77     -0.24
                               -0.42     -0.24 -33845.31

     hubbard stress (kbar)      0.00      0.00      0.00
                                0.00      0.00      0.00
                                0.00      0.00      0.00

     DFT-D   stress (kbar)      0.00      0.00      0.00
                                0.00      0.00      0.00
                                0.00      0.00      0.00

     XDM     stress (kbar)      0.00      0.00      0.00
                                0.00      0.00      0.00
                                0.00      0.00      0.00

     dft-nl  stress (kbar)    161.12     -0.00      0.00
                               -0.00    161.12      0.00
                                0.00      0.00    160.50

     TS-vdW  stress (kbar)      0.00      0.00      0.00
                                0.00      0.00      0.00
                                0.00      0.00      0.00

     MDB     stress (kbar)      0.00      0.00      0.00
                                0.00      0.00      0.00
                                0.00      0.00      0.00

     3D-RISM stress (kbar)      0.00      0.00      0.00
                                0.00      0.00      0.00
                                0.00      0.00      0.00

     Energy error            =      1.7E-05 Ry
     Gradient error          =      1.1E-03 Ry/Bohr

     number of scf cycles    =   6
     number of bfgs steps    =   5

     energy             old  =  -46587.7763748978 Ry
     energy             new  =  -46587.7763921628 Ry

     CASE: energy            _new < energy            _old

     new trust radius        =       0.0058124024 bohr
     new conv_thr            =       0.0000000010 Ry

ATOMIC_POSITIONS (angstrom)
Ga            1.6213841542        0.9361051070        7.8334717416
Ga            1.6211797333        0.9359870845       13.1215614643
Ga            0.0753400600        3.6763913394        2.6595880481
Ga           -0.0093107805        3.7576915637        7.9527077757
Ga           -0.0012288795        3.7432692150       13.1987232489
Ga           -1.6084582852        6.5338792287        2.6373863115
Ga           -1.6254699849        6.5579381529        7.9245897552
Ga           -1.6232544042        6.5551970329       13.2227831111
Ga           -3.2570935142        9.3893992086        2.6373863115
Ga           -3.2447637245        9.3626371824        7.9245897552
Ga           -3.2460298137        9.3659264915       13.2227831111
Ga           -4.8898514446       12.2763552951        2.6595880481
Ga           -4.8617688054       12.1623954046        7.9527077757
Ga           -4.8702179752       12.1766057105       13.1987232489
Ga            4.7666450587        0.9067984997        2.6596129568
Ga            4.8815918357        0.9390978276        7.9526053544
Ga            4.8640097272        0.9385574739       13.1989327036
Ga            3.1686343401        3.6746342555        2.6596129568
Ga            3.2540797670        3.7580314205        7.9526053544
Ga            3.2448207528        3.7430750447       13.1989327036
Ga            1.6226737744        6.5508467822        2.6457381140
Ga            1.6223877904        6.5563662787        7.9282779487
Ga            1.6224906010        6.5579925108       13.2166130978
Ga           -0.0024241301        9.3648034670        2.6407344724
Ga           -0.0002307274        9.3660698287        7.9270277751
Ga           -0.0006255395        9.3658418838       13.2158060341
Ga           -1.6268331521       12.1791578785        2.6457381140
Ga           -1.6221961199       12.1761504608        7.9282779487
Ga           -1.6207363563       12.1754263814       13.2166130978
Ga            8.0855554629        0.9356286417        2.6373532348
Ga            8.1140068676        0.9378918308        7.9246829885
Ga            8.1105527308        0.9375572476       13.2230582839
Ga            6.4667694557        3.7335896152        2.6436233226
Ga            6.4880782494        3.7458922530        7.9230218548
Ga            6.4908905472        3.7475159338       13.2197436989
Ga            4.8530571776        6.5344799076        2.6373532348
Ga            4.8692428592        6.5579879522        7.9246829885
Ga            4.8672260333        6.5551638737       13.2230582839
Ga            3.2481197241        9.3652075521        2.6408684826
Ga            3.2450054824        9.3660490478        7.9271034772
Ga            3.2454699449        9.3658665345       13.2160873727
Ga            1.6231977449       12.1796549785        2.6408684826
Ga            1.6223693808       12.1765372183        7.9271034772
Ga            1.6224435508       12.1770307112       13.2160873727
Ga           11.3842923331        0.9362478252        2.6371699982
Ga           11.3521875136        0.9376879989        7.9244240840
Ga           11.3557612910        0.9372371049       13.2226072502
Ga            9.7328976588        3.7452392124        2.6405977376
Ga            9.7331268325        3.7458172780        7.9244484118
Ga            9.7329242578        3.7473638023       13.2176644462
Ga            8.1099224043        6.5563148126        2.6405977376
Ga            8.1105376107        6.5562242501        7.9244484118
Ga            8.1117756526        6.5552755530       13.2176644462
Ga            6.5029618412        9.3909602458        2.6371699982
Ga            6.4881566585        9.3624365697        7.9244240840
Ga            6.4895530616        9.3657569987       13.2226072502
Ga            4.8732737533       12.1797889526        2.6451503741
Ga            4.8664686147       12.1758600040        7.9281964178
Ga            4.8652595220       12.1751619340       13.2168341820
Ga           14.7023018664        0.9087358302        2.6587961262
[...]
N            12.9691869718        1.8715914027        7.2716160036
N            12.9735711048        1.8756704085       12.5683360147
N            11.3682350416        4.6757215411        1.9900314134
N            11.3552152021        4.6833244120        7.2732876606
N            11.3548980223        4.6834280163       12.5637199935
N             9.7334088363        7.5073235903        1.9900314134
N             9.7334831959        7.4922466431        7.2732876606
N             9.7334143300        7.4919201552       12.5637199935
N             8.1394120492       10.3786251931        1.9906327864
N             8.1054368661       10.2958537012        7.2716160036
N             8.1111614553       10.2976109689       12.5683360147
N             6.4959774238       13.1166615035        1.9769339165
N             6.4890397190       13.1126560177        7.2853685365
N             6.4857101243       13.1107336753       12.5680029566
N             1.6238360858        0.9375207303        2.4019348097

     Writing config-only to output data dir ./GaN.save/
     NEW-OLD atomic charge density approx. for the potential

     Check: negative core charge=   -0.000003

[...]

     Self-consistent Calculation

[...]

     Threshold (ethr) on eigenvalues was too large:
     Diagonalizing with lowered threshold

     Davidson diagonalization with overlap

[...]

     ethr =  1.29E-08,  avg # of iterations = 13.5

     Non-local corr. energy    =      81.32644113 Ry

     total energy              =  -46587.77638833 Ry
     estimated scf accuracy    <       0.00007967 Ry

     iteration #  3     ecut=    70.00 Ry     beta= 0.70
     Davidson diagonalization with overlap

     max_seconds     =  154800.00
     Calculation stopped in k-point loop, point #     2
     Calculation stopped in scf loop at iteration #     2

     Writing config to output data dir ./GaN.save/

     General routines

     Parallel routines

     PAW routines

   This run was terminated on:   5: 7:28  29Mar2024

   JOB DONE.