     Program PWSCF v.7.1 starts on 18Feb2024 at 21:31:40

     Reading input from espresso.pwi
Warning: card &CELL ignored
Warning: card    CELL_DYNAMICS    = 'BFGS' ignored
Warning: card / ignored

     Current dimensions of program PWSCF are:
     Max number of different atomic species (ntypx) = 10
     Max number of k-points (npk) =  40000
     Max angular momentum in pseudopotentials (lmaxx) =  4
     file Ga.pbe-dn-kjpaw_psl.1.0.0.UPF: wavefunction(s)  4S renormalized
     file N.pbe-n-kjpaw_psl.1.0.0.UPF: wavefunction(s)  2S renormalized

     IMPORTANT: XC functional enforced from input :
     Exchange-correlation= BEEF-VDW
                           (   1   4  43  14   2   0   0)
     Any further DFT definition will be discarded
     Please, verify this is what you really want

     K-points division:     npool     =       4
     R & G space division:  proc/nbgrp/npool/nimage =      32
     Subspace diagonalization in iterative solution of the eigenvalue problem:
     a serial algorithm will be used

     Using Slab Decomposition

     bravais-lattice index     =            4
     lattice parameter (alat)  =      18.3939  a.u.
     unit-cell volume          =    5856.2271 (a.u.)^3
     number of atoms/cell      =           71
     number of atomic types    =            2
     number of electrons       =       636.00
     number of Kohn-Sham states=          382
     kinetic-energy cutoff     =      70.0000  Ry
     charge density cutoff     =     350.0000  Ry
     scf convergence threshold =      1.0E-07
     mixing beta               =       0.7000
     number of iterations used =            8  plain     mixing
     energy convergence thresh.=      1.0E-04
     force convergence thresh. =      1.0E-03
     Exchange-correlation= BEEF-VDW
                           (   1   4  43  14   2   0   0)
     nstep                     =           50

     celldm(1)=  18.393924  celldm(2)=   0.000000  celldm(3)=   1.086586
     celldm(4)=   0.000000  celldm(5)=   0.000000  celldm(6)=   0.000000

     crystal axes: (cart. coord. in units of alat)
               a(1) = (   1.000000   0.000000   0.000000 )
               a(2) = (  -0.500000   0.866025   0.000000 )
               a(3) = (   0.000000   0.000000   1.086586 )

     reciprocal axes: (cart. coord. in units 2 pi/alat)
               b(1) = (  1.000000  0.577350 -0.000000 )
               b(2) = (  0.000000  1.154701  0.000000 )
               b(3) = (  0.000000 -0.000000  0.920314 )

     PseudoPot. # 1 for Ga read from file:
     //group///packages/espresso/pseudo/psl_1.0.0/pslibrary.1.0.0/pbe/PSEUDOPOTENTIALS/Ga.pbe-dn-kjpaw_psl.1.0.0.UPF
     MD5 check sum: cd2a01e492f15b435d17032472d8505c
     Pseudo is Projector augmented-wave + core cor, Zval = 13.0
     Generated using 'atomic' code by A. Dal Corso  v.7.1
     Shape of augmentation charge: PSQ
     Using radial grid of 1205 points,  6 beta functions with:
                l(1) =   0
                l(2) =   0
                l(3) =   1
                l(4) =   1
                l(5) =   2
                l(6) =   2
     Q(r) pseudized with 0 coefficients

     PseudoPot. # 2 for N  read from file:
     //group///packages/espresso/pseudo/psl_1.0.0/pslibrary.1.0.0/pbe/PSEUDOPOTENTIALS/N.pbe-n-kjpaw_psl.1.0.0.UPF
     MD5 check sum: f77f775694dac7e2c3fe1c82443d1a16
     Pseudo is Projector augmented-wave + core cor, Zval =  5.0
     Generated using 'atomic' code by A. Dal Corso  v.7.1
     Shape of augmentation charge: PSQ
     Using radial grid of 1085 points,  4 beta functions with:
                l(1) =   0
                l(2) =   0
                l(3) =   1
                l(4) =   1
     Q(r) pseudized with 0 coefficients

     atomic species   valence    mass     pseudopotential
        Ga            13.00    69.72300     Ga( 1.00)
        N              5.00    14.00700     N ( 1.00)

      6 Sym. Ops. (no inversion) found ( 4 have fractional translation)

                                    s                        frac. trans.

      isym =  1     identity

 cryst.   s( 1) = (     1          0          0      )
                  (     0          1          0      )
                  (     0          0          1      )

 cart.    s( 1) = (  1.0000000  0.0000000  0.0000000 )
                  (  0.0000000  1.0000000  0.0000000 )
                  (  0.0000000  0.0000000  1.0000000 )

      isym =  2     120 deg rotation - cryst. axis [0,0,1]

 cryst.   s( 2) = (     0          1          0      )    f =( -0.3333334 )
                  (    -1         -1          0      )       (  0.0000003 )
                  (     0          0          1      )       (  0.0000000 )

 cart.    s( 2) = ( -0.5000000 -0.8660254  0.0000000 )    f =( -0.3333335 )
                  (  0.8660254 -0.5000000  0.0000000 )       (  0.0000002 )
                  (  0.0000000  0.0000000  1.0000000 )       (  0.0000000 )

      isym =  3     120 deg rotation - cryst. axis [0,0,-1]

[...]

      isym =  4     inv. 180 deg rotation - cart. axis [1,0,0]

[...]

      isym =  5     inv. 180 deg rotation - cryst. axis [0,1,0]

 cryst.   s( 5) = (     1          1          0      )
                  (     0         -1          0      )
                  (     0          0          1      )

 cart.    s( 5) = (  0.5000000  0.8660254  0.0000000 )
                  (  0.8660254 -0.5000000  0.0000000 )
                  (  0.0000000  0.0000000  1.0000000 )

      isym =  6     inv. 180 deg rotation - cryst. axis [1,1,0]

 cryst.   s( 6) = (     0         -1          0      )    f =( -0.3333334 )
                  (    -1          0          0      )       ( -0.3333334 )
                  (     0          0          1      )       (  0.0000000 )

 cart.    s( 6) = (  0.5000000 -0.8660254  0.0000000 )    f =( -0.1666667 )
                  ( -0.8660254 -0.5000000  0.0000000 )       ( -0.2886752 )
                  (  0.0000000  0.0000000  1.0000000 )       (  0.0000000 )

     point group C_3v (3m)
     there are  3 classes
     the character table:

       E     2C3   3s_v
A_1    1.00  1.00  1.00
A_2    1.00  1.00 -1.00
E      2.00 -1.00  0.00

     the symmetry operations in each class and the name of the first element:

     E        1
          identity
     2C3      2    3
          120 deg rotation - cryst. axis [0,0,1]
     3s_v     4    5    6
          inv. 180 deg rotation - cart. axis [1,0,0]

   Cartesian axes

     site n.     atom                  positions (alat units)
         1           Ga  tau(   1) = (   0.1666668   0.0962250   0.8144844  )
         2           Ga  tau(   2) = (   0.0000001   0.3849001   0.2711914  )
         3           Ga  tau(   3) = (   0.0000001   0.3849001   0.8144844  )
         4           Ga  tau(   4) = (  -0.1666665   0.6735752   0.2711914  )
         5           Ga  tau(   5) = (  -0.1666665   0.6735752   0.8144844  )
         6           Ga  tau(   6) = (   0.5000001   0.0962250   0.2711914  )
         7           Ga  tau(   7) = (   0.5000001   0.0962250   0.8144844  )
         8           Ga  tau(   8) = (   0.3333335   0.3849001   0.2711914  )
         9           Ga  tau(   9) = (   0.3333335   0.3849001   0.8144844  )
        10           Ga  tau(  10) = (   0.1666668   0.6735752   0.2711914  )
        11           Ga  tau(  11) = (   0.1666668   0.6735752   0.8144844  )
        12           Ga  tau(  12) = (   0.8333335   0.0962250   0.2711914  )
        13           Ga  tau(  13) = (   0.8333335   0.0962250   0.8144844  )
        14           Ga  tau(  14) = (   0.6666668   0.3849001   0.2711914  )
        15           Ga  tau(  15) = (   0.6666668   0.3849001   0.8144844  )
        16           Ga  tau(  16) = (   0.5000001   0.6735752   0.2711914  )
        17           Ga  tau(  17) = (   0.5000001   0.6735752   0.8144844  )
        18           Ga  tau(  18) = (  -0.0000002   0.1924502   0.5428379  )
        19           Ga  tau(  19) = (  -0.0000002   0.1924502   1.0861309  )
        20           Ga  tau(  20) = (  -0.1666669   0.4811254   0.5428379  )
        21           Ga  tau(  21) = (  -0.1666669   0.4811254   1.0861309  )
        22           Ga  tau(  22) = (  -0.3333335   0.7698005   0.5428379  )
        23           Ga  tau(  23) = (  -0.3333335   0.7698005   1.0861309  )
        24           Ga  tau(  24) = (   0.3333331   0.1924502   0.5428379  )
        25           Ga  tau(  25) = (   0.3333331   0.1924502   1.0861309  )
        26           Ga  tau(  26) = (   0.1666665   0.4811254   0.5428379  )
        27           Ga  tau(  27) = (   0.1666665   0.4811254   1.0861309  )
        28           Ga  tau(  28) = (  -0.0000002   0.7698005   0.5428379  )
        29           Ga  tau(  29) = (  -0.0000002   0.7698005   1.0861309  )
        30           Ga  tau(  30) = (   0.6666665   0.1924502   0.5428379  )
        31           Ga  tau(  31) = (   0.6666665   0.1924502   1.0861309  )
        32           Ga  tau(  32) = (   0.4999998   0.4811254   0.5428379  )
        33           Ga  tau(  33) = (   0.4999998   0.4811254   1.0861309  )
        34           Ga  tau(  34) = (   0.3333331   0.7698005   0.5428379  )
        35           Ga  tau(  35) = (   0.3333331   0.7698005   1.0861309  )
        36           N   tau(  36) = (   0.1666668   0.0962250   0.4758365  )
        37           N   tau(  37) = (   0.1666668   0.0962250   1.0191295  )
        38           N   tau(  38) = (   0.0000001   0.3849001   0.4758365  )
        39           N   tau(  39) = (   0.0000001   0.3849001   1.0191295  )
        40           N   tau(  40) = (  -0.1666665   0.6735752   0.4758365  )
        41           N   tau(  41) = (  -0.1666665   0.6735752   1.0191295  )
        42           N   tau(  42) = (   0.5000001   0.0962250   0.4758365  )
        43           N   tau(  43) = (   0.5000001   0.0962250   1.0191295  )
        44           N   tau(  44) = (   0.3333335   0.3849001   0.4758365  )
        45           N   tau(  45) = (   0.3333335   0.3849001   1.0191295  )
        46           N   tau(  46) = (   0.1666668   0.6735752   0.4758365  )
        47           N   tau(  47) = (   0.1666668   0.6735752   1.0191295  )
        48           N   tau(  48) = (   0.8333335   0.0962250   0.4758365  )
        49           N   tau(  49) = (   0.8333335   0.0962250   1.0191295  )
        50           N   tau(  50) = (   0.6666668   0.3849001   0.4758365  )
        51           N   tau(  51) = (   0.6666668   0.3849001   1.0191295  )
        52           N   tau(  52) = (   0.5000001   0.6735752   0.4758365  )
        53           N   tau(  53) = (   0.5000001   0.6735752   1.0191295  )
        54           N   tau(  54) = (  -0.0000002   0.1924502   0.2041900  )
        55           N   tau(  55) = (  -0.0000002   0.1924502   0.7474830  )
        56           N   tau(  56) = (  -0.1666669   0.4811254   0.2041900  )
        57           N   tau(  57) = (  -0.1666669   0.4811254   0.7474830  )
        58           N   tau(  58) = (  -0.3333335   0.7698005   0.2041900  )
        59           N   tau(  59) = (  -0.3333335   0.7698005   0.7474830  )
        60           N   tau(  60) = (   0.3333331   0.1924502   0.2041900  )
[...]
     atom   33 type  1   force =     0.00000000    0.00000000    0.00000000
     atom   34 type  1   force =     0.00000000    0.00000000    0.00000000
     atom   35 type  1   force =     0.00000000    0.00000000    0.00000000
     atom   36 type  2   force =     0.00000000    0.00000000    0.00000000
     atom   37 type  2   force =     0.00000000    0.00000000    0.00000000
     atom   38 type  2   force =     0.00000000    0.00000000    0.00000000
     atom   39 type  2   force =     0.00000000    0.00000000    0.00000000
     atom   40 type  2   force =     0.00000000    0.00000000    0.00000000
     atom   41 type  2   force =     0.00000000    0.00000000    0.00000000
     atom   42 type  2   force =     0.00000000    0.00000000    0.00000000
     atom   43 type  2   force =     0.00000000    0.00000000    0.00000000
     atom   44 type  2   force =     0.00000000    0.00000000    0.00000000
     atom   45 type  2   force =     0.00000000    0.00000000    0.00000000
     atom   46 type  2   force =     0.00000000    0.00000000    0.00000000
     atom   47 type  2   force =     0.00000000    0.00000000    0.00000000
     atom   48 type  2   force =     0.00000000    0.00000000    0.00000000
     atom   49 type  2   force =     0.00000000    0.00000000    0.00000000
     atom   50 type  2   force =     0.00000000    0.00000000    0.00000000
     atom   51 type  2   force =     0.00000000    0.00000000    0.00000000
     atom   52 type  2   force =     0.00000000    0.00000000    0.00000000
     atom   53 type  2   force =     0.00000000    0.00000000    0.00000000
     atom   54 type  2   force =     0.00000000    0.00000000    0.00000000
     atom   55 type  2   force =     0.00000000    0.00000000    0.00000000
     atom   56 type  2   force =     0.00000000    0.00000000    0.00000000
     atom   57 type  2   force =     0.00000000    0.00000000    0.00000000
     atom   58 type  2   force =     0.00000000    0.00000000    0.00000000
     atom   59 type  2   force =     0.00000000    0.00000000    0.00000000
     atom   60 type  2   force =     0.00000000    0.00000000    0.00000000
     atom   61 type  2   force =     0.00000000    0.00000000    0.00000000
     atom   62 type  2   force =     0.00000000    0.00000000    0.00000000
     atom   63 type  2   force =     0.00000000    0.00000000    0.00000000
     atom   64 type  2   force =     0.00000000    0.00000000    0.00000000
     atom   65 type  2   force =     0.00000000    0.00000000    0.00000000
     atom   66 type  2   force =     0.00000000    0.00000000    0.00000000
     atom   67 type  2   force =     0.00000000    0.00000000    0.00000000
     atom   68 type  2   force =     0.00000000    0.00000000    0.00000000
     atom   69 type  2   force =     0.00000000    0.00000000    0.00000000
     atom   70 type  2   force =     0.00000000    0.00000000    0.00000000
     atom   71 type  2   force =     0.00000000    0.00000000    0.00000000
     The SCF correction term to forces
     atom    1 type  1   force =     0.00000000   -0.00000000   -0.00006720
     atom    2 type  1   force =     0.00000567    0.00016919    0.00008905
     atom    3 type  1   force =     0.00000298   -0.00003358   -0.00002420
     atom    4 type  1   force =     0.00014936   -0.00007969    0.00008905
     atom    5 type  1   force =    -0.00002759    0.00001937   -0.00002420
     atom    6 type  1   force =     0.00014369   -0.00008950    0.00008905
     atom    7 type  1   force =    -0.00003057    0.00001421   -0.00002420
     atom    8 type  1   force =    -0.00000567    0.00016919    0.00008905
     atom    9 type  1   force =    -0.00000298   -0.00003358   -0.00002420
     atom   10 type  1   force =     0.00000000   -0.00000000   -0.00001057
     atom   11 type  1   force =     0.00000000   -0.00000000   -0.00002424
     atom   12 type  1   force =    -0.00014369   -0.00008950    0.00008905
     atom   13 type  1   force =     0.00003057    0.00001421   -0.00002420
     atom   14 type  1   force =     0.00000000   -0.00000000    0.00002114
     atom   15 type  1   force =     0.00000000   -0.00000000   -0.00001164
     atom   16 type  1   force =    -0.00014936   -0.00007969    0.00008905
     atom   17 type  1   force =     0.00002759    0.00001937   -0.00002420
     atom   18 type  1   force =     0.00014207   -0.00008203    0.00014724
     atom   19 type  1   force =    -0.00000744    0.00000430   -0.00030328
     atom   20 type  1   force =     0.00002163    0.00001249    0.00009856
     atom   21 type  1   force =     0.00001233    0.00000712   -0.00012511
     atom   22 type  1   force =    -0.00000000    0.00016406    0.00014724
     atom   23 type  1   force =    -0.00000000   -0.00000859   -0.00030328
     atom   24 type  1   force =    -0.00014208   -0.00008203    0.00014724
     atom   25 type  1   force =     0.00000744    0.00000430   -0.00030328
     atom   26 type  1   force =    -0.00000000   -0.00000413    0.00009368
     atom   27 type  1   force =    -0.00000000    0.00004528   -0.00010536
     atom   28 type  1   force =    -0.00000358    0.00000207    0.00009368
     atom   29 type  1   force =     0.00003921   -0.00002264   -0.00010536
     atom   30 type  1   force =    -0.00000000   -0.00002498    0.00009856
     atom   31 type  1   force =    -0.00000000   -0.00001424   -0.00012511
     atom   32 type  1   force =    -0.00002163    0.00001249    0.00009856
     atom   33 type  1   force =    -0.00001233    0.00000712   -0.00012511
     atom   34 type  1   force =     0.00000357    0.00000207    0.00009368
     atom   35 type  1   force =    -0.00003921   -0.00002264   -0.00010536
     atom   36 type  2   force =    -0.00000000    0.00000000    0.00005333
     atom   37 type  2   force =    -0.00000000    0.00000000   -0.00010216
     atom   38 type  2   force =     0.00000023    0.00000605    0.00006110
     atom   39 type  2   force =    -0.00000087    0.00001378   -0.00005893
     atom   40 type  2   force =     0.00000535   -0.00000282    0.00006110
     atom   41 type  2   force =     0.00001150   -0.00000764   -0.00005893
     atom   42 type  2   force =     0.00000512   -0.00000322    0.00006110
     atom   43 type  2   force =     0.00001236   -0.00000614   -0.00005893
     atom   44 type  2   force =    -0.00000023    0.00000605    0.00006110
     atom   45 type  2   force =     0.00000087    0.00001378   -0.00005893
     atom   46 type  2   force =    -0.00000000    0.00000000    0.00003849
     atom   47 type  2   force =    -0.00000000    0.00000000   -0.00003049
     atom   48 type  2   force =    -0.00000512   -0.00000322    0.00006110
     atom   49 type  2   force =    -0.00001236   -0.00000614   -0.00005893
     atom   50 type  2   force =    -0.00000000    0.00000000    0.00005097
     atom   51 type  2   force =    -0.00000000    0.00000000   -0.00004240
     atom   52 type  2   force =    -0.00000535   -0.00000282    0.00006110
     atom   53 type  2   force =    -0.00001150   -0.00000764   -0.00005893
     atom   54 type  2   force =    -0.00002148    0.00001240    0.00000231
     atom   55 type  2   force =     0.00001377   -0.00000795   -0.00000633
     atom   56 type  2   force =     0.00000663    0.00000383   -0.00000295
     atom   57 type  2   force =     0.00000287    0.00000166    0.00000470
     atom   58 type  2   force =    -0.00000000   -0.00002481    0.00000231
     atom   59 type  2   force =     0.00000000    0.00001590   -0.00000633
     atom   60 type  2   force =     0.00002148    0.00001240    0.00000231
     atom   61 type  2   force =    -0.00001377   -0.00000795   -0.00000633
     atom   62 type  2   force =     0.00000000    0.00003855   -0.00000564
     atom   63 type  2   force =     0.00000000   -0.00000417    0.00000549
     atom   64 type  2   force =     0.00003339   -0.00001928   -0.00000564
     atom   65 type  2   force =    -0.00000361    0.00000208    0.00000549
     atom   66 type  2   force =     0.00000000   -0.00000765   -0.00000295
     atom   67 type  2   force =     0.00000000   -0.00000332    0.00000470
     atom   68 type  2   force =    -0.00000663    0.00000383   -0.00000295
     atom   69 type  2   force =    -0.00000287    0.00000166    0.00000470
     atom   70 type  2   force =    -0.00003339   -0.00001928   -0.00000564
     atom   71 type  2   force =     0.00000361    0.00000208    0.00000549

     Total force =     0.003694     Total SCF correction =     0.000935
     SCF correction compared to forces is large: reduce conv_thr to get better values

     Computing stress (Cartesian axis) and pressure

     Non-local corr. energy    =      19.17515139 Ry

          total   stress  (Ry/bohr**3)                   (kbar)     P=       29.21
   0.00019045   0.00000000   0.00000000           28.02        0.00        0.00
   0.00000000   0.00019045   0.00000000            0.00       28.02        0.00
   0.00000000   0.00000000   0.00021474            0.00        0.00       31.59

     kinetic stress (kbar)  18180.81     -0.00      0.00
                                0.00  18180.81     -0.00
                                0.00     -0.00  18195.81

     local   stress (kbar)   4123.77     -0.07     -0.00
                               -0.07   4123.68      0.00
                               -0.00      0.00   2616.70

     nonloc. stress (kbar)     30.09      0.00      0.00
                                0.00     30.09      0.00
                                0.00      0.00     34.67

     hartree stress (kbar)  19600.85     -0.00     -0.00
                               -0.00  19600.85      0.00
                               -0.00      0.00  20277.71

     exc-cor stress (kbar)   5040.57      0.00      0.00
                                0.00   5040.57      0.00
                                0.00      0.00   5041.25

     corecor stress (kbar) -13735.94     -0.00      0.00
                               -0.00 -13735.94      0.00
                                0.00      0.00 -13735.79

     ewald   stress (kbar) -33370.43      0.09      0.00
                                0.09 -33370.31     -0.00
                                0.00     -0.00 -32556.17

     hubbard stress (kbar)      0.00      0.00      0.00
                                0.00      0.00      0.00
                                0.00      0.00      0.00

     DFT-D   stress (kbar)      0.00      0.00      0.00
                                0.00      0.00      0.00
                                0.00      0.00      0.00

     XDM     stress (kbar)      0.00      0.00      0.00
                                0.00      0.00      0.00
                                0.00      0.00      0.00

     dft-nl  stress (kbar)    158.29     -0.00     -0.00
                               -0.00    158.29     -0.00
                               -0.00     -0.00    157.41

     TS-vdW  stress (kbar)      0.00      0.00      0.00
                                0.00      0.00      0.00
                                0.00      0.00      0.00

     MDB     stress (kbar)      0.00      0.00      0.00
                                0.00      0.00      0.00
                                0.00      0.00      0.00

     3D-RISM stress (kbar)      0.00      0.00      0.00
                                0.00      0.00      0.00
                                0.00      0.00      0.00

     BFGS Geometry Optimization
     Energy error            =      0.0E+00 Ry
     Gradient error          =      9.8E-04 Ry/Bohr

     bfgs converged in   1 scf cycles and   0 bfgs steps
     (criteria: energy <  1.0E-04 Ry, force <  1.0E-03 Ry/Bohr)

     End of BFGS Geometry Optimization

     Final energy             =  -10957.9692488329 Ry
Begin final coordinates

ATOMIC_POSITIONS (angstrom)
Ga            1.6222756606        0.9366198184        7.8990025845
Ga            0.0198731482        3.7259685584        2.6473703258
Ga           -0.0019575672        3.7448910128        7.9279578493
Ga           -1.6301013525        6.5838082248        2.6473703258
Ga           -1.6246293840        6.5554410434        7.9279578493
Ga            4.8391237856        0.9296667313        2.6473703258
Ga            4.8664264696        0.9391114582        7.9279578493
Ga            3.2246781730        3.7259685584        2.6473703258
Ga            3.2465088884        3.7448910128        7.9279578493
Ga            1.6222756606        6.5563425246        2.6402337177
Ga            1.6222756606        6.5563425246        7.9282336487
Ga            8.1390727868        0.9296667313        2.6473703258
Ga            8.1117701028        0.9391114582        7.9279578493
Ga            6.4890982862        3.7464811715        2.6278315034
Ga            6.4890982862        3.7464811715        7.9295768722
Ga            4.8746526737        6.5838082248        2.6473703258
Ga            4.8691807052        6.5554410434        7.9279578493
Ga            0.0178447808        1.8629386231        5.2559899698
Ga            0.0080125928        1.8686152395       10.5961188889
Ga           -1.6214039987        4.6836073498        5.2767926386
Ga           -1.6178690252        4.6856482677       10.5847779262
Ga           -3.2445503819        7.5135727994        5.2559899698
Ga           -3.2445503819        7.5022195666       10.5961188889
Ga            3.2266997067        1.8629386231        5.2559899698
Ga            3.2365318947        1.8686152395       10.5961188889
Ga            1.6222722437        4.6802403551        5.2841773964
Ga            1.6222722437        4.6803351502       10.5714846665
Ga           -0.0024817805        7.4943968749        5.2841773964
Ga           -0.0023996855        7.4943494774       10.5714846665
Ga            6.4890948693        1.8722353461        5.2767926386
Ga            6.4890948693        1.8681535103       10.5847779262
Ga            4.8659484862        4.6836073498        5.2767926386
Ga            4.8624135127        4.6856482677       10.5847779262
Ga            3.2470262680        7.4943968749        5.2841773964
Ga            3.2469441730        7.4943494774       10.5714846665
N             1.6222756606        0.9366198184        4.7940024449
N             1.6222756606        0.9366198184        9.9063933517
N             0.0001192279        3.7521631806        4.6355232670
N             0.0017255343        3.7523568186        9.9116296651
N            -1.6172931044        6.5536035169        4.6355232670
N            -1.6163222558        6.5548978001        9.9116296651
N             4.8716859540        0.9336768170        4.6355232670
N             4.8710504962        0.9321888959        9.9116296651
N             3.2444320933        3.7521631806        4.6355232670
N             3.2428257869        3.7523568186        9.9116296651
N             1.6222756606        6.5563425246        4.6336102702
N             1.6222756606        6.5563425246        9.9191602821
N             8.1065106184        0.9336768170        4.6355232670
N             8.1071460762        0.9321888959        9.9116296651
N             6.4890982862        3.7464811715        4.6251886162
N             6.4890982862        3.7464811715        9.9253242152
N             4.8618444256        6.5536035169        4.6355232670
N             4.8608735770        6.5548978001        9.9116296651
N            -0.1428476855        1.9557144618        1.9343470253
N            -0.0129093890        1.8806945513        7.2809387058
N            -1.6160608128        4.6866922396        1.9957333583
N            -1.6231929745        4.6825744842        7.2713561137
N            -3.2445503819        7.3280211221        1.9343470253
N            -3.2445503819        7.4780609430        7.2809387058
N             3.3873921730        1.9557144618        1.9343470253
N             3.2574538765        1.8806945513        7.2809387058
N             1.6222722437        4.6897371683        1.9874116948
N             1.6222722437        4.6841817015        7.2741452674
N             0.0057427010        7.4896484683        1.9874116948
N             0.0009315256        7.4924262018        7.2741452674
N             6.4890948693        1.8660655664        1.9957333583
N             6.4890948693        1.8743010774        7.2713561137
N             4.8606053003        4.6866922396        1.9957333583
N             4.8677374620        4.6825744842        7.2713561137
N             3.2388017865        7.4896484683        1.9874116948
N             3.2436129619        7.4924262018        7.2741452674
End final coordinates

     Writing all to output data dir ./GaN.save/

     General routines

     Parallel routines

     PAW routines

   This run was terminated on:  21:34:22  18Feb2024

   JOB DONE.