     Program PWSCF v.7.1 starts on 28Mar2024 at  6: 2:41

     Reading input from espresso.pwi
Warning: card &CELL ignored
Warning: card    CELL_DYNAMICS    = 'BFGS' ignored
Warning: card / ignored

     Current dimensions of program PWSCF are:
     Max number of different atomic species (ntypx) = 10
     Max number of k-points (npk) =  40000
     Max angular momentum in pseudopotentials (lmaxx) =  4
     file Ga.pbe-dn-kjpaw_psl.1.0.0.UPF: wavefunction(s)  4S renormalized
     file N.pbe-n-kjpaw_psl.1.0.0.UPF: wavefunction(s)  2S renormalized

     IMPORTANT: XC functional enforced from input :
     Exchange-correlation= BEEF-VDW
                           (   1   4  43  14   2   0   0)
     Any further DFT definition will be discarded
     Please, verify this is what you really want

     R & G space division:  proc/nbgrp/npool/nimage =      27
     Subspace diagonalization in iterative solution of the eigenvalue problem:
     a serial algorithm will be used

     Using Slab Decomposition

     bravais-lattice index     =            4
     lattice parameter (alat)  =      12.2626  a.u.
     unit-cell volume          =    2602.7676 (a.u.)^3
     number of atoms/cell      =           32
     number of atomic types    =            2
     number of electrons       =       294.00
     number of Kohn-Sham states=          176
     kinetic-energy cutoff     =      70.0000  Ry
     charge density cutoff     =     350.0000  Ry
     scf convergence threshold =      1.0E-07
     mixing beta               =       0.7000
     number of iterations used =            8  plain     mixing
     Exchange-correlation= BEEF-VDW
                           (   1   4  43  14   2   0   0)

     celldm(1)=  12.262616  celldm(2)=   0.000000  celldm(3)=   1.629879
     celldm(4)=   0.000000  celldm(5)=   0.000000  celldm(6)=   0.000000

     crystal axes: (cart. coord. in units of alat)
               a(1) = (   1.000000   0.000000   0.000000 )
               a(2) = (  -0.500000   0.866025   0.000000 )
               a(3) = (   0.000000   0.000000   1.629879 )

     reciprocal axes: (cart. coord. in units 2 pi/alat)
               b(1) = (  1.000000  0.577350 -0.000000 )
               b(2) = (  0.000000  1.154701  0.000000 )
               b(3) = (  0.000000 -0.000000  0.613542 )

     PseudoPot. # 1 for Ga read from file:
     /trace/group/acmegroup/atimmins/packages/espresso/pseudo/psl_1.0.0/pslibrary.1.0.0/pbe/PSEUDOPOTENTIALS/Ga.pbe-dn-kjpaw_psl.1.0.0.UPF
     MD5 check sum: cd2a01e492f15b435d17032472d8505c
     Pseudo is Projector augmented-wave + core cor, Zval = 13.0
     Generated using 'atomic' code by A. Dal Corso  v.7.1
     Shape of augmentation charge: PSQ
     Using radial grid of 1205 points,  6 beta functions with:
                l(1) =   0
                l(2) =   0
                l(3) =   1
                l(4) =   1
                l(5) =   2
                l(6) =   2
     Q(r) pseudized with 0 coefficients

     PseudoPot. # 2 for N  read from file:
     /trace/group/acmegroup/atimmins/packages/espresso/pseudo/psl_1.0.0/pslibrary.1.0.0/pbe/PSEUDOPOTENTIALS/N.pbe-n-kjpaw_psl.1.0.0.UPF
     MD5 check sum: f77f775694dac7e2c3fe1c82443d1a16
     Pseudo is Projector augmented-wave + core cor, Zval =  5.0
     Generated using 'atomic' code by A. Dal Corso  v.7.1
     Shape of augmentation charge: PSQ
     Using radial grid of 1085 points,  4 beta functions with:
                l(1) =   0
                l(2) =   0
                l(3) =   1
                l(4) =   1
     Q(r) pseudized with 0 coefficients

     atomic species   valence    mass     pseudopotential
        Ga            13.00    69.72300     Ga( 1.00)
        N              5.00    14.00700     N ( 1.00)

      6 Sym. Ops. (no inversion) found ( 4 have fractional translation)

                                    s                        frac. trans.

      isym =  1     identity

 cryst.   s( 1) = (     1          0          0      )
                  (     0          1          0      )
                  (     0          0          1      )

 cart.    s( 1) = (  1.0000000  0.0000000  0.0000000 )
                  (  0.0000000  1.0000000  0.0000000 )
                  (  0.0000000  0.0000000  1.0000000 )

      isym =  2     120 deg rotation - cryst. axis [0,0,1]

 cryst.   s( 2) = (     0          1          0      )    f =(  0.4999999 )
                  (    -1         -1          0      )       (  0.0000004 )
                  (     0          0          1      )       (  0.0000000 )

 cart.    s( 2) = ( -0.5000000 -0.8660254  0.0000000 )    f =(  0.4999998 )
                  (  0.8660254 -0.5000000  0.0000000 )       (  0.0000003 )
                  (  0.0000000  0.0000000  1.0000000 )       (  0.0000000 )

      isym =  3     120 deg rotation - cryst. axis [0,0,-1]

[...]

      isym =  4     inv. 180 deg rotation - cart. axis [1,0,0]

[...]

      isym =  5     inv. 180 deg rotation - cryst. axis [0,1,0]

 cryst.   s( 5) = (     1          1          0      )
                  (     0         -1          0      )
                  (     0          0          1      )

 cart.    s( 5) = (  0.5000000  0.8660254  0.0000000 )
                  (  0.8660254 -0.5000000  0.0000000 )
                  (  0.0000000  0.0000000  1.0000000 )

      isym =  6     inv. 180 deg rotation - cryst. axis [1,1,0]

 cryst.   s( 6) = (     0         -1          0      )    f =(  0.4999999 )
                  (    -1          0          0      )       (  0.4999999 )
                  (     0          0          1      )       (  0.0000000 )

 cart.    s( 6) = (  0.5000000 -0.8660254  0.0000000 )    f =(  0.2500000 )
                  ( -0.8660254 -0.5000000  0.0000000 )       (  0.4330127 )
                  (  0.0000000  0.0000000  1.0000000 )       (  0.0000000 )

     point group C_3v (3m)
     there are  3 classes
     the character table:

       E     2C3   3s_v
A_1    1.00  1.00  1.00
A_2    1.00  1.00 -1.00
E      2.00 -1.00  0.00

     the symmetry operations in each class and the name of the first element:

     E        1
          identity
     2C3      2    3
          120 deg rotation - cryst. axis [0,0,1]
     3s_v     4    5    6
          inv. 180 deg rotation - cart. axis [1,0,0]

   Cartesian axes

     site n.     atom                  positions (alat units)
         1           Ga  tau(   1) = (   0.2500002   0.1443375   0.4067871  )
         2           Ga  tau(   2) = (   0.2500002   0.1443375   1.2217266  )
         3           Ga  tau(   3) = (   0.0000002   0.5773502   0.4067871  )
         4           Ga  tau(   4) = (   0.0000002   0.5773502   1.2217266  )
         5           Ga  tau(   5) = (   0.7500002   0.1443375   0.4067871  )
         6           Ga  tau(   6) = (   0.7500002   0.1443375   1.2217266  )
         7           Ga  tau(   7) = (   0.5000002   0.5773502   0.4067871  )
         8           Ga  tau(   8) = (   0.5000002   0.5773502   1.2217266  )
         9           Ga  tau(   9) = (  -0.0000003   0.2886754   0.8142568  )
        10           Ga  tau(  10) = (  -0.0000003   0.2886754   1.6291964  )
        11           Ga  tau(  11) = (  -0.2500003   0.7216881   0.8142568  )
        12           Ga  tau(  12) = (  -0.2500003   0.7216881   1.6291964  )
        13           Ga  tau(  13) = (   0.4999997   0.2886754   0.8142568  )
        14           Ga  tau(  14) = (   0.4999997   0.2886754   1.6291964  )
        15           Ga  tau(  15) = (   0.2499997   0.7216881   0.8142568  )
        16           Ga  tau(  16) = (   0.2499997   0.7216881   1.6291964  )
        17           N   tau(  17) = (   0.2500002   0.1443375   1.5286943  )
        18           N   tau(  18) = (   0.0000002   0.5773502   0.7137548  )
        19           N   tau(  19) = (   0.0000002   0.5773502   1.5286943  )
        20           N   tau(  20) = (   0.7500002   0.1443375   0.7137548  )
        21           N   tau(  21) = (   0.7500002   0.1443375   1.5286943  )
        22           N   tau(  22) = (   0.5000002   0.5773502   0.7137548  )
        23           N   tau(  23) = (   0.5000002   0.5773502   1.5286943  )
        24           N   tau(  24) = (  -0.0000003   0.2886754   0.3062850  )
        25           N   tau(  25) = (  -0.0000003   0.2886754   1.1212245  )
        26           N   tau(  26) = (  -0.2500003   0.7216881   0.3062850  )
        27           N   tau(  27) = (  -0.2500003   0.7216881   1.1212245  )
        28           N   tau(  28) = (   0.4999997   0.2886754   0.3062850  )
        29           N   tau(  29) = (   0.4999997   0.2886754   1.1212245  )
        30           N   tau(  30) = (   0.2499997   0.7216881   0.3062850  )
        31           N   tau(  31) = (   0.2499997   0.7216881   1.1212245  )
        32           Ga  tau(  32) = (   0.2500002   0.1443375   0.7137548  )

   Crystallographic axes

     site n.     atom                  positions (cryst. coord.)
         1           Ga  tau(   1) = (  0.3333335  0.1666666  0.2495811  )
         2           Ga  tau(   2) = (  0.3333335  0.1666666  0.7495811  )
         3           Ga  tau(   3) = (  0.3333335  0.6666666  0.2495811  )
         4           Ga  tau(   4) = (  0.3333335  0.6666666  0.7495811  )
         5           Ga  tau(   5) = (  0.8333335  0.1666666  0.2495811  )
         6           Ga  tau(   6) = (  0.8333335  0.1666666  0.7495811  )
         7           Ga  tau(   7) = (  0.8333335  0.6666666  0.2495811  )
         8           Ga  tau(   8) = (  0.8333335  0.6666666  0.7495811  )
         9           Ga  tau(   9) = (  0.1666665  0.3333336  0.4995811  )
        10           Ga  tau(  10) = (  0.1666665  0.3333336  0.9995811  )
        11           Ga  tau(  11) = (  0.1666665  0.8333336  0.4995811  )
        12           Ga  tau(  12) = (  0.1666665  0.8333336  0.9995811  )
        13           Ga  tau(  13) = (  0.6666665  0.3333336  0.4995811  )
        14           Ga  tau(  14) = (  0.6666665  0.3333336  0.9995811  )
        15           Ga  tau(  15) = (  0.6666665  0.8333336  0.4995811  )
        16           Ga  tau(  16) = (  0.6666665  0.8333336  0.9995811  )
        17           N   tau(  17) = (  0.3333335  0.1666666  0.9379189  )
        18           N   tau(  18) = (  0.3333335  0.6666666  0.4379189  )
        19           N   tau(  19) = (  0.3333335  0.6666666  0.9379189  )
        20           N   tau(  20) = (  0.8333335  0.1666666  0.4379189  )
        21           N   tau(  21) = (  0.8333335  0.1666666  0.9379189  )
        22           N   tau(  22) = (  0.8333335  0.6666666  0.4379189  )
        23           N   tau(  23) = (  0.8333335  0.6666666  0.9379189  )
        24           N   tau(  24) = (  0.1666665  0.3333336  0.1879189  )
        25           N   tau(  25) = (  0.1666665  0.3333336  0.6879189  )
        26           N   tau(  26) = (  0.1666665  0.8333336  0.1879189  )
        27           N   tau(  27) = (  0.1666665  0.8333336  0.6879189  )
        28           N   tau(  28) = (  0.6666665  0.3333336  0.1879189  )
        29           N   tau(  29) = (  0.6666665  0.3333336  0.6879189  )
        30           N   tau(  30) = (  0.6666665  0.8333336  0.1879189  )
[...]
     atom    3 type  1   force =    -0.11733032   -0.06751825   -3.00113651
     atom    4 type  1   force =    -0.75704585   -0.43678132    1.10278317
     atom    5 type  1   force =    -0.00009257    0.13566924   -3.00113610
     atom    6 type  1   force =    -0.00007043    0.87431002    1.10278330
     atom    7 type  1   force =     0.11720088   -0.06744294   -3.00113654
     atom    8 type  1   force =     0.75689032   -0.43678299    1.10278304
     atom    9 type  1   force =    -2.63798982    1.52312737    1.08788033
     atom   10 type  1   force =     0.59002776   -0.34052589    0.26508759
     atom   11 type  1   force =     0.00112685   -3.04792640    1.08787431
     atom   12 type  1   force =     0.00108935    0.67954759    0.26510338
     atom   13 type  1   force =     2.64018117    1.52320487    1.08787233
     atom   14 type  1   force =    -0.58784249   -0.34052411    0.26510691
     atom   15 type  1   force =     0.00109241   -0.00050236    2.08467711
     atom   16 type  1   force =     0.00109420   -0.00049711   -1.47214486
     atom   17 type  2   force =    -0.00001152    0.00002243    0.97275796
     atom   18 type  2   force =    -1.24602392   -0.71931549    1.88301651
     atom   19 type  2   force =    -0.63866034   -0.36870185   -0.30995674
     atom   20 type  2   force =     0.00000499    1.43877082    1.88301486
     atom   21 type  2   force =    -0.00001021    0.73747131   -0.30995893
     atom   22 type  2   force =     1.24599336   -0.71936613    1.88301761
     atom   23 type  2   force =     0.63863717   -0.36870063   -0.30995434
     atom   24 type  2   force =     1.11310548   -0.64264151   -1.74609702
     atom   25 type  2   force =    -0.94948619    0.54819653   -0.12760539
     atom   26 type  2   force =     0.00008218    1.28516092   -1.74610675
     atom   27 type  2   force =     0.00008326   -1.09651071   -0.12759863
     atom   28 type  2   force =    -1.11294377   -0.64262862   -1.74611360
     atom   29 type  2   force =     0.94965846    0.54819868   -0.12759697
     atom   30 type  2   force =     0.00007855   -0.00003653   -0.98453710
     atom   31 type  2   force =     0.00008663   -0.00003816    0.97791820
     atom   32 type  1   force =    -0.00007433    0.00018871    1.03161394
     The core correction contribution to forces
     atom    1 type  1   force =    -0.00000605    0.00001389    0.01248307
     atom    2 type  1   force =    -0.00000630    0.00001824    0.00026099
     atom    3 type  1   force =     0.00083146    0.00049378   -0.00223626
     atom    4 type  1   force =     0.00061653    0.00037839    0.00105594
     atom    5 type  1   force =    -0.00000825   -0.00094540   -0.00223619
     atom    6 type  1   force =    -0.00000566   -0.00070151    0.00105594
     atom    7 type  1   force =    -0.00084122    0.00050281   -0.00223624
     atom    8 type  1   force =    -0.00062919    0.00037812    0.00105592
     atom    9 type  1   force =     0.00692733   -0.00399446   -0.00307422
     atom   10 type  1   force =    -0.00112529    0.00065875    0.00004896
     atom   11 type  1   force =     0.00008365    0.00786346   -0.00307477
     atom   12 type  1   force =     0.00008042   -0.00142960    0.00004914
     atom   13 type  1   force =    -0.00676791   -0.00398792   -0.00307469
     atom   14 type  1   force =     0.00128661    0.00065893    0.00004918
     atom   15 type  1   force =     0.00007985   -0.00003721    0.00278427
     atom   16 type  1   force =     0.00008060   -0.00003695    0.00007511
     atom   17 type  2   force =     0.00000021   -0.00000033    0.00030274
     atom   18 type  2   force =     0.00197764    0.00114137   -0.00305830
     atom   19 type  2   force =     0.00116842    0.00067412    0.00051836
     atom   20 type  2   force =     0.00000031   -0.00228365   -0.00305828
     atom   21 type  2   force =     0.00000024   -0.00134919    0.00051834
     atom   22 type  2   force =    -0.00197741    0.00114155   -0.00305834
     atom   23 type  2   force =    -0.00116795    0.00067413    0.00051842
     atom   24 type  2   force =    -0.00221942    0.00128097    0.00064710
     atom   25 type  2   force =     0.00007541   -0.00004357    0.00254870
     atom   26 type  2   force =    -0.00000261   -0.00255935    0.00064711
     atom   27 type  2   force =    -0.00000242    0.00009108    0.00254863
     atom   28 type  2   force =     0.00221459    0.00128237    0.00064720
     atom   29 type  2   force =    -0.00008013   -0.00004350    0.00254863
     atom   30 type  2   force =    -0.00000244    0.00000179   -0.00011031
     atom   31 type  2   force =    -0.00000235    0.00000131   -0.00029542
     atom   32 type  1   force =    -0.00000574    0.00001325    0.00208883
     The Hubbard contrib.    to forces
     atom    1 type  1   force =     0.00000000    0.00000000    0.00000000
     atom    2 type  1   force =     0.00000000    0.00000000    0.00000000
     atom    3 type  1   force =     0.00000000    0.00000000    0.00000000
     atom    4 type  1   force =     0.00000000    0.00000000    0.00000000
     atom    5 type  1   force =     0.00000000    0.00000000    0.00000000
     atom    6 type  1   force =     0.00000000    0.00000000    0.00000000
     atom    7 type  1   force =     0.00000000    0.00000000    0.00000000
     atom    8 type  1   force =     0.00000000    0.00000000    0.00000000
     atom    9 type  1   force =     0.00000000    0.00000000    0.00000000
     atom   10 type  1   force =     0.00000000    0.00000000    0.00000000
     atom   11 type  1   force =     0.00000000    0.00000000    0.00000000
     atom   12 type  1   force =     0.00000000    0.00000000    0.00000000
     atom   13 type  1   force =     0.00000000    0.00000000    0.00000000
     atom   14 type  1   force =     0.00000000    0.00000000    0.00000000
     atom   15 type  1   force =     0.00000000    0.00000000    0.00000000
     atom   16 type  1   force =     0.00000000    0.00000000    0.00000000
     atom   17 type  2   force =     0.00000000    0.00000000    0.00000000
     atom   18 type  2   force =     0.00000000    0.00000000    0.00000000
     atom   19 type  2   force =     0.00000000    0.00000000    0.00000000
     atom   20 type  2   force =     0.00000000    0.00000000    0.00000000
     atom   21 type  2   force =     0.00000000    0.00000000    0.00000000
     atom   22 type  2   force =     0.00000000    0.00000000    0.00000000
     atom   23 type  2   force =     0.00000000    0.00000000    0.00000000
     atom   24 type  2   force =     0.00000000    0.00000000    0.00000000
     atom   25 type  2   force =     0.00000000    0.00000000    0.00000000
     atom   26 type  2   force =     0.00000000    0.00000000    0.00000000
     atom   27 type  2   force =     0.00000000    0.00000000    0.00000000
     atom   28 type  2   force =     0.00000000    0.00000000    0.00000000
     atom   29 type  2   force =     0.00000000    0.00000000    0.00000000
     atom   30 type  2   force =     0.00000000    0.00000000    0.00000000
     atom   31 type  2   force =     0.00000000    0.00000000    0.00000000
     atom   32 type  1   force =     0.00000000    0.00000000    0.00000000
     The SCF correction term to forces
     atom    1 type  1   force =    -0.00000000    0.00000000   -0.00002262
     atom    2 type  1   force =    -0.00000000    0.00000000    0.00000229
     atom    3 type  1   force =     0.00001348    0.00000778   -0.00001774
     atom    4 type  1   force =     0.00000968    0.00000559   -0.00000397
     atom    5 type  1   force =    -0.00000000   -0.00001557   -0.00001774
     atom    6 type  1   force =    -0.00000000   -0.00001118   -0.00000397
     atom    7 type  1   force =    -0.00001348    0.00000778   -0.00001774
     atom    8 type  1   force =    -0.00000968    0.00000559   -0.00000397
     atom    9 type  1   force =     0.00001988   -0.00001147    0.00001047
     atom   10 type  1   force =     0.00000167   -0.00000096    0.00000906
     atom   11 type  1   force =     0.00000000    0.00002294    0.00001047
     atom   12 type  1   force =     0.00000000    0.00000193    0.00000906
     atom   13 type  1   force =    -0.00001987   -0.00001147    0.00001047
     atom   14 type  1   force =    -0.00000167   -0.00000096    0.00000906
     atom   15 type  1   force =     0.00000001   -0.00000000    0.00003045
     atom   16 type  1   force =     0.00000000   -0.00000000    0.00002089
     atom   17 type  2   force =     0.00000000   -0.00000000    0.00000118
     atom   18 type  2   force =    -0.00000233   -0.00000134    0.00000228
     atom   19 type  2   force =    -0.00000185   -0.00000107    0.00000060
     atom   20 type  2   force =     0.00000000    0.00000269    0.00000228
     atom   21 type  2   force =     0.00000000    0.00000213    0.00000060
     atom   22 type  2   force =     0.00000233   -0.00000134    0.00000228
     atom   23 type  2   force =     0.00000185   -0.00000107    0.00000060
     atom   24 type  2   force =    -0.00000030    0.00000017   -0.00001120
     atom   25 type  2   force =    -0.00000035    0.00000020    0.00000144
     atom   26 type  2   force =    -0.00000000   -0.00000035   -0.00001120
     atom   27 type  2   force =    -0.00000000   -0.00000040    0.00000144
     atom   28 type  2   force =     0.00000030    0.00000017   -0.00001120
     atom   29 type  2   force =     0.00000035    0.00000020    0.00000144
     atom   30 type  2   force =     0.00000000   -0.00000000   -0.00001217
     atom   31 type  2   force =     0.00000000   -0.00000000    0.00000041
     atom   32 type  1   force =     0.00000000   -0.00000000   -0.00001362

     Total force =     0.001449     Total SCF correction =     0.000083

     Computing stress (Cartesian axis) and pressure

[...]

          total   stress  (Ry/bohr**3)                   (kbar)     P=      -43.37
  -0.00033769  -0.00000000   0.00000000          -49.68       -0.00        0.00
   0.00000000  -0.00033769   0.00000000            0.00      -49.68        0.00
   0.00000000   0.00000000  -0.00020917            0.00        0.00      -30.77

     kinetic stress (kbar)  18487.41      0.00      0.00
                                0.00  18487.41     -0.00
                                0.00     -0.00  18501.45

     local   stress (kbar)   6712.67     -0.08     -0.00
                               -0.08   6712.57      0.00
                               -0.00      0.00   3566.28

     nonloc. stress (kbar)    275.24      0.00      0.00
                                0.00    275.24      0.00
                                0.00      0.00    267.22

     hartree stress (kbar)  20375.32     -0.00     -0.00
                               -0.00  20375.32     -0.00
                               -0.00     -0.00  21678.90

     exc-cor stress (kbar)   5696.23      0.00     -0.00
                                0.00   5696.23      0.00
                               -0.00      0.00   5698.93

     corecor stress (kbar) -14914.08     -0.00     -0.00
                               -0.00 -14914.08     -0.00
                               -0.00     -0.00 -14914.15

     ewald   stress (kbar) -36852.34      0.10      0.00
                                0.10 -36852.22     -0.00
                                0.00     -0.00 -34997.61

     hubbard stress (kbar)      0.00      0.00      0.00
                                0.00      0.00      0.00
                                0.00      0.00      0.00

     DFT-D   stress (kbar)      0.00      0.00      0.00
                                0.00      0.00      0.00
                                0.00      0.00      0.00

     XDM     stress (kbar)      0.00      0.00      0.00
                                0.00      0.00      0.00
                                0.00      0.00      0.00

     dft-nl  stress (kbar)    169.87     -0.00      0.00
                               -0.00    169.87     -0.00
                                0.00     -0.00    168.23

     TS-vdW  stress (kbar)      0.00      0.00      0.00
                                0.00      0.00      0.00
                                0.00      0.00      0.00

     MDB     stress (kbar)      0.00      0.00      0.00
                                0.00      0.00      0.00
                                0.00      0.00      0.00

     3D-RISM stress (kbar)      0.00      0.00      0.00
                                0.00      0.00      0.00
                                0.00      0.00      0.00

[...]

     Non-local corr. energy    =       9.09585501 Ry

 BEEFens 2000 ensemble energies
             -0.730687339599388E+01
             -0.662850873710076E+02
             -0.286104363497422E+02
              0.232967509956143E+02
             -0.478237376424350E+02
             -0.613952925791151E+02
              0.314315736123411E+02
             -0.323255177203040E+01
              0.525639752456507E+02
             -0.229042743891347E+01
              0.259310330366048E+02
              0.108594117662339E+01
              0.952011173684923E+00
             -0.223032441805191E+01
              0.343601413556083E+02
             -0.250297060830977E+02
             -0.514226402710370E+02
             -0.168096585139124E+02
              0.126136383764305E+02
             -0.118555366398311E+01
              0.754146751876137E+02
              0.640260255456890E+02
             -0.368380427117045E+02
              0.131830060443938E+02
             -0.804749227549359E+02
              0.645294648146781E+02
              0.210476380043914E+02
              0.625549828001076E+02
              0.411321575749039E+02
             -0.198949789722541E+02
              0.151537560390611E+02
             -0.294602635286590E+02
              0.843787194491959E+01
              0.404447477971424E+02
              0.427315802555958E+02
             -0.155086497253767E+02
              0.949575775334978E+02
             -0.361772963533542E+02
             -0.259548890529484E+02
              0.380928058333126E+02
              0.170791343586707E+02
              0.284805965529348E+02
             -0.543296914601056E+02
             -0.151680876276384E+01
              0.532311624437883E+02
              0.692714445028461E+02
             -0.690746339129020E+02
              0.487440227186234E+01
              0.259616000191906E+02
              0.128700789486221E+02
              0.287496696058300E+02
              0.610365937163137E+02
             -0.368837994761056E+02
             -0.405033952199194E+02
             -0.526299937464568E+02
             -0.799881315730943E+01
             -0.480228588279284E+02
              0.475405582341676E+01
             -0.875653627059933E+01
             -0.373377750543193E+02
[...]
              0.465315137962656E+02
              0.258719753718700E+02
              0.326482699471079E+02
             -0.529489880656040E+02
             -0.509415459376987E+02
             -0.127366588415275E+02
             -0.497764919700159E+02
              0.794863879813748E+02
              0.680934120421485E+02
              0.325814907974623E+02
              0.883050038730901E+02
             -0.458851213136254E+02
             -0.186384702442183E+02
             -0.261238214218670E+02
              0.731396004194161E+02

 BEEF-vdW xc energy contributions
            1 :    -669.0519479159707
            2 :     602.9514479326772
            3 :    -492.2332178141637
            4 :     369.3505039281648
            5 :    -262.8542822060102
            6 :     186.5100450190492
            7 :    -137.7334644416669
            8 :     104.6484762142289
            9 :    -76.10319659376853
           10 :     48.14480262143820
           11 :    -23.83515639412315
           12 :     8.153485645260048
           13 :    -2.651909183170346
           14 :     3.802635176119111
           15 :    -5.627253983245737
           16 :     3.959893896087920
           17 :     1.128126366932065
           18 :    -6.352490489915454
           19 :     8.476501297920095
           20 :    -7.040390561970185
           21 :     4.525717787183794
           22 :    -4.127242942713679
           23 :     7.137088988812025
           24 :    -12.03832904348428
           25 :     15.86427107921747
           26 :    -16.55932707736474
           27 :     14.41590997128787
           28 :    -11.56316981175905
           29 :     10.09934864174193
           30 :    -10.46282549528337
           31 :    -56.84115480702269
           32 :    -38.96569528610348

     Writing all to output data dir ./GaN.save/

     General routines

     Parallel routines

     PAW routines

   This run was terminated on:   6: 4: 6  28Mar2024

   JOB DONE.