     Program PWSCF v.7.1 starts on 27Mar2024 at 21:16: 4

     Reading input from espresso.pwi
Warning: card &CELL ignored
Warning: card    CELL_DYNAMICS    = 'BFGS' ignored
Warning: card / ignored

     Current dimensions of program PWSCF are:
     Max number of different atomic species (ntypx) = 10
     Max number of k-points (npk) =  40000
     Max angular momentum in pseudopotentials (lmaxx) =  4
     file Ga.pbe-dn-kjpaw_psl.1.0.0.UPF: wavefunction(s)  4S renormalized
     file N.pbe-n-kjpaw_psl.1.0.0.UPF: wavefunction(s)  2S renormalized

     IMPORTANT: XC functional enforced from input :
     Exchange-correlation= BEEF-VDW
                           (   1   4  43  14   2   0   0)
     Any further DFT definition will be discarded
     Please, verify this is what you really want

     R & G space division:  proc/nbgrp/npool/nimage =      27
     Subspace diagonalization in iterative solution of the eigenvalue problem:
     a serial algorithm will be used

     Using Slab Decomposition

     bravais-lattice index     =            4
     lattice parameter (alat)  =      12.2626  a.u.
     unit-cell volume          =    2602.7676 (a.u.)^3
     number of atoms/cell      =           32
     number of atomic types    =            2
     number of electrons       =       294.00
     number of Kohn-Sham states=          176
     kinetic-energy cutoff     =      70.0000  Ry
     charge density cutoff     =     350.0000  Ry
     scf convergence threshold =      1.0E-07
     mixing beta               =       0.7000
     number of iterations used =            8  plain     mixing
     energy convergence thresh.=      1.0E-04
     force convergence thresh. =      1.0E-03
     Exchange-correlation= BEEF-VDW
                           (   1   4  43  14   2   0   0)
     nstep                     =           50

     celldm(1)=  12.262616  celldm(2)=   0.000000  celldm(3)=   1.629879
     celldm(4)=   0.000000  celldm(5)=   0.000000  celldm(6)=   0.000000

     crystal axes: (cart. coord. in units of alat)
               a(1) = (   1.000000   0.000000   0.000000 )
               a(2) = (  -0.500000   0.866025   0.000000 )
               a(3) = (   0.000000   0.000000   1.629879 )

     reciprocal axes: (cart. coord. in units 2 pi/alat)
               b(1) = (  1.000000  0.577350 -0.000000 )
               b(2) = (  0.000000  1.154701  0.000000 )
               b(3) = (  0.000000 -0.000000  0.613542 )

     PseudoPot. # 1 for Ga read from file:
     /trace/group/acmegroup/atimmins/packages/espresso/pseudo/psl_1.0.0/pslibrary.1.0.0/pbe/PSEUDOPOTENTIALS/Ga.pbe-dn-kjpaw_psl.1.0.0.UPF
     MD5 check sum: cd2a01e492f15b435d17032472d8505c
     Pseudo is Projector augmented-wave + core cor, Zval = 13.0
     Generated using 'atomic' code by A. Dal Corso  v.7.1
     Shape of augmentation charge: PSQ
     Using radial grid of 1205 points,  6 beta functions with:
                l(1) =   0
                l(2) =   0
                l(3) =   1
                l(4) =   1
                l(5) =   2
                l(6) =   2
     Q(r) pseudized with 0 coefficients

     PseudoPot. # 2 for N  read from file:
     /trace/group/acmegroup/atimmins/packages/espresso/pseudo/psl_1.0.0/pslibrary.1.0.0/pbe/PSEUDOPOTENTIALS/N.pbe-n-kjpaw_psl.1.0.0.UPF
     MD5 check sum: f77f775694dac7e2c3fe1c82443d1a16
     Pseudo is Projector augmented-wave + core cor, Zval =  5.0
     Generated using 'atomic' code by A. Dal Corso  v.7.1
     Shape of augmentation charge: PSQ
     Using radial grid of 1085 points,  4 beta functions with:
                l(1) =   0
                l(2) =   0
                l(3) =   1
                l(4) =   1
     Q(r) pseudized with 0 coefficients

     atomic species   valence    mass     pseudopotential
        Ga            13.00    69.72300     Ga( 1.00)
        N              5.00    14.00700     N ( 1.00)

      6 Sym. Ops. (no inversion) found ( 4 have fractional translation)

                                    s                        frac. trans.

      isym =  1     identity

 cryst.   s( 1) = (     1          0          0      )
                  (     0          1          0      )
                  (     0          0          1      )

 cart.    s( 1) = (  1.0000000  0.0000000  0.0000000 )
                  (  0.0000000  1.0000000  0.0000000 )
                  (  0.0000000  0.0000000  1.0000000 )

      isym =  2     120 deg rotation - cryst. axis [0,0,1]

 cryst.   s( 2) = (     0          1          0      )    f =(  0.4999999 )
                  (    -1         -1          0      )       (  0.0000004 )
                  (     0          0          1      )       (  0.0000000 )

 cart.    s( 2) = ( -0.5000000 -0.8660254  0.0000000 )    f =(  0.4999998 )
                  (  0.8660254 -0.5000000  0.0000000 )       (  0.0000003 )
                  (  0.0000000  0.0000000  1.0000000 )       (  0.0000000 )

      isym =  3     120 deg rotation - cryst. axis [0,0,-1]

[...]

      isym =  4     inv. 180 deg rotation - cart. axis [1,0,0]

[...]

      isym =  5     inv. 180 deg rotation - cryst. axis [0,1,0]

 cryst.   s( 5) = (     1          1          0      )
                  (     0         -1          0      )
                  (     0          0          1      )

 cart.    s( 5) = (  0.5000000  0.8660254  0.0000000 )
                  (  0.8660254 -0.5000000  0.0000000 )
                  (  0.0000000  0.0000000  1.0000000 )

      isym =  6     inv. 180 deg rotation - cryst. axis [1,1,0]

 cryst.   s( 6) = (     0         -1          0      )    f =(  0.4999999 )
                  (    -1          0          0      )       (  0.4999999 )
                  (     0          0          1      )       (  0.0000000 )

 cart.    s( 6) = (  0.5000000 -0.8660254  0.0000000 )    f =(  0.2500000 )
                  ( -0.8660254 -0.5000000  0.0000000 )       (  0.4330127 )
                  (  0.0000000  0.0000000  1.0000000 )       (  0.0000000 )

     point group C_3v (3m)
     there are  3 classes
     the character table:

       E     2C3   3s_v
A_1    1.00  1.00  1.00
A_2    1.00  1.00 -1.00
E      2.00 -1.00  0.00

     the symmetry operations in each class and the name of the first element:

     E        1
          identity
     2C3      2    3
          120 deg rotation - cryst. axis [0,0,1]
     3s_v     4    5    6
          inv. 180 deg rotation - cart. axis [1,0,0]

   Cartesian axes

     site n.     atom                  positions (alat units)
         1           Ga  tau(   1) = (   0.2500002   0.1443375   0.4067871  )
         2           Ga  tau(   2) = (   0.2500002   0.1443375   1.2217266  )
         3           Ga  tau(   3) = (   0.0000002   0.5773502   0.4067871  )
         4           Ga  tau(   4) = (   0.0000002   0.5773502   1.2217266  )
         5           Ga  tau(   5) = (   0.7500002   0.1443375   0.4067871  )
         6           Ga  tau(   6) = (   0.7500002   0.1443375   1.2217266  )
         7           Ga  tau(   7) = (   0.5000002   0.5773502   0.4067871  )
         8           Ga  tau(   8) = (   0.5000002   0.5773502   1.2217266  )
         9           Ga  tau(   9) = (  -0.0000003   0.2886754   0.8142568  )
        10           Ga  tau(  10) = (  -0.0000003   0.2886754   1.6291964  )
        11           Ga  tau(  11) = (  -0.2500003   0.7216881   0.8142568  )
        12           Ga  tau(  12) = (  -0.2500003   0.7216881   1.6291964  )
        13           Ga  tau(  13) = (   0.4999997   0.2886754   0.8142568  )
        14           Ga  tau(  14) = (   0.4999997   0.2886754   1.6291964  )
        15           Ga  tau(  15) = (   0.2499997   0.7216881   0.8142568  )
        16           Ga  tau(  16) = (   0.2499997   0.7216881   1.6291964  )
        17           N   tau(  17) = (   0.2500002   0.1443375   1.5286943  )
        18           N   tau(  18) = (   0.0000002   0.5773502   0.7137548  )
        19           N   tau(  19) = (   0.0000002   0.5773502   1.5286943  )
        20           N   tau(  20) = (   0.7500002   0.1443375   0.7137548  )
        21           N   tau(  21) = (   0.7500002   0.1443375   1.5286943  )
        22           N   tau(  22) = (   0.5000002   0.5773502   0.7137548  )
        23           N   tau(  23) = (   0.5000002   0.5773502   1.5286943  )
        24           N   tau(  24) = (  -0.0000003   0.2886754   0.3062850  )
        25           N   tau(  25) = (  -0.0000003   0.2886754   1.1212245  )
        26           N   tau(  26) = (  -0.2500003   0.7216881   0.3062850  )
        27           N   tau(  27) = (  -0.2500003   0.7216881   1.1212245  )
        28           N   tau(  28) = (   0.4999997   0.2886754   0.3062850  )
        29           N   tau(  29) = (   0.4999997   0.2886754   1.1212245  )
        30           N   tau(  30) = (   0.2499997   0.7216881   0.3062850  )
        31           N   tau(  31) = (   0.2499997   0.7216881   1.1212245  )
        32           Ga  tau(  32) = (   0.2500002   0.1443375   0.7137548  )

   Crystallographic axes

     site n.     atom                  positions (cryst. coord.)
         1           Ga  tau(   1) = (  0.3333335  0.1666666  0.2495811  )
         2           Ga  tau(   2) = (  0.3333335  0.1666666  0.7495811  )
         3           Ga  tau(   3) = (  0.3333335  0.6666666  0.2495811  )
         4           Ga  tau(   4) = (  0.3333335  0.6666666  0.7495811  )
         5           Ga  tau(   5) = (  0.8333335  0.1666666  0.2495811  )
         6           Ga  tau(   6) = (  0.8333335  0.1666666  0.7495811  )
         7           Ga  tau(   7) = (  0.8333335  0.6666666  0.2495811  )
         8           Ga  tau(   8) = (  0.8333335  0.6666666  0.7495811  )
         9           Ga  tau(   9) = (  0.1666665  0.3333336  0.4995811  )
        10           Ga  tau(  10) = (  0.1666665  0.3333336  0.9995811  )
        11           Ga  tau(  11) = (  0.1666665  0.8333336  0.4995811  )
        12           Ga  tau(  12) = (  0.1666665  0.8333336  0.9995811  )
        13           Ga  tau(  13) = (  0.6666665  0.3333336  0.4995811  )
        14           Ga  tau(  14) = (  0.6666665  0.3333336  0.9995811  )
        15           Ga  tau(  15) = (  0.6666665  0.8333336  0.4995811  )
        16           Ga  tau(  16) = (  0.6666665  0.8333336  0.9995811  )
        17           N   tau(  17) = (  0.3333335  0.1666666  0.9379189  )
        18           N   tau(  18) = (  0.3333335  0.6666666  0.4379189  )
        19           N   tau(  19) = (  0.3333335  0.6666666  0.9379189  )
        20           N   tau(  20) = (  0.8333335  0.1666666  0.4379189  )
        21           N   tau(  21) = (  0.8333335  0.1666666  0.9379189  )
        22           N   tau(  22) = (  0.8333335  0.6666666  0.4379189  )
        23           N   tau(  23) = (  0.8333335  0.6666666  0.9379189  )
        24           N   tau(  24) = (  0.1666665  0.3333336  0.1879189  )
        25           N   tau(  25) = (  0.1666665  0.3333336  0.6879189  )
        26           N   tau(  26) = (  0.1666665  0.8333336  0.1879189  )
        27           N   tau(  27) = (  0.1666665  0.8333336  0.6879189  )
        28           N   tau(  28) = (  0.6666665  0.3333336  0.1879189  )
[...]
     atom   17 type  2   force =    -0.00003299    0.00002055   -0.95973457
     atom   18 type  2   force =     1.36543515    0.78835375   -2.06924746
     atom   19 type  2   force =     0.71191378    0.41105938    0.34356634
     atom   20 type  2   force =    -0.00001567   -1.57667533   -2.06924658
     atom   21 type  2   force =    -0.00002911   -0.82206227    0.34356646
     atom   22 type  2   force =    -1.36549719    0.78837157   -2.06925973
     atom   23 type  2   force =    -0.71197844    0.41106319    0.34356823
     atom   24 type  2   force =    -1.25066227    0.72206807    1.78457839
     atom   25 type  2   force =     0.95491125   -0.55132067    0.28554483
     atom   26 type  2   force =     0.00002784   -1.44420576    1.78459693
     atom   27 type  2   force =     0.00003231    1.10258601    0.28554608
     atom   28 type  2   force =     1.25073107    0.72207573    1.78459586
     atom   29 type  2   force =    -0.95485237   -0.55132392    0.28554581
     atom   30 type  2   force =     0.00003339   -0.00002080    0.97743406
     atom   31 type  2   force =     0.00002895   -0.00001797   -0.99675815
     atom   32 type  1   force =    -0.00004505    0.00002784   -1.05096298
     The local contribution  to forces
     atom    1 type  1   force =    -0.00007678    0.00020278   -2.17947097
     atom    2 type  1   force =    -0.00007728    0.00024486    2.40643658
     atom    3 type  1   force =    -0.11731640   -0.06751021   -3.00116089
     atom    4 type  1   force =    -0.75703704   -0.43677623    1.10277531
     atom    5 type  1   force =    -0.00009257    0.13565317   -3.00116048
     atom    6 type  1   force =    -0.00007043    0.87429984    1.10277544
     atom    7 type  1   force =     0.11718696   -0.06743490   -3.00116092
     atom    8 type  1   force =     0.75688150   -0.43677790    1.10277518
     atom    9 type  1   force =    -2.63797471    1.52311864    1.08788177
     atom   10 type  1   force =     0.59002818   -0.34052613    0.26509390
     atom   11 type  1   force =     0.00112685   -3.04790897    1.08787575
     atom   12 type  1   force =     0.00108935    0.67954807    0.26510969
     atom   13 type  1   force =     2.64016607    1.52319615    1.08787377
     atom   14 type  1   force =    -0.58784290   -0.34052435    0.26511321
     atom   15 type  1   force =     0.00109241   -0.00050236    2.08470453
     atom   16 type  1   force =     0.00109420   -0.00049711   -1.47212428
     atom   17 type  2   force =    -0.00001152    0.00002243    0.97276169
     atom   18 type  2   force =    -1.24603093   -0.71931953    1.88301879
     atom   19 type  2   force =    -0.63866601   -0.36870512   -0.30995732
     atom   20 type  2   force =     0.00000499    1.43877891    1.88301714
     atom   21 type  2   force =    -0.00001021    0.73747785   -0.30995952
     atom   22 type  2   force =     1.24600037   -0.71937017    1.88301989
     atom   23 type  2   force =     0.63864284   -0.36870390   -0.30995492
     atom   24 type  2   force =     1.11311318   -0.64264596   -1.74612175
     atom   25 type  2   force =    -0.94948844    0.54819783   -0.12761453
     atom   26 type  2   force =     0.00008218    1.28516981   -1.74613148
     atom   27 type  2   force =     0.00008326   -1.09651330   -0.12760776
     atom   28 type  2   force =    -1.11295147   -0.64263306   -1.74613834
     atom   29 type  2   force =     0.94966070    0.54819998   -0.12760611
     atom   30 type  2   force =     0.00007855   -0.00003653   -0.98455533
     atom   31 type  2   force =     0.00008663   -0.00003816    0.97791830
     atom   32 type  1   force =    -0.00007433    0.00018871    1.03160001
     The core correction contribution to forces
     atom    1 type  1   force =    -0.00000605    0.00001389    0.01248282
     atom    2 type  1   force =    -0.00000630    0.00001824    0.00026050
     atom    3 type  1   force =     0.00083137    0.00049372   -0.00223698
     atom    4 type  1   force =     0.00061638    0.00037830    0.00105529
     atom    5 type  1   force =    -0.00000825   -0.00094530   -0.00223691
     atom    6 type  1   force =    -0.00000566   -0.00070134    0.00105529
     atom    7 type  1   force =    -0.00084113    0.00050276   -0.00223696
     atom    8 type  1   force =    -0.00062904    0.00037803    0.00105527
     atom    9 type  1   force =     0.00692643   -0.00399394   -0.00307569
     atom   10 type  1   force =    -0.00112548    0.00065886    0.00004815
     atom   11 type  1   force =     0.00008365    0.00786242   -0.00307624
     atom   12 type  1   force =     0.00008042   -0.00142982    0.00004833
     atom   13 type  1   force =    -0.00676701   -0.00398740   -0.00307615
     atom   14 type  1   force =     0.00128680    0.00065904    0.00004837
     atom   15 type  1   force =     0.00007985   -0.00003721    0.00278342
     atom   16 type  1   force =     0.00008060   -0.00003695    0.00007459
     atom   17 type  2   force =     0.00000021   -0.00000033    0.00030268
     atom   18 type  2   force =     0.00197759    0.00114134   -0.00305822
     atom   19 type  2   force =     0.00116832    0.00067407    0.00051830
     atom   20 type  2   force =     0.00000031   -0.00228360   -0.00305820
     atom   21 type  2   force =     0.00000024   -0.00134908    0.00051828
     atom   22 type  2   force =    -0.00197737    0.00114152   -0.00305826
     atom   23 type  2   force =    -0.00116785    0.00067407    0.00051836
     atom   24 type  2   force =    -0.00221925    0.00128087    0.00064703
     atom   25 type  2   force =     0.00007539   -0.00004356    0.00254856
     atom   26 type  2   force =    -0.00000261   -0.00255915    0.00064705
     atom   27 type  2   force =    -0.00000242    0.00009106    0.00254849
     atom   28 type  2   force =     0.00221442    0.00128227    0.00064713
     atom   29 type  2   force =    -0.00008011   -0.00004349    0.00254848
     atom   30 type  2   force =    -0.00000244    0.00000179   -0.00011057
     atom   31 type  2   force =    -0.00000235    0.00000131   -0.00029509
     atom   32 type  1   force =    -0.00000574    0.00001325    0.00208873
     The Hubbard contrib.    to forces
     atom    1 type  1   force =     0.00000000    0.00000000    0.00000000
     atom    2 type  1   force =     0.00000000    0.00000000    0.00000000
     atom    3 type  1   force =     0.00000000    0.00000000    0.00000000
     atom    4 type  1   force =     0.00000000    0.00000000    0.00000000
     atom    5 type  1   force =     0.00000000    0.00000000    0.00000000
     atom    6 type  1   force =     0.00000000    0.00000000    0.00000000
     atom    7 type  1   force =     0.00000000    0.00000000    0.00000000
     atom    8 type  1   force =     0.00000000    0.00000000    0.00000000
     atom    9 type  1   force =     0.00000000    0.00000000    0.00000000
     atom   10 type  1   force =     0.00000000    0.00000000    0.00000000
     atom   11 type  1   force =     0.00000000    0.00000000    0.00000000
     atom   12 type  1   force =     0.00000000    0.00000000    0.00000000
     atom   13 type  1   force =     0.00000000    0.00000000    0.00000000
     atom   14 type  1   force =     0.00000000    0.00000000    0.00000000
     atom   15 type  1   force =     0.00000000    0.00000000    0.00000000
     atom   16 type  1   force =     0.00000000    0.00000000    0.00000000
     atom   17 type  2   force =     0.00000000    0.00000000    0.00000000
     atom   18 type  2   force =     0.00000000    0.00000000    0.00000000
     atom   19 type  2   force =     0.00000000    0.00000000    0.00000000
     atom   20 type  2   force =     0.00000000    0.00000000    0.00000000
     atom   21 type  2   force =     0.00000000    0.00000000    0.00000000
     atom   22 type  2   force =     0.00000000    0.00000000    0.00000000
     atom   23 type  2   force =     0.00000000    0.00000000    0.00000000
     atom   24 type  2   force =     0.00000000    0.00000000    0.00000000
     atom   25 type  2   force =     0.00000000    0.00000000    0.00000000
     atom   26 type  2   force =     0.00000000    0.00000000    0.00000000
     atom   27 type  2   force =     0.00000000    0.00000000    0.00000000
     atom   28 type  2   force =     0.00000000    0.00000000    0.00000000
     atom   29 type  2   force =     0.00000000    0.00000000    0.00000000
     atom   30 type  2   force =     0.00000000    0.00000000    0.00000000
     atom   31 type  2   force =     0.00000000    0.00000000    0.00000000
     atom   32 type  1   force =     0.00000000    0.00000000    0.00000000
     The SCF correction term to forces
     atom    1 type  1   force =    -0.00000000    0.00000000   -0.00000231
     atom    2 type  1   force =    -0.00000000    0.00000000    0.00000252
     atom    3 type  1   force =    -0.00000413   -0.00000238    0.00000733
     atom    4 type  1   force =    -0.00000652   -0.00000376    0.00000093
     atom    5 type  1   force =     0.00000000    0.00000477    0.00000733
     atom    6 type  1   force =    -0.00000000    0.00000752    0.00000093
     atom    7 type  1   force =     0.00000413   -0.00000238    0.00000733
     atom    8 type  1   force =     0.00000652   -0.00000376    0.00000093
     atom    9 type  1   force =    -0.00000154    0.00000089   -0.00000447
     atom   10 type  1   force =    -0.00000231    0.00000134    0.00000258
     atom   11 type  1   force =    -0.00000000   -0.00000177   -0.00000447
     atom   12 type  1   force =     0.00000000   -0.00000267    0.00000258
     atom   13 type  1   force =     0.00000153    0.00000089   -0.00000447
     atom   14 type  1   force =     0.00000231    0.00000134    0.00000258
     atom   15 type  1   force =    -0.00000000    0.00000000   -0.00000156
     atom   16 type  1   force =     0.00000000   -0.00000000   -0.00001380
     atom   17 type  2   force =     0.00000000   -0.00000000   -0.00000018
     atom   18 type  2   force =    -0.00000139   -0.00000080   -0.00000029
     atom   19 type  2   force =     0.00000200    0.00000116   -0.00000053
     atom   20 type  2   force =     0.00000000    0.00000161   -0.00000029
     atom   21 type  2   force =    -0.00000000   -0.00000231   -0.00000053
     atom   22 type  2   force =     0.00000139   -0.00000080   -0.00000029
     atom   23 type  2   force =    -0.00000200    0.00000116   -0.00000053
     atom   24 type  2   force =    -0.00000030    0.00000017    0.00000254
     atom   25 type  2   force =    -0.00000245    0.00000141   -0.00000149
     atom   26 type  2   force =    -0.00000000   -0.00000034    0.00000254
     atom   27 type  2   force =    -0.00000000   -0.00000283   -0.00000149
     atom   28 type  2   force =     0.00000030    0.00000017    0.00000254
     atom   29 type  2   force =     0.00000245    0.00000141   -0.00000149
     atom   30 type  2   force =    -0.00000000    0.00000000   -0.00000060
     atom   31 type  2   force =    -0.00000000    0.00000000   -0.00000023
     atom   32 type  1   force =    -0.00000000    0.00000000   -0.00001477

     Total force =     0.001435     Total SCF correction =     0.000032

     Computing stress (Cartesian axis) and pressure

     Non-local corr. energy    =       9.09589473 Ry

          total   stress  (Ry/bohr**3)                   (kbar)     P=      -43.41
  -0.00033797   0.00000000   0.00000000          -49.72        0.00        0.00
   0.00000000  -0.00033797   0.00000000            0.00      -49.72        0.00
   0.00000000  -0.00000000  -0.00020942            0.00       -0.00      -30.81

     kinetic stress (kbar)  18488.25     -0.00      0.00
                                0.00  18488.25      0.00
                                0.00      0.00  18502.27

     local   stress (kbar)   6712.74     -0.08     -0.00
                               -0.08   6712.64      0.00
                               -0.00      0.00   3566.31

     nonloc. stress (kbar)    274.25     -0.00      0.00
                                0.00    274.25     -0.00
                                0.00     -0.00    266.27

     hartree stress (kbar)  20375.34     -0.00     -0.00
                               -0.00  20375.34     -0.00
                               -0.00     -0.00  21678.93

     exc-cor stress (kbar)   5696.23      0.00     -0.00
                                0.00   5696.23      0.00
                               -0.00      0.00   5698.93

     corecor stress (kbar) -14914.07     -0.00     -0.00
                               -0.00 -14914.07     -0.00
                               -0.00     -0.00 -14914.14

     ewald   stress (kbar) -36852.34      0.10      0.00
                                0.10 -36852.22     -0.00
                                0.00     -0.00 -34997.61

     hubbard stress (kbar)      0.00      0.00      0.00
                                0.00      0.00      0.00
                                0.00      0.00      0.00

     DFT-D   stress (kbar)      0.00      0.00      0.00
                                0.00      0.00      0.00
                                0.00      0.00      0.00

     XDM     stress (kbar)      0.00      0.00      0.00
                                0.00      0.00      0.00
                                0.00      0.00      0.00

     dft-nl  stress (kbar)    169.87     -0.00      0.00
                               -0.00    169.87     -0.00
                                0.00     -0.00    168.23

     TS-vdW  stress (kbar)      0.00      0.00      0.00
                                0.00      0.00      0.00
                                0.00      0.00      0.00

     MDB     stress (kbar)      0.00      0.00      0.00
                                0.00      0.00      0.00
                                0.00      0.00      0.00

     3D-RISM stress (kbar)      0.00      0.00      0.00
                                0.00      0.00      0.00
                                0.00      0.00      0.00

     Energy error            =      1.1E-05 Ry
     Gradient error          =      7.3E-04 Ry/Bohr

     bfgs converged in  20 scf cycles and  19 bfgs steps
     (criteria: energy <  1.0E-04 Ry, force <  1.0E-03 Ry/Bohr)

     End of BFGS Geometry Optimization

     Final energy             =   -5252.1456175009 Ry

     File ./GaN.bfgs deleted, as requested
Begin final coordinates

ATOMIC_POSITIONS (angstrom)
Ga            1.6222756606        0.9366198184        1.9726731676
Ga            1.6222756606        0.9366198184        7.9753135789
Ga            0.0016478645        3.7474317281        2.6303024529
Ga            0.0355574720        3.7670094491        7.9929361887
Ga            4.8668240777        0.9347187051        2.6303024529
Ga            4.8668240777        0.8955632631        7.9929361887
Ga            3.2429034567        3.7474317281        2.6303024529
Ga            3.2089938492        3.7670094491        7.9929361887
Ga           -0.1864679533        1.9808986351        5.4603422311
Ga           -0.0510668872        1.9027247932       10.5021186809
Ga           -1.6222761733        4.4677914223        5.4603422311
Ga           -1.6222761733        4.6241391063       10.5021186809
Ga            3.4310124408        1.9808986351        5.4603422311
Ga            3.2956113747        1.9027247932       10.5021186809
Ga            1.6222722437        4.6831037996        5.3307150747
Ga            1.6222722437        4.6831037996       10.6314869694
N             1.6222756606        0.9366198184        9.9867243526
N             0.0054418395        3.7496221806        4.6458119427
N             0.0266935412        3.7618918563        9.9377904242
N             4.8668240777        0.9303378001        4.6458119427
N             4.8668240777        0.9057984487        9.9377904242
N             3.2391094817        3.7496221806        4.6458119427
N             3.2178577800        3.7618918563        9.9377904242
N            -0.0534737462        1.9041143939        1.9299100885
N            -0.0180215887        1.8836460812        7.3716114194
N            -1.6222761733        4.6213599049        1.9299100885
N            -1.6222761733        4.6622965302        7.3716114194
N             3.2980182337        1.9041143939        1.9299100885
N             3.2625660762        1.8836460812        7.3716114194
N             1.6222722437        4.6831037996        2.0395563918
N             1.6222722437        4.6831037996        7.2867210920
Ga            1.6222756606        0.9366198184        4.3167594758
End final coordinates

     Writing all to output data dir ./GaN.save/

     General routines

     Parallel routines

     PAW routines

   This run was terminated on:  22:17: 6  27Mar2024

   JOB DONE.