     Program PWSCF v.7.1 starts on  9Mar2024 at  8:58:18

     Reading input from espresso.pwi
Warning: card &CELL ignored
Warning: card    CELL_DYNAMICS    = 'BFGS' ignored
Warning: card / ignored

     Current dimensions of program PWSCF are:
     Max number of different atomic species (ntypx) = 10
     Max number of k-points (npk) =  40000
     Max angular momentum in pseudopotentials (lmaxx) =  4
     file Pb.pbe-dn-kjpaw_psl.1.0.0.UPF: wavefunction(s)  6S 6P 5D renormalized
     file I.pbe-dn-kjpaw_psl.1.0.0.UPF: wavefunction(s)  5S 5P renormalized

     IMPORTANT: XC functional enforced from input :
     Exchange-correlation= BEEF-VDW
                           (   1   4  43  14   2   0   0)
     Any further DFT definition will be discarded
     Please, verify this is what you really want

     R & G space division:  proc/nbgrp/npool/nimage =     256
     wavefunctions fft division:  task group distribution
                                  #TG    x Z-proc =       8     32
     Subspace diagonalization in iterative solution of the eigenvalue problem:
     a serial algorithm will be used

     Using Pencil Decomposition

     bravais-lattice index     =            4
     lattice parameter (alat)  =      35.6120  a.u.
     unit-cell volume          =   45937.3577 (a.u.)^3
     number of atoms/cell      =          144
     number of atomic types    =            2
     number of electrons       =      2301.00
     number of Kohn-Sham states=         1381
     kinetic-energy cutoff     =      70.0000  Ry
     charge density cutoff     =     350.0000  Ry
     scf convergence threshold =      1.0E-07
     mixing beta               =       0.7000
     number of iterations used =            8  plain     mixing
     Exchange-correlation= BEEF-VDW
                           (   1   4  43  14   2   0   0)

     celldm(1)=  35.612033  celldm(2)=   0.000000  celldm(3)=   1.174479
     celldm(4)=   0.000000  celldm(5)=   0.000000  celldm(6)=   0.000000

     crystal axes: (cart. coord. in units of alat)
               a(1) = (   1.000000   0.000000   0.000000 )
               a(2) = (  -0.500000   0.866025   0.000000 )
               a(3) = (   0.000000   0.000000   1.174479 )

     reciprocal axes: (cart. coord. in units 2 pi/alat)
               b(1) = (  1.000000  0.577350 -0.000000 )
               b(2) = (  0.000000  1.154701  0.000000 )
               b(3) = (  0.000000 -0.000000  0.851442 )

     PseudoPot. # 1 for Pb read from file:
     /trace/group/acmegroup/atimmins/packages/espresso/pseudo/psl_1.0.0/pslibrary.1.0.0/pbe/PSEUDOPOTENTIALS/Pb.pbe-dn-kjpaw_psl.1.0.0.UPF
     MD5 check sum: 39ab5b8a6bbd56b7735ad9f188aac93a
     Pseudo is Projector augmented-wave + core cor, Zval = 14.0
     Generated using 'atomic' code by A. Dal Corso  v.7.1
     Shape of augmentation charge: PSQ
     Using radial grid of 1281 points,  6 beta functions with:
                l(1) =   0
                l(2) =   0
                l(3) =   1
                l(4) =   1
                l(5) =   2
                l(6) =   2
     Q(r) pseudized with 0 coefficients

     PseudoPot. # 2 for I  read from file:
     /trace/group/acmegroup/atimmins/packages/espresso/pseudo/psl_1.0.0/pslibrary.1.0.0/pbe/PSEUDOPOTENTIALS/I.pbe-dn-kjpaw_psl.1.0.0.UPF
     MD5 check sum: bfa8781bc1224d19af3f3980e3fab11e
     Pseudo is Projector augmented-wave + core cor, Zval = 17.0
     Generated using 'atomic' code by A. Dal Corso  v.7.1
     Shape of augmentation charge: PSQ
     Using radial grid of 1247 points,  6 beta functions with:
                l(1) =   0
                l(2) =   0
                l(3) =   1
                l(4) =   1
                l(5) =   2
                l(6) =   2
     Q(r) pseudized with 0 coefficients

     atomic species   valence    mass     pseudopotential
        Pb            14.00   207.20000     Pb( 1.00)
        I             17.00   126.90447     I ( 1.00)

     No symmetry found

                                    s                        frac. trans.

      isym =  1     identity

 cryst.   s( 1) = (     1          0          0      )
                  (     0          1          0      )
                  (     0          0          1      )

 cart.    s( 1) = (  1.0000000  0.0000000  0.0000000 )
                  (  0.0000000  1.0000000  0.0000000 )
                  (  0.0000000  0.0000000  1.0000000 )

     point group C_1 (1)
     there are  1 classes
     the character table:

       E
A      1.00

     the symmetry operations in each class and the name of the first element:

     E        1
          identity

   Cartesian axes

     site n.     atom                  positions (alat units)
         1           Pb  tau(   1) = (   0.1250136   0.2164827   1.1744753  )
         2           Pb  tau(   2) = (   0.1250034   0.2164918   0.3914896  )
         3           Pb  tau(   3) = (   0.1250085   0.2164873   0.7829825  )
         4           Pb  tau(   4) = (   0.0000128   0.4329881   1.1744712  )
         5           Pb  tau(   5) = (   0.0000026   0.4329971   0.3914855  )
         6           Pb  tau(   6) = (   0.0000077   0.4329926   0.7829784  )
         7           Pb  tau(   7) = (  -0.1249881   0.6494934   1.1744671  )
         8           Pb  tau(   8) = (  -0.1249983   0.6495025   0.3914814  )
         9           Pb  tau(   9) = (  -0.1249932   0.6494980   0.7829742  )
        10           Pb  tau(  10) = (  -0.2499889   0.8659988   1.1744630  )
        11           Pb  tau(  11) = (  -0.2499991   0.8660078   0.3914773  )
        12           Pb  tau(  12) = (  -0.2499940   0.8660033   0.7829701  )
        13           Pb  tau(  13) = (   0.3750136   0.2164818   1.1744786  )
        14           Pb  tau(  14) = (   0.3750034   0.2164908   0.3914929  )
        15           Pb  tau(  15) = (   0.3750085   0.2164863   0.7829857  )
        16           Pb  tau(  16) = (   0.2500128   0.4329871   1.1744745  )
        17           Pb  tau(  17) = (   0.2500026   0.4329962   0.3914888  )
        18           Pb  tau(  18) = (   0.2500077   0.4329916   0.7829816  )
        19           Pb  tau(  19) = (   0.1250119   0.6494925   1.1744703  )
        20           Pb  tau(  20) = (   0.1250017   0.6495015   0.3914847  )
        21           Pb  tau(  21) = (   0.1250068   0.6494970   0.7829775  )
        22           Pb  tau(  22) = (   0.0000111   0.8659978   1.1744662  )
        23           Pb  tau(  23) = (   0.0000009   0.8660069   0.3914805  )
        24           Pb  tau(  24) = (   0.0000060   0.8660024   0.7829734  )
        25           Pb  tau(  25) = (   0.6250136   0.2164808   1.1744818  )
        26           Pb  tau(  26) = (   0.6250034   0.2164898   0.3914962  )
        27           Pb  tau(  27) = (   0.6250085   0.2164853   0.7829890  )
        28           Pb  tau(  28) = (   0.5000128   0.4329862   1.1744777  )
        29           Pb  tau(  29) = (   0.5000026   0.4329952   0.3914920  )
        30           Pb  tau(  30) = (   0.5000077   0.4329907   0.7829849  )
        31           Pb  tau(  31) = (   0.3750119   0.6494915   1.1744736  )
        32           Pb  tau(  32) = (   0.3750017   0.6495006   0.3914879  )
        33           Pb  tau(  33) = (   0.3750068   0.6494960   0.7829808  )
        34           Pb  tau(  34) = (   0.2500111   0.8659969   1.1744695  )
        35           Pb  tau(  35) = (   0.2500009   0.8660059   0.3914838  )
        36           Pb  tau(  36) = (   0.2500060   0.8660014   0.7829766  )
        37           Pb  tau(  37) = (   0.8750136   0.2164798   1.1744851  )
        38           Pb  tau(  38) = (   0.8750034   0.2164889   0.3914994  )
        39           Pb  tau(  39) = (   0.8750085   0.2164844   0.7829923  )
        40           Pb  tau(  40) = (   0.7500128   0.4329852   1.1744810  )
        41           Pb  tau(  41) = (   0.7500026   0.4329942   0.3914953  )
        42           Pb  tau(  42) = (   0.7500077   0.4329897   0.7829881  )
        43           Pb  tau(  43) = (   0.6250119   0.6494906   1.1744769  )
        44           Pb  tau(  44) = (   0.6250017   0.6494996   0.3914912  )
        45           Pb  tau(  45) = (   0.6250068   0.6494951   0.7829840  )
        46           Pb  tau(  46) = (   0.5000111   0.8659959   1.1744727  )
        47           Pb  tau(  47) = (   0.5000009   0.8660050   0.3914870  )
        48           Pb  tau(  48) = (   0.5000060   0.8660004   0.7829799  )
        49           I   tau(  49) = (   0.1250105   0.0721505   0.6824253  )
        50           I   tau(  50) = (   0.1250156   0.0721459   1.0739182  )
        51           I   tau(  51) = (   0.0000045   0.2886603   0.2909283  )
        52           I   tau(  52) = (   0.0000096   0.2886558   0.6824212  )
        53           I   tau(  53) = (   0.0000147   0.2886513   1.0739140  )
        54           I   tau(  54) = (  -0.1249963   0.5051657   0.2909242  )
        55           I   tau(  55) = (  -0.1249912   0.5051612   0.6824171  )
        56           I   tau(  56) = (  -0.1249861   0.5051566   1.0739099  )
        57           I   tau(  57) = (  -0.2499971   0.7216710   0.2909201  )
        58           I   tau(  58) = (  -0.2499920   0.7216665   0.6824129  )
        59           I   tau(  59) = (  -0.2499869   0.7216620   1.0739058  )
        60           I   tau(  60) = (   0.3750054   0.0721540   0.2909357  )
[...]
       130           I   tau( 130) = (   0.1250009   0.7938394   0.4920425  )
       131           I   tau( 131) = (   0.1250060   0.7938348   0.8835353  )
       132           I   tau( 132) = (   0.7499983   0.1443268   0.1005653  )
       133           I   tau( 133) = (   0.7500034   0.1443223   0.4920581  )
       134           I   tau( 134) = (   0.7500085   0.1443178   0.8835509  )
       135           I   tau( 135) = (   0.6249975   0.3608322   0.1005611  )
       136           I   tau( 136) = (   0.6250026   0.3608277   0.4920540  )
       137           I   tau( 137) = (   0.6250077   0.3608232   0.8835468  )
       138           I   tau( 138) = (   0.4999966   0.5773376   0.1005570  )
       139           I   tau( 139) = (   0.5000017   0.5773330   0.4920499  )
       140           I   tau( 140) = (   0.5000068   0.5773285   0.8835427  )
       141           I   tau( 141) = (   0.3749958   0.7938429   0.1005529  )
       142           I   tau( 142) = (   0.3750009   0.7938384   0.4920457  )
       143           I   tau( 143) = (   0.3750060   0.7938339   0.8835386  )
       144           Pb  tau( 144) = (   0.1250054   0.0721550   0.2909325  )

   Crystallographic axes

     site n.     atom                  positions (cryst. coord.)
         1           Pb  tau(   1) = (  0.2500000  0.2499727  0.9999973  )
         2           Pb  tau(   2) = (  0.2499950  0.2499832  0.3333306  )
         3           Pb  tau(   3) = (  0.2499975  0.2499780  0.6666639  )
         4           Pb  tau(   4) = (  0.2499986  0.4999716  0.9999938  )
         5           Pb  tau(   5) = (  0.2499936  0.4999820  0.3333271  )
         6           Pb  tau(   6) = (  0.2499961  0.4999768  0.6666604  )
         7           Pb  tau(   7) = (  0.2499972  0.7499704  0.9999902  )
[...]
     atom   26 type  1   force =     0.00000000    0.00000000    0.00000000
     atom   27 type  1   force =     0.00000000    0.00000000    0.00000000
     atom   28 type  1   force =     0.00000000    0.00000000    0.00000000
     atom   29 type  1   force =     0.00000000    0.00000000    0.00000000
     atom   30 type  1   force =     0.00000000    0.00000000    0.00000000
     atom   31 type  1   force =     0.00000000    0.00000000    0.00000000
     atom   32 type  1   force =     0.00000000    0.00000000    0.00000000
     atom   33 type  1   force =     0.00000000    0.00000000    0.00000000
     atom   34 type  1   force =     0.00000000    0.00000000    0.00000000
     atom   35 type  1   force =     0.00000000    0.00000000    0.00000000
     atom   36 type  1   force =     0.00000000    0.00000000    0.00000000
     atom   37 type  1   force =     0.00000000    0.00000000    0.00000000
     atom   38 type  1   force =     0.00000000    0.00000000    0.00000000
     atom   39 type  1   force =     0.00000000    0.00000000    0.00000000
     atom   40 type  1   force =     0.00000000    0.00000000    0.00000000
     atom   41 type  1   force =     0.00000000    0.00000000    0.00000000
     atom   42 type  1   force =     0.00000000    0.00000000    0.00000000
     atom   43 type  1   force =     0.00000000    0.00000000    0.00000000
     atom   44 type  1   force =     0.00000000    0.00000000    0.00000000
     atom   45 type  1   force =     0.00000000    0.00000000    0.00000000
     atom   46 type  1   force =     0.00000000    0.00000000    0.00000000
     atom   47 type  1   force =     0.00000000    0.00000000    0.00000000
     atom   48 type  1   force =     0.00000000    0.00000000    0.00000000
     atom   49 type  2   force =     0.00000000    0.00000000    0.00000000
     atom   50 type  2   force =     0.00000000    0.00000000    0.00000000
     atom   51 type  2   force =     0.00000000    0.00000000    0.00000000
     atom   52 type  2   force =     0.00000000    0.00000000    0.00000000
     atom   53 type  2   force =     0.00000000    0.00000000    0.00000000
     atom   54 type  2   force =     0.00000000    0.00000000    0.00000000
     atom   55 type  2   force =     0.00000000    0.00000000    0.00000000
     atom   56 type  2   force =     0.00000000    0.00000000    0.00000000
     atom   57 type  2   force =     0.00000000    0.00000000    0.00000000
     atom   58 type  2   force =     0.00000000    0.00000000    0.00000000
     atom   59 type  2   force =     0.00000000    0.00000000    0.00000000
     atom   60 type  2   force =     0.00000000    0.00000000    0.00000000
[...]
     atom  130 type  2   force =     0.00000000    0.00000000    0.00000000
     atom  131 type  2   force =     0.00000000    0.00000000    0.00000000
     atom  132 type  2   force =     0.00000000    0.00000000    0.00000000
     atom  133 type  2   force =     0.00000000    0.00000000    0.00000000
     atom  134 type  2   force =     0.00000000    0.00000000    0.00000000
     atom  135 type  2   force =     0.00000000    0.00000000    0.00000000
     atom  136 type  2   force =     0.00000000    0.00000000    0.00000000
     atom  137 type  2   force =     0.00000000    0.00000000    0.00000000
     atom  138 type  2   force =     0.00000000    0.00000000    0.00000000
     atom  139 type  2   force =     0.00000000    0.00000000    0.00000000
     atom  140 type  2   force =     0.00000000    0.00000000    0.00000000
     atom  141 type  2   force =     0.00000000    0.00000000    0.00000000
     atom  142 type  2   force =     0.00000000    0.00000000    0.00000000
     atom  143 type  2   force =     0.00000000    0.00000000    0.00000000
     atom  144 type  1   force =     0.00000000    0.00000000    0.00000000
     The SCF correction term to forces
     atom    1 type  1   force =     0.00000402    0.00000361   -0.00001132
     atom    2 type  1   force =     0.00007164    0.00004410   -0.00000085
     atom    3 type  1   force =     0.00001747    0.00000060    0.00003264
     atom    4 type  1   force =     0.00000052   -0.00000538    0.00000398
     atom    5 type  1   force =    -0.00000027    0.00000472   -0.00001522
     atom    6 type  1   force =    -0.00001608   -0.00001650    0.00000920
     atom    7 type  1   force =    -0.00000708    0.00001121    0.00000913
     atom    8 type  1   force =    -0.00001028    0.00003095   -0.00000962
     atom    9 type  1   force =    -0.00002668    0.00000610    0.00000090
     atom   10 type  1   force =     0.00001236   -0.00000376   -0.00000457
     atom   11 type  1   force =     0.00010495    0.00000229   -0.00000073
     atom   12 type  1   force =     0.00001712    0.00000515    0.00002249
     atom   13 type  1   force =    -0.00001342   -0.00001409   -0.00000591
     atom   14 type  1   force =    -0.00001928   -0.00003359   -0.00000013
     atom   15 type  1   force =    -0.00000764   -0.00001304    0.00000592
     atom   16 type  1   force =    -0.00000923   -0.00001993    0.00000304
     atom   17 type  1   force =    -0.00001260   -0.00004172   -0.00001990
     atom   18 type  1   force =     0.00000277   -0.00004192    0.00001022
     atom   19 type  1   force =    -0.00002081   -0.00000643    0.00001659
     atom   20 type  1   force =    -0.00005438   -0.00001656   -0.00003161
     atom   21 type  1   force =    -0.00002926   -0.00000884    0.00000798
     atom   22 type  1   force =    -0.00002623    0.00000023    0.00000852
     atom   23 type  1   force =    -0.00006781    0.00000295   -0.00001314
     atom   24 type  1   force =    -0.00004053    0.00002087    0.00000160
     atom   25 type  1   force =    -0.00000993   -0.00000957   -0.00001390
     atom   26 type  1   force =    -0.00003607    0.00000950   -0.00000613
     atom   27 type  1   force =    -0.00001528    0.00001085    0.00000367
     atom   28 type  1   force =    -0.00000884   -0.00000352   -0.00001402
     atom   29 type  1   force =     0.00000217   -0.00003271   -0.00000794
     atom   30 type  1   force =     0.00000853   -0.00001822    0.00000397
     atom   31 type  1   force =     0.00000462   -0.00000820   -0.00001295
     atom   32 type  1   force =    -0.00001457   -0.00007446   -0.00003813
     atom   33 type  1   force =     0.00002469   -0.00001834    0.00003656
     atom   34 type  1   force =    -0.00000878    0.00000802   -0.00001270
     atom   35 type  1   force =    -0.00008316    0.00002168   -0.00003690
     atom   36 type  1   force =    -0.00001041    0.00003008    0.00003638
     atom   37 type  1   force =     0.00001898    0.00000937   -0.00002058
     atom   38 type  1   force =    -0.00000565    0.00007349   -0.00001467
     atom   39 type  1   force =     0.00000553    0.00002418    0.00003639
     atom   40 type  1   force =     0.00001768    0.00001304   -0.00001364
     atom   41 type  1   force =     0.00001086    0.00001638   -0.00000064
     atom   42 type  1   force =     0.00000465    0.00000701    0.00000245
     atom   43 type  1   force =     0.00002311    0.00001348   -0.00001707
     atom   44 type  1   force =     0.00008006   -0.00002354   -0.00001132
     atom   45 type  1   force =     0.00003114   -0.00000221    0.00002910
     atom   46 type  1   force =     0.00002252    0.00001169   -0.00003262
     atom   47 type  1   force =     0.00009381    0.00003418   -0.00000178
     atom   48 type  1   force =     0.00003367    0.00001426    0.00006491
     atom   49 type  2   force =     0.00006487    0.00001917    0.00003092
     atom   50 type  2   force =     0.00001662    0.00000504   -0.00001964
     atom   51 type  2   force =     0.00003749    0.00004978   -0.00000511
     atom   52 type  2   force =     0.00000982    0.00002270    0.00001540
     atom   53 type  2   force =     0.00000630   -0.00000248   -0.00001168
     atom   54 type  2   force =     0.00001284    0.00002595    0.00000823
     atom   55 type  2   force =    -0.00001783    0.00000427   -0.00000873
     atom   56 type  2   force =    -0.00000272    0.00000345   -0.00000545
     atom   57 type  2   force =     0.00007383    0.00003962    0.00002522
     atom   58 type  2   force =     0.00003226    0.00000572   -0.00000072
     atom   59 type  2   force =     0.00000545    0.00000904   -0.00000847
     atom   60 type  2   force =    -0.00002303   -0.00003242    0.00004930
[...]
     atom  130 type  2   force =    -0.00009471    0.00001198   -0.00001985
     atom  131 type  2   force =    -0.00002839    0.00002566    0.00002837
     atom  132 type  2   force =    -0.00001067    0.00000558   -0.00000781
     atom  133 type  2   force =    -0.00005977    0.00005913    0.00000481
     atom  134 type  2   force =     0.00000614    0.00002573    0.00002196
     atom  135 type  2   force =    -0.00000126   -0.00000044    0.00001526
     atom  136 type  2   force =    -0.00000454   -0.00000145   -0.00000304
     atom  137 type  2   force =     0.00000376    0.00000119    0.00000373
     atom  138 type  2   force =     0.00000700   -0.00000815   -0.00000486
     atom  139 type  2   force =     0.00003984   -0.00006861    0.00000326
     atom  140 type  2   force =     0.00003216   -0.00000352    0.00002176
     atom  141 type  2   force =    -0.00001094   -0.00000610   -0.00003426
     atom  142 type  2   force =    -0.00004872   -0.00003093    0.00004365
     atom  143 type  2   force =     0.00003276    0.00001963    0.00004509
     atom  144 type  1   force =     0.00011533    0.00003445    0.00000897

     Total force =     0.003888     Total SCF correction =     0.000626
     SCF correction compared to forces is large: reduce conv_thr to get better values

     Computing stress (Cartesian axis) and pressure

[...]

          total   stress  (Ry/bohr**3)                   (kbar)     P=        1.19
   0.00000655   0.00000000   0.00000000            0.96        0.00        0.00
   0.00000000   0.00000655  -0.00000000            0.00        0.96       -0.00
   0.00000000  -0.00000000   0.00001117            0.00       -0.00        1.64

     kinetic stress (kbar)  15039.71      0.00     -0.00
                                0.00  15039.71     -0.00
                               -0.00     -0.00  15051.84

     local   stress (kbar)  -7416.96      0.02     -0.00
                                0.02  -7416.96      0.01
                               -0.00      0.01   1457.10

     nonloc. stress (kbar)  -1144.91      0.00     -0.00
                                0.00  -1144.91     -0.00
                               -0.00     -0.00  -1149.53

     hartree stress (kbar)  11957.37     -0.01      0.00
                               -0.01  11957.37     -0.00
                                0.00     -0.00   7955.18

     exc-cor stress (kbar)   6922.25      0.00     -0.00
                                0.00   6922.25     -0.00
                               -0.00     -0.00   6921.25

     corecor stress (kbar) -11275.57     -0.00      0.00
                               -0.00 -11275.57      0.00
                                0.00      0.00 -11275.54

     ewald   stress (kbar) -14163.85     -0.02      0.00
                               -0.02 -14163.85     -0.01
                                0.00     -0.01 -19042.87

     hubbard stress (kbar)      0.00      0.00      0.00
                                0.00      0.00      0.00
                                0.00      0.00      0.00

     DFT-D   stress (kbar)      0.00      0.00      0.00
                                0.00      0.00      0.00
                                0.00      0.00      0.00

     XDM     stress (kbar)      0.00      0.00      0.00
                                0.00      0.00      0.00
                                0.00      0.00      0.00

     dft-nl  stress (kbar)     82.92     -0.00      0.00
                               -0.00     82.92      0.00
                                0.00      0.00     84.20

     TS-vdW  stress (kbar)      0.00      0.00      0.00
                                0.00      0.00      0.00
                                0.00      0.00      0.00

     MDB     stress (kbar)      0.00      0.00      0.00
                                0.00      0.00      0.00
                                0.00      0.00      0.00

     3D-RISM stress (kbar)      0.00      0.00      0.00
                                0.00      0.00      0.00
                                0.00      0.00      0.00

[...]

     Non-local corr. energy    =      68.72379501 Ry

 BEEFens 2000 ensemble energies
             -0.578484808791698E+02
             -0.582043315985437E+03
             -0.264875248237076E+03
              0.203343320062815E+03
             -0.444964744346347E+03
             -0.544725052150038E+03
              0.279634744130293E+03
              0.107345487723387E+01
              0.471154921112329E+03
             -0.297933076430591E+02
              0.241312700878354E+03
              0.245723945039514E+02
             -0.185497759477203E+02
             -0.150448335849169E+02
              0.300605181627935E+03
             -0.226565367745434E+03
             -0.444570087014621E+03
             -0.143455920076681E+03
              0.128492145924755E+03
             -0.283053198767811E+01
              0.655500757849882E+03
              0.547087417134685E+03
             -0.336976296141627E+03
              0.116473362898222E+03
             -0.702120046428719E+03
              0.576309052217994E+03
              0.197154345078259E+03
              0.520386078673863E+03
              0.350702787676849E+03
             -0.162838557555649E+03
              0.128393986415918E+03
             -0.229316776284053E+03
              0.957805105056594E+02
              0.348934347545253E+03
              0.375614173688663E+03
             -0.163088722413028E+03
              0.828274260548873E+03
             -0.333437886369120E+03
             -0.221922112857145E+03
              0.331255814254051E+03
              0.146064783790823E+03
              0.251844402163350E+03
             -0.486303594321809E+03
             -0.316108013549110E+02
              0.466550614969731E+03
              0.609810916892274E+03
             -0.619199070417741E+03
              0.396763888517313E+02
              0.214717284208757E+03
              0.138667137769407E+03
              0.242041412307539E+03
              0.531626047007600E+03
             -0.345334753363253E+03
             -0.335199498533917E+03
             -0.466774775689601E+03
             -0.676478382239802E+02
             -0.398132881053615E+03
              0.514147203863859E+02
             -0.574157287494854E+02
             -0.315948530348044E+03
[...]
              0.394518670936855E+03
              0.252631025943946E+03
              0.257603773172996E+03
             -0.476777908807257E+03
             -0.492348118920650E+03
             -0.111013553120784E+03
             -0.440071678925558E+03
              0.698748042443987E+03
              0.588529139491108E+03
              0.277610933821684E+03
              0.765196393606709E+03
             -0.382300641832933E+03
             -0.164764300121923E+03
             -0.237484070435855E+03
              0.662079199119279E+03

 BEEF-vdW xc energy contributions
            1 :    -5984.341675938337
            2 :     5483.364828668782
            3 :    -4629.231201815112
            4 :     3649.813042741595
            5 :    -2759.693800105754
            6 :     2090.827666875884
            7 :    -1670.889867790225
            8 :     1443.315515211468
            9 :    -1310.174016865177
           10 :     1179.246678115610
           11 :    -999.1148727312366
           12 :     770.2230108546783
           13 :    -530.2496515019375
           14 :     325.2328886011919
           15 :    -183.8149876466750
           16 :     106.4873873272163
           17 :    -70.87431409529381
           18 :     46.38197921310802
           19 :    -9.722505520863706
           20 :    -45.44443632117418
           21 :     108.3740456088735
           22 :    -159.9509369854686
           23 :     185.1129142221253
           24 :    -181.8529911064661
           25 :     162.0302795534071
           26 :    -144.3549882497764
           27 :     144.1595234043225
           28 :    -165.5909395077879
           29 :     199.9645540206329
           30 :    -230.7578031047715
           31 :    -515.7772008816073
           32 :    -371.1602330365276

     Writing all to output data dir ./PbI2.save/

     General routines

     Parallel routines

     PAW routines

   This run was terminated on:   9:14:28   9Mar2024

   JOB DONE.