     Program PWSCF v.7.1 starts on 30Jan2024 at 14:19:46

     Reading input from espresso.pwi
Warning: card &CELL ignored
Warning: card    CELL_DYNAMICS    = 'BFGS' ignored
Warning: card / ignored

     Current dimensions of program PWSCF are:
     Max number of different atomic species (ntypx) = 10
     Max number of k-points (npk) =  40000
     Max angular momentum in pseudopotentials (lmaxx) =  4
     file Ga.pbe-dn-kjpaw_psl.1.0.0.UPF: wavefunction(s)  4S renormalized
     file N.pbe-n-kjpaw_psl.1.0.0.UPF: wavefunction(s)  2S renormalized

     IMPORTANT: XC functional enforced from input :
     Exchange-correlation= BEEF-VDW
                           (   1   4  43  14   2   0   0)
     Any further DFT definition will be discarded
     Please, verify this is what you really want

     K-points division:     npool     =       4
     R & G space division:  proc/nbgrp/npool/nimage =      32
     Subspace diagonalization in iterative solution of the eigenvalue problem:
     a serial algorithm will be used

     Using Slab Decomposition

     bravais-lattice index     =            4
     lattice parameter (alat)  =      18.3939  a.u.
     unit-cell volume          =    5856.2271 (a.u.)^3
     number of atoms/cell      =           71
     number of atomic types    =            2
     number of electrons       =       636.00
     number of Kohn-Sham states=          382
     kinetic-energy cutoff     =      70.0000  Ry
     charge density cutoff     =     350.0000  Ry
     scf convergence threshold =      1.0E-09
     mixing beta               =       0.7000
     number of iterations used =            8  plain     mixing
     Exchange-correlation= BEEF-VDW
                           (   1   4  43  14   2   0   0)

     celldm(1)=  18.393924  celldm(2)=   0.000000  celldm(3)=   1.086586
     celldm(4)=   0.000000  celldm(5)=   0.000000  celldm(6)=   0.000000

     crystal axes: (cart. coord. in units of alat)
               a(1) = (   1.000000   0.000000   0.000000 )
               a(2) = (  -0.500000   0.866025   0.000000 )
               a(3) = (   0.000000   0.000000   1.086586 )

     reciprocal axes: (cart. coord. in units 2 pi/alat)
               b(1) = (  1.000000  0.577350 -0.000000 )
               b(2) = (  0.000000  1.154701  0.000000 )
               b(3) = (  0.000000 -0.000000  0.920314 )

     PseudoPot. # 1 for Ga read from file:
     /trace/group/acmegroup/atimmins/packages/espresso/pseudo/psl_1.0.0/pslibrary.1.0.0/pbe/PSEUDOPOTENTIALS/Ga.pbe-dn-kjpaw_psl.1.0.0.UPF
     MD5 check sum: cd2a01e492f15b435d17032472d8505c
     Pseudo is Projector augmented-wave + core cor, Zval = 13.0
     Generated using 'atomic' code by A. Dal Corso  v.7.1
     Shape of augmentation charge: PSQ
     Using radial grid of 1205 points,  6 beta functions with:
                l(1) =   0
                l(2) =   0
                l(3) =   1
                l(4) =   1
                l(5) =   2
                l(6) =   2
     Q(r) pseudized with 0 coefficients

     PseudoPot. # 2 for N  read from file:
     /trace/group/acmegroup/atimmins/packages/espresso/pseudo/psl_1.0.0/pslibrary.1.0.0/pbe/PSEUDOPOTENTIALS/N.pbe-n-kjpaw_psl.1.0.0.UPF
     MD5 check sum: f77f775694dac7e2c3fe1c82443d1a16
     Pseudo is Projector augmented-wave + core cor, Zval =  5.0
     Generated using 'atomic' code by A. Dal Corso  v.7.1
     Shape of augmentation charge: PSQ
     Using radial grid of 1085 points,  4 beta functions with:
                l(1) =   0
                l(2) =   0
                l(3) =   1
                l(4) =   1
     Q(r) pseudized with 0 coefficients

     atomic species   valence    mass     pseudopotential
        Ga            13.00    69.72300     Ga( 1.00)
        N              5.00    14.00700     N ( 1.00)

      6 Sym. Ops. (no inversion) found ( 4 have fractional translation)

                                    s                        frac. trans.

      isym =  1     identity

 cryst.   s( 1) = (     1          0          0      )
                  (     0          1          0      )
                  (     0          0          1      )

 cart.    s( 1) = (  1.0000000  0.0000000  0.0000000 )
                  (  0.0000000  1.0000000  0.0000000 )
                  (  0.0000000  0.0000000  1.0000000 )

      isym =  2     120 deg rotation - cryst. axis [0,0,1]

 cryst.   s( 2) = (     0          1          0      )    f =( -0.3333334 )
                  (    -1         -1          0      )       (  0.0000003 )
                  (     0          0          1      )       (  0.0000000 )

 cart.    s( 2) = ( -0.5000000 -0.8660254  0.0000000 )    f =( -0.3333335 )
                  (  0.8660254 -0.5000000  0.0000000 )       (  0.0000002 )
                  (  0.0000000  0.0000000  1.0000000 )       (  0.0000000 )

      isym =  3     120 deg rotation - cryst. axis [0,0,-1]

[...]

      isym =  4     inv. 180 deg rotation - cart. axis [1,0,0]

[...]

      isym =  5     inv. 180 deg rotation - cryst. axis [0,1,0]

 cryst.   s( 5) = (     1          1          0      )
                  (     0         -1          0      )
                  (     0          0          1      )

 cart.    s( 5) = (  0.5000000  0.8660254  0.0000000 )
                  (  0.8660254 -0.5000000  0.0000000 )
                  (  0.0000000  0.0000000  1.0000000 )

      isym =  6     inv. 180 deg rotation - cryst. axis [1,1,0]

 cryst.   s( 6) = (     0         -1          0      )    f =( -0.3333334 )
                  (    -1          0          0      )       ( -0.3333334 )
                  (     0          0          1      )       (  0.0000000 )

 cart.    s( 6) = (  0.5000000 -0.8660254  0.0000000 )    f =( -0.1666667 )
                  ( -0.8660254 -0.5000000  0.0000000 )       ( -0.2886752 )
                  (  0.0000000  0.0000000  1.0000000 )       (  0.0000000 )

     point group C_3v (3m)
     there are  3 classes
     the character table:

       E     2C3   3s_v
A_1    1.00  1.00  1.00
A_2    1.00  1.00 -1.00
E      2.00 -1.00  0.00

     the symmetry operations in each class and the name of the first element:

     E        1
          identity
     2C3      2    3
          120 deg rotation - cryst. axis [0,0,1]
     3s_v     4    5    6
          inv. 180 deg rotation - cart. axis [1,0,0]

   Cartesian axes

     site n.     atom                  positions (alat units)
         1           Ga  tau(   1) = (   0.1666668   0.0962250   0.8144844  )
         2           Ga  tau(   2) = (   0.0000001   0.3849001   0.2711914  )
         3           Ga  tau(   3) = (   0.0000001   0.3849001   0.8144844  )
         4           Ga  tau(   4) = (  -0.1666665   0.6735752   0.2711914  )
         5           Ga  tau(   5) = (  -0.1666665   0.6735752   0.8144844  )
         6           Ga  tau(   6) = (   0.5000001   0.0962250   0.2711914  )
         7           Ga  tau(   7) = (   0.5000001   0.0962250   0.8144844  )
         8           Ga  tau(   8) = (   0.3333335   0.3849001   0.2711914  )
         9           Ga  tau(   9) = (   0.3333335   0.3849001   0.8144844  )
        10           Ga  tau(  10) = (   0.1666668   0.6735752   0.2711914  )
        11           Ga  tau(  11) = (   0.1666668   0.6735752   0.8144844  )
        12           Ga  tau(  12) = (   0.8333335   0.0962250   0.2711914  )
        13           Ga  tau(  13) = (   0.8333335   0.0962250   0.8144844  )
        14           Ga  tau(  14) = (   0.6666668   0.3849001   0.2711914  )
        15           Ga  tau(  15) = (   0.6666668   0.3849001   0.8144844  )
        16           Ga  tau(  16) = (   0.5000001   0.6735752   0.2711914  )
        17           Ga  tau(  17) = (   0.5000001   0.6735752   0.8144844  )
        18           Ga  tau(  18) = (  -0.0000002   0.1924502   0.5428379  )
        19           Ga  tau(  19) = (  -0.0000002   0.1924502   1.0861309  )
        20           Ga  tau(  20) = (  -0.1666669   0.4811254   0.5428379  )
        21           Ga  tau(  21) = (  -0.1666669   0.4811254   1.0861309  )
        22           Ga  tau(  22) = (  -0.3333335   0.7698005   0.5428379  )
        23           Ga  tau(  23) = (  -0.3333335   0.7698005   1.0861309  )
        24           Ga  tau(  24) = (   0.3333331   0.1924502   0.5428379  )
        25           Ga  tau(  25) = (   0.3333331   0.1924502   1.0861309  )
        26           Ga  tau(  26) = (   0.1666665   0.4811254   0.5428379  )
        27           Ga  tau(  27) = (   0.1666665   0.4811254   1.0861309  )
        28           Ga  tau(  28) = (  -0.0000002   0.7698005   0.5428379  )
        29           Ga  tau(  29) = (  -0.0000002   0.7698005   1.0861309  )
        30           Ga  tau(  30) = (   0.6666665   0.1924502   0.5428379  )
        31           Ga  tau(  31) = (   0.6666665   0.1924502   1.0861309  )
        32           Ga  tau(  32) = (   0.4999998   0.4811254   0.5428379  )
        33           Ga  tau(  33) = (   0.4999998   0.4811254   1.0861309  )
        34           Ga  tau(  34) = (   0.3333331   0.7698005   0.5428379  )
        35           Ga  tau(  35) = (   0.3333331   0.7698005   1.0861309  )
        36           N   tau(  36) = (   0.1666668   0.0962250   0.4758365  )
        37           N   tau(  37) = (   0.1666668   0.0962250   1.0191295  )
        38           N   tau(  38) = (   0.0000001   0.3849001   0.4758365  )
        39           N   tau(  39) = (   0.0000001   0.3849001   1.0191295  )
        40           N   tau(  40) = (  -0.1666665   0.6735752   0.4758365  )
        41           N   tau(  41) = (  -0.1666665   0.6735752   1.0191295  )
        42           N   tau(  42) = (   0.5000001   0.0962250   0.4758365  )
        43           N   tau(  43) = (   0.5000001   0.0962250   1.0191295  )
        44           N   tau(  44) = (   0.3333335   0.3849001   0.4758365  )
        45           N   tau(  45) = (   0.3333335   0.3849001   1.0191295  )
        46           N   tau(  46) = (   0.1666668   0.6735752   0.4758365  )
        47           N   tau(  47) = (   0.1666668   0.6735752   1.0191295  )
        48           N   tau(  48) = (   0.8333335   0.0962250   0.4758365  )
        49           N   tau(  49) = (   0.8333335   0.0962250   1.0191295  )
        50           N   tau(  50) = (   0.6666668   0.3849001   0.4758365  )
        51           N   tau(  51) = (   0.6666668   0.3849001   1.0191295  )
        52           N   tau(  52) = (   0.5000001   0.6735752   0.4758365  )
        53           N   tau(  53) = (   0.5000001   0.6735752   1.0191295  )
        54           N   tau(  54) = (  -0.0000002   0.1924502   0.2041900  )
        55           N   tau(  55) = (  -0.0000002   0.1924502   0.7474830  )
        56           N   tau(  56) = (  -0.1666669   0.4811254   0.2041900  )
        57           N   tau(  57) = (  -0.1666669   0.4811254   0.7474830  )
        58           N   tau(  58) = (  -0.3333335   0.7698005   0.2041900  )
        59           N   tau(  59) = (  -0.3333335   0.7698005   0.7474830  )
        60           N   tau(  60) = (   0.3333331   0.1924502   0.2041900  )
        61           N   tau(  61) = (   0.3333331   0.1924502   0.7474830  )
[...]
     atom   16 type  1   force =     0.00000000    0.00000000    0.00000000
     atom   17 type  1   force =     0.00000000    0.00000000    0.00000000
     atom   18 type  1   force =     0.00000000    0.00000000    0.00000000
     atom   19 type  1   force =     0.00000000    0.00000000    0.00000000
     atom   20 type  1   force =     0.00000000    0.00000000    0.00000000
     atom   21 type  1   force =     0.00000000    0.00000000    0.00000000
     atom   22 type  1   force =     0.00000000    0.00000000    0.00000000
     atom   23 type  1   force =     0.00000000    0.00000000    0.00000000
     atom   24 type  1   force =     0.00000000    0.00000000    0.00000000
     atom   25 type  1   force =     0.00000000    0.00000000    0.00000000
     atom   26 type  1   force =     0.00000000    0.00000000    0.00000000
     atom   27 type  1   force =     0.00000000    0.00000000    0.00000000
     atom   28 type  1   force =     0.00000000    0.00000000    0.00000000
     atom   29 type  1   force =     0.00000000    0.00000000    0.00000000
     atom   30 type  1   force =     0.00000000    0.00000000    0.00000000
     atom   31 type  1   force =     0.00000000    0.00000000    0.00000000
     atom   32 type  1   force =     0.00000000    0.00000000    0.00000000
     atom   33 type  1   force =     0.00000000    0.00000000    0.00000000
     atom   34 type  1   force =     0.00000000    0.00000000    0.00000000
     atom   35 type  1   force =     0.00000000    0.00000000    0.00000000
     atom   36 type  2   force =     0.00000000    0.00000000    0.00000000
     atom   37 type  2   force =     0.00000000    0.00000000    0.00000000
     atom   38 type  2   force =     0.00000000    0.00000000    0.00000000
     atom   39 type  2   force =     0.00000000    0.00000000    0.00000000
     atom   40 type  2   force =     0.00000000    0.00000000    0.00000000
     atom   41 type  2   force =     0.00000000    0.00000000    0.00000000
     atom   42 type  2   force =     0.00000000    0.00000000    0.00000000
     atom   43 type  2   force =     0.00000000    0.00000000    0.00000000
     atom   44 type  2   force =     0.00000000    0.00000000    0.00000000
     atom   45 type  2   force =     0.00000000    0.00000000    0.00000000
     atom   46 type  2   force =     0.00000000    0.00000000    0.00000000
     atom   47 type  2   force =     0.00000000    0.00000000    0.00000000
     atom   48 type  2   force =     0.00000000    0.00000000    0.00000000
     atom   49 type  2   force =     0.00000000    0.00000000    0.00000000
     atom   50 type  2   force =     0.00000000    0.00000000    0.00000000
     atom   51 type  2   force =     0.00000000    0.00000000    0.00000000
     atom   52 type  2   force =     0.00000000    0.00000000    0.00000000
     atom   53 type  2   force =     0.00000000    0.00000000    0.00000000
     atom   54 type  2   force =     0.00000000    0.00000000    0.00000000
     atom   55 type  2   force =     0.00000000    0.00000000    0.00000000
     atom   56 type  2   force =     0.00000000    0.00000000    0.00000000
     atom   57 type  2   force =     0.00000000    0.00000000    0.00000000
     atom   58 type  2   force =     0.00000000    0.00000000    0.00000000
     atom   59 type  2   force =     0.00000000    0.00000000    0.00000000
     atom   60 type  2   force =     0.00000000    0.00000000    0.00000000
     atom   61 type  2   force =     0.00000000    0.00000000    0.00000000
     atom   62 type  2   force =     0.00000000    0.00000000    0.00000000
     atom   63 type  2   force =     0.00000000    0.00000000    0.00000000
     atom   64 type  2   force =     0.00000000    0.00000000    0.00000000
     atom   65 type  2   force =     0.00000000    0.00000000    0.00000000
     atom   66 type  2   force =     0.00000000    0.00000000    0.00000000
     atom   67 type  2   force =     0.00000000    0.00000000    0.00000000
     atom   68 type  2   force =     0.00000000    0.00000000    0.00000000
     atom   69 type  2   force =     0.00000000    0.00000000    0.00000000
     atom   70 type  2   force =     0.00000000    0.00000000    0.00000000
     atom   71 type  2   force =     0.00000000    0.00000000    0.00000000
     The SCF correction term to forces
     atom    1 type  1   force =    -0.00000000    0.00000000    0.00003075
     atom    2 type  1   force =    -0.00000929    0.00000757   -0.00001456
     atom    3 type  1   force =    -0.00000324    0.00000521    0.00001160
     atom    4 type  1   force =     0.00000191   -0.00001183   -0.00001456
     atom    5 type  1   force =     0.00000289   -0.00000541    0.00001160
     atom    6 type  1   force =     0.00001121    0.00000426   -0.00001456
     atom    7 type  1   force =     0.00000613    0.00000020    0.00001160
     atom    8 type  1   force =     0.00000929    0.00000757   -0.00001456
     atom    9 type  1   force =     0.00000324    0.00000521    0.00001160
     atom   10 type  1   force =    -0.00000000    0.00000000   -0.00001055
     atom   11 type  1   force =    -0.00000000    0.00000000    0.00000687
     atom   12 type  1   force =    -0.00001121    0.00000426   -0.00001456
     atom   13 type  1   force =    -0.00000613    0.00000020    0.00001160
     atom   14 type  1   force =     0.00000000    0.00000000   -0.00001094
     atom   15 type  1   force =     0.00000000   -0.00000000    0.00000874
     atom   16 type  1   force =    -0.00000191   -0.00001183   -0.00001456
     atom   17 type  1   force =    -0.00000289   -0.00000541    0.00001160
     atom   18 type  1   force =    -0.00003615    0.00002087    0.00000654
     atom   19 type  1   force =    -0.00000025    0.00000014   -0.00000150
     atom   20 type  1   force =    -0.00000171   -0.00000099   -0.00000155
     atom   21 type  1   force =    -0.00000191   -0.00000110    0.00000306
     atom   22 type  1   force =    -0.00000000   -0.00004175    0.00000654
     atom   23 type  1   force =     0.00000000   -0.00000029   -0.00000150
     atom   24 type  1   force =     0.00003615    0.00002087    0.00000654
     atom   25 type  1   force =     0.00000025    0.00000014   -0.00000150
     atom   26 type  1   force =     0.00000000    0.00000934    0.00000128
     atom   27 type  1   force =    -0.00000000    0.00000086    0.00000089
     atom   28 type  1   force =     0.00000809   -0.00000467    0.00000128
     atom   29 type  1   force =     0.00000075   -0.00000043    0.00000089
     atom   30 type  1   force =     0.00000000    0.00000197   -0.00000155
     atom   31 type  1   force =     0.00000000    0.00000221    0.00000306
     atom   32 type  1   force =     0.00000171   -0.00000099   -0.00000155
     atom   33 type  1   force =     0.00000191   -0.00000110    0.00000306
     atom   34 type  1   force =    -0.00000809   -0.00000467    0.00000128
     atom   35 type  1   force =    -0.00000075   -0.00000043    0.00000089
     atom   36 type  2   force =     0.00000000   -0.00000000    0.00000275
     atom   37 type  2   force =    -0.00000000    0.00000000    0.00000113
     atom   38 type  2   force =    -0.00000386    0.00000536   -0.00000132
     atom   39 type  2   force =    -0.00000094    0.00000025    0.00000119
     atom   40 type  2   force =     0.00000271   -0.00000603   -0.00000132
     atom   41 type  2   force =    -0.00000026   -0.00000094    0.00000119
     atom   42 type  2   force =     0.00000657    0.00000066   -0.00000132
     atom   43 type  2   force =     0.00000069    0.00000069    0.00000119
     atom   44 type  2   force =     0.00000386    0.00000536   -0.00000132
     atom   45 type  2   force =     0.00000094    0.00000025    0.00000119
     atom   46 type  2   force =     0.00000000   -0.00000000   -0.00000079
     atom   47 type  2   force =    -0.00000000   -0.00000000    0.00000087
     atom   48 type  2   force =    -0.00000657    0.00000066   -0.00000132
     atom   49 type  2   force =    -0.00000069    0.00000069    0.00000119
     atom   50 type  2   force =     0.00000000    0.00000000   -0.00000152
     atom   51 type  2   force =    -0.00000000    0.00000000    0.00000137
     atom   52 type  2   force =    -0.00000271   -0.00000603   -0.00000132
     atom   53 type  2   force =     0.00000026   -0.00000094    0.00000119
     atom   54 type  2   force =    -0.00000375    0.00000216   -0.00000674
     atom   55 type  2   force =    -0.00000427    0.00000246    0.00000836
     atom   56 type  2   force =    -0.00000091   -0.00000053   -0.00000290
     atom   57 type  2   force =    -0.00000057   -0.00000033    0.00000319
     atom   58 type  2   force =    -0.00000000   -0.00000432   -0.00000674
     atom   59 type  2   force =    -0.00000000   -0.00000493    0.00000836
     atom   60 type  2   force =     0.00000375    0.00000216   -0.00000674
     atom   61 type  2   force =     0.00000427    0.00000246    0.00000836
     atom   62 type  2   force =     0.00000000    0.00000185   -0.00000361
     atom   63 type  2   force =     0.00000000    0.00000225    0.00000372
     atom   64 type  2   force =     0.00000160   -0.00000093   -0.00000361
     atom   65 type  2   force =     0.00000195   -0.00000112    0.00000372
     atom   66 type  2   force =     0.00000000    0.00000106   -0.00000290
     atom   67 type  2   force =     0.00000000    0.00000066    0.00000319
     atom   68 type  2   force =     0.00000091   -0.00000053   -0.00000290
     atom   69 type  2   force =     0.00000057   -0.00000033    0.00000319
     atom   70 type  2   force =    -0.00000160   -0.00000093   -0.00000361
     atom   71 type  2   force =    -0.00000195   -0.00000112    0.00000372

     Total force =     0.003563     Total SCF correction =     0.000105

     Computing stress (Cartesian axis) and pressure

[...]

          total   stress  (Ry/bohr**3)                   (kbar)     P=       29.23
   0.00019058  -0.00000000   0.00000000           28.04       -0.00        0.00
   0.00000000   0.00019058   0.00000000            0.00       28.04        0.00
   0.00000000   0.00000000   0.00021492            0.00        0.00       31.62

     kinetic stress (kbar)  18180.87     -0.00      0.00
                               -0.00  18180.87      0.00
                                0.00      0.00  18195.90

     local   stress (kbar)   4123.75     -0.07     -0.00
                               -0.07   4123.66      0.00
                               -0.00      0.00   2616.72

     nonloc. stress (kbar)     30.02     -0.00      0.00
                               -0.00     30.02     -0.00
                                0.00     -0.00     34.59

     hartree stress (kbar)  19600.90     -0.00     -0.00
                               -0.00  19600.90      0.00
                               -0.00      0.00  20277.72

     exc-cor stress (kbar)   5040.57      0.00      0.00
                                0.00   5040.57      0.00
                                0.00      0.00   5041.24

     corecor stress (kbar) -13735.94     -0.00      0.00
                               -0.00 -13735.94      0.00
                                0.00      0.00 -13735.79

     ewald   stress (kbar) -33370.43      0.09      0.00
                                0.09 -33370.31     -0.00
                                0.00     -0.00 -32556.17

     hubbard stress (kbar)      0.00      0.00      0.00
                                0.00      0.00      0.00
                                0.00      0.00      0.00

     DFT-D   stress (kbar)      0.00      0.00      0.00
                                0.00      0.00      0.00
                                0.00      0.00      0.00

     XDM     stress (kbar)      0.00      0.00      0.00
                                0.00      0.00      0.00
                                0.00      0.00      0.00

     dft-nl  stress (kbar)    158.29     -0.00     -0.00
                               -0.00    158.29     -0.00
                               -0.00     -0.00    157.41

     TS-vdW  stress (kbar)      0.00      0.00      0.00
                                0.00      0.00      0.00
                                0.00      0.00      0.00

     MDB     stress (kbar)      0.00      0.00      0.00
                                0.00      0.00      0.00
                                0.00      0.00      0.00

     3D-RISM stress (kbar)      0.00      0.00      0.00
                                0.00      0.00      0.00
                                0.00      0.00      0.00

[...]

     Non-local corr. energy    =      19.17518742 Ry

 BEEFens 2000 ensemble energies
             -0.155421291874621E+02
             -0.139569154947577E+03
             -0.599640990563525E+02
              0.491503975397852E+02
             -0.100268944257715E+03
             -0.129028378914931E+03
              0.663647993264706E+02
             -0.704423150666702E+01
              0.110497026169745E+03
             -0.475788477448998E+01
              0.541492780795837E+02
              0.223434420146179E+01
              0.227442775068840E+01
             -0.477775143314670E+01
              0.723186823078043E+02
             -0.527032210276764E+02
             -0.108658006627538E+03
             -0.354767349533395E+02
              0.264985576208490E+02
             -0.236437106848712E+01
              0.158391830761865E+03
              0.134875592360847E+03
             -0.771118940287299E+02
              0.280091141558130E+02
             -0.169261824490770E+03
              0.135716154759585E+03
              0.443501927672128E+02
              0.132022174788028E+03
              0.867202611439732E+02
             -0.422837696921256E+02
              0.319588679402804E+02
             -0.624316564131157E+02
              0.173498451966820E+02
              0.847613434345979E+02
              0.899756119966111E+02
             -0.324437360456017E+02
              0.199831837670225E+03
             -0.758064149704330E+02
             -0.545862327162959E+02
              0.800673106238070E+02
              0.357776895742373E+02
              0.599715034599938E+02
             -0.114233935338418E+03
             -0.321839842938880E+01
              0.112199041496190E+03
              0.145687426341077E+03
             -0.144977405677168E+03
              0.103291917604757E+02
              0.546804997897226E+02
              0.265247016786842E+02
              0.606491672615658E+02
              0.128465288711234E+03
             -0.776863940883125E+02
             -0.851463066658075E+02
             -0.110691976044037E+03
             -0.171971957651019E+02
             -0.100946075046283E+03
              0.983832038250569E+01
             -0.187479530720583E+02
             -0.787436075481151E+02
[...]
              0.983007723815851E+02
              0.541918562122381E+02
              0.689923627566950E+02
             -0.111398135007633E+03
             -0.106497490620839E+03
             -0.270230100225087E+02
             -0.104479142411763E+03
              0.167380762183566E+03
              0.143453855636022E+03
              0.685380073860169E+02
              0.185535758312702E+03
             -0.965754227346528E+02
             -0.394020976768068E+02
             -0.547226312182961E+02
              0.153422077757727E+03

 BEEF-vdW xc energy contributions
            1 :    -1406.682623547670
            2 :     1266.791260046246
            3 :    -1032.434999515843
            4 :     772.2187945031690
            5 :    -546.4942985509683
            6 :     384.4269346133224
            7 :    -280.7657883431089
            8 :     210.7365516215568
            9 :    -151.0494661232333
           10 :     93.38569763831970
           11 :    -43.93358971195539
           12 :     12.74672604502894
           13 :    -2.706987895003977
           14 :     6.239485930223054
           15 :    -10.88852765432352
           16 :     8.156271300125809
           17 :     1.610599960624995
           18 :    -11.53435833365188
           19 :     15.06978457673540
           20 :    -11.59263072686463
           21 :     6.529299254869784
           22 :    -6.527360851923731
           23 :     13.97933133952938
           24 :    -25.29729094618801
           25 :     33.98706653803606
           26 :    -35.71571102745042
           27 :     31.25850319463120
           28 :    -25.24306115413765
           29 :     22.08825725840779
           30 :    -22.60408240210540
           31 :    -120.7693295695794
           32 :    -82.72859023123374

     Writing all to output data dir ./GaN.save/

     General routines

     Parallel routines

     PAW routines

   This run was terminated on:  14:20:47  30Jan2024

   JOB DONE.