     Program PWSCF v.7.1 starts on 28Feb2024 at 20:52:47

     Reading input from espresso.pwi
Warning: card &CELL ignored
Warning: card    CELL_DYNAMICS    = 'BFGS' ignored
Warning: card / ignored

     Current dimensions of program PWSCF are:
     Max number of different atomic species (ntypx) = 10
     Max number of k-points (npk) =  40000
     Max angular momentum in pseudopotentials (lmaxx) =  4
     file Ga.pbe-dn-kjpaw_psl.1.0.0.UPF: wavefunction(s)  4S renormalized
     file N.pbe-n-kjpaw_psl.1.0.0.UPF: wavefunction(s)  2S renormalized

     IMPORTANT: XC functional enforced from input :
     Exchange-correlation= BEEF-VDW
                           (   1   4  43  14   2   0   0)
     Any further DFT definition will be discarded
     Please, verify this is what you really want

     K-points division:     npool     =       4
     R & G space division:  proc/nbgrp/npool/nimage =      64
     Subspace diagonalization in iterative solution of the eigenvalue problem:
     a serial algorithm will be used

     Using Slab Decomposition

     bravais-lattice index     =            4
     lattice parameter (alat)  =      30.6565  a.u.
     unit-cell volume          =   24400.9461 (a.u.)^3
     number of atoms/cell      =          300
     number of atomic types    =            2
     number of electrons       =      2706.00
     number of Kohn-Sham states=         1624
     kinetic-energy cutoff     =      70.0000  Ry
     charge density cutoff     =     350.0000  Ry
     scf convergence threshold =      1.0E-07
     mixing beta               =       0.7000
     number of iterations used =            8  plain     mixing
     Exchange-correlation= BEEF-VDW
                           (   1   4  43  14   2   0   0)

     celldm(1)=  30.656540  celldm(2)=   0.000000  celldm(3)=   0.977927
     celldm(4)=   0.000000  celldm(5)=   0.000000  celldm(6)=   0.000000

     crystal axes: (cart. coord. in units of alat)
               a(1) = (   1.000000   0.000000   0.000000 )
               a(2) = (  -0.500000   0.866025   0.000000 )
               a(3) = (   0.000000   0.000000   0.977927 )

     reciprocal axes: (cart. coord. in units 2 pi/alat)
               b(1) = (  1.000000  0.577350 -0.000000 )
               b(2) = (  0.000000  1.154701  0.000000 )
               b(3) = (  0.000000 -0.000000  1.022571 )

     PseudoPot. # 1 for Ga read from file:
     /trace/group/acmegroup/atimmins/packages/espresso/pseudo/psl_1.0.0/pslibrary.1.0.0/pbe/PSEUDOPOTENTIALS/Ga.pbe-dn-kjpaw_psl.1.0.0.UPF
     MD5 check sum: cd2a01e492f15b435d17032472d8505c
     Pseudo is Projector augmented-wave + core cor, Zval = 13.0
     Generated using 'atomic' code by A. Dal Corso  v.7.1
     Shape of augmentation charge: PSQ
     Using radial grid of 1205 points,  6 beta functions with:
                l(1) =   0
                l(2) =   0
                l(3) =   1
                l(4) =   1
                l(5) =   2
                l(6) =   2
     Q(r) pseudized with 0 coefficients

     PseudoPot. # 2 for N  read from file:
     /trace/group/acmegroup/atimmins/packages/espresso/pseudo/psl_1.0.0/pslibrary.1.0.0/pbe/PSEUDOPOTENTIALS/N.pbe-n-kjpaw_psl.1.0.0.UPF
     MD5 check sum: f77f775694dac7e2c3fe1c82443d1a16
     Pseudo is Projector augmented-wave + core cor, Zval =  5.0
     Generated using 'atomic' code by A. Dal Corso  v.7.1
     Shape of augmentation charge: PSQ
     Using radial grid of 1085 points,  4 beta functions with:
                l(1) =   0
                l(2) =   0
                l(3) =   1
                l(4) =   1
     Q(r) pseudized with 0 coefficients

     atomic species   valence    mass     pseudopotential
        Ga            13.00    69.72300     Ga( 1.00)
        N              5.00    14.00700     N ( 1.00)

      2 Sym. Ops. (no inversion) found

                                    s                        frac. trans.

      isym =  1     identity

 cryst.   s( 1) = (     1          0          0      )
                  (     0          1          0      )
                  (     0          0          1      )

 cart.    s( 1) = (  1.0000000  0.0000000  0.0000000 )
                  (  0.0000000  1.0000000  0.0000000 )
                  (  0.0000000  0.0000000  1.0000000 )

      isym =  2     inv. 180 deg rotation - cryst. axis [0,1,0]

 cryst.   s( 2) = (     1          1          0      )
                  (     0         -1          0      )
                  (     0          0          1      )

 cart.    s( 2) = (  0.5000000  0.8660254  0.0000000 )
                  (  0.8660254 -0.5000000  0.0000000 )
                  (  0.0000000  0.0000000  1.0000000 )

     point group C_s (m)
     there are  2 classes
     the character table:

       E     s
A'     1.00  1.00
A''    1.00 -1.00

     the symmetry operations in each class and the name of the first element:

     E        1
          identity
     s        2
          inv. 180 deg rotation - cryst. axis [0,1,0]

   Cartesian axes

     site n.     atom                  positions (alat units)
         1           Ga  tau(   1) = (   0.1000001   0.0577350   0.1627148  )
         2           Ga  tau(   2) = (   0.1000001   0.0577350   0.4886906  )
         3           Ga  tau(   3) = (   0.1000001   0.0577350   0.8146665  )
         4           Ga  tau(   4) = (   0.0000001   0.2309401   0.1627148  )
         5           Ga  tau(   5) = (   0.0000001   0.2309401   0.4886906  )
         6           Ga  tau(   6) = (   0.0000001   0.2309401   0.8146665  )
         7           Ga  tau(   7) = (  -0.0999999   0.4041451   0.1627148  )
         8           Ga  tau(   8) = (  -0.0999999   0.4041451   0.4886906  )
         9           Ga  tau(   9) = (  -0.0999999   0.4041451   0.8146665  )
        10           Ga  tau(  10) = (  -0.1999999   0.5773502   0.1627148  )
        11           Ga  tau(  11) = (  -0.1999999   0.5773502   0.4886906  )
        12           Ga  tau(  12) = (  -0.1999999   0.5773502   0.8146665  )
        13           Ga  tau(  13) = (  -0.2999999   0.7505553   0.1627148  )
        14           Ga  tau(  14) = (  -0.2999999   0.7505553   0.4886906  )
        15           Ga  tau(  15) = (  -0.2999999   0.7505553   0.8146665  )
        16           Ga  tau(  16) = (   0.3000001   0.0577350   0.1627148  )
        17           Ga  tau(  17) = (   0.3000001   0.0577350   0.4886906  )
        18           Ga  tau(  18) = (   0.3000001   0.0577350   0.8146665  )
        19           Ga  tau(  19) = (   0.2000001   0.2309401   0.1627148  )
        20           Ga  tau(  20) = (   0.2000001   0.2309401   0.4886906  )
        21           Ga  tau(  21) = (   0.2000001   0.2309401   0.8146665  )
        22           Ga  tau(  22) = (   0.1000001   0.4041451   0.1627148  )
        23           Ga  tau(  23) = (   0.1000001   0.4041451   0.4886906  )
        24           Ga  tau(  24) = (   0.1000001   0.4041451   0.8146665  )
        25           Ga  tau(  25) = (   0.0000001   0.5773502   0.1627148  )
        26           Ga  tau(  26) = (   0.0000001   0.5773502   0.4886906  )
        27           Ga  tau(  27) = (   0.0000001   0.5773502   0.8146665  )
        28           Ga  tau(  28) = (  -0.0999999   0.7505553   0.1627148  )
        29           Ga  tau(  29) = (  -0.0999999   0.7505553   0.4886906  )
        30           Ga  tau(  30) = (  -0.0999999   0.7505553   0.8146665  )
        31           Ga  tau(  31) = (   0.5000001   0.0577350   0.1627148  )
        32           Ga  tau(  32) = (   0.5000001   0.0577350   0.4886906  )
        33           Ga  tau(  33) = (   0.5000001   0.0577350   0.8146665  )
        34           Ga  tau(  34) = (   0.4000001   0.2309401   0.1627148  )
        35           Ga  tau(  35) = (   0.4000001   0.2309401   0.4886906  )
        36           Ga  tau(  36) = (   0.4000001   0.2309401   0.8146665  )
        37           Ga  tau(  37) = (   0.3000001   0.4041451   0.1627148  )
        38           Ga  tau(  38) = (   0.3000001   0.4041451   0.4886906  )
        39           Ga  tau(  39) = (   0.3000001   0.4041451   0.8146665  )
        40           Ga  tau(  40) = (   0.2000001   0.5773502   0.1627148  )
        41           Ga  tau(  41) = (   0.2000001   0.5773502   0.4886906  )
        42           Ga  tau(  42) = (   0.2000001   0.5773502   0.8146665  )
        43           Ga  tau(  43) = (   0.1000001   0.7505553   0.1627148  )
        44           Ga  tau(  44) = (   0.1000001   0.7505553   0.4886906  )
        45           Ga  tau(  45) = (   0.1000001   0.7505553   0.8146665  )
        46           Ga  tau(  46) = (   0.7000001   0.0577350   0.1627148  )
        47           Ga  tau(  47) = (   0.7000001   0.0577350   0.4886906  )
        48           Ga  tau(  48) = (   0.7000001   0.0577350   0.8146665  )
        49           Ga  tau(  49) = (   0.6000001   0.2309401   0.1627148  )
        50           Ga  tau(  50) = (   0.6000001   0.2309401   0.4886906  )
        51           Ga  tau(  51) = (   0.6000001   0.2309401   0.8146665  )
        52           Ga  tau(  52) = (   0.5000001   0.4041451   0.1627148  )
        53           Ga  tau(  53) = (   0.5000001   0.4041451   0.4886906  )
        54           Ga  tau(  54) = (   0.5000001   0.4041451   0.8146665  )
        55           Ga  tau(  55) = (   0.4000001   0.5773502   0.1627148  )
        56           Ga  tau(  56) = (   0.4000001   0.5773502   0.4886906  )
        57           Ga  tau(  57) = (   0.4000001   0.5773502   0.8146665  )
        58           Ga  tau(  58) = (   0.3000001   0.7505553   0.1627148  )
        59           Ga  tau(  59) = (   0.3000001   0.7505553   0.4886906  )
        60           Ga  tau(  60) = (   0.3000001   0.7505553   0.8146665  )
[...]
       286           N   tau( 286) = (   0.7999999   0.1154701   0.4484898  )
       287           N   tau( 287) = (   0.7999999   0.1154701   0.7744656  )
       288           N   tau( 288) = (   0.6999999   0.2886752   0.1225140  )
       289           N   tau( 289) = (   0.6999999   0.2886752   0.4484898  )
       290           N   tau( 290) = (   0.6999999   0.2886752   0.7744656  )
       291           N   tau( 291) = (   0.5999999   0.4618803   0.1225140  )
       292           N   tau( 292) = (   0.5999999   0.4618803   0.4484898  )
       293           N   tau( 293) = (   0.5999999   0.4618803   0.7744656  )
       294           N   tau( 294) = (   0.4999999   0.6350854   0.1225140  )
       295           N   tau( 295) = (   0.4999999   0.6350854   0.4484898  )
       296           N   tau( 296) = (   0.4999999   0.6350854   0.7744656  )
       297           N   tau( 297) = (   0.3999999   0.8082905   0.1225140  )
       298           N   tau( 298) = (   0.3999999   0.8082905   0.4484898  )
       299           N   tau( 299) = (   0.3999999   0.8082905   0.7744656  )
       300           Ga  tau( 300) = (   0.1000001   0.0577350   0.2855019  )

   Crystallographic axes

     site n.     atom                  positions (cryst. coord.)
         1           Ga  tau(   1) = (  0.1333334  0.0666666  0.1663874  )
         2           Ga  tau(   2) = (  0.1333334  0.0666666  0.4997208  )
[...]
     atom   26 type  1   force =     0.00000000    0.00000000    0.00000000
     atom   27 type  1   force =     0.00000000    0.00000000    0.00000000
     atom   28 type  1   force =     0.00000000    0.00000000    0.00000000
     atom   29 type  1   force =     0.00000000    0.00000000    0.00000000
     atom   30 type  1   force =     0.00000000    0.00000000    0.00000000
     atom   31 type  1   force =     0.00000000    0.00000000    0.00000000
     atom   32 type  1   force =     0.00000000    0.00000000    0.00000000
     atom   33 type  1   force =     0.00000000    0.00000000    0.00000000
     atom   34 type  1   force =     0.00000000    0.00000000    0.00000000
     atom   35 type  1   force =     0.00000000    0.00000000    0.00000000
     atom   36 type  1   force =     0.00000000    0.00000000    0.00000000
     atom   37 type  1   force =     0.00000000    0.00000000    0.00000000
     atom   38 type  1   force =     0.00000000    0.00000000    0.00000000
     atom   39 type  1   force =     0.00000000    0.00000000    0.00000000
     atom   40 type  1   force =     0.00000000    0.00000000    0.00000000
     atom   41 type  1   force =     0.00000000    0.00000000    0.00000000
     atom   42 type  1   force =     0.00000000    0.00000000    0.00000000
     atom   43 type  1   force =     0.00000000    0.00000000    0.00000000
     atom   44 type  1   force =     0.00000000    0.00000000    0.00000000
     atom   45 type  1   force =     0.00000000    0.00000000    0.00000000
     atom   46 type  1   force =     0.00000000    0.00000000    0.00000000
     atom   47 type  1   force =     0.00000000    0.00000000    0.00000000
     atom   48 type  1   force =     0.00000000    0.00000000    0.00000000
     atom   49 type  1   force =     0.00000000    0.00000000    0.00000000
     atom   50 type  1   force =     0.00000000    0.00000000    0.00000000
     atom   51 type  1   force =     0.00000000    0.00000000    0.00000000
     atom   52 type  1   force =     0.00000000    0.00000000    0.00000000
     atom   53 type  1   force =     0.00000000    0.00000000    0.00000000
     atom   54 type  1   force =     0.00000000    0.00000000    0.00000000
     atom   55 type  1   force =     0.00000000    0.00000000    0.00000000
     atom   56 type  1   force =     0.00000000    0.00000000    0.00000000
     atom   57 type  1   force =     0.00000000    0.00000000    0.00000000
     atom   58 type  1   force =     0.00000000    0.00000000    0.00000000
     atom   59 type  1   force =     0.00000000    0.00000000    0.00000000
     atom   60 type  1   force =     0.00000000    0.00000000    0.00000000
[...]
     atom  286 type  2   force =     0.00000000    0.00000000    0.00000000
     atom  287 type  2   force =     0.00000000    0.00000000    0.00000000
     atom  288 type  2   force =     0.00000000    0.00000000    0.00000000
     atom  289 type  2   force =     0.00000000    0.00000000    0.00000000
     atom  290 type  2   force =     0.00000000    0.00000000    0.00000000
     atom  291 type  2   force =     0.00000000    0.00000000    0.00000000
     atom  292 type  2   force =     0.00000000    0.00000000    0.00000000
     atom  293 type  2   force =     0.00000000    0.00000000    0.00000000
     atom  294 type  2   force =     0.00000000    0.00000000    0.00000000
     atom  295 type  2   force =     0.00000000    0.00000000    0.00000000
     atom  296 type  2   force =     0.00000000    0.00000000    0.00000000
     atom  297 type  2   force =     0.00000000    0.00000000    0.00000000
     atom  298 type  2   force =     0.00000000    0.00000000    0.00000000
     atom  299 type  2   force =     0.00000000    0.00000000    0.00000000
     atom  300 type  1   force =     0.00000000    0.00000000    0.00000000
     The SCF correction term to forces
     atom    1 type  1   force =    -0.00001968   -0.00001136    0.00004160
     atom    2 type  1   force =     0.00000576    0.00000332    0.00000539
     atom    3 type  1   force =    -0.00000830   -0.00000479   -0.00004991
     atom    4 type  1   force =     0.00000534   -0.00003341    0.00001796
     atom    5 type  1   force =     0.00001227   -0.00002922    0.00001718
     atom    6 type  1   force =     0.00001518   -0.00003607   -0.00003091
     atom    7 type  1   force =    -0.00000658    0.00001261    0.00003981
     atom    8 type  1   force =    -0.00000396    0.00000429   -0.00001837
     atom    9 type  1   force =     0.00001568   -0.00001038   -0.00001630
     atom   10 type  1   force =     0.00000763   -0.00001200    0.00003981
     atom   11 type  1   force =     0.00000173   -0.00000558   -0.00001837
     atom   12 type  1   force =    -0.00000115    0.00001877   -0.00001630
     atom   13 type  1   force =    -0.00002627    0.00002133    0.00001796
     atom   14 type  1   force =    -0.00001918    0.00002524    0.00001718
     atom   15 type  1   force =    -0.00002364    0.00003118   -0.00003091
     atom   16 type  1   force =    -0.00002878   -0.00000633    0.00002593
     atom   17 type  1   force =    -0.00003879    0.00000783    0.00001568
     atom   18 type  1   force =    -0.00003910   -0.00000495   -0.00003445
     atom   19 type  1   force =    -0.00001987   -0.00002176    0.00002593
     atom   20 type  1   force =    -0.00001262   -0.00003751    0.00001568
     atom   21 type  1   force =    -0.00002383   -0.00003139   -0.00003445
     atom   22 type  1   force =    -0.00000228    0.00002660    0.00003481
     atom   23 type  1   force =     0.00000087    0.00001719   -0.00001249
     atom   24 type  1   force =    -0.00000031   -0.00001191   -0.00002212
     atom   25 type  1   force =     0.00001485    0.00000858    0.00004846
     atom   26 type  1   force =     0.00000897    0.00000518   -0.00003148
     atom   27 type  1   force =     0.00000422    0.00000244   -0.00001277
     atom   28 type  1   force =     0.00002189   -0.00001527    0.00003481
     atom   29 type  1   force =     0.00001532   -0.00000785   -0.00001249
     atom   30 type  1   force =    -0.00001047    0.00000569   -0.00002212
     atom   31 type  1   force =     0.00002311   -0.00000655    0.00004257
     atom   32 type  1   force =     0.00000893   -0.00000166   -0.00001717
     atom   33 type  1   force =    -0.00000852   -0.00001302   -0.00001784
     atom   34 type  1   force =     0.00002325    0.00001343    0.00003327
     atom   35 type  1   force =     0.00001117    0.00000645   -0.00000683
     atom   36 type  1   force =    -0.00002683   -0.00001549   -0.00001814
     atom   37 type  1   force =     0.00000588    0.00002329    0.00004257
     atom   38 type  1   force =     0.00000302    0.00000856   -0.00001717
     atom   39 type  1   force =    -0.00001554   -0.00000086   -0.00001784
     atom   40 type  1   force =    -0.00000879    0.00001522    0.00004887
     atom   41 type  1   force =    -0.00000323    0.00000942   -0.00003166
     atom   42 type  1   force =     0.00000283    0.00000643   -0.00001253
     atom   43 type  1   force =     0.00000879   -0.00001522    0.00004887
     atom   44 type  1   force =     0.00000655   -0.00000751   -0.00003166
     atom   45 type  1   force =     0.00000699   -0.00000076   -0.00001253
     atom   46 type  1   force =    -0.00000426   -0.00000650    0.00004034
     atom   47 type  1   force =    -0.00000003   -0.00000319   -0.00001910
     atom   48 type  1   force =     0.00002166   -0.00001365   -0.00001595
     atom   49 type  1   force =     0.00000720    0.00001369    0.00003937
     atom   50 type  1   force =     0.00000383    0.00000980   -0.00003513
     atom   51 type  1   force =     0.00000522   -0.00001776   -0.00001177
     atom   52 type  1   force =     0.00001545   -0.00000061    0.00003937
     atom   53 type  1   force =     0.00001040   -0.00000158   -0.00003513
     atom   54 type  1   force =    -0.00001277    0.00001340   -0.00001177
     atom   55 type  1   force =    -0.00000776   -0.00000044    0.00004034
     atom   56 type  1   force =    -0.00000278    0.00000157   -0.00001910
     atom   57 type  1   force =    -0.00000099    0.00002559   -0.00001595
     atom   58 type  1   force =    -0.00001403   -0.00000810    0.00003498
     atom   59 type  1   force =    -0.00001047   -0.00000605   -0.00001658
     atom   60 type  1   force =     0.00001573    0.00000908   -0.00001952
[...]
     atom  286 type  2   force =    -0.00000723   -0.00000214   -0.00000174
     atom  287 type  2   force =     0.00001521   -0.00000687   -0.00000899
     atom  288 type  2   force =    -0.00000409    0.00000135    0.00002009
     atom  289 type  2   force =    -0.00000614    0.00000239   -0.00001220
     atom  290 type  2   force =     0.00000847   -0.00000629   -0.00001002
     atom  291 type  2   force =    -0.00000088   -0.00000422    0.00002009
     atom  292 type  2   force =    -0.00000100   -0.00000651   -0.00001220
     atom  293 type  2   force =    -0.00000121    0.00001048   -0.00001002
     atom  294 type  2   force =    -0.00000171    0.00000378    0.00001187
     atom  295 type  2   force =    -0.00000547   -0.00000519   -0.00000174
     atom  296 type  2   force =     0.00000165    0.00001661   -0.00000899
     atom  297 type  2   force =     0.00000583    0.00000337    0.00001319
     atom  298 type  2   force =     0.00000100    0.00000058   -0.00000087
     atom  299 type  2   force =     0.00001412    0.00000815   -0.00001021
     atom  300 type  1   force =    -0.00002090   -0.00001207   -0.00000860

     Total force =     0.003395     Total SCF correction =     0.000447
     SCF correction compared to forces is large: reduce conv_thr to get better values

     Computing stress (Cartesian axis) and pressure

[...]

          total   stress  (Ry/bohr**3)                   (kbar)     P=       -2.87
  -0.00003846  -0.00000020   0.00000022           -5.66       -0.03        0.03
  -0.00000020  -0.00003824   0.00000012           -0.03       -5.62        0.02
   0.00000022   0.00000012   0.00001808            0.03        0.02        2.66

     kinetic stress (kbar)  18449.98     -0.00      0.07
                               -0.00  18449.98      0.04
                                0.07      0.04  18462.25

     local   stress (kbar)   5634.92      1.29     -0.42
                                1.29   5633.25     -0.24
                               -0.42     -0.24   3676.77

     nonloc. stress (kbar)     84.12     -0.01      0.02
                               -0.01     84.13      0.01
                                0.02      0.01     89.70

     hartree stress (kbar)  19660.35     -0.51      0.17
                               -0.51  19660.93      0.10
                                0.17      0.10  20528.57

     exc-cor stress (kbar)   5268.72     -0.01      0.00
                               -0.01   5268.73      0.00
                                0.00      0.00   5269.98

     corecor stress (kbar) -14195.90      0.01     -0.00
                                0.01 -14195.91     -0.00
                               -0.00     -0.00 -14195.72

     ewald   stress (kbar) -35070.86     -0.79      0.20
                               -0.79 -35069.71      0.11
                                0.20      0.11 -33990.73

     hubbard stress (kbar)      0.00      0.00      0.00
                                0.00      0.00      0.00
                                0.00      0.00      0.00

     DFT-D   stress (kbar)      0.00      0.00      0.00
                                0.00      0.00      0.00
                                0.00      0.00      0.00

     XDM     stress (kbar)      0.00      0.00      0.00
                                0.00      0.00      0.00
                                0.00      0.00      0.00

     dft-nl  stress (kbar)    162.99      0.00     -0.00
                                0.00    162.99     -0.00
                               -0.00     -0.00    161.84

     TS-vdW  stress (kbar)      0.00      0.00      0.00
                                0.00      0.00      0.00
                                0.00      0.00      0.00

     MDB     stress (kbar)      0.00      0.00      0.00
                                0.00      0.00      0.00
                                0.00      0.00      0.00

     3D-RISM stress (kbar)      0.00      0.00      0.00
                                0.00      0.00      0.00
                                0.00      0.00      0.00

[...]

     Non-local corr. energy    =      82.13195819 Ry

 BEEFens 2000 ensemble energies
             -0.664010849430836E+02
             -0.598374803130371E+03
             -0.257488689062691E+03
              0.210555683944553E+03
             -0.430403849790207E+03
             -0.553450850248478E+03
              0.284248513203271E+03
             -0.298936133756647E+02
              0.474055694117395E+03
             -0.204931211968210E+02
              0.232699981927703E+03
              0.968088121890082E+01
              0.942121718106637E+01
             -0.203027845346023E+02
              0.310200242260413E+03
             -0.225882405108775E+03
             -0.465392865891078E+03
             -0.152067248544976E+03
              0.113710161799046E+03
             -0.102545894115929E+02
              0.679647551829651E+03
              0.578242332072543E+03
             -0.331204489759302E+03
              0.119794228341315E+03
             -0.725882597981246E+03
              0.582057684358353E+03
              0.190080354832393E+03
              0.565653889070590E+03
              0.371716111193276E+03
             -0.180785987800354E+03
              0.136944854239764E+03
             -0.267230297894055E+03
              0.749494354911361E+02
              0.363903595131941E+03
              0.385744925749787E+03
             -0.139415776798164E+03
              0.856887812219304E+03
             -0.325355898278332E+03
             -0.234130811502369E+03
              0.343466612036974E+03
              0.153650081901798E+03
              0.257021187471689E+03
             -0.489982674230673E+03
             -0.137366941244100E+02
              0.480876221378049E+03
              0.624780761010798E+03
             -0.622060625211229E+03
              0.442858350063394E+02
              0.234465190571171E+03
              0.114415497718921E+03
              0.260015133715430E+03
              0.550837385348223E+03
             -0.332946910802563E+03
             -0.365082070389988E+03
             -0.474654783800914E+03
             -0.733223933478189E+02
             -0.432979526698525E+03
              0.424562167668387E+02
             -0.800072039172255E+02
             -0.337338366421001E+03
[...]
              0.420976148450544E+03
              0.232728781450325E+03
              0.295442037009286E+03
             -0.477688340183418E+03
             -0.457589375368492E+03
             -0.115576513741179E+03
             -0.448335783099103E+03
              0.717563120737228E+03
              0.614985268576771E+03
              0.293917276092990E+03
              0.795993114092002E+03
             -0.414200651574914E+03
             -0.168720992459555E+03
             -0.234918798598662E+03
              0.658512614133560E+03

 BEEF-vdW xc energy contributions
            1 :    -6033.534502180489
            2 :     5434.841584154821
            3 :    -4431.822283927389
            4 :     3318.092999335097
            5 :    -2352.024583486426
            6 :     1658.451954561561
            7 :    -1214.693321083882
            8 :     914.3590060201159
            9 :    -657.5692903531335
           10 :     408.9255547427119
           11 :    -195.4203244539722
           12 :     60.47473374473248
           13 :    -16.36326981246839
           14 :     30.23981107381042
           15 :    -48.44951613223748
           16 :     34.74268894397937
           17 :     8.855957625833071
           18 :    -52.38109260512010
           19 :     67.71917218995350
           20 :    -52.55671864450323
           21 :     30.57434312601163
           22 :    -30.36839231581234
           23 :     61.92467218777983
           24 :    -109.5391474956659
           25 :     145.4049421468444
           26 :    -151.4759664842795
           27 :     131.8196463365957
           28 :    -106.7089285670181
           29 :     94.82454205432168
           30 :    -98.73012790567282
           31 :    -516.4715271648656
           32 :    -353.9339222444059

     Writing all to output data dir ./GaN.save/

     General routines

     Parallel routines

     PAW routines

   This run was terminated on:  22: 7: 3  28Feb2024

   JOB DONE.