     Program PWSCF v.7.1 starts on 24Feb2024 at 19:38:31

     Reading input from espresso.pwi
Warning: card &CELL ignored
Warning: card    CELL_DYNAMICS    = 'BFGS' ignored
Warning: card / ignored

     Current dimensions of program PWSCF are:
     Max number of different atomic species (ntypx) = 10
     Max number of k-points (npk) =  40000
     Max angular momentum in pseudopotentials (lmaxx) =  4
     file Ga.pbe-dn-kjpaw_psl.1.0.0.UPF: wavefunction(s)  4S renormalized
     file N.pbe-n-kjpaw_psl.1.0.0.UPF: wavefunction(s)  2S renormalized

     IMPORTANT: XC functional enforced from input :
     Exchange-correlation= BEEF-VDW
                           (   1   4  43  14   2   0   0)
     Any further DFT definition will be discarded
     Please, verify this is what you really want

     K-points division:     npool     =       4
     R & G space division:  proc/nbgrp/npool/nimage =      64
     Subspace diagonalization in iterative solution of the eigenvalue problem:
     a serial algorithm will be used

     Using Slab Decomposition

     bravais-lattice index     =            4
     lattice parameter (alat)  =      30.6565  a.u.
     unit-cell volume          =   24400.9461 (a.u.)^3
     number of atoms/cell      =          300
     number of atomic types    =            2
     number of electrons       =      2706.00
     number of Kohn-Sham states=         1624
     kinetic-energy cutoff     =      70.0000  Ry
     charge density cutoff     =     350.0000  Ry
     scf convergence threshold =      1.0E-07
     mixing beta               =       0.7000
     number of iterations used =            8  plain     mixing
     energy convergence thresh.=      1.0E-04
     force convergence thresh. =      1.0E-03
     Exchange-correlation= BEEF-VDW
                           (   1   4  43  14   2   0   0)
     nstep                     =           50

     celldm(1)=  30.656540  celldm(2)=   0.000000  celldm(3)=   0.977927
     celldm(4)=   0.000000  celldm(5)=   0.000000  celldm(6)=   0.000000

     crystal axes: (cart. coord. in units of alat)
               a(1) = (   1.000000   0.000000   0.000000 )
               a(2) = (  -0.500000   0.866025   0.000000 )
               a(3) = (   0.000000   0.000000   0.977927 )

     reciprocal axes: (cart. coord. in units 2 pi/alat)
               b(1) = (  1.000000  0.577350 -0.000000 )
               b(2) = (  0.000000  1.154701  0.000000 )
               b(3) = (  0.000000 -0.000000  1.022571 )

     PseudoPot. # 1 for Ga read from file:
     //group///packages/espresso/pseudo/psl_1.0.0/pslibrary.1.0.0/pbe/PSEUDOPOTENTIALS/Ga.pbe-dn-kjpaw_psl.1.0.0.UPF
     MD5 check sum: cd2a01e492f15b435d17032472d8505c
     Pseudo is Projector augmented-wave + core cor, Zval = 13.0
     Generated using 'atomic' code by A. Dal Corso  v.7.1
     Shape of augmentation charge: PSQ
     Using radial grid of 1205 points,  6 beta functions with:
                l(1) =   0
                l(2) =   0
                l(3) =   1
                l(4) =   1
                l(5) =   2
                l(6) =   2
     Q(r) pseudized with 0 coefficients

     PseudoPot. # 2 for N  read from file:
     //group///packages/espresso/pseudo/psl_1.0.0/pslibrary.1.0.0/pbe/PSEUDOPOTENTIALS/N.pbe-n-kjpaw_psl.1.0.0.UPF
     MD5 check sum: f77f775694dac7e2c3fe1c82443d1a16
     Pseudo is Projector augmented-wave + core cor, Zval =  5.0
     Generated using 'atomic' code by A. Dal Corso  v.7.1
     Shape of augmentation charge: PSQ
     Using radial grid of 1085 points,  4 beta functions with:
                l(1) =   0
                l(2) =   0
                l(3) =   1
                l(4) =   1
     Q(r) pseudized with 0 coefficients

     atomic species   valence    mass     pseudopotential
        Ga            13.00    69.72300     Ga( 1.00)
        N              5.00    14.00700     N ( 1.00)

      2 Sym. Ops. (no inversion) found

                                    s                        frac. trans.

      isym =  1     identity

 cryst.   s( 1) = (     1          0          0      )
                  (     0          1          0      )
                  (     0          0          1      )

 cart.    s( 1) = (  1.0000000  0.0000000  0.0000000 )
                  (  0.0000000  1.0000000  0.0000000 )
                  (  0.0000000  0.0000000  1.0000000 )

      isym =  2     inv. 180 deg rotation - cryst. axis [0,1,0]

 cryst.   s( 2) = (     1          1          0      )
                  (     0         -1          0      )
                  (     0          0          1      )

 cart.    s( 2) = (  0.5000000  0.8660254  0.0000000 )
                  (  0.8660254 -0.5000000  0.0000000 )
                  (  0.0000000  0.0000000  1.0000000 )

     point group C_s (m)
     there are  2 classes
     the character table:

       E     s
A'     1.00  1.00
A''    1.00 -1.00

     the symmetry operations in each class and the name of the first element:

     E        1
          identity
     s        2
          inv. 180 deg rotation - cryst. axis [0,1,0]

   Cartesian axes

     site n.     atom                  positions (alat units)
         1           Ga  tau(   1) = (   0.1000001   0.0577350   0.1627148  )
         2           Ga  tau(   2) = (   0.1000001   0.0577350   0.4886906  )
         3           Ga  tau(   3) = (   0.1000001   0.0577350   0.8146665  )
         4           Ga  tau(   4) = (   0.0000001   0.2309401   0.1627148  )
         5           Ga  tau(   5) = (   0.0000001   0.2309401   0.4886906  )
         6           Ga  tau(   6) = (   0.0000001   0.2309401   0.8146665  )
         7           Ga  tau(   7) = (  -0.0999999   0.4041451   0.1627148  )
         8           Ga  tau(   8) = (  -0.0999999   0.4041451   0.4886906  )
         9           Ga  tau(   9) = (  -0.0999999   0.4041451   0.8146665  )
        10           Ga  tau(  10) = (  -0.1999999   0.5773502   0.1627148  )
        11           Ga  tau(  11) = (  -0.1999999   0.5773502   0.4886906  )
        12           Ga  tau(  12) = (  -0.1999999   0.5773502   0.8146665  )
        13           Ga  tau(  13) = (  -0.2999999   0.7505553   0.1627148  )
        14           Ga  tau(  14) = (  -0.2999999   0.7505553   0.4886906  )
        15           Ga  tau(  15) = (  -0.2999999   0.7505553   0.8146665  )
        16           Ga  tau(  16) = (   0.3000001   0.0577350   0.1627148  )
        17           Ga  tau(  17) = (   0.3000001   0.0577350   0.4886906  )
        18           Ga  tau(  18) = (   0.3000001   0.0577350   0.8146665  )
        19           Ga  tau(  19) = (   0.2000001   0.2309401   0.1627148  )
        20           Ga  tau(  20) = (   0.2000001   0.2309401   0.4886906  )
        21           Ga  tau(  21) = (   0.2000001   0.2309401   0.8146665  )
        22           Ga  tau(  22) = (   0.1000001   0.4041451   0.1627148  )
        23           Ga  tau(  23) = (   0.1000001   0.4041451   0.4886906  )
        24           Ga  tau(  24) = (   0.1000001   0.4041451   0.8146665  )
        25           Ga  tau(  25) = (   0.0000001   0.5773502   0.1627148  )
        26           Ga  tau(  26) = (   0.0000001   0.5773502   0.4886906  )
        27           Ga  tau(  27) = (   0.0000001   0.5773502   0.8146665  )
        28           Ga  tau(  28) = (  -0.0999999   0.7505553   0.1627148  )
        29           Ga  tau(  29) = (  -0.0999999   0.7505553   0.4886906  )
        30           Ga  tau(  30) = (  -0.0999999   0.7505553   0.8146665  )
        31           Ga  tau(  31) = (   0.5000001   0.0577350   0.1627148  )
        32           Ga  tau(  32) = (   0.5000001   0.0577350   0.4886906  )
        33           Ga  tau(  33) = (   0.5000001   0.0577350   0.8146665  )
        34           Ga  tau(  34) = (   0.4000001   0.2309401   0.1627148  )
        35           Ga  tau(  35) = (   0.4000001   0.2309401   0.4886906  )
        36           Ga  tau(  36) = (   0.4000001   0.2309401   0.8146665  )
        37           Ga  tau(  37) = (   0.3000001   0.4041451   0.1627148  )
        38           Ga  tau(  38) = (   0.3000001   0.4041451   0.4886906  )
        39           Ga  tau(  39) = (   0.3000001   0.4041451   0.8146665  )
        40           Ga  tau(  40) = (   0.2000001   0.5773502   0.1627148  )
        41           Ga  tau(  41) = (   0.2000001   0.5773502   0.4886906  )
        42           Ga  tau(  42) = (   0.2000001   0.5773502   0.8146665  )
        43           Ga  tau(  43) = (   0.1000001   0.7505553   0.1627148  )
        44           Ga  tau(  44) = (   0.1000001   0.7505553   0.4886906  )
        45           Ga  tau(  45) = (   0.1000001   0.7505553   0.8146665  )
        46           Ga  tau(  46) = (   0.7000001   0.0577350   0.1627148  )
        47           Ga  tau(  47) = (   0.7000001   0.0577350   0.4886906  )
        48           Ga  tau(  48) = (   0.7000001   0.0577350   0.8146665  )
        49           Ga  tau(  49) = (   0.6000001   0.2309401   0.1627148  )
        50           Ga  tau(  50) = (   0.6000001   0.2309401   0.4886906  )
        51           Ga  tau(  51) = (   0.6000001   0.2309401   0.8146665  )
        52           Ga  tau(  52) = (   0.5000001   0.4041451   0.1627148  )
        53           Ga  tau(  53) = (   0.5000001   0.4041451   0.4886906  )
        54           Ga  tau(  54) = (   0.5000001   0.4041451   0.8146665  )
        55           Ga  tau(  55) = (   0.4000001   0.5773502   0.1627148  )
        56           Ga  tau(  56) = (   0.4000001   0.5773502   0.4886906  )
        57           Ga  tau(  57) = (   0.4000001   0.5773502   0.8146665  )
        58           Ga  tau(  58) = (   0.3000001   0.7505553   0.1627148  )
        59           Ga  tau(  59) = (   0.3000001   0.7505553   0.4886906  )
        60           Ga  tau(  60) = (   0.3000001   0.7505553   0.8146665  )
[...]
       286           N   tau( 286) = (   0.7999999   0.1154701   0.4484898  )
       287           N   tau( 287) = (   0.7999999   0.1154701   0.7744656  )
       288           N   tau( 288) = (   0.6999999   0.2886752   0.1225140  )
       289           N   tau( 289) = (   0.6999999   0.2886752   0.4484898  )
       290           N   tau( 290) = (   0.6999999   0.2886752   0.7744656  )
       291           N   tau( 291) = (   0.5999999   0.4618803   0.1225140  )
       292           N   tau( 292) = (   0.5999999   0.4618803   0.4484898  )
       293           N   tau( 293) = (   0.5999999   0.4618803   0.7744656  )
       294           N   tau( 294) = (   0.4999999   0.6350854   0.1225140  )
       295           N   tau( 295) = (   0.4999999   0.6350854   0.4484898  )
       296           N   tau( 296) = (   0.4999999   0.6350854   0.7744656  )
       297           N   tau( 297) = (   0.3999999   0.8082905   0.1225140  )
       298           N   tau( 298) = (   0.3999999   0.8082905   0.4484898  )
       299           N   tau( 299) = (   0.3999999   0.8082905   0.7744656  )
       300           Ga  tau( 300) = (   0.1000001   0.0577350   0.2855019  )

   Crystallographic axes

     site n.     atom                  positions (cryst. coord.)
         1           Ga  tau(   1) = (  0.1333334  0.0666666  0.1663874  )
[...]
Ga            0.0021091501        9.3674207576       13.2191968821
Ga           -1.6218269382       12.1762745461        2.6335971571
Ga           -1.6041857335       12.1664716920        7.9377789347
Ga           -1.6136130454       12.1718664270       13.2228261075
Ga            8.1159966669        0.9340216102        2.6252020890
Ga            8.1229931999        0.9322586473        7.9395033505
Ga            8.1164351458        0.9346091700       13.2201514652
Ga            6.4939427301        3.7492781125        2.6270912397
Ga            6.4977349455        3.7514675491        7.9423429885
Ga            6.4953502414        3.7500907395       13.2196720665
Ga            4.8668860495        6.5616462793        2.6252020890
Ga            4.8688575453        6.5685869361        7.9395033505
Ga            4.8676141307        6.5617322333       13.2201514652
Ga            3.2427380213        9.3675586275        2.6352076363
Ga            3.2418653535        9.3678803396        7.9331269872
Ga            3.2433447210        9.3672001753       13.2194997309
Ga            1.6225429846       12.1738187495        2.6352076363
Ga            1.6223852615       12.1729021410        7.9331269872
Ga            1.6225359057       12.1745233930       13.2194997309
Ga           11.3499856555        0.9336374669        2.6247394672
Ga           11.3421377253        0.9319450778        7.9397853716
Ga           11.3501062340        0.9343252275       13.2200329015
Ga            9.7334466096        3.7470059976        2.6333216543
Ga            9.7331681335        3.7480066147        7.9359945615
Ga            9.7334296609        3.7475463389       13.2180725730
Ga            8.1117269606        6.5559068254        2.6333216543
Ga            8.1124542824        6.5551653494        7.9359945615
Ga            8.1121864355        6.5556219767       13.2180725730
Ga            6.4835478659        9.3625549706        2.6247394672
Ga            6.4781582488        9.3566046582        7.9397853716
Ga            6.4842037733        9.3623155144       13.2200329015
Ga            4.8665446255       12.1759038889        2.6338364429
Ga            4.8487288500       12.1656179461        7.9379735091
Ga            4.8581316153       12.1710466352       13.2231776437
[...]
N            12.9705298137        1.8730167463        7.2783502387
N            12.9673017793        1.8785794653       12.5663774626
N            11.3545565258        4.6842139432        1.9857593738
N            11.3545607306        4.6840420771        7.2753772620
N            11.3538140243        4.6846543563       12.5656274359
N             9.7339242144        7.4912314471        1.9857593738
N             9.7337774764        7.4913210216        7.2753772620
N             9.7339343726        7.4903682154       12.5656274359
N             8.1084182994       10.2972214821        1.9841697332
N             8.1073426709       10.2963039646        7.2783502387
N             8.1105461097       10.2907270453       12.5663774626
N             6.4952215426       13.1162250953        1.9849269667
N             6.4866444029       13.1112730813        7.2914259301
N             6.4779360019       13.1062452837       12.5650854884
Ga            1.6206015680        0.9356532806        4.4943881310

     Writing config-only to output data dir ./GaN.save/
     NEW-OLD atomic charge density approx. for the potential

     Check: negative core charge=   -0.000003

[...]

     Self-consistent Calculation

[...]

     Threshold (ethr) on eigenvalues was too large:
     Diagonalizing with lowered threshold

     Davidson diagonalization with overlap

[...]

     c_bands:  1 eigenvalues not converged
     ethr =  3.86E-09,  avg # of iterations = 10.0

[...]

     total energy              =  -47098.96205591 Ry
     estimated scf accuracy    <          1.2E-09 Ry

     iteration # 14     ecut=    70.00 Ry     beta= 0.70
     Davidson diagonalization with overlap

     ethr =  1.00E-13,  avg # of iterations = 15.2

     Non-local corr. energy    =      82.13197942 Ry

     End of self-consistent calculation

[...]

          k = 0.0000-0.5774-0.5113 (241436 PWs)   bands (ev):

[...]

          k =-0.5000-0.2887-0.5113 (241436 PWs)   bands (ev):

    -6.9634  -6.8711  -6.8704  -6.7748  -6.7481  -6.7371  -6.7004  -6.6934
    -6.6794  -6.6617  -6.6579  -6.6365  -6.6225  -6.5745  -6.5514  -6.5458
    -6.5404  -6.4820  -6.4771  -6.4671  -6.4637  -6.4548  -6.4442  -6.4333
    -6.4280  -6.4274  -6.4240  -6.4210  -6.4207  -6.4158  -6.4097  -6.4074
    -6.4039  -6.3985  -6.3943  -6.3919  -6.3892  -6.3863  -6.3789  -6.3762
    -6.3741  -6.3711  -6.3680  -6.3662  -6.3653  -6.3599  -6.3547  -6.3546
    -6.3523  -6.3512  -6.3472  -6.3466  -6.3452  -6.3410  -6.3364  -6.3356
    -6.3324  -6.3245  -6.3228  -6.3224  -6.3184  -6.3149  -6.3127  -6.3123
    -6.3112  -6.3101  -6.3067  -6.3042  -6.3027  -6.2987  -6.2956  -6.2941
    -6.2930  -6.2919  -6.2915  -6.2886  -6.2873  -6.2844  -6.2814  -6.2794
    -6.2779  -6.2779  -6.2753  -6.2749  -6.2741  -6.2728  -6.2717  -6.2693
    -6.2680  -6.2668  -6.2668  -6.2639  -6.2623  -6.2605  -6.2604  -6.2582
    -6.2577  -6.2563  -6.2554  -6.2551  -6.2546  -6.2535  -6.2516  -6.2474
    -6.2468  -6.2453  -6.2452  -6.2441  -6.2412  -6.2404  -6.2383  -6.2376
    -6.2343  -6.2340  -6.2337  -6.2331  -6.2305  -6.2292  -6.2292  -6.2279
    -6.2267  -6.2246  -6.2235  -6.2228  -6.2209  -6.2204  -6.2185  -6.2172
    -6.2170  -6.2158  -6.2129  -6.2077  -6.2071  -6.2068  -6.2052  -6.2043
    -6.2034  -6.2023  -6.1995  -6.1973  -6.1941  -6.1933  -6.1914  -6.1887
    -6.1881  -6.1867  -6.1858  -6.1821  -6.1811  -6.1801  -6.1750  -6.1076
    -6.0842  -6.0823  -5.9058  -5.8972  -5.8944  -5.8775  -5.8266  -5.8244
    -5.8180  -5.7177  -5.7107  -5.6282  -5.6241  -5.6134  -5.5976  -5.5906
    -5.5854  -5.3852  -5.3849  -5.3607  -5.3601  -5.3437  -5.3357  -5.3339
    -5.3309  -5.3225  -5.3214  -5.3050  -5.2992  -5.2991  -5.2967  -5.2920
    -5.2894  -5.2882  -5.2853  -5.2838  -5.2834  -5.2829  -5.2814  -5.2803
    -5.2797  -5.2785  -5.2735  -5.2731  -5.2727  -5.2687  -5.2623  -5.2540
    -5.2539  -5.2525  -5.2520  -5.2516  -5.2439  -5.2418  -5.2387  -5.2360
    -5.2354  -5.2348  -5.2309  -5.2299  -5.2276  -5.2244  -5.2229  -5.2218
    -5.2193  -5.2181  -5.2178  -5.2152  -5.2127  -5.2092  -5.2084  -5.2050
    -5.2039  -5.2015  -5.2001  -5.1973  -5.1919  -5.1915  -5.1901  -5.1900
    -5.1891  -5.1865  -5.1845  -5.1815  -5.1808  -5.1806  -5.1792  -5.1767
    -5.1762  -5.1750  -5.1745  -5.1731  -5.1697  -5.1697  -5.1691  -5.1684
    -5.1640  -5.1621  -5.1617  -5.1601  -5.1585  -5.1574  -5.1568  -5.1554
    -5.1537  -5.1531  -5.1520  -5.1519  -5.1505  -5.1499  -5.1494  -5.1470
    -5.1470  -5.1464  -5.1420  -5.1418  -5.1408  -5.1391  -5.1389  -5.1367
    -5.1341  -5.1339  -5.1328  -5.1321  -5.1306  -5.1305  -5.1301  -5.1294
    -5.1285  -5.1265  -5.1258  -5.1256  -5.1245  -5.1238  -5.1236  -5.1233
    -5.1226  -5.1213  -5.1210  -5.1204  -5.1189  -5.1177  -5.1169  -5.1162
    -5.1156  -5.1136  -5.1136  -5.1131  -5.1127  -5.1114  -5.1110  -5.1102
    -5.1092  -5.1085  -5.1084  -5.1079  -5.1066  -5.1057  -5.1054  -5.1048
    -5.1048  -5.1040  -5.1037  -5.1036  -5.1027  -5.1019  -5.1017  -5.1009
    -5.1004  -5.0998  -5.0996  -5.0992  -5.0983  -5.0977  -5.0974  -5.0969
    -5.0957  -5.0957  -5.0957  -5.0940  -5.0936  -5.0931  -5.0929  -5.0917
    -5.0913  -5.0908  -5.0902  -5.0892  -5.0891  -5.0880  -5.0876  -5.0875
    -5.0873  -5.0869  -5.0860  -5.0858  -5.0848  -5.0835  -5.0832  -5.0832
    -5.0823  -5.0823  -5.0807  -5.0804  -5.0800  -5.0795  -5.0793  -5.0776
    -5.0771  -5.0765  -5.0763  -5.0759  -5.0758  -5.0755  -5.0752  -5.0736
    -5.0734  -5.0732  -5.0721  -5.0719  -5.0714  -5.0710  -5.0705  -5.0700
    -5.0696  -5.0683  -5.0682  -5.0677  -5.0668  -5.0663  -5.0658  -5.0652
    -5.0643  -5.0642  -5.0640  -5.0635  -5.0634  -5.0627  -5.0624  -5.0615
    -5.0613  -5.0609  -5.0598  -5.0597  -5.0592  -5.0589  -5.0580  -5.0579
    -5.0565  -5.0564  -5.0556  -5.0551  -5.0545  -5.0536  -5.0527  -5.0525
    -5.0518  -5.0518  -5.0511  -5.0506  -5.0504  -5.0500  -5.0486  -5.0485
    -5.0476  -5.0473  -5.0461  -5.0457  -5.0452  -5.0443  -5.0436  -5.0433
    -5.0424  -5.0417  -5.0409  -5.0404  -5.0401  -5.0388  -5.0384  -5.0375
    -5.0365  -5.0357  -5.0355  -5.0353  -5.0343  -5.0342  -5.0336  -5.0331
    -5.0318  -5.0312  -5.0306  -5.0306  -5.0303  -5.0302  -5.0294  -5.0292
    -5.0289  -5.0286  -5.0279  -5.0274  -5.0267  -5.0266  -5.0253  -5.0248
    -5.0244  -5.0241  -5.0224  -5.0222  -5.0222  -5.0205  -5.0205  -5.0203
    -5.0191  -5.0190  -5.0189  -5.0188  -5.0182  -5.0181  -5.0172  -5.0168
    -5.0166  -5.0159  -5.0152  -5.0147  -5.0146  -5.0135  -5.0133  -5.0129
[...]
    15.5224  15.5497  15.5503  15.5674  15.5840  15.6026  15.6116  15.6236
    15.6333  15.6393  15.6511  15.6549  15.6705  15.6707  15.6874  15.6994
    15.7028  15.7360  15.7619  15.7809  15.7934  15.8326  15.8572  15.8741
    15.8965  15.9036  15.9124  15.9335  15.9473  15.9685  15.9759  15.9851
    15.9863  16.0116  16.0207  16.0350  16.0633  16.0771  16.0931  16.1196
    16.1214  16.1550  16.1835  16.1840  16.1908  16.1956  16.2123  16.2205
    16.2261  16.2485  16.2638  16.2659  16.2747  16.2829  16.3016  16.3152
    16.3284  16.3349  16.3398  16.3410  16.3511  16.3581  16.3753  16.3901
    16.4044  16.4046  16.4164  16.4216  16.4292  16.4320  16.4357  16.4394
    16.4533  16.4633  16.4642  16.4780  16.4810  16.4892  16.4917  16.5006
    16.5024  16.5444  16.5519  16.5534  16.5551  16.5814  16.5990  16.6067
    16.6181  16.6197  16.6231  16.6272  16.6361  16.6445  16.6614  16.6666
    16.6703  16.6818  16.6932  16.6979  16.7007  16.7127  16.7133  16.7159
    16.7240  16.7276  16.7309  16.7311  16.7353  16.7413  16.7448  16.7523
    16.7644  16.7644  16.7811  16.7820  16.8006  16.8074  16.8161  16.8208

     occupation numbers
     1.0000   1.0000   1.0000   1.0000   1.0000   1.0000   1.0000   1.0000
     1.0000   1.0000   1.0000   1.0000   1.0000   1.0000   1.0000   1.0000
     1.0000   1.0000   1.0000   1.0000   1.0000   1.0000   1.0000   1.0000
     1.0000   1.0000   1.0000   1.0000   1.0000   1.0000   1.0000   1.0000
     1.0000   1.0000   1.0000   1.0000   1.0000   1.0000   1.0000   1.0000
     1.0000   1.0000   1.0000   1.0000   1.0000   1.0000   1.0000   1.0000
     1.0000   1.0000   1.0000   1.0000   1.0000   1.0000   1.0000   1.0000
     1.0000   1.0000   1.0000   1.0000   1.0000   1.0000   1.0000   1.0000
     1.0000   1.0000   1.0000   1.0000   1.0000   1.0000   1.0000   1.0000
     1.0000   1.0000   1.0000   1.0000   1.0000   1.0000   1.0000   1.0000
     1.0000   1.0000   1.0000   1.0000   1.0000   1.0000   1.0000   1.0000
     1.0000   1.0000   1.0000   1.0000   1.0000   1.0000   1.0000   1.0000
     1.0000   1.0000   1.0000   1.0000   1.0000   1.0000   1.0000   1.0000
     1.0000   1.0000   1.0000   1.0000   1.0000   1.0000   1.0000   1.0000
     1.0000   1.0000   1.0000   1.0000   1.0000   1.0000   1.0000   1.0000
     1.0000   1.0000   1.0000   1.0000   1.0000   1.0000   1.0000   1.0000
     1.0000   1.0000   1.0000   1.0000   1.0000   1.0000   1.0000   1.0000
     1.0000   1.0000   1.0000   1.0000   1.0000   1.0000   1.0000   1.0000
     1.0000   1.0000   1.0000   1.0000   1.0000   1.0000   1.0000   1.0000
     1.0000   1.0000   1.0000   1.0000   1.0000   1.0000   1.0000   1.0000
     1.0000   1.0000   1.0000   1.0000   1.0000   1.0000   1.0000   1.0000
     1.0000   1.0000   1.0000   1.0000   1.0000   1.0000   1.0000   1.0000
     1.0000   1.0000   1.0000   1.0000   1.0000   1.0000   1.0000   1.0000
     1.0000   1.0000   1.0000   1.0000   1.0000   1.0000   1.0000   1.0000
     1.0000   1.0000   1.0000   1.0000   1.0000   1.0000   1.0000   1.0000
     1.0000   1.0000   1.0000   1.0000   1.0000   1.0000   1.0000   1.0000
     1.0000   1.0000   1.0000   1.0000   1.0000   1.0000   1.0000   1.0000
     1.0000   1.0000   1.0000   1.0000   1.0000   1.0000   1.0000   1.0000
     1.0000   1.0000   1.0000   1.0000   1.0000   1.0000   1.0000   1.0000
     1.0000   1.0000   1.0000   1.0000   1.0000   1.0000   1.0000   1.0000
     1.0000   1.0000   1.0000   1.0000   1.0000   1.0000   1.0000   1.0000
     1.0000   1.0000   1.0000   1.0000   1.0000   1.0000   1.0000   1.0000
     1.0000   1.0000   1.0000   1.0000   1.0000   1.0000   1.0000   1.0000
     1.0000   1.0000   1.0000   1.0000   1.0000   1.0000   1.0000   1.0000
     1.0000   1.0000   1.0000   1.0000   1.0000   1.0000   1.0000   1.0000
     1.0000   1.0000   1.0000   1.0000   1.0000   1.0000   1.0000   1.0000
     1.0000   1.0000   1.0000   1.0000   1.0000   1.0000   1.0000   1.0000
     1.0000   1.0000   1.0000   1.0000   1.0000   1.0000   1.0000   1.0000
     1.0000   1.0000   1.0000   1.0000   1.0000   1.0000   1.0000   1.0000
     1.0000   1.0000   1.0000   1.0000   1.0000   1.0000   1.0000   1.0000
     1.0000   1.0000   1.0000   1.0000   1.0000   1.0000   1.0000   1.0000
     1.0000   1.0000   1.0000   1.0000   1.0000   1.0000   1.0000   1.0000
     1.0000   1.0000   1.0000   1.0000   1.0000   1.0000   1.0000   1.0000
     1.0000   1.0000   1.0000   1.0000   1.0000   1.0000   1.0000   1.0000
     1.0000   1.0000   1.0000   1.0000   1.0000   1.0000   1.0000   1.0000
     1.0000   1.0000   1.0000   1.0000   1.0000   1.0000   1.0000   1.0000
     1.0000   1.0000   1.0000   1.0000   1.0000   1.0000   1.0000   1.0000
     1.0000   1.0000   1.0000   1.0000   1.0000   1.0000   1.0000   1.0000
     1.0000   1.0000   1.0000   1.0000   1.0000   1.0000   1.0000   1.0000
     1.0000   1.0000   1.0000   1.0000   1.0000   1.0000   1.0000   1.0000
     1.0000   1.0000   1.0000   1.0000   1.0000   1.0000   1.0000   1.0000
     1.0000   1.0000   1.0000   1.0000   1.0000   1.0000   1.0000   1.0000
     1.0000   1.0000   1.0000   1.0000   1.0000   1.0000   1.0000   1.0000
     1.0000   1.0000   1.0000   1.0000   1.0000   1.0000   1.0000   1.0000
     1.0000   1.0000   1.0000   1.0000   1.0000   1.0000   1.0000   1.0000
     1.0000   1.0000   1.0000   1.0000   1.0000   1.0000   1.0000   1.0000
     1.0000   1.0000   1.0000   1.0000   1.0000   1.0000   1.0000   1.0000
     1.0000   1.0000   1.0000   1.0000   1.0000   1.0000   1.0000   1.0000
     1.0000   1.0000   1.0000   1.0000   1.0000   1.0000   1.0000   1.0000
     1.0000   1.0000   1.0000   1.0000   1.0000   1.0000   1.0000   1.0000
[...]
     0.0000   0.0000   0.0000   0.0000   0.0000   0.0000   0.0000   0.0000
     0.0000   0.0000   0.0000   0.0000   0.0000   0.0000   0.0000   0.0000
     0.0000   0.0000   0.0000   0.0000   0.0000   0.0000   0.0000   0.0000
     0.0000   0.0000   0.0000   0.0000   0.0000   0.0000   0.0000   0.0000
     0.0000   0.0000   0.0000   0.0000   0.0000   0.0000   0.0000   0.0000
     0.0000   0.0000   0.0000   0.0000   0.0000   0.0000   0.0000   0.0000
     0.0000   0.0000   0.0000   0.0000   0.0000   0.0000   0.0000   0.0000
     0.0000   0.0000   0.0000   0.0000   0.0000   0.0000   0.0000   0.0000
     0.0000   0.0000   0.0000   0.0000   0.0000   0.0000   0.0000   0.0000
     0.0000   0.0000   0.0000   0.0000   0.0000   0.0000   0.0000   0.0000
     0.0000   0.0000   0.0000   0.0000   0.0000   0.0000   0.0000   0.0000
     0.0000   0.0000   0.0000   0.0000   0.0000   0.0000   0.0000   0.0000
     0.0000   0.0000   0.0000   0.0000   0.0000   0.0000   0.0000   0.0000
     0.0000   0.0000   0.0000   0.0000   0.0000   0.0000   0.0000   0.0000
     0.0000   0.0000   0.0000   0.0000   0.0000   0.0000   0.0000   0.0000

     the Fermi energy is     9.8149 ev

!    total energy              =  -47098.96205591 Ry
     total all-electron energy =   -604347.346811 Ry
     estimated scf accuracy    <          1.6E-10 Ry
     smearing contrib. (-TS)   =      -0.00613948 Ry
     internal energy E=F+TS    =  -47098.95591643 Ry

     The total energy is F=E-TS. E is the sum of the following terms:
     one-electron contribution =  -14149.07473583 Ry
     hartree contribution      =    9927.54727051 Ry
     xc contribution           =   -6859.01165131 Ry
     ewald contribution        =  -17272.70548089 Ry
     one-center paw contrib.   =  -18745.71131891 Ry
      -> PAW hartree energy AE =     289.88047455 Ry
      -> PAW hartree energy PS =    -286.91480072 Ry
      -> PAW xc energy AE      =    -313.92943650 Ry
      -> PAW xc energy PS      =      79.47828106 Ry
      -> total E_H with PAW    =    9930.51294434 Ry
      -> total E_XC with PAW   =   -7093.46280675 Ry

     convergence has been achieved in  14 iterations

     max_seconds     =  154800.00

     Writing config to output data dir ./GaN.save/

     General routines

     Parallel routines

     PAW routines

   This run was terminated on:  14:51: 2  26Feb2024

   JOB DONE.