     Program PWSCF v.7.1 starts on 21Feb2024 at  8:49:56

     Reading input from espresso.pwi
Warning: card &CELL ignored
Warning: card    CELL_DYNAMICS    = 'BFGS' ignored
Warning: card / ignored

     Current dimensions of program PWSCF are:
     Max number of different atomic species (ntypx) = 10
     Max number of k-points (npk) =  40000
     Max angular momentum in pseudopotentials (lmaxx) =  4
     file Ga.pbe-dn-kjpaw_psl.1.0.0.UPF: wavefunction(s)  4S renormalized

     IMPORTANT: XC functional enforced from input :
     Exchange-correlation= BEEF-VDW
                           (   1   4  43  14   2   0   0)
     Any further DFT definition will be discarded
     Please, verify this is what you really want

     Found identity + (  0.5000 -0.5000  0.0000) symmetry
     This is a supercell, fractional translations are disabled

     K-points division:     npool     =       8
     R & G space division:  proc/nbgrp/npool/nimage =      16
     Subspace diagonalization in iterative solution of the eigenvalue problem:
     a serial algorithm will be used

     Using Slab Decomposition

     bravais-lattice index     =            8
     lattice parameter (alat)  =       8.9055  a.u.
     unit-cell volume          =    1153.0106 (a.u.)^3
     number of atoms/cell      =            8
     number of atomic types    =            1
     number of electrons       =       104.00
     number of Kohn-Sham states=           62
     kinetic-energy cutoff     =      70.0000  Ry
     charge density cutoff     =     350.0000  Ry
     scf convergence threshold =      1.0E-07
     mixing beta               =       0.7000
     number of iterations used =            8  plain     mixing
     Exchange-correlation= BEEF-VDW
                           (   1   4  43  14   2   0   0)

     celldm(1)=   8.905499  celldm(2)=   1.659495  celldm(3)=   0.983745
     celldm(4)=   0.000000  celldm(5)=   0.000000  celldm(6)=   0.000000

     crystal axes: (cart. coord. in units of alat)
               a(1) = (   1.000000   0.000000   0.000000 )
               a(2) = (   0.000000   1.659495   0.000000 )
               a(3) = (   0.000000   0.000000   0.983745 )

     reciprocal axes: (cart. coord. in units 2 pi/alat)
               b(1) = (  1.000000  0.000000  0.000000 )
               b(2) = (  0.000000  0.602593  0.000000 )
               b(3) = (  0.000000  0.000000  1.016523 )

     PseudoPot. # 1 for Ga read from file:
     //group///packages/espresso/pseudo/psl_1.0.0/pslibrary.1.0.0/pbe/PSEUDOPOTENTIALS/Ga.pbe-dn-kjpaw_psl.1.0.0.UPF
     MD5 check sum: cd2a01e492f15b435d17032472d8505c
     Pseudo is Projector augmented-wave + core cor, Zval = 13.0
     Generated using 'atomic' code by A. Dal Corso  v.7.1
     Shape of augmentation charge: PSQ
     Using radial grid of 1205 points,  6 beta functions with:
                l(1) =   0
                l(2) =   0
                l(3) =   1
                l(4) =   1
                l(5) =   2
                l(6) =   2
     Q(r) pseudized with 0 coefficients

     atomic species   valence    mass     pseudopotential
        Ga            13.00    69.72300     Ga( 1.00)

      4 Sym. Ops., with inversion, found

                                    s                        frac. trans.

      isym =  1     identity

 cryst.   s( 1) = (     1          0          0      )
                  (     0          1          0      )
                  (     0          0          1      )

 cart.    s( 1) = (  1.0000000  0.0000000  0.0000000 )
                  (  0.0000000  1.0000000  0.0000000 )
                  (  0.0000000  0.0000000  1.0000000 )

      isym =  2     180 deg rotation - cart. axis [1,0,0]

[...]

      isym =  3     inversion

[...]

      isym =  4     inv. 180 deg rotation - cart. axis [1,0,0]

 cryst.   s( 4) = (    -1          0          0      )
                  (     0          1          0      )
                  (     0          0          1      )

 cart.    s( 4) = ( -1.0000000  0.0000000  0.0000000 )
                  (  0.0000000  1.0000000  0.0000000 )
                  (  0.0000000  0.0000000  1.0000000 )

     point group C_2h (2/m)
     there are  4 classes
     the character table:

       E     C2    i     s_h
A_g    1.00  1.00  1.00  1.00
B_g    1.00 -1.00  1.00 -1.00
A_u    1.00  1.00 -1.00 -1.00
B_u    1.00 -1.00 -1.00  1.00

     the symmetry operations in each class and the name of the first element:

     E        1
          identity
     C2       2
          180 deg rotation - cart. axis [1,0,0]
     i        3
          inversion
     s_h      4
          inv. 180 deg rotation - cart. axis [1,0,0]

   Cartesian axes

     site n.     atom                  positions (alat units)
         1           Ga  tau(   1) = (   0.0000000   0.5689138   0.4095147  )
         2           Ga  tau(   2) = (   0.0000000   0.2608325   0.9013875  )
         3           Ga  tau(   3) = (   0.0000000   1.0905812   0.5742312  )
         4           Ga  tau(   4) = (   0.0000000   1.3986625   0.0823584  )
         5           Ga  tau(   5) = (   0.5000000   1.3986633   0.4095154  )
         6           Ga  tau(   6) = (   0.5000000   1.0905807   0.9013883  )
         7           Ga  tau(   7) = (   0.5000000   0.2608317   0.5742305  )
         8           Ga  tau(   8) = (   0.5000000   0.5689143   0.0823576  )

   Crystallographic axes

     site n.     atom                  positions (cryst. coord.)
         1           Ga  tau(   1) = (  0.0000000  0.3428235  0.4162812  )
         2           Ga  tau(   2) = (  0.0000000  0.1571759  0.9162814  )
         3           Ga  tau(   3) = (  0.0000000  0.6571767  0.5837194  )
         4           Ga  tau(   4) = (  0.0000000  0.8428243  0.0837192  )
         5           Ga  tau(   5) = (  0.5000000  0.8428248  0.4162820  )
         6           Ga  tau(   6) = (  0.5000000  0.6571764  0.9162822  )
         7           Ga  tau(   7) = (  0.5000000  0.1571754  0.5837187  )
         8           Ga  tau(   8) = (  0.5000000  0.3428238  0.0837184  )

     number of k points=    18  Gaussian smearing, width (Ry)=  0.0100
                       cart. coord. in units 2pi/alat
        k(    1) = (   0.0000000   0.0000000   0.0000000), wk =   0.0625000
        k(    2) = (   0.0000000   0.0000000   0.2541308), wk =   0.1250000
        k(    3) = (   0.0000000   0.0000000  -0.5082616), wk =   0.0625000
        k(    4) = (   0.0000000  -0.3012965   0.0000000), wk =   0.0625000
        k(    5) = (   0.0000000  -0.3012965   0.2541308), wk =   0.1250000
        k(    6) = (   0.0000000  -0.3012965  -0.5082616), wk =   0.0625000
        k(    7) = (   0.2500000   0.0000000   0.0000000), wk =   0.1250000
        k(    8) = (   0.2500000   0.0000000   0.2541308), wk =   0.2500000
        k(    9) = (   0.2500000   0.0000000  -0.5082616), wk =   0.1250000
        k(   10) = (   0.2500000  -0.3012965   0.0000000), wk =   0.1250000
        k(   11) = (   0.2500000  -0.3012965   0.2541308), wk =   0.2500000
        k(   12) = (   0.2500000  -0.3012965  -0.5082616), wk =   0.1250000
        k(   13) = (  -0.5000000   0.0000000   0.0000000), wk =   0.0625000
        k(   14) = (  -0.5000000   0.0000000   0.2541308), wk =   0.1250000
        k(   15) = (  -0.5000000   0.0000000  -0.5082616), wk =   0.0625000
        k(   16) = (  -0.5000000  -0.3012965   0.0000000), wk =   0.0625000
        k(   17) = (  -0.5000000  -0.3012965   0.2541308), wk =   0.1250000
        k(   18) = (  -0.5000000  -0.3012965  -0.5082616), wk =   0.0625000

                       cryst. coord.
        k(    1) = (   0.0000000   0.0000000   0.0000000), wk =   0.0625000
        k(    2) = (   0.0000000   0.0000000   0.2500000), wk =   0.1250000
        k(    3) = (   0.0000000   0.0000000  -0.5000000), wk =   0.0625000
        k(    4) = (   0.0000000  -0.5000000   0.0000000), wk =   0.0625000
        k(    5) = (   0.0000000  -0.5000000   0.2500000), wk =   0.1250000
        k(    6) = (   0.0000000  -0.5000000  -0.5000000), wk =   0.0625000
        k(    7) = (   0.2500000   0.0000000   0.0000000), wk =   0.1250000
        k(    8) = (   0.2500000   0.0000000   0.2500000), wk =   0.2500000
        k(    9) = (   0.2500000   0.0000000  -0.5000000), wk =   0.1250000
        k(   10) = (   0.2500000  -0.5000000   0.0000000), wk =   0.1250000
        k(   11) = (   0.2500000  -0.5000000   0.2500000), wk =   0.2500000
        k(   12) = (   0.2500000  -0.5000000  -0.5000000), wk =   0.1250000
        k(   13) = (  -0.5000000   0.0000000   0.0000000), wk =   0.0625000
        k(   14) = (  -0.5000000   0.0000000   0.2500000), wk =   0.1250000
        k(   15) = (  -0.5000000   0.0000000  -0.5000000), wk =   0.0625000
        k(   16) = (  -0.5000000  -0.5000000   0.0000000), wk =   0.0625000
        k(   17) = (  -0.5000000  -0.5000000   0.2500000), wk =   0.1250000
        k(   18) = (  -0.5000000  -0.5000000  -0.5000000), wk =   0.0625000

     Atomic positions and unit cell read from directory:
     ./PbI2.save/

     The initial density is read from file :
     ./PbI2.save/charge-density

     %%%%%%%%%%%%%%%%%%%%%%%%%%%%%%%%%%%%%%%%%%%%%%%%%%%%%%%%%%%%%%%%%%%%%%%%
     %                                                                      %
     % You are using vdW-DF, which was implemented by the Thonhauser group. %
     % Please cite the following two papers that made this development      %
     % possible and the two reviews that describe the various versions:     %
     %                                                                      %
     %   T. Thonhauser et al., PRL 115, 136402 (2015).                      %
     %   T. Thonhauser et al., PRB 76, 125112 (2007).                       %
     %   K. Berland et al., Rep. Prog. Phys. 78, 066501 (2015).             %
     %   D.C. Langreth et al., J. Phys.: Condens. Matter 21, 084203 (2009). %
     %                                                                      %
     % If you are calculating stress with vdW-DF, please also cite:         %
     %                                                                      %
     %   R. Sabatini et al., J. Phys.: Condens. Matter 24, 424209 (2012).   %
     %                                                                      %
     %%%%%%%%%%%%%%%%%%%%%%%%%%%%%%%%%%%%%%%%%%%%%%%%%%%%%%%%%%%%%%%%%%%%%%%%

     %%%%%%%%%%%%%%%%%%%%%%%%%%%%%%%%%%%%%%%%%%%%%%%%%%%%%%%%%%%%%%%%%%%%%%%%
     %                                                                      %
     %  vdW-DF NEWS:                                                        %
     %                                                                      %
     %  * vdW-DF3 is now available. DOI: 10.1021/acs.jctc.0c00471           %
     %    use with input_dft = 'vdW-DF3-opt1' or 'vdW-DF3-opt2'             %
     %                                                                      %
     %  * Unscreened and range-separated vdW-DF hybrid functionals          %
     %    DOI: 10.1063/1.4986522 and 10.1088/1361-648X/ac2ad2               %
     %    use with input_dft = 'vdW-DF-cx0' (etc) and 'vdW-DF-ahcx'         %
     %                                                                      %
     %%%%%%%%%%%%%%%%%%%%%%%%%%%%%%%%%%%%%%%%%%%%%%%%%%%%%%%%%%%%%%%%%%%%%%%%

     Carrying out vdW-DF run using the following parameters:
     Nqs    =  20  Npoints =  1024  r_max =  100.000
     q_mesh =  0.00001000  0.04494208  0.09755937  0.15916263
               0.23128650  0.31572767  0.41458969  0.53033537
               0.66584808  0.82450364  1.01025438  1.22772762
               1.48234092  1.78043706  2.12944203  2.53805004
               3.01644009  3.57652955  4.23227104  5.00000000

     Non-local corr. energy    =       3.79610985 Ry

     Starting wfcs from file
     Checking if some PAW data can be deallocated...

     Self-consistent Calculation

     iteration #  1     ecut=    70.00 Ry     beta= 0.70
     Davidson diagonalization with overlap

     ethr =  1.00E-05,  avg # of iterations =  1.8

     Threshold (ethr) on eigenvalues was too large:
     Diagonalizing with lowered threshold

     Davidson diagonalization with overlap

     ethr =  3.17E-11,  avg # of iterations =  5.9

[...]

     End of self-consistent calculation

          k = 0.0000 0.0000 0.0000 ( 11395 PWs)   bands (ev):

    -7.6827  -7.6396  -7.6369  -7.6330  -7.6247  -7.6163  -7.6033  -7.5986
    -7.5880  -7.5749  -7.5637  -7.5458  -7.5071  -7.5044  -7.5039  -7.4991
    -7.4819  -7.4679  -7.4573  -7.4528  -7.4311  -7.4276  -7.4256  -7.4218
    -7.4147  -7.3891  -7.3880  -7.3839  -7.3366  -7.3353  -7.3141  -7.3126
    -7.3023  -7.2787  -7.2760  -7.2750  -7.2721  -7.2701  -7.2591  -7.1892
    -2.5331  -0.9793   1.1237   3.4352   3.6460   4.4180   4.8990   5.6449
     6.1365   6.3141   6.6285   7.4315   8.8307   8.8375   9.1093   9.1202
     9.4236  10.6344  11.5373  12.0273  12.3621  12.6023

     occupation numbers
     1.0000   1.0000   1.0000   1.0000   1.0000   1.0000   1.0000   1.0000
     1.0000   1.0000   1.0000   1.0000   1.0000   1.0000   1.0000   1.0000
     1.0000   1.0000   1.0000   1.0000   1.0000   1.0000   1.0000   1.0000
     1.0000   1.0000   1.0000   1.0000   1.0000   1.0000   1.0000   1.0000
     1.0000   1.0000   1.0000   1.0000   1.0000   1.0000   1.0000   1.0000
     1.0000   1.0000   1.0000   1.0000   1.0000   1.0000   1.0000   1.0000
     1.0000   1.0000   1.0000   1.0000   0.0000   0.0000   0.0000   0.0000
     0.0000   0.0000   0.0000   0.0000   0.0000   0.0000

[...]

          k = 0.2500-0.3013-0.5083 ( 11392 PWs)   bands (ev):

[...]

          k =-0.5000 0.0000 0.0000 ( 11444 PWs)   bands (ev):

[...]

          k =-0.5000-0.3013-0.5083 ( 11400 PWs)   bands (ev):

    -7.6403  -7.6402  -7.6396  -7.6393  -7.6084  -7.6084  -7.6080  -7.6079
    -7.5838  -7.5837  -7.5834  -7.5831  -7.5790  -7.5790  -7.5785  -7.5783
    -7.4230  -7.4229  -7.4228  -7.4227  -7.4212  -7.4211  -7.4205  -7.4204
    -7.3567  -7.3565  -7.3564  -7.3561  -7.3525  -7.3522  -7.3522  -7.3520
    -7.2682  -7.2681  -7.2679  -7.2677  -7.2319  -7.2317  -7.2312  -7.2309
     0.9698   0.9698   0.9698   0.9700   1.9761   1.9761   1.9761   1.9762
     6.6048   6.6048   6.6049   6.6049   8.5376   8.5376   8.5376   8.5377
    14.3511  14.3511  14.3512  14.3512  15.2022  15.2022

     occupation numbers
     1.0000   1.0000   1.0000   1.0000   1.0000   1.0000   1.0000   1.0000
     1.0000   1.0000   1.0000   1.0000   1.0000   1.0000   1.0000   1.0000
     1.0000   1.0000   1.0000   1.0000   1.0000   1.0000   1.0000   1.0000
     1.0000   1.0000   1.0000   1.0000   1.0000   1.0000   1.0000   1.0000
     1.0000   1.0000   1.0000   1.0000   1.0000   1.0000   1.0000   1.0000
     1.0000   1.0000   1.0000   1.0000   1.0000   1.0000   1.0000   1.0000
     1.0000   1.0000   1.0000   1.0000   0.0000   0.0000   0.0000   0.0000
     0.0000   0.0000   0.0000   0.0000   0.0000   0.0000

     the Fermi energy is     7.8379 ev

!    total energy              =   -2266.60636554 Ry
     total all-electron energy =    -31147.923654 Ry
     estimated scf accuracy    <       0.00000009 Ry
     smearing contrib. (-TS)   =      -0.00079756 Ry
     internal energy E=F+TS    =   -2266.60556798 Ry

     The total energy is F=E-TS. E is the sum of the following terms:
     one-electron contribution =    -836.13589299 Ry
     hartree contribution      =     523.23585942 Ry
     xc contribution           =    -314.13234746 Ry
     ewald contribution        =    -718.08190053 Ry
     one-center paw contrib.   =    -921.49128642 Ry
      -> PAW hartree energy AE =     141.29668338 Ry
      -> PAW hartree energy PS =    -139.14025706 Ry
      -> PAW xc energy AE      =    -156.69026092 Ry
      -> PAW xc energy PS      =      39.34736657 Ry
      -> total E_H with PAW    =     525.39228574 Ry
      -> total E_XC with PAW   =    -431.47524181 Ry

     convergence has been achieved in   1 iterations

[...]

     Forces acting on atoms (cartesian axes, Ry/au):

     atom    1 type  1   force =     0.00000000   -0.00005481    0.00003946
     atom    2 type  1   force =     0.00000000   -0.00007344    0.00004737
     atom    3 type  1   force =     0.00000000    0.00005481   -0.00003946
     atom    4 type  1   force =     0.00000000    0.00007344   -0.00004737
     atom    5 type  1   force =     0.00000000    0.00006024    0.00001664
     atom    6 type  1   force =     0.00000000    0.00005330    0.00005731
     atom    7 type  1   force =     0.00000000   -0.00006024   -0.00001664
     atom    8 type  1   force =     0.00000000   -0.00005330   -0.00005731
     The non-local contrib.  to forces
     atom    1 type  1   force =     0.00000000   -0.12197836   -0.03113476
     atom    2 type  1   force =     0.00000000    0.12184382   -0.03112979
     atom    3 type  1   force =     0.00000000    0.12197836    0.03113476
     atom    4 type  1   force =     0.00000000   -0.12184382    0.03112979
     atom    5 type  1   force =     0.00000000   -0.12184911   -0.03115389
     atom    6 type  1   force =     0.00000000    0.12197168   -0.03111814
     atom    7 type  1   force =     0.00000000    0.12184911    0.03115389
     atom    8 type  1   force =     0.00000000   -0.12197168    0.03111814
     The ionic contribution  to forces
     atom    1 type  1   force =    -0.00000026    3.00164230    0.14679374
     atom    2 type  1   force =    -0.00000026   -3.00123119    0.14672592
     atom    3 type  1   force =    -0.00000026   -3.00164230   -0.14679374
     atom    4 type  1   force =    -0.00000026    3.00123119   -0.14672591
     atom    5 type  1   force =     0.00000026    3.00113795    0.14671915
     atom    6 type  1   force =     0.00000026   -3.00157250    0.14675599
     atom    7 type  1   force =     0.00000026   -3.00113795   -0.14671915
     atom    8 type  1   force =     0.00000026    3.00157250   -0.14675599
     The local contribution  to forces
     atom    1 type  1   force =     0.00000000   -2.88219333   -0.11671138
     atom    2 type  1   force =     0.00000000    2.88144336   -0.11665922
     atom    3 type  1   force =    -0.00000000    2.88162048    0.11571124
     atom    4 type  1   force =    -0.00000000   -2.88202535    0.11565386
     atom    5 type  1   force =     0.00000361   -2.88191301   -0.11660416
     atom    6 type  1   force =     0.00000361    2.88155872   -0.11670856
     atom    7 type  1   force =     0.00000361    2.88134020    0.11560403
     atom    8 type  1   force =     0.00000361   -2.88214076    0.11570316
     The core correction contribution to forces
     atom    1 type  1   force =     0.00000000    0.00227281    0.00055700
     atom    2 type  1   force =     0.00000000   -0.00231566    0.00055675
     atom    3 type  1   force =     0.00000000   -0.00231499   -0.00063065
     atom    4 type  1   force =     0.00000000    0.00227344   -0.00063043
     atom    5 type  1   force =     0.00000027    0.00227352    0.00055700
     atom    6 type  1   force =     0.00000027   -0.00231513    0.00055664
     atom    7 type  1   force =     0.00000027   -0.00231570   -0.00063066
     atom    8 type  1   force =     0.00000027    0.00227290   -0.00063032
     The Hubbard contrib.    to forces
     atom    1 type  1   force =     0.00000000    0.00000000    0.00000000
     atom    2 type  1   force =     0.00000000    0.00000000    0.00000000
     atom    3 type  1   force =     0.00000000    0.00000000    0.00000000
     atom    4 type  1   force =     0.00000000    0.00000000    0.00000000
     atom    5 type  1   force =     0.00000000    0.00000000    0.00000000
     atom    6 type  1   force =     0.00000000    0.00000000    0.00000000
     atom    7 type  1   force =     0.00000000    0.00000000    0.00000000
     atom    8 type  1   force =     0.00000000    0.00000000    0.00000000
     The SCF correction term to forces
     atom    1 type  1   force =     0.00000000   -0.00010575   -0.00000203
     atom    2 type  1   force =     0.00000000   -0.00012587    0.00001419
     atom    3 type  1   force =     0.00000000    0.00010576    0.00000204
     atom    4 type  1   force =     0.00000000    0.00012586   -0.00001420
     atom    5 type  1   force =    -0.00000000    0.00010339   -0.00003835
     atom    6 type  1   force =    -0.00000000    0.00009840    0.00003185
     atom    7 type  1   force =    -0.00000000   -0.00010339    0.00003836
     atom    8 type  1   force =    -0.00000000   -0.00009839   -0.00003182

     Total force =     0.000211     Total SCF correction =     0.000317
     SCF correction compared to forces is large: reduce conv_thr to get better values

     Computing stress (Cartesian axis) and pressure

[...]

          total   stress  (Ry/bohr**3)                   (kbar)     P=        0.25
  -0.00000461   0.00000000   0.00000000           -0.68        0.00        0.00
   0.00000000   0.00000489  -0.00000000            0.00        0.72       -0.00
   0.00000000  -0.00000000   0.00000491            0.00       -0.00        0.72

     kinetic stress (kbar)  10174.08      0.00      0.00
                                0.00  10196.52     -0.00
                                0.00     -0.00  10180.84

     local   stress (kbar)    -71.58      0.00      0.00
                                0.00   8328.04     -0.03
                                0.00     -0.03   1285.92

     nonloc. stress (kbar)   2880.36      0.00      0.00
                                0.00   2938.96      0.00
                                0.00      0.00   2904.48

     hartree stress (kbar)  23713.56      0.00      0.00
                                0.00  19945.09      0.01
                                0.00      0.01  23097.59

     exc-cor stress (kbar)   7092.72     -0.00     -0.00
                               -0.00   7093.80      0.00
                               -0.00      0.00   7092.45

     corecor stress (kbar) -15241.50      0.00      0.00
                                0.00 -15243.49     -0.00
                                0.00     -0.00 -15241.61

     ewald   stress (kbar) -28711.15      0.00      0.00
                                0.00 -33422.33      0.02
                                0.00      0.02 -29481.89

     hubbard stress (kbar)      0.00      0.00      0.00
                                0.00      0.00      0.00
                                0.00      0.00      0.00

     DFT-D   stress (kbar)      0.00      0.00      0.00
                                0.00      0.00      0.00
                                0.00      0.00      0.00

     XDM     stress (kbar)      0.00      0.00      0.00
                                0.00      0.00      0.00
                                0.00      0.00      0.00

     dft-nl  stress (kbar)    162.84      0.00      0.00
                                0.00    164.12     -0.00
                                0.00     -0.00    162.94

     TS-vdW  stress (kbar)      0.00      0.00      0.00
                                0.00      0.00      0.00
                                0.00      0.00      0.00

     MDB     stress (kbar)      0.00      0.00      0.00
                                0.00      0.00      0.00
                                0.00      0.00      0.00

     3D-RISM stress (kbar)      0.00      0.00      0.00
                                0.00      0.00      0.00
                                0.00      0.00      0.00

[...]

     Non-local corr. energy    =       3.79617109 Ry

 BEEFens 2000 ensemble energies
             -0.282398811364614E+01
             -0.272390468096573E+02
             -0.121394435404162E+02
              0.951611074051247E+01
             -0.203210544894147E+02
             -0.256450746686364E+02
              0.129118995055444E+02
             -0.116094229210080E+01
              0.217851871569727E+02
             -0.103711307956263E+01
              0.114148345912574E+02
              0.477944967859997E+00
             -0.623722427447788E-01
             -0.974826421519609E+00
              0.141422500576150E+02
             -0.103983443964574E+02
             -0.206832599332260E+02
             -0.688219430950934E+01
              0.518940284459316E+01
             -0.683811791449870E+00
              0.316296280011121E+02
              0.262633978112214E+02
             -0.157538297338467E+02
              0.506671732760944E+01
             -0.334495620230413E+02
              0.267763910083675E+02
              0.868073937709244E+01
              0.254108358925686E+02
              0.166902281791134E+02
             -0.774607661369953E+01
              0.626694518887192E+01
             -0.114130840266925E+02
              0.401558714005597E+01
              0.171278175285603E+02
              0.177683102092933E+02
             -0.657154243827968E+01
              0.392229208197044E+02
             -0.155053803064669E+02
             -0.106544937083677E+02
              0.158483130942517E+02
              0.720648477486887E+01
              0.119443408125709E+02
             -0.226458279465014E+02
             -0.599681699763636E+00
              0.218425804813740E+02
              0.288377048297027E+02
             -0.291433484781471E+02
              0.178312222209335E+01
              0.105286716440654E+02
              0.602802273161174E+01
              0.116783187472627E+02
              0.251974282057990E+02
             -0.153241620036737E+02
             -0.170225890346389E+02
             -0.219244875666323E+02
             -0.276800212173688E+01
             -0.199297709661769E+02
              0.214592333060666E+01
             -0.315560473662043E+01
             -0.152676648560045E+02
[...]
              0.187604080551501E+02
              0.109662050419466E+02
              0.130843501538994E+02
             -0.219820252155553E+02
             -0.219609051617869E+02
             -0.507475916997080E+01
             -0.209227183404047E+02
              0.327856343234008E+02
              0.279115515822335E+02
              0.134609842286626E+02
              0.368411144131342E+02
             -0.188876770576961E+02
             -0.749430077627786E+01
             -0.111852930889540E+02
              0.308887987338519E+02

 BEEF-vdW xc energy contributions
            1 :    -277.6646138468942
            2 :     250.7804453237098
            3 :    -206.0698463895122
            4 :     157.1523273040610
            5 :    -115.8328781401809
            6 :     87.42502522500843
            7 :    -70.10923952441311
            8 :     58.09546177374074
            9 :    -46.16187761052112
           10 :     32.66826468464552
           11 :    -19.52934158881550
           12 :     9.795415813603881
           13 :    -4.929633135827260
           14 :     3.726603469999134
           15 :    -3.378143907053811
           16 :     1.601829504079831
           17 :     1.869139207272099
           18 :    -5.459021225580955
           19 :     7.268553077126626
           20 :    -6.659809116277017
           21 :     4.707732242585450
           22 :    -3.284037754185931
           23 :     3.591425300135086
           24 :    -5.312885041141669
           25 :     6.980629020636570
           26 :    -7.195234327392143
           27 :     5.704948169053921
           28 :    -3.532144253905642
           29 :     2.117845764144988
           30 :    -2.207532900122146
           31 :    -22.24374558220808
           32 :    -15.23789425075927

     Writing all to output data dir ./PbI2.save/

     General routines

     Parallel routines

     PAW routines

   This run was terminated on:   8:50: 7  21Feb2024

   JOB DONE.