     Program PWSCF v.7.1 starts on 21Feb2024 at  8:44: 7

     Reading input from espresso.pwi
Warning: card &CELL ignored
Warning: card    CELL_DYNAMICS    = 'BFGS' ignored
Warning: card / ignored

     Current dimensions of program PWSCF are:
     Max number of different atomic species (ntypx) = 10
     Max number of k-points (npk) =  40000
     Max angular momentum in pseudopotentials (lmaxx) =  4
     file Ga.pbe-dn-kjpaw_psl.1.0.0.UPF: wavefunction(s)  4S renormalized

     IMPORTANT: XC functional enforced from input :
     Exchange-correlation= BEEF-VDW
                           (   1   4  43  14   2   0   0)
     Any further DFT definition will be discarded
     Please, verify this is what you really want

     Found identity + (  0.5000 -0.5000  0.0000) symmetry
     This is a supercell, fractional translations are disabled

     K-points division:     npool     =       8
     R & G space division:  proc/nbgrp/npool/nimage =      16
     Subspace diagonalization in iterative solution of the eigenvalue problem:
     a serial algorithm will be used

     Using Slab Decomposition

     bravais-lattice index     =            8
     lattice parameter (alat)  =       8.9055  a.u.
     unit-cell volume          =    1153.0106 (a.u.)^3
     number of atoms/cell      =            8
     number of atomic types    =            1
     number of electrons       =       104.00
     number of Kohn-Sham states=           62
     kinetic-energy cutoff     =      70.0000  Ry
     charge density cutoff     =     350.0000  Ry
     scf convergence threshold =      1.0E-07
     mixing beta               =       0.7000
     number of iterations used =            8  plain     mixing
     energy convergence thresh.=      1.0E-04
     force convergence thresh. =      1.0E-03
     Exchange-correlation= BEEF-VDW
                           (   1   4  43  14   2   0   0)
     nstep                     =           50

     celldm(1)=   8.905499  celldm(2)=   1.659495  celldm(3)=   0.983745
     celldm(4)=   0.000000  celldm(5)=   0.000000  celldm(6)=   0.000000

     crystal axes: (cart. coord. in units of alat)
               a(1) = (   1.000000   0.000000   0.000000 )
               a(2) = (   0.000000   1.659495   0.000000 )
               a(3) = (   0.000000   0.000000   0.983745 )

     reciprocal axes: (cart. coord. in units 2 pi/alat)
               b(1) = (  1.000000  0.000000  0.000000 )
               b(2) = (  0.000000  0.602593  0.000000 )
               b(3) = (  0.000000  0.000000  1.016523 )

     PseudoPot. # 1 for Ga read from file:
     /trace/group/acmegroup/atimmins/packages/espresso/pseudo/psl_1.0.0/pslibrary.1.0.0/pbe/PSEUDOPOTENTIALS/Ga.pbe-dn-kjpaw_psl.1.0.0.UPF
     MD5 check sum: cd2a01e492f15b435d17032472d8505c
     Pseudo is Projector augmented-wave + core cor, Zval = 13.0
     Generated using 'atomic' code by A. Dal Corso  v.7.1
     Shape of augmentation charge: PSQ
     Using radial grid of 1205 points,  6 beta functions with:
                l(1) =   0
                l(2) =   0
                l(3) =   1
                l(4) =   1
                l(5) =   2
                l(6) =   2
     Q(r) pseudized with 0 coefficients

     atomic species   valence    mass     pseudopotential
        Ga            13.00    69.72300     Ga( 1.00)

      4 Sym. Ops., with inversion, found

                                    s                        frac. trans.

      isym =  1     identity

 cryst.   s( 1) = (     1          0          0      )
                  (     0          1          0      )
                  (     0          0          1      )

 cart.    s( 1) = (  1.0000000  0.0000000  0.0000000 )
                  (  0.0000000  1.0000000  0.0000000 )
                  (  0.0000000  0.0000000  1.0000000 )

      isym =  2     180 deg rotation - cart. axis [1,0,0]

[...]

      isym =  3     inversion

[...]

      isym =  4     inv. 180 deg rotation - cart. axis [1,0,0]

 cryst.   s( 4) = (    -1          0          0      )
                  (     0          1          0      )
                  (     0          0          1      )

 cart.    s( 4) = ( -1.0000000  0.0000000  0.0000000 )
                  (  0.0000000  1.0000000  0.0000000 )
                  (  0.0000000  0.0000000  1.0000000 )

     point group C_2h (2/m)
     there are  4 classes
     the character table:

       E     C2    i     s_h
A_g    1.00  1.00  1.00  1.00
B_g    1.00 -1.00  1.00 -1.00
A_u    1.00  1.00 -1.00 -1.00
B_u    1.00 -1.00 -1.00  1.00

     the symmetry operations in each class and the name of the first element:

     E        1
          identity
     C2       2
          180 deg rotation - cart. axis [1,0,0]
     i        3
          inversion
     s_h      4
          inv. 180 deg rotation - cart. axis [1,0,0]

   Cartesian axes

     site n.     atom                  positions (alat units)
         1           Ga  tau(   1) = (   0.0000000   0.5689138   0.4095147  )
         2           Ga  tau(   2) = (   0.0000000   0.2608325   0.9013875  )
         3           Ga  tau(   3) = (   0.0000000   1.0905812   0.5742312  )
         4           Ga  tau(   4) = (   0.0000000   1.3986625   0.0823584  )
         5           Ga  tau(   5) = (   0.5000000   1.3986633   0.4095154  )
         6           Ga  tau(   6) = (   0.5000000   1.0905807   0.9013883  )
         7           Ga  tau(   7) = (   0.5000000   0.2608317   0.5742305  )
         8           Ga  tau(   8) = (   0.5000000   0.5689143   0.0823576  )

   Crystallographic axes

     site n.     atom                  positions (cryst. coord.)
         1           Ga  tau(   1) = (  0.0000000  0.3428235  0.4162812  )
         2           Ga  tau(   2) = (  0.0000000  0.1571759  0.9162814  )
         3           Ga  tau(   3) = (  0.0000000  0.6571767  0.5837194  )
         4           Ga  tau(   4) = (  0.0000000  0.8428243  0.0837192  )
         5           Ga  tau(   5) = (  0.5000000  0.8428248  0.4162820  )
         6           Ga  tau(   6) = (  0.5000000  0.6571764  0.9162822  )
         7           Ga  tau(   7) = (  0.5000000  0.1571754  0.5837187  )
         8           Ga  tau(   8) = (  0.5000000  0.3428238  0.0837184  )

     number of k points=    18  Gaussian smearing, width (Ry)=  0.0100
                       cart. coord. in units 2pi/alat
        k(    1) = (   0.0000000   0.0000000   0.0000000), wk =   0.0625000
        k(    2) = (   0.0000000   0.0000000   0.2541308), wk =   0.1250000
        k(    3) = (   0.0000000   0.0000000  -0.5082616), wk =   0.0625000
        k(    4) = (   0.0000000  -0.3012965   0.0000000), wk =   0.0625000
        k(    5) = (   0.0000000  -0.3012965   0.2541308), wk =   0.1250000
        k(    6) = (   0.0000000  -0.3012965  -0.5082616), wk =   0.0625000
        k(    7) = (   0.2500000   0.0000000   0.0000000), wk =   0.1250000
        k(    8) = (   0.2500000   0.0000000   0.2541308), wk =   0.2500000
        k(    9) = (   0.2500000   0.0000000  -0.5082616), wk =   0.1250000
        k(   10) = (   0.2500000  -0.3012965   0.0000000), wk =   0.1250000
        k(   11) = (   0.2500000  -0.3012965   0.2541308), wk =   0.2500000
        k(   12) = (   0.2500000  -0.3012965  -0.5082616), wk =   0.1250000
        k(   13) = (  -0.5000000   0.0000000   0.0000000), wk =   0.0625000
        k(   14) = (  -0.5000000   0.0000000   0.2541308), wk =   0.1250000
        k(   15) = (  -0.5000000   0.0000000  -0.5082616), wk =   0.0625000
        k(   16) = (  -0.5000000  -0.3012965   0.0000000), wk =   0.0625000
        k(   17) = (  -0.5000000  -0.3012965   0.2541308), wk =   0.1250000
        k(   18) = (  -0.5000000  -0.3012965  -0.5082616), wk =   0.0625000

                       cryst. coord.
        k(    1) = (   0.0000000   0.0000000   0.0000000), wk =   0.0625000
        k(    2) = (   0.0000000   0.0000000   0.2500000), wk =   0.1250000
        k(    3) = (   0.0000000   0.0000000  -0.5000000), wk =   0.0625000
        k(    4) = (   0.0000000  -0.5000000   0.0000000), wk =   0.0625000
        k(    5) = (   0.0000000  -0.5000000   0.2500000), wk =   0.1250000
        k(    6) = (   0.0000000  -0.5000000  -0.5000000), wk =   0.0625000
        k(    7) = (   0.2500000   0.0000000   0.0000000), wk =   0.1250000
        k(    8) = (   0.2500000   0.0000000   0.2500000), wk =   0.2500000
        k(    9) = (   0.2500000   0.0000000  -0.5000000), wk =   0.1250000
        k(   10) = (   0.2500000  -0.5000000   0.0000000), wk =   0.1250000
        k(   11) = (   0.2500000  -0.5000000   0.2500000), wk =   0.2500000
        k(   12) = (   0.2500000  -0.5000000  -0.5000000), wk =   0.1250000
        k(   13) = (  -0.5000000   0.0000000   0.0000000), wk =   0.0625000
        k(   14) = (  -0.5000000   0.0000000   0.2500000), wk =   0.1250000
        k(   15) = (  -0.5000000   0.0000000  -0.5000000), wk =   0.0625000
        k(   16) = (  -0.5000000  -0.5000000   0.0000000), wk =   0.0625000
        k(   17) = (  -0.5000000  -0.5000000   0.2500000), wk =   0.1250000
        k(   18) = (  -0.5000000  -0.5000000  -0.5000000), wk =   0.0625000

     Initial potential from superposition of free atoms

     starting charge     103.9764, renormalised to     104.0000

     %%%%%%%%%%%%%%%%%%%%%%%%%%%%%%%%%%%%%%%%%%%%%%%%%%%%%%%%%%%%%%%%%%%%%%%%
     %                                                                      %
     % You are using vdW-DF, which was implemented by the Thonhauser group. %
     % Please cite the following two papers that made this development      %
     % possible and the two reviews that describe the various versions:     %
     %                                                                      %
     %   T. Thonhauser et al., PRL 115, 136402 (2015).                      %
     %   T. Thonhauser et al., PRB 76, 125112 (2007).                       %
     %   K. Berland et al., Rep. Prog. Phys. 78, 066501 (2015).             %
     %   D.C. Langreth et al., J. Phys.: Condens. Matter 21, 084203 (2009). %
     %                                                                      %
     % If you are calculating stress with vdW-DF, please also cite:         %
     %                                                                      %
     %   R. Sabatini et al., J. Phys.: Condens. Matter 24, 424209 (2012).   %
     %                                                                      %
     %%%%%%%%%%%%%%%%%%%%%%%%%%%%%%%%%%%%%%%%%%%%%%%%%%%%%%%%%%%%%%%%%%%%%%%%

     %%%%%%%%%%%%%%%%%%%%%%%%%%%%%%%%%%%%%%%%%%%%%%%%%%%%%%%%%%%%%%%%%%%%%%%%
     %                                                                      %
     %  vdW-DF NEWS:                                                        %
     %                                                                      %
     %  * vdW-DF3 is now available. DOI: 10.1021/acs.jctc.0c00471           %
     %    use with input_dft = 'vdW-DF3-opt1' or 'vdW-DF3-opt2'             %
     %                                                                      %
     %  * Unscreened and range-separated vdW-DF hybrid functionals          %
     %    DOI: 10.1063/1.4986522 and 10.1088/1361-648X/ac2ad2               %
     %    use with input_dft = 'vdW-DF-cx0' (etc) and 'vdW-DF-ahcx'         %
     %                                                                      %
     %%%%%%%%%%%%%%%%%%%%%%%%%%%%%%%%%%%%%%%%%%%%%%%%%%%%%%%%%%%%%%%%%%%%%%%%

     Carrying out vdW-DF run using the following parameters:
     Nqs    =  20  Npoints =  1024  r_max =  100.000
     q_mesh =  0.00001000  0.04494208  0.09755937  0.15916263
               0.23128650  0.31572767  0.41458969  0.53033537
               0.66584808  0.82450364  1.01025438  1.22772762
               1.48234092  1.78043706  2.12944203  2.53805004
               3.01644009  3.57652955  4.23227104  5.00000000

     Non-local corr. energy    =       3.78913408 Ry

     Starting wfcs are   72 randomized atomic wfcs
     Checking if some PAW data can be deallocated...

     Self-consistent Calculation

     iteration #  1     ecut=    70.00 Ry     beta= 0.70
     Davidson diagonalization with overlap

     ethr =  1.00E-02,  avg # of iterations =  3.7

     Threshold (ethr) on eigenvalues was too large:
     Diagonalizing with lowered threshold

     Davidson diagonalization with overlap

[...]

     total energy              =   -2266.58521731 Ry
     estimated scf accuracy    <       0.07295054 Ry

[...]

     total energy              =   -2266.60636542 Ry
     estimated scf accuracy    <       0.00000051 Ry

     iteration # 14     ecut=    70.00 Ry     beta= 0.70
     Davidson diagonalization with overlap

     ethr =  4.94E-10,  avg # of iterations =  3.9

[...]

     End of self-consistent calculation

          k = 0.0000 0.0000 0.0000 ( 11395 PWs)   bands (ev):

    -7.6817  -7.6386  -7.6359  -7.6321  -7.6238  -7.6154  -7.6024  -7.5977
    -7.5871  -7.5740  -7.5627  -7.5448  -7.5061  -7.5035  -7.5029  -7.4982
    -7.4810  -7.4670  -7.4563  -7.4519  -7.4301  -7.4267  -7.4246  -7.4209
    -7.4138  -7.3881  -7.3870  -7.3829  -7.3357  -7.3343  -7.3131  -7.3117
    -7.3013  -7.2778  -7.2751  -7.2740  -7.2711  -7.2691  -7.2581  -7.1882
    -2.5330  -0.9792   1.1237   3.4353   3.6461   4.4180   4.8990   5.6450
     6.1366   6.3141   6.6286   7.4315   8.8308   8.8376   9.1093   9.1202
     9.4236  10.6345  11.5373  12.0274  12.3622  12.6024

     occupation numbers
     1.0000   1.0000   1.0000   1.0000   1.0000   1.0000   1.0000   1.0000
     1.0000   1.0000   1.0000   1.0000   1.0000   1.0000   1.0000   1.0000
     1.0000   1.0000   1.0000   1.0000   1.0000   1.0000   1.0000   1.0000
     1.0000   1.0000   1.0000   1.0000   1.0000   1.0000   1.0000   1.0000
     1.0000   1.0000   1.0000   1.0000   1.0000   1.0000   1.0000   1.0000
     1.0000   1.0000   1.0000   1.0000   1.0000   1.0000   1.0000   1.0000
     1.0000   1.0000   1.0000   1.0000   0.0000   0.0000   0.0000   0.0000
     0.0000   0.0000   0.0000   0.0000   0.0000   0.0000

[...]

          k = 0.2500-0.3013-0.5083 ( 11392 PWs)   bands (ev):

[...]

          k =-0.5000 0.0000 0.0000 ( 11444 PWs)   bands (ev):

[...]

          k =-0.5000-0.3013-0.5083 ( 11400 PWs)   bands (ev):

    -7.6394  -7.6390  -7.6386  -7.6386  -7.6074  -7.6073  -7.6071  -7.6071
    -7.5829  -7.5826  -7.5824  -7.5823  -7.5780  -7.5779  -7.5776  -7.5775
    -7.4221  -7.4220  -7.4218  -7.4217  -7.4201  -7.4200  -7.4196  -7.4196
    -7.3558  -7.3554  -7.3554  -7.3553  -7.3515  -7.3513  -7.3512  -7.3511
    -7.2673  -7.2670  -7.2670  -7.2668  -7.2309  -7.2305  -7.2303  -7.2301
     0.9699   0.9699   0.9699   0.9699   1.9761   1.9762   1.9762   1.9762
     6.6049   6.6049   6.6049   6.6049   8.5377   8.5377   8.5377   8.5377
    14.3512  14.3512  14.3512  14.3513  15.2023  15.2023

     occupation numbers
     1.0000   1.0000   1.0000   1.0000   1.0000   1.0000   1.0000   1.0000
     1.0000   1.0000   1.0000   1.0000   1.0000   1.0000   1.0000   1.0000
     1.0000   1.0000   1.0000   1.0000   1.0000   1.0000   1.0000   1.0000
     1.0000   1.0000   1.0000   1.0000   1.0000   1.0000   1.0000   1.0000
     1.0000   1.0000   1.0000   1.0000   1.0000   1.0000   1.0000   1.0000
     1.0000   1.0000   1.0000   1.0000   1.0000   1.0000   1.0000   1.0000
     1.0000   1.0000   1.0000   1.0000   0.0000   0.0000   0.0000   0.0000
     0.0000   0.0000   0.0000   0.0000   0.0000   0.0000

     the Fermi energy is     7.8379 ev

!    total energy              =   -2266.60636554 Ry
     total all-electron energy =    -31147.923654 Ry
     estimated scf accuracy    <       0.00000009 Ry
     smearing contrib. (-TS)   =      -0.00079755 Ry
     internal energy E=F+TS    =   -2266.60556799 Ry

     The total energy is F=E-TS. E is the sum of the following terms:
     one-electron contribution =    -836.12996170 Ry
     hartree contribution      =     523.22714282 Ry
     xc contribution           =    -314.13076985 Ry
     ewald contribution        =    -718.08190053 Ry
     one-center paw contrib.   =    -921.49007873 Ry
      -> PAW hartree energy AE =     141.29529812 Ry
      -> PAW hartree energy PS =    -139.13863534 Ry
      -> PAW xc energy AE      =    -156.68992249 Ry
      -> PAW xc energy PS      =      39.34704059 Ry
      -> total E_H with PAW    =     525.38380560 Ry
      -> total E_XC with PAW   =    -431.47365175 Ry

     convergence has been achieved in  14 iterations

[...]

     Forces acting on atoms (cartesian axes, Ry/au):

     atom    1 type  1   force =     0.00000000   -0.00002975    0.00003558
     atom    2 type  1   force =     0.00000000    0.00000395    0.00003682
     atom    3 type  1   force =     0.00000000    0.00002975   -0.00003558
     atom    4 type  1   force =     0.00000000   -0.00000395   -0.00003682
     atom    5 type  1   force =     0.00000000    0.00000263    0.00003164
     atom    6 type  1   force =     0.00000000   -0.00000810    0.00004611
     atom    7 type  1   force =     0.00000000   -0.00000263   -0.00003164
     atom    8 type  1   force =     0.00000000    0.00000810   -0.00004611
     The non-local contrib.  to forces
     atom    1 type  1   force =     0.00000000   -0.12192163   -0.03113318
     atom    2 type  1   force =     0.00000000    0.12190847   -0.03113539
     atom    3 type  1   force =     0.00000000    0.12192163    0.03113318
     atom    4 type  1   force =     0.00000000   -0.12190847    0.03113539
     atom    5 type  1   force =     0.00000000   -0.12191065   -0.03113427
     atom    6 type  1   force =     0.00000000    0.12191815   -0.03113707
     atom    7 type  1   force =     0.00000000    0.12191065    0.03113427
     atom    8 type  1   force =     0.00000000   -0.12191815    0.03113707
     The ionic contribution  to forces
     atom    1 type  1   force =    -0.00000026    3.00164230    0.14679374
     atom    2 type  1   force =    -0.00000026   -3.00123119    0.14672592
     atom    3 type  1   force =    -0.00000026   -3.00164230   -0.14679374
     atom    4 type  1   force =    -0.00000026    3.00123119   -0.14672591
     atom    5 type  1   force =     0.00000026    3.00113795    0.14671915
     atom    6 type  1   force =     0.00000026   -3.00157250    0.14675599
     atom    7 type  1   force =     0.00000026   -3.00113795   -0.14671915
     atom    8 type  1   force =     0.00000026    3.00157250   -0.14675599
     The local contribution  to forces
     atom    1 type  1   force =    -0.00000000   -2.88229613   -0.11671675
     atom    2 type  1   force =     0.00000000    2.88131864   -0.11664067
     atom    3 type  1   force =    -0.00000000    2.88172329    0.11571664
     atom    4 type  1   force =    -0.00000000   -2.88190063    0.11563532
     atom    5 type  1   force =     0.00000361   -2.88180969   -0.11664549
     atom    6 type  1   force =     0.00000361    2.88165311   -0.11667217
     atom    7 type  1   force =     0.00000361    2.88123688    0.11564537
     atom    8 type  1   force =     0.00000361   -2.88223513    0.11566679
     The core correction contribution to forces
     atom    1 type  1   force =     0.00000000    0.00227328    0.00055675
     atom    2 type  1   force =     0.00000000   -0.00231544    0.00055715
     atom    3 type  1   force =     0.00000000   -0.00231546   -0.00063041
     atom    4 type  1   force =     0.00000000    0.00227322   -0.00063082
     atom    5 type  1   force =     0.00000027    0.00227354    0.00055692
     atom    6 type  1   force =     0.00000027   -0.00231548    0.00055687
     atom    7 type  1   force =     0.00000027   -0.00231572   -0.00063058
     atom    8 type  1   force =     0.00000027    0.00227325   -0.00063055
     The Hubbard contrib.    to forces
     atom    1 type  1   force =     0.00000000    0.00000000    0.00000000
     atom    2 type  1   force =     0.00000000    0.00000000    0.00000000
     atom    3 type  1   force =     0.00000000    0.00000000    0.00000000
     atom    4 type  1   force =     0.00000000    0.00000000    0.00000000
     atom    5 type  1   force =     0.00000000    0.00000000    0.00000000
     atom    6 type  1   force =     0.00000000    0.00000000    0.00000000
     atom    7 type  1   force =     0.00000000    0.00000000    0.00000000
     atom    8 type  1   force =     0.00000000    0.00000000    0.00000000
     The SCF correction term to forces
     atom    1 type  1   force =    -0.00000000   -0.00003509   -0.00000188
     atom    2 type  1   force =    -0.00000000    0.00001136   -0.00000971
     atom    3 type  1   force =    -0.00000000    0.00003507    0.00000185
     atom    4 type  1   force =    -0.00000000   -0.00001137    0.00000970
     atom    5 type  1   force =     0.00000000    0.00000398   -0.00000157
     atom    6 type  1   force =     0.00000000   -0.00000351    0.00000293
     atom    7 type  1   force =     0.00000000   -0.00000400    0.00000154
     atom    8 type  1   force =     0.00000000    0.00000349   -0.00000297

     Total force =     0.000116     Total SCF correction =     0.000055
     SCF correction compared to forces is large: reduce conv_thr to get better values

     Computing stress (Cartesian axis) and pressure

     Non-local corr. energy    =       3.79610985 Ry

          total   stress  (Ry/bohr**3)                   (kbar)     P=        0.31
  -0.00000420   0.00000000   0.00000000           -0.62        0.00        0.00
   0.00000000   0.00000528   0.00000000            0.00        0.78        0.00
   0.00000000   0.00000000   0.00000532            0.00        0.00        0.78

     kinetic stress (kbar)  10173.43      0.00      0.00
                                0.00  10195.87      0.01
                                0.00      0.01  10180.19

     local   stress (kbar)    -71.73      0.00      0.00
                                0.00   8327.89     -0.03
                                0.00     -0.03   1285.78

     nonloc. stress (kbar)   2881.56      0.00      0.00
                                0.00   2940.16     -0.00
                                0.00     -0.00   2905.67

     hartree stress (kbar)  23713.19      0.00      0.00
                                0.00  19944.73      0.01
                                0.00      0.01  23097.22

     exc-cor stress (kbar)   7092.75     -0.00     -0.00
                               -0.00   7093.83      0.00
                               -0.00      0.00   7092.48

     corecor stress (kbar) -15241.50      0.00      0.00
                                0.00 -15243.49      0.00
                                0.00      0.00 -15241.60

     ewald   stress (kbar) -28711.15      0.00      0.00
                                0.00 -33422.33      0.02
                                0.00      0.02 -29481.89

     hubbard stress (kbar)      0.00      0.00      0.00
                                0.00      0.00      0.00
                                0.00      0.00      0.00

     DFT-D   stress (kbar)      0.00      0.00      0.00
                                0.00      0.00      0.00
                                0.00      0.00      0.00

     XDM     stress (kbar)      0.00      0.00      0.00
                                0.00      0.00      0.00
                                0.00      0.00      0.00

     dft-nl  stress (kbar)    162.84      0.00      0.00
                                0.00    164.12     -0.00
                                0.00     -0.00    162.94

     TS-vdW  stress (kbar)      0.00      0.00      0.00
                                0.00      0.00      0.00
                                0.00      0.00      0.00

     MDB     stress (kbar)      0.00      0.00      0.00
                                0.00      0.00      0.00
                                0.00      0.00      0.00

     3D-RISM stress (kbar)      0.00      0.00      0.00
                                0.00      0.00      0.00
                                0.00      0.00      0.00

     BFGS Geometry Optimization
     Energy error            =      0.0E+00 Ry
     Gradient error          =      4.6E-05 Ry/Bohr

     bfgs converged in   1 scf cycles and   0 bfgs steps
     (criteria: energy <  1.0E-04 Ry, force <  1.0E-03 Ry/Bohr)

     End of BFGS Geometry Optimization

     Final energy             =   -2266.6063655413 Ry
Begin final coordinates

ATOMIC_POSITIONS (angstrom)
Ga            0.0000000000        2.6810557333        1.9298736930
Ga            0.0000000000        1.2291960240        4.2478671422
Ga            0.0000000000        5.1394588635        2.7061146242
Ga            0.0000000000        6.5913185727        0.3881211749
Ga            2.3562935192        6.5913223603        1.9298771729
Ga            2.3562935192        5.1394566572        4.2478708287
Ga            2.3562935192        1.2291922364        2.7061111443
Ga            2.3562935192        2.6810579396        0.3881174885
End final coordinates

     Writing all to output data dir ./PbI2.save/

     General routines

     Parallel routines

     PAW routines

   This run was terminated on:   8:44:22  21Feb2024

   JOB DONE.