     Program PWSCF v.7.1 starts on  9Mar2024 at 10: 5:10

     Reading input from espresso.pwi
Warning: card &CELL ignored
Warning: card    CELL_DYNAMICS    = 'BFGS' ignored
Warning: card / ignored

     Current dimensions of program PWSCF are:
     Max number of different atomic species (ntypx) = 10
     Max number of k-points (npk) =  40000
     Max angular momentum in pseudopotentials (lmaxx) =  4
     file Ga.pbe-dn-kjpaw_psl.1.0.0.UPF: wavefunction(s)  4S renormalized
     file N.pbe-n-kjpaw_psl.1.0.0.UPF: wavefunction(s)  2S renormalized

     IMPORTANT: XC functional enforced from input :
     Exchange-correlation= BEEF-VDW
                           (   1   4  43  14   2   0   0)
     Any further DFT definition will be discarded
     Please, verify this is what you really want

     K-points division:     npool     =       4
     R & G space division:  proc/nbgrp/npool/nimage =      64
     Subspace diagonalization in iterative solution of the eigenvalue problem:
     a serial algorithm will be used

     Using Slab Decomposition

     bravais-lattice index     =            4
     lattice parameter (alat)  =      30.6565  a.u.
     unit-cell volume          =   24400.9461 (a.u.)^3
     number of atoms/cell      =          299
     number of atomic types    =            2
     number of electrons       =      2695.00
     number of Kohn-Sham states=         1618
     kinetic-energy cutoff     =      70.0000  Ry
     charge density cutoff     =     350.0000  Ry
     scf convergence threshold =      1.0E-07
     mixing beta               =       0.7000
     number of iterations used =            8  plain     mixing
     energy convergence thresh.=      1.0E-04
     force convergence thresh. =      1.0E-03
     Exchange-correlation= BEEF-VDW
                           (   1   4  43  14   2   0   0)
     nstep                     =           50

     celldm(1)=  30.656540  celldm(2)=   0.000000  celldm(3)=   0.977927
     celldm(4)=   0.000000  celldm(5)=   0.000000  celldm(6)=   0.000000

     crystal axes: (cart. coord. in units of alat)
               a(1) = (   1.000000   0.000000   0.000000 )
               a(2) = (  -0.500000   0.866025   0.000000 )
               a(3) = (   0.000000   0.000000   0.977927 )

     reciprocal axes: (cart. coord. in units 2 pi/alat)
               b(1) = (  1.000000  0.577350 -0.000000 )
               b(2) = (  0.000000  1.154701  0.000000 )
               b(3) = (  0.000000 -0.000000  1.022571 )

     PseudoPot. # 1 for Ga read from file:
     /trace/group/acmegroup/atimmins/packages/espresso/pseudo/psl_1.0.0/pslibrary.1.0.0/pbe/PSEUDOPOTENTIALS/Ga.pbe-dn-kjpaw_psl.1.0.0.UPF
     MD5 check sum: cd2a01e492f15b435d17032472d8505c
     Pseudo is Projector augmented-wave + core cor, Zval = 13.0
     Generated using 'atomic' code by A. Dal Corso  v.7.1
     Shape of augmentation charge: PSQ
     Using radial grid of 1205 points,  6 beta functions with:
                l(1) =   0
                l(2) =   0
                l(3) =   1
                l(4) =   1
                l(5) =   2
                l(6) =   2
     Q(r) pseudized with 0 coefficients

     PseudoPot. # 2 for N  read from file:
     /trace/group/acmegroup/atimmins/packages/espresso/pseudo/psl_1.0.0/pslibrary.1.0.0/pbe/PSEUDOPOTENTIALS/N.pbe-n-kjpaw_psl.1.0.0.UPF
     MD5 check sum: f77f775694dac7e2c3fe1c82443d1a16
     Pseudo is Projector augmented-wave + core cor, Zval =  5.0
     Generated using 'atomic' code by A. Dal Corso  v.7.1
     Shape of augmentation charge: PSQ
     Using radial grid of 1085 points,  4 beta functions with:
                l(1) =   0
                l(2) =   0
                l(3) =   1
                l(4) =   1
     Q(r) pseudized with 0 coefficients

     atomic species   valence    mass     pseudopotential
        Ga            13.00    69.72300     Ga( 1.00)
        N              5.00    14.00700     N ( 1.00)

      2 Sym. Ops. (no inversion) found

                                    s                        frac. trans.

      isym =  1     identity

 cryst.   s( 1) = (     1          0          0      )
                  (     0          1          0      )
                  (     0          0          1      )

 cart.    s( 1) = (  1.0000000  0.0000000  0.0000000 )
                  (  0.0000000  1.0000000  0.0000000 )
                  (  0.0000000  0.0000000  1.0000000 )

      isym =  2     inv. 180 deg rotation - cryst. axis [0,1,0]

 cryst.   s( 2) = (     1          1          0      )
                  (     0         -1          0      )
                  (     0          0          1      )

 cart.    s( 2) = (  0.5000000  0.8660254  0.0000000 )
                  (  0.8660254 -0.5000000  0.0000000 )
                  (  0.0000000  0.0000000  1.0000000 )

     point group C_s (m)
     there are  2 classes
     the character table:

       E     s
A'     1.00  1.00
A''    1.00 -1.00

     the symmetry operations in each class and the name of the first element:

     E        1
          identity
     s        2
          inv. 180 deg rotation - cryst. axis [0,1,0]

   Cartesian axes

     site n.     atom                  positions (alat units)
         1           Ga  tau(   1) = (   0.1000001   0.0577350   0.1627148  )
         2           Ga  tau(   2) = (   0.1000001   0.0577350   0.4886906  )
         3           Ga  tau(   3) = (   0.1000001   0.0577350   0.8146665  )
         4           Ga  tau(   4) = (   0.0000001   0.2309401   0.1627148  )
         5           Ga  tau(   5) = (   0.0000001   0.2309401   0.4886906  )
         6           Ga  tau(   6) = (   0.0000001   0.2309401   0.8146665  )
         7           Ga  tau(   7) = (  -0.0999999   0.4041451   0.1627148  )
         8           Ga  tau(   8) = (  -0.0999999   0.4041451   0.4886906  )
         9           Ga  tau(   9) = (  -0.0999999   0.4041451   0.8146665  )
        10           Ga  tau(  10) = (  -0.1999999   0.5773502   0.1627148  )
        11           Ga  tau(  11) = (  -0.1999999   0.5773502   0.4886906  )
        12           Ga  tau(  12) = (  -0.1999999   0.5773502   0.8146665  )
        13           Ga  tau(  13) = (  -0.2999999   0.7505553   0.1627148  )
        14           Ga  tau(  14) = (  -0.2999999   0.7505553   0.4886906  )
        15           Ga  tau(  15) = (  -0.2999999   0.7505553   0.8146665  )
        16           Ga  tau(  16) = (   0.3000001   0.0577350   0.1627148  )
        17           Ga  tau(  17) = (   0.3000001   0.0577350   0.4886906  )
        18           Ga  tau(  18) = (   0.3000001   0.0577350   0.8146665  )
        19           Ga  tau(  19) = (   0.2000001   0.2309401   0.1627148  )
        20           Ga  tau(  20) = (   0.2000001   0.2309401   0.4886906  )
        21           Ga  tau(  21) = (   0.2000001   0.2309401   0.8146665  )
        22           Ga  tau(  22) = (   0.1000001   0.4041451   0.1627148  )
        23           Ga  tau(  23) = (   0.1000001   0.4041451   0.4886906  )
        24           Ga  tau(  24) = (   0.1000001   0.4041451   0.8146665  )
        25           Ga  tau(  25) = (   0.0000001   0.5773502   0.1627148  )
        26           Ga  tau(  26) = (   0.0000001   0.5773502   0.4886906  )
        27           Ga  tau(  27) = (   0.0000001   0.5773502   0.8146665  )
        28           Ga  tau(  28) = (  -0.0999999   0.7505553   0.1627148  )
        29           Ga  tau(  29) = (  -0.0999999   0.7505553   0.4886906  )
        30           Ga  tau(  30) = (  -0.0999999   0.7505553   0.8146665  )
        31           Ga  tau(  31) = (   0.5000001   0.0577350   0.1627148  )
        32           Ga  tau(  32) = (   0.5000001   0.0577350   0.4886906  )
        33           Ga  tau(  33) = (   0.5000001   0.0577350   0.8146665  )
        34           Ga  tau(  34) = (   0.4000001   0.2309401   0.1627148  )
        35           Ga  tau(  35) = (   0.4000001   0.2309401   0.4886906  )
        36           Ga  tau(  36) = (   0.4000001   0.2309401   0.8146665  )
        37           Ga  tau(  37) = (   0.3000001   0.4041451   0.1627148  )
        38           Ga  tau(  38) = (   0.3000001   0.4041451   0.4886906  )
        39           Ga  tau(  39) = (   0.3000001   0.4041451   0.8146665  )
        40           Ga  tau(  40) = (   0.2000001   0.5773502   0.1627148  )
        41           Ga  tau(  41) = (   0.2000001   0.5773502   0.4886906  )
        42           Ga  tau(  42) = (   0.2000001   0.5773502   0.8146665  )
        43           Ga  tau(  43) = (   0.1000001   0.7505553   0.1627148  )
        44           Ga  tau(  44) = (   0.1000001   0.7505553   0.4886906  )
        45           Ga  tau(  45) = (   0.1000001   0.7505553   0.8146665  )
        46           Ga  tau(  46) = (   0.7000001   0.0577350   0.1627148  )
        47           Ga  tau(  47) = (   0.7000001   0.0577350   0.4886906  )
        48           Ga  tau(  48) = (   0.7000001   0.0577350   0.8146665  )
        49           Ga  tau(  49) = (   0.6000001   0.2309401   0.1627148  )
        50           Ga  tau(  50) = (   0.6000001   0.2309401   0.4886906  )
        51           Ga  tau(  51) = (   0.6000001   0.2309401   0.8146665  )
        52           Ga  tau(  52) = (   0.5000001   0.4041451   0.1627148  )
        53           Ga  tau(  53) = (   0.5000001   0.4041451   0.4886906  )
        54           Ga  tau(  54) = (   0.5000001   0.4041451   0.8146665  )
        55           Ga  tau(  55) = (   0.4000001   0.5773502   0.1627148  )
        56           Ga  tau(  56) = (   0.4000001   0.5773502   0.4886906  )
        57           Ga  tau(  57) = (   0.4000001   0.5773502   0.8146665  )
        58           Ga  tau(  58) = (   0.3000001   0.7505553   0.1627148  )
        59           Ga  tau(  59) = (   0.3000001   0.7505553   0.4886906  )
        60           Ga  tau(  60) = (   0.3000001   0.7505553   0.8146665  )
[...]
       285           N   tau( 285) = (   0.7999999   0.1154701   0.1225140  )
       286           N   tau( 286) = (   0.7999999   0.1154701   0.4484898  )
       287           N   tau( 287) = (   0.7999999   0.1154701   0.7744656  )
       288           N   tau( 288) = (   0.6999999   0.2886752   0.1225140  )
       289           N   tau( 289) = (   0.6999999   0.2886752   0.4484898  )
       290           N   tau( 290) = (   0.6999999   0.2886752   0.7744656  )
       291           N   tau( 291) = (   0.5999999   0.4618803   0.1225140  )
       292           N   tau( 292) = (   0.5999999   0.4618803   0.4484898  )
       293           N   tau( 293) = (   0.5999999   0.4618803   0.7744656  )
       294           N   tau( 294) = (   0.4999999   0.6350854   0.1225140  )
       295           N   tau( 295) = (   0.4999999   0.6350854   0.4484898  )
       296           N   tau( 296) = (   0.4999999   0.6350854   0.7744656  )
       297           N   tau( 297) = (   0.3999999   0.8082905   0.1225140  )
       298           N   tau( 298) = (   0.3999999   0.8082905   0.4484898  )
       299           N   tau( 299) = (   0.3999999   0.8082905   0.7744656  )

   Crystallographic axes

     site n.     atom                  positions (cryst. coord.)
[...]
     atom   48 type  1   force =     0.00000000    0.00000000    0.00000000
     atom   49 type  1   force =     0.00000000    0.00000000    0.00000000
     atom   50 type  1   force =     0.00000000    0.00000000    0.00000000
     atom   51 type  1   force =     0.00000000    0.00000000    0.00000000
     atom   52 type  1   force =     0.00000000    0.00000000    0.00000000
     atom   53 type  1   force =     0.00000000    0.00000000    0.00000000
     atom   54 type  1   force =     0.00000000    0.00000000    0.00000000
     atom   55 type  1   force =     0.00000000    0.00000000    0.00000000
     atom   56 type  1   force =     0.00000000    0.00000000    0.00000000
     atom   57 type  1   force =     0.00000000    0.00000000    0.00000000
     atom   58 type  1   force =     0.00000000    0.00000000    0.00000000
     atom   59 type  1   force =     0.00000000    0.00000000    0.00000000
     atom   60 type  1   force =     0.00000000    0.00000000    0.00000000
[...]
     atom  285 type  2   force =     0.00000000    0.00000000    0.00000000
     atom  286 type  2   force =     0.00000000    0.00000000    0.00000000
     atom  287 type  2   force =     0.00000000    0.00000000    0.00000000
     atom  288 type  2   force =     0.00000000    0.00000000    0.00000000
     atom  289 type  2   force =     0.00000000    0.00000000    0.00000000
     atom  290 type  2   force =     0.00000000    0.00000000    0.00000000
     atom  291 type  2   force =     0.00000000    0.00000000    0.00000000
     atom  292 type  2   force =     0.00000000    0.00000000    0.00000000
     atom  293 type  2   force =     0.00000000    0.00000000    0.00000000
     atom  294 type  2   force =     0.00000000    0.00000000    0.00000000
     atom  295 type  2   force =     0.00000000    0.00000000    0.00000000
     atom  296 type  2   force =     0.00000000    0.00000000    0.00000000
     atom  297 type  2   force =     0.00000000    0.00000000    0.00000000
     atom  298 type  2   force =     0.00000000    0.00000000    0.00000000
     atom  299 type  2   force =     0.00000000    0.00000000    0.00000000
     The SCF correction term to forces
     atom    1 type  1   force =     0.00000055    0.00000032    0.00001817
     atom    2 type  1   force =     0.00000028    0.00000016   -0.00000764
     atom    3 type  1   force =     0.00000020    0.00000012    0.00000367
     atom    4 type  1   force =     0.00000192   -0.00000882   -0.00000084
     atom    5 type  1   force =    -0.00000002   -0.00000470    0.00000425
     atom    6 type  1   force =     0.00000113   -0.00000050   -0.00000272
     atom    7 type  1   force =    -0.00000220   -0.00000659   -0.00000152
     atom    8 type  1   force =    -0.00000236   -0.00000548    0.00000456
     atom    9 type  1   force =     0.00000061    0.00000034   -0.00000267
     atom   10 type  1   force =    -0.00000681    0.00000139   -0.00000152
     atom   11 type  1   force =    -0.00000592    0.00000069    0.00000456
     atom   12 type  1   force =     0.00000060    0.00000036   -0.00000267
     atom   13 type  1   force =    -0.00000668    0.00000607   -0.00000084
     atom   14 type  1   force =    -0.00000408    0.00000233    0.00000425
     atom   15 type  1   force =     0.00000013    0.00000123   -0.00000272
     atom   16 type  1   force =    -0.00000885    0.00000340   -0.00000057
     atom   17 type  1   force =    -0.00000428    0.00000302    0.00000458
     atom   18 type  1   force =    -0.00000063   -0.00000021   -0.00000215
     atom   19 type  1   force =    -0.00000147   -0.00000936   -0.00000057
     atom   20 type  1   force =     0.00000047   -0.00000522    0.00000458
     atom   21 type  1   force =    -0.00000050   -0.00000044   -0.00000215
     atom   22 type  1   force =     0.00000025   -0.00001095   -0.00000245
     atom   23 type  1   force =     0.00000011   -0.00000965    0.00000479
     atom   24 type  1   force =     0.00000042   -0.00000004   -0.00000273
     atom   25 type  1   force =    -0.00000442   -0.00000255   -0.00000630
     atom   26 type  1   force =    -0.00000268   -0.00000155    0.00001068
     atom   27 type  1   force =     0.00000081    0.00000047   -0.00000269
     atom   28 type  1   force =    -0.00000936    0.00000569   -0.00000245
     atom   29 type  1   force =    -0.00000830    0.00000492    0.00000479
     atom   30 type  1   force =     0.00000017    0.00000039   -0.00000273
     atom   31 type  1   force =    -0.00000506    0.00000515   -0.00000175
     atom   32 type  1   force =    -0.00000381    0.00000476    0.00000499
     atom   33 type  1   force =    -0.00000023   -0.00000059   -0.00000260
     atom   34 type  1   force =    -0.00000294   -0.00000170    0.00000005
     atom   35 type  1   force =    -0.00000220   -0.00000127   -0.00000029
     atom   36 type  1   force =    -0.00000041   -0.00000024   -0.00000266
     atom   37 type  1   force =     0.00000193   -0.00000696   -0.00000175
     atom   38 type  1   force =     0.00000222   -0.00000568    0.00000499
     atom   39 type  1   force =    -0.00000062    0.00000010   -0.00000260
     atom   40 type  1   force =     0.00000429   -0.00000291   -0.00000657
     atom   41 type  1   force =     0.00000261   -0.00000189    0.00001056
     atom   42 type  1   force =    -0.00000055    0.00000012   -0.00000305
     atom   43 type  1   force =    -0.00000037    0.00000517   -0.00000657
     atom   44 type  1   force =    -0.00000033    0.00000320    0.00001056
     atom   45 type  1   force =    -0.00000018   -0.00000054   -0.00000305
     atom   46 type  1   force =     0.00000432    0.00000540   -0.00000171
     atom   47 type  1   force =     0.00000344    0.00000501    0.00000505
     atom   48 type  1   force =    -0.00000025   -0.00000051   -0.00000256
     atom   49 type  1   force =    -0.00000020    0.00000220    0.00000046
     atom   50 type  1   force =    -0.00000004    0.00000323    0.00000318
     atom   51 type  1   force =    -0.00000028   -0.00000010   -0.00000339
     atom   52 type  1   force =     0.00000180   -0.00000127    0.00000046
     atom   53 type  1   force =     0.00000277   -0.00000165    0.00000318
     atom   54 type  1   force =    -0.00000022   -0.00000019   -0.00000339
     atom   55 type  1   force =     0.00000684    0.00000104   -0.00000171
     atom   56 type  1   force =     0.00000606    0.00000048    0.00000505
     atom   57 type  1   force =    -0.00000056    0.00000004   -0.00000256
     atom   58 type  1   force =     0.00000948    0.00000547   -0.00000294
     atom   59 type  1   force =     0.00000859    0.00000496    0.00000459
     atom   60 type  1   force =    -0.00000011   -0.00000006   -0.00000315
[...]
     atom  285 type  2   force =     0.00000209    0.00000071   -0.00000029
     atom  286 type  2   force =     0.00000208    0.00000151    0.00000129
     atom  287 type  2   force =    -0.00000006   -0.00000017   -0.00000120
     atom  288 type  2   force =    -0.00000015    0.00000013    0.00000027
     atom  289 type  2   force =    -0.00000067    0.00000047    0.00000158
     atom  290 type  2   force =    -0.00000027    0.00000007   -0.00000164
     atom  291 type  2   force =     0.00000004   -0.00000020    0.00000027
     atom  292 type  2   force =     0.00000007   -0.00000081    0.00000158
     atom  293 type  2   force =    -0.00000008   -0.00000027   -0.00000164
     atom  294 type  2   force =     0.00000166    0.00000145   -0.00000029
     atom  295 type  2   force =     0.00000234    0.00000105    0.00000129
     atom  296 type  2   force =    -0.00000018    0.00000003   -0.00000120
     atom  297 type  2   force =     0.00000370    0.00000213   -0.00000023
     atom  298 type  2   force =     0.00000412    0.00000238    0.00000099
     atom  299 type  2   force =    -0.00000009   -0.00000005   -0.00000110

     Total force =     0.005304     Total SCF correction =     0.000085

     Computing stress (Cartesian axis) and pressure

[...]

          total   stress  (Ry/bohr**3)                   (kbar)     P=        2.92
   0.00001385  -0.00000000   0.00000002            2.04       -0.00        0.00
  -0.00000000   0.00001385   0.00000001           -0.00        2.04        0.00
   0.00000002   0.00000001   0.00003189            0.00        0.00        4.69

     kinetic stress (kbar)  18379.16     -0.00      0.00
                               -0.00  18379.16      0.00
                                0.00      0.00  18375.30

     local   stress (kbar)   5397.75      0.24     -0.02
                                0.24   5397.29     -0.01
                               -0.02     -0.01   3743.52

     nonloc. stress (kbar)     88.04      0.00     -0.00
                                0.00     88.03     -0.00
                               -0.00     -0.00     98.69

     hartree stress (kbar)  19611.12     -0.12      0.00
                               -0.12  19611.25      0.00
                                0.00      0.00  20365.81

     exc-cor stress (kbar)   5225.52      0.00      0.00
                                0.00   5225.52      0.00
                                0.00      0.00   5225.83

     corecor stress (kbar) -14106.26     -0.00     -0.00
                               -0.00 -14106.26     -0.00
                               -0.00     -0.00 -14105.71

     ewald   stress (kbar) -34755.27     -0.11      0.02
                               -0.11 -34754.90      0.01
                                0.02      0.01 -33859.86

     hubbard stress (kbar)      0.00      0.00      0.00
                                0.00      0.00      0.00
                                0.00      0.00      0.00

     DFT-D   stress (kbar)      0.00      0.00      0.00
                                0.00      0.00      0.00
                                0.00      0.00      0.00

     XDM     stress (kbar)      0.00      0.00      0.00
                                0.00      0.00      0.00
                                0.00      0.00      0.00

     dft-nl  stress (kbar)    161.97      0.00     -0.00
                                0.00    161.97     -0.00
                               -0.00     -0.00    161.10

     TS-vdW  stress (kbar)      0.00      0.00      0.00
                                0.00      0.00      0.00
                                0.00      0.00      0.00

     MDB     stress (kbar)      0.00      0.00      0.00
                                0.00      0.00      0.00
                                0.00      0.00      0.00

     3D-RISM stress (kbar)      0.00      0.00      0.00
                                0.00      0.00      0.00
                                0.00      0.00      0.00

     Energy error            =      8.8E-05 Ry
     Gradient error          =      1.5E-03 Ry/Bohr

     number of scf cycles    =   5
     number of bfgs steps    =   4

     energy             old  =  -46814.3996725483 Ry
     energy             new  =  -46814.3997602319 Ry

     CASE: energy            _new < energy            _old

     new trust radius        =       0.0040812340 bohr
     new conv_thr            =       0.0000000010 Ry

ATOMIC_POSITIONS (angstrom)
Ga            1.6217293188        0.9363043878        2.6304063098
Ga            1.6218242633        0.9363592041        7.9416102429
Ga            1.6218287498        0.9363617943       13.2117298107
Ga            0.0006052211        3.7545617770        2.6355431734
Ga            0.0017127997        3.7534289815        7.9293664315
Ga           -0.0003809589        3.7477037906       13.2155515280
Ga           -1.6223908651        6.5574558307        2.6381541569
Ga           -1.6224307752        6.5580402213        7.9297284505
Ga           -1.6224156039        6.5567835407       13.2161056405
Ga           -3.2436418679        9.3655449395        2.6381541569
Ga           -3.2431557259        9.3652181810        7.9297284505
Ga           -3.2442364576        9.3658596600       13.2161056405
Ga           -4.8595212794       12.1725478072        2.6355431734
Ga           -4.8599485198       12.1740733962        7.9293664315
Ga           -4.8659535598       12.1751227435       13.2155515280
Ga            4.8739524287        0.9316561069        2.6352140613
Ga            4.8724047367        0.9311747160        7.9290826047
Ga            4.8683529324        0.9359316296       13.2152365870
Ga            3.2438153443        3.7551363603        2.6352140613
Ga            3.2426246016        3.7540367151        7.9290826047
Ga            3.2447183074        3.7481492929       13.2152365870
Ga            1.6225428200        6.5588351198        2.6384243309
Ga            1.6225497223        6.5597129529        7.9300402948
Ga            1.6225142413        6.5572832643       13.2160430812
Ga            0.0005000482        9.3664917422        2.6389341456
Ga            0.0005610760        9.3665269766        7.9289628318
Ga            0.0003228079        9.3663894124       13.2159455468
Ga           -1.6199805260       12.1750502999        2.6384243309
Ga           -1.6192168491       12.1746173610        7.9300402948
Ga           -1.6213387617       12.1758014778       13.2160430812
Ga            8.1125063695        0.9356798531        2.6380703475
Ga            8.1130225299        0.9354132422        7.9296212119
Ga            8.1119393570        0.9360617472       13.2160033857
Ga            6.4907939985        3.7474601915        2.6386397261
Ga            6.4907521948        3.7474360561        7.9314198318
Ga            6.4901155397        3.7470684831       13.2162080981
Ga            4.8665769813        6.5577944716        2.6380703475
Ga            4.8666041697        6.5583747851        7.9296212119
Ga            4.8666242050        6.5571124773       13.2160033857
Ga            3.2444328049        9.3664377812        2.6391455568
Ga            3.2443732970        9.3664743713        7.9291683728
Ga            3.2445922378        9.3663369999       13.2161533015
Ga            1.6224196949       12.1758468983        2.6391455568
Ga            1.6224216289       12.1757770679        7.9291683728
Ga            1.6224121323       12.1760353619       13.2161533015
Ga           11.3544080931        0.9353364022        2.6380426059
Ga           11.3538635013        0.9350593673        7.9296113532
Ga           11.3550199486        0.9357168972       13.2159852997
Ga            9.7332270007        3.7468217611        2.6393260717
Ga            9.7332251619        3.7469000281        7.9296765874
Ga            9.7332358448        3.7467772674       13.2163690623
Ga            8.1114576026        6.5558087567        2.6393260717
Ga            8.1115244645        6.5557680308        7.9296765874
Ga            8.1114234920        6.5558386627       13.2163690623
Ga            6.4872304058        9.3655354463        2.6380426059
Ga            6.4867181907        9.3652023334        7.9296113532
Ga            6.4878658519        9.3658750812       13.2159852997
Ga            4.8643040393       12.1746102859        2.6386634297
Ga            4.8635299481       12.1741633641        7.9302248978
Ga            4.8656926044       12.1754119743       13.2162400120
[...]
N            12.9797901229        1.8733942094        1.9882652342
N            12.9802559132        1.8731017669        7.2753329070
N            12.9790901167        1.8728966377       12.5641946765
N            11.3562919776        4.6829268927        1.9875271941
N            11.3565322255        4.6827904325        7.2749028160
N            11.3561578660        4.6830049133       12.5637839226
N             9.7336773219        7.4933779177        1.9875271941
N             9.7336792679        7.4936542086        7.2749028160
N             9.7336778339        7.4932227634       12.5637839226
N             8.1122997181       10.3041348961        1.9882652342
N             8.1122793506       10.3046845035        7.2753329070
N             8.1115188053       10.3037774587       12.5641946765
N             6.4887568643       13.1124927115        1.9865456146
N             6.4878935620       13.1119942837        7.2747031188
N             6.4897929709       13.1130909080       12.5641997547

     Writing config-only to output data dir ./GaN.save/
     NEW-OLD atomic charge density approx. for the potential

     Check: negative core charge=   -0.000003

     Non-local corr. energy    =      81.67640932 Ry

     Self-consistent Calculation

     max_seconds     =  154800.00
     Calculation stopped in scf loop at iteration #     0

     Writing config to output data dir ./GaN.save/

     General routines

     Parallel routines

     PAW routines

   This run was terminated on:   6:22:36  11Mar2024

   JOB DONE.