     Program PWSCF v.7.1 starts on 12Mar2024 at 12:11:21

     Reading input from espresso.pwi
Warning: card &CELL ignored
Warning: card    CELL_DYNAMICS    = 'BFGS' ignored
Warning: card / ignored

     Current dimensions of program PWSCF are:
     Max number of different atomic species (ntypx) = 10
     Max number of k-points (npk) =  40000
     Max angular momentum in pseudopotentials (lmaxx) =  4
     file Ga.pbe-dn-kjpaw_psl.1.0.0.UPF: wavefunction(s)  4S renormalized
     file N.pbe-n-kjpaw_psl.1.0.0.UPF: wavefunction(s)  2S renormalized

     IMPORTANT: XC functional enforced from input :
     Exchange-correlation= BEEF-VDW
                           (   1   4  43  14   2   0   0)
     Any further DFT definition will be discarded
     Please, verify this is what you really want

     K-points division:     npool     =       4
     R & G space division:  proc/nbgrp/npool/nimage =      64
     Subspace diagonalization in iterative solution of the eigenvalue problem:
     a serial algorithm will be used

     Using Slab Decomposition

     bravais-lattice index     =            4
     lattice parameter (alat)  =      30.6565  a.u.
     unit-cell volume          =   24400.9461 (a.u.)^3
     number of atoms/cell      =          299
     number of atomic types    =            2
     number of electrons       =      2695.00
     number of Kohn-Sham states=         1618
     kinetic-energy cutoff     =      70.0000  Ry
     charge density cutoff     =     350.0000  Ry
     scf convergence threshold =      1.0E-07
     mixing beta               =       0.7000
     number of iterations used =            8  plain     mixing
     Exchange-correlation= BEEF-VDW
                           (   1   4  43  14   2   0   0)

     celldm(1)=  30.656540  celldm(2)=   0.000000  celldm(3)=   0.977927
     celldm(4)=   0.000000  celldm(5)=   0.000000  celldm(6)=   0.000000

     crystal axes: (cart. coord. in units of alat)
               a(1) = (   1.000000   0.000000   0.000000 )
               a(2) = (  -0.500000   0.866025   0.000000 )
               a(3) = (   0.000000   0.000000   0.977927 )

     reciprocal axes: (cart. coord. in units 2 pi/alat)
               b(1) = (  1.000000  0.577350 -0.000000 )
               b(2) = (  0.000000  1.154701  0.000000 )
               b(3) = (  0.000000 -0.000000  1.022571 )

     PseudoPot. # 1 for Ga read from file:
     /trace/group/acmegroup/atimmins/packages/espresso/pseudo/psl_1.0.0/pslibrary.1.0.0/pbe/PSEUDOPOTENTIALS/Ga.pbe-dn-kjpaw_psl.1.0.0.UPF
     MD5 check sum: cd2a01e492f15b435d17032472d8505c
     Pseudo is Projector augmented-wave + core cor, Zval = 13.0
     Generated using 'atomic' code by A. Dal Corso  v.7.1
     Shape of augmentation charge: PSQ
     Using radial grid of 1205 points,  6 beta functions with:
                l(1) =   0
                l(2) =   0
                l(3) =   1
                l(4) =   1
                l(5) =   2
                l(6) =   2
     Q(r) pseudized with 0 coefficients

     PseudoPot. # 2 for N  read from file:
     /trace/group/acmegroup/atimmins/packages/espresso/pseudo/psl_1.0.0/pslibrary.1.0.0/pbe/PSEUDOPOTENTIALS/N.pbe-n-kjpaw_psl.1.0.0.UPF
     MD5 check sum: f77f775694dac7e2c3fe1c82443d1a16
     Pseudo is Projector augmented-wave + core cor, Zval =  5.0
     Generated using 'atomic' code by A. Dal Corso  v.7.1
     Shape of augmentation charge: PSQ
     Using radial grid of 1085 points,  4 beta functions with:
                l(1) =   0
                l(2) =   0
                l(3) =   1
                l(4) =   1
     Q(r) pseudized with 0 coefficients

     atomic species   valence    mass     pseudopotential
        Ga            13.00    69.72300     Ga( 1.00)
        N              5.00    14.00700     N ( 1.00)

      2 Sym. Ops. (no inversion) found

                                    s                        frac. trans.

      isym =  1     identity

 cryst.   s( 1) = (     1          0          0      )
                  (     0          1          0      )
                  (     0          0          1      )

 cart.    s( 1) = (  1.0000000  0.0000000  0.0000000 )
                  (  0.0000000  1.0000000  0.0000000 )
                  (  0.0000000  0.0000000  1.0000000 )

      isym =  2     inv. 180 deg rotation - cryst. axis [0,1,0]

 cryst.   s( 2) = (     1          1          0      )
                  (     0         -1          0      )
                  (     0          0          1      )

 cart.    s( 2) = (  0.5000000  0.8660254  0.0000000 )
                  (  0.8660254 -0.5000000  0.0000000 )
                  (  0.0000000  0.0000000  1.0000000 )

     point group C_s (m)
     there are  2 classes
     the character table:

       E     s
A'     1.00  1.00
A''    1.00 -1.00

     the symmetry operations in each class and the name of the first element:

     E        1
          identity
     s        2
          inv. 180 deg rotation - cryst. axis [0,1,0]

   Cartesian axes

     site n.     atom                  positions (alat units)
         1           Ga  tau(   1) = (   0.1000001   0.0577350   0.1627148  )
         2           Ga  tau(   2) = (   0.1000001   0.0577350   0.4886906  )
         3           Ga  tau(   3) = (   0.1000001   0.0577350   0.8146665  )
         4           Ga  tau(   4) = (   0.0000001   0.2309401   0.1627148  )
         5           Ga  tau(   5) = (   0.0000001   0.2309401   0.4886906  )
         6           Ga  tau(   6) = (   0.0000001   0.2309401   0.8146665  )
         7           Ga  tau(   7) = (  -0.0999999   0.4041451   0.1627148  )
         8           Ga  tau(   8) = (  -0.0999999   0.4041451   0.4886906  )
         9           Ga  tau(   9) = (  -0.0999999   0.4041451   0.8146665  )
        10           Ga  tau(  10) = (  -0.1999999   0.5773502   0.1627148  )
        11           Ga  tau(  11) = (  -0.1999999   0.5773502   0.4886906  )
        12           Ga  tau(  12) = (  -0.1999999   0.5773502   0.8146665  )
        13           Ga  tau(  13) = (  -0.2999999   0.7505553   0.1627148  )
        14           Ga  tau(  14) = (  -0.2999999   0.7505553   0.4886906  )
        15           Ga  tau(  15) = (  -0.2999999   0.7505553   0.8146665  )
        16           Ga  tau(  16) = (   0.3000001   0.0577350   0.1627148  )
        17           Ga  tau(  17) = (   0.3000001   0.0577350   0.4886906  )
        18           Ga  tau(  18) = (   0.3000001   0.0577350   0.8146665  )
        19           Ga  tau(  19) = (   0.2000001   0.2309401   0.1627148  )
        20           Ga  tau(  20) = (   0.2000001   0.2309401   0.4886906  )
        21           Ga  tau(  21) = (   0.2000001   0.2309401   0.8146665  )
        22           Ga  tau(  22) = (   0.1000001   0.4041451   0.1627148  )
        23           Ga  tau(  23) = (   0.1000001   0.4041451   0.4886906  )
        24           Ga  tau(  24) = (   0.1000001   0.4041451   0.8146665  )
        25           Ga  tau(  25) = (   0.0000001   0.5773502   0.1627148  )
        26           Ga  tau(  26) = (   0.0000001   0.5773502   0.4886906  )
        27           Ga  tau(  27) = (   0.0000001   0.5773502   0.8146665  )
        28           Ga  tau(  28) = (  -0.0999999   0.7505553   0.1627148  )
        29           Ga  tau(  29) = (  -0.0999999   0.7505553   0.4886906  )
        30           Ga  tau(  30) = (  -0.0999999   0.7505553   0.8146665  )
        31           Ga  tau(  31) = (   0.5000001   0.0577350   0.1627148  )
        32           Ga  tau(  32) = (   0.5000001   0.0577350   0.4886906  )
        33           Ga  tau(  33) = (   0.5000001   0.0577350   0.8146665  )
        34           Ga  tau(  34) = (   0.4000001   0.2309401   0.1627148  )
        35           Ga  tau(  35) = (   0.4000001   0.2309401   0.4886906  )
        36           Ga  tau(  36) = (   0.4000001   0.2309401   0.8146665  )
        37           Ga  tau(  37) = (   0.3000001   0.4041451   0.1627148  )
        38           Ga  tau(  38) = (   0.3000001   0.4041451   0.4886906  )
        39           Ga  tau(  39) = (   0.3000001   0.4041451   0.8146665  )
        40           Ga  tau(  40) = (   0.2000001   0.5773502   0.1627148  )
        41           Ga  tau(  41) = (   0.2000001   0.5773502   0.4886906  )
        42           Ga  tau(  42) = (   0.2000001   0.5773502   0.8146665  )
        43           Ga  tau(  43) = (   0.1000001   0.7505553   0.1627148  )
        44           Ga  tau(  44) = (   0.1000001   0.7505553   0.4886906  )
        45           Ga  tau(  45) = (   0.1000001   0.7505553   0.8146665  )
        46           Ga  tau(  46) = (   0.7000001   0.0577350   0.1627148  )
        47           Ga  tau(  47) = (   0.7000001   0.0577350   0.4886906  )
        48           Ga  tau(  48) = (   0.7000001   0.0577350   0.8146665  )
        49           Ga  tau(  49) = (   0.6000001   0.2309401   0.1627148  )
        50           Ga  tau(  50) = (   0.6000001   0.2309401   0.4886906  )
        51           Ga  tau(  51) = (   0.6000001   0.2309401   0.8146665  )
        52           Ga  tau(  52) = (   0.5000001   0.4041451   0.1627148  )
        53           Ga  tau(  53) = (   0.5000001   0.4041451   0.4886906  )
        54           Ga  tau(  54) = (   0.5000001   0.4041451   0.8146665  )
        55           Ga  tau(  55) = (   0.4000001   0.5773502   0.1627148  )
        56           Ga  tau(  56) = (   0.4000001   0.5773502   0.4886906  )
        57           Ga  tau(  57) = (   0.4000001   0.5773502   0.8146665  )
        58           Ga  tau(  58) = (   0.3000001   0.7505553   0.1627148  )
        59           Ga  tau(  59) = (   0.3000001   0.7505553   0.4886906  )
        60           Ga  tau(  60) = (   0.3000001   0.7505553   0.8146665  )
[...]
       285           N   tau( 285) = (   0.7999999   0.1154701   0.1225140  )
       286           N   tau( 286) = (   0.7999999   0.1154701   0.4484898  )
       287           N   tau( 287) = (   0.7999999   0.1154701   0.7744656  )
       288           N   tau( 288) = (   0.6999999   0.2886752   0.1225140  )
       289           N   tau( 289) = (   0.6999999   0.2886752   0.4484898  )
       290           N   tau( 290) = (   0.6999999   0.2886752   0.7744656  )
       291           N   tau( 291) = (   0.5999999   0.4618803   0.1225140  )
       292           N   tau( 292) = (   0.5999999   0.4618803   0.4484898  )
       293           N   tau( 293) = (   0.5999999   0.4618803   0.7744656  )
       294           N   tau( 294) = (   0.4999999   0.6350854   0.1225140  )
       295           N   tau( 295) = (   0.4999999   0.6350854   0.4484898  )
       296           N   tau( 296) = (   0.4999999   0.6350854   0.7744656  )
       297           N   tau( 297) = (   0.3999999   0.8082905   0.1225140  )
       298           N   tau( 298) = (   0.3999999   0.8082905   0.4484898  )
       299           N   tau( 299) = (   0.3999999   0.8082905   0.7744656  )

   Crystallographic axes

     site n.     atom                  positions (cryst. coord.)
         1           Ga  tau(   1) = (  0.1333334  0.0666666  0.1663874  )
         2           Ga  tau(   2) = (  0.1333334  0.0666666  0.4997208  )
[...]
     atom   26 type  1   force =     0.00000000    0.00000000    0.00000000
     atom   27 type  1   force =     0.00000000    0.00000000    0.00000000
     atom   28 type  1   force =     0.00000000    0.00000000    0.00000000
     atom   29 type  1   force =     0.00000000    0.00000000    0.00000000
     atom   30 type  1   force =     0.00000000    0.00000000    0.00000000
     atom   31 type  1   force =     0.00000000    0.00000000    0.00000000
     atom   32 type  1   force =     0.00000000    0.00000000    0.00000000
     atom   33 type  1   force =     0.00000000    0.00000000    0.00000000
     atom   34 type  1   force =     0.00000000    0.00000000    0.00000000
     atom   35 type  1   force =     0.00000000    0.00000000    0.00000000
     atom   36 type  1   force =     0.00000000    0.00000000    0.00000000
     atom   37 type  1   force =     0.00000000    0.00000000    0.00000000
     atom   38 type  1   force =     0.00000000    0.00000000    0.00000000
     atom   39 type  1   force =     0.00000000    0.00000000    0.00000000
     atom   40 type  1   force =     0.00000000    0.00000000    0.00000000
     atom   41 type  1   force =     0.00000000    0.00000000    0.00000000
     atom   42 type  1   force =     0.00000000    0.00000000    0.00000000
     atom   43 type  1   force =     0.00000000    0.00000000    0.00000000
     atom   44 type  1   force =     0.00000000    0.00000000    0.00000000
     atom   45 type  1   force =     0.00000000    0.00000000    0.00000000
     atom   46 type  1   force =     0.00000000    0.00000000    0.00000000
     atom   47 type  1   force =     0.00000000    0.00000000    0.00000000
     atom   48 type  1   force =     0.00000000    0.00000000    0.00000000
     atom   49 type  1   force =     0.00000000    0.00000000    0.00000000
     atom   50 type  1   force =     0.00000000    0.00000000    0.00000000
     atom   51 type  1   force =     0.00000000    0.00000000    0.00000000
     atom   52 type  1   force =     0.00000000    0.00000000    0.00000000
     atom   53 type  1   force =     0.00000000    0.00000000    0.00000000
     atom   54 type  1   force =     0.00000000    0.00000000    0.00000000
     atom   55 type  1   force =     0.00000000    0.00000000    0.00000000
     atom   56 type  1   force =     0.00000000    0.00000000    0.00000000
     atom   57 type  1   force =     0.00000000    0.00000000    0.00000000
     atom   58 type  1   force =     0.00000000    0.00000000    0.00000000
     atom   59 type  1   force =     0.00000000    0.00000000    0.00000000
     atom   60 type  1   force =     0.00000000    0.00000000    0.00000000
[...]
     atom  285 type  2   force =     0.00000000    0.00000000    0.00000000
     atom  286 type  2   force =     0.00000000    0.00000000    0.00000000
     atom  287 type  2   force =     0.00000000    0.00000000    0.00000000
     atom  288 type  2   force =     0.00000000    0.00000000    0.00000000
     atom  289 type  2   force =     0.00000000    0.00000000    0.00000000
     atom  290 type  2   force =     0.00000000    0.00000000    0.00000000
     atom  291 type  2   force =     0.00000000    0.00000000    0.00000000
     atom  292 type  2   force =     0.00000000    0.00000000    0.00000000
     atom  293 type  2   force =     0.00000000    0.00000000    0.00000000
     atom  294 type  2   force =     0.00000000    0.00000000    0.00000000
     atom  295 type  2   force =     0.00000000    0.00000000    0.00000000
     atom  296 type  2   force =     0.00000000    0.00000000    0.00000000
     atom  297 type  2   force =     0.00000000    0.00000000    0.00000000
     atom  298 type  2   force =     0.00000000    0.00000000    0.00000000
     atom  299 type  2   force =     0.00000000    0.00000000    0.00000000
     The SCF correction term to forces
     atom    1 type  1   force =    -0.00000208   -0.00000120    0.00001846
     atom    2 type  1   force =    -0.00000205   -0.00000118   -0.00003442
     atom    3 type  1   force =    -0.00000221   -0.00000128    0.00006980
     atom    4 type  1   force =     0.00001091   -0.00000937   -0.00000991
     atom    5 type  1   force =    -0.00002108    0.00005344   -0.00002892
     atom    6 type  1   force =    -0.00001697    0.00002747    0.00004820
     atom    7 type  1   force =     0.00001115   -0.00000110   -0.00000478
     atom    8 type  1   force =    -0.00000402    0.00002517   -0.00000898
     atom    9 type  1   force =    -0.00000974    0.00001728    0.00001542
     atom   10 type  1   force =     0.00000463    0.00001020   -0.00000478
     atom   11 type  1   force =     0.00001979   -0.00001606   -0.00000898
     atom   12 type  1   force =     0.00001009   -0.00001708    0.00001542
     atom   13 type  1   force =    -0.00000266    0.00001413   -0.00000991
     atom   14 type  1   force =     0.00003574   -0.00004497   -0.00002892
     atom   15 type  1   force =     0.00001531   -0.00002844    0.00004820
     atom   16 type  1   force =    -0.00001370   -0.00000706   -0.00000901
     atom   17 type  1   force =     0.00005673   -0.00001058   -0.00002849
     atom   18 type  1   force =     0.00003122   -0.00000202    0.00004831
     atom   19 type  1   force =    -0.00001296   -0.00000833   -0.00000901
     atom   20 type  1   force =     0.00001920    0.00005442   -0.00002849
     atom   21 type  1   force =     0.00001386    0.00002805    0.00004831
     atom   22 type  1   force =    -0.00000066   -0.00000284   -0.00000141
     atom   23 type  1   force =    -0.00000070    0.00004221   -0.00001417
     atom   24 type  1   force =    -0.00000102    0.00003275    0.00002095
     atom   25 type  1   force =     0.00000307    0.00000177   -0.00000347
     atom   26 type  1   force =     0.00001057    0.00000610   -0.00000015
     atom   27 type  1   force =     0.00000946    0.00000546    0.00000488
     atom   28 type  1   force =    -0.00000279    0.00000084   -0.00000141
     atom   29 type  1   force =     0.00003621   -0.00002171   -0.00001417
     atom   30 type  1   force =     0.00002785   -0.00001726    0.00002095
     atom   31 type  1   force =    -0.00000603   -0.00001033   -0.00000468
     atom   32 type  1   force =     0.00002406   -0.00001020   -0.00000897
     atom   33 type  1   force =     0.00002137   -0.00000186    0.00001547
     atom   34 type  1   force =    -0.00001469   -0.00000848   -0.00000649
     atom   35 type  1   force =     0.00002534    0.00001463   -0.00001258
     atom   36 type  1   force =     0.00002682    0.00001548    0.00002409
     atom   37 type  1   force =    -0.00001196   -0.00000006   -0.00000468
     atom   38 type  1   force =     0.00000319    0.00002594   -0.00000897
     atom   39 type  1   force =     0.00000908    0.00001943    0.00001547
     atom   40 type  1   force =    -0.00000292    0.00000285   -0.00000435
     atom   41 type  1   force =    -0.00001049    0.00000732   -0.00000017
     atom   42 type  1   force =    -0.00000923    0.00000677    0.00000491
     atom   43 type  1   force =     0.00000101   -0.00000395   -0.00000435
     atom   44 type  1   force =     0.00000109   -0.00001274   -0.00000017
     atom   45 type  1   force =     0.00000125   -0.00001138    0.00000491
     atom   46 type  1   force =     0.00000838   -0.00001022   -0.00000502
     atom   47 type  1   force =    -0.00002191   -0.00001026   -0.00000863
     atom   48 type  1   force =    -0.00001806   -0.00000132    0.00001571
     atom   49 type  1   force =     0.00000151   -0.00000905   -0.00000843
     atom   50 type  1   force =     0.00000117    0.00000032    0.00000302
     atom   51 type  1   force =     0.00000227    0.00000915    0.00000878
     atom   52 type  1   force =    -0.00000708    0.00000583   -0.00000843
     atom   53 type  1   force =     0.00000086    0.00000086    0.00000302
     atom   54 type  1   force =     0.00000906   -0.00000261    0.00000878
     atom   55 type  1   force =    -0.00000466    0.00001237   -0.00000502
     atom   56 type  1   force =    -0.00001984   -0.00001384   -0.00000863
     atom   57 type  1   force =    -0.00001017   -0.00001498    0.00001571
     atom   58 type  1   force =     0.00000392    0.00000226   -0.00000259
     atom   59 type  1   force =    -0.00003547   -0.00002048   -0.00001455
     atom   60 type  1   force =    -0.00002666   -0.00001539    0.00002112
[...]
     atom  285 type  2   force =     0.00000538   -0.00000489   -0.00000097
     atom  286 type  2   force =    -0.00001281   -0.00000227   -0.00000866
     atom  287 type  2   force =    -0.00001626    0.00000160    0.00001167
     atom  288 type  2   force =     0.00000304   -0.00000164   -0.00000497
     atom  289 type  2   force =    -0.00000205    0.00000139    0.00000030
     atom  290 type  2   force =    -0.00000640    0.00000382    0.00000534
     atom  291 type  2   force =     0.00000010    0.00000345   -0.00000497
     atom  292 type  2   force =     0.00000017   -0.00000247    0.00000030
     atom  293 type  2   force =     0.00000011   -0.00000745    0.00000534
     atom  294 type  2   force =    -0.00000154    0.00000710   -0.00000097
     atom  295 type  2   force =    -0.00000837   -0.00000996   -0.00000866
     atom  296 type  2   force =    -0.00000675   -0.00001488    0.00001167
     atom  297 type  2   force =     0.00000409    0.00000236    0.00000140
     atom  298 type  2   force =    -0.00001721   -0.00000994   -0.00001518
     atom  299 type  2   force =    -0.00001746   -0.00001008    0.00001623

     Total force =     0.003625     Total SCF correction =     0.000450
     SCF correction compared to forces is large: reduce conv_thr to get better values

     Computing stress (Cartesian axis) and pressure

[...]

          total   stress  (Ry/bohr**3)                   (kbar)     P=        2.87
   0.00001344  -0.00000000   0.00000003            1.98       -0.00        0.00
  -0.00000000   0.00001344   0.00000002           -0.00        1.98        0.00
   0.00000003   0.00000002   0.00003163            0.00        0.00        4.65

     kinetic stress (kbar)  18378.92     -0.00      0.00
                               -0.00  18378.92      0.00
                                0.00      0.00  18375.04

     local   stress (kbar)   5397.19      0.39      0.02
                                0.39   5396.56      0.01
                                0.02      0.01   3747.75

     nonloc. stress (kbar)     88.25      0.01     -0.00
                                0.01     88.24     -0.00
                               -0.00     -0.00     98.95

     hartree stress (kbar)  19611.22     -0.18     -0.02
                               -0.18  19611.42     -0.01
                               -0.02     -0.01  20363.98

     exc-cor stress (kbar)   5225.53      0.00      0.00
                                0.00   5225.53      0.00
                                0.00      0.00   5225.83

     corecor stress (kbar) -14106.26     -0.00     -0.00
                               -0.00 -14106.26     -0.00
                               -0.00     -0.00 -14105.71

     ewald   stress (kbar) -34754.85     -0.21     -0.00
                               -0.21 -34754.38     -0.00
                               -0.00     -0.00 -33862.31

     hubbard stress (kbar)      0.00      0.00      0.00
                                0.00      0.00      0.00
                                0.00      0.00      0.00

     DFT-D   stress (kbar)      0.00      0.00      0.00
                                0.00      0.00      0.00
                                0.00      0.00      0.00

     XDM     stress (kbar)      0.00      0.00      0.00
                                0.00      0.00      0.00
                                0.00      0.00      0.00

     dft-nl  stress (kbar)    161.97      0.00     -0.00
                                0.00    161.97      0.00
                               -0.00      0.00    161.11

     TS-vdW  stress (kbar)      0.00      0.00      0.00
                                0.00      0.00      0.00
                                0.00      0.00      0.00

     MDB     stress (kbar)      0.00      0.00      0.00
                                0.00      0.00      0.00
                                0.00      0.00      0.00

     3D-RISM stress (kbar)      0.00      0.00      0.00
                                0.00      0.00      0.00
                                0.00      0.00      0.00

[...]

     Non-local corr. energy    =      81.67634417 Ry

 BEEFens 2000 ensemble energies
             -0.660625938484861E+02
             -0.595042155704822E+03
             -0.255983441663105E+03
              0.209393250620535E+03
             -0.427934494433589E+03
             -0.550308334492164E+03
              0.282749087181197E+03
             -0.297657033358873E+02
              0.471363001882809E+03
             -0.203759144409332E+02
              0.231330449906902E+03
              0.961405494743633E+01
              0.941028099175219E+01
             -0.202082013550639E+02
              0.308493759194550E+03
             -0.224620264061614E+03
             -0.462875766924015E+03
             -0.151270112113394E+03
              0.113048954772586E+03
             -0.101607030351324E+02
              0.675787079567271E+03
              0.575057368048057E+03
             -0.329292379224497E+03
              0.119152880963654E+03
             -0.721832016412480E+03
              0.578781716312389E+03
              0.189014933368582E+03
              0.562601411308245E+03
              0.369666021420007E+03
             -0.179893932763108E+03
              0.136213715869340E+03
             -0.265758972798499E+03
              0.744787610043884E+02
              0.361782478884444E+03
              0.383613394366567E+03
             -0.138578270288789E+03
              0.852108847477989E+03
             -0.323498309479530E+03
             -0.232799164154653E+03
              0.341520037318502E+03
              0.152763734552926E+03
              0.255651791870215E+03
             -0.487221183695660E+03
             -0.136669611036996E+02
              0.478216590022570E+03
              0.621230691577867E+03
             -0.618499283910924E+03
              0.440102446758647E+02
              0.233125735359506E+03
              0.113641448855645E+03
              0.258572974843454E+03
              0.547747777820392E+03
             -0.331146149267021E+03
             -0.363042254948311E+03
             -0.472005109124562E+03
             -0.729639601426193E+02
             -0.430504982572192E+03
              0.421909318214425E+02
             -0.796083208998643E+02
             -0.335490723695318E+03
[...]
              0.418642137549641E+03
              0.231364705705574E+03
              0.293849866681673E+03
             -0.475028764006604E+03
             -0.454902246946437E+03
             -0.115016472223294E+03
             -0.445779786525762E+03
              0.713587468211355E+03
              0.611545770473681E+03
              0.292233952792865E+03
              0.791462410337529E+03
             -0.411869264314053E+03
             -0.167806971376045E+03
             -0.233578221594835E+03
              0.654710981860132E+03

 BEEF-vdW xc energy contributions
            1 :    -5999.413654915572
            2 :     5403.868152049597
            3 :    -4406.124163655657
            4 :     3298.264854467292
            5 :    -2337.324235252720
            6 :     1647.506695418900
            7 :    -1206.266070992559
            8 :     907.7693394662620
            9 :    -652.6417891174879
           10 :     405.6421066427938
           11 :    -193.5885250143983
           12 :     59.63583392025339
           13 :    -15.95123007033726
           14 :     29.83184924303077
           15 :    -47.92187694737731
           16 :     34.24729744577780
           17 :     9.047309919204054
           18 :    -52.05293196298589
           19 :     66.82061135953882
           20 :    -51.22076795039811
           21 :     29.07582796311908
           22 :    -29.05217026333321
           23 :     61.11593195055229
           24 :    -109.4391509036086
           25 :     145.9920814004427
           26 :    -152.4551437043456
           27 :     132.6640658033157
           28 :    -106.8065484390572
           29 :     93.69258441120564
           30 :    -96.22332753648243
           31 :    -513.8462834165903
           32 :    -352.1245019791468

     Writing all to output data dir ./GaN.save/

     General routines

     Parallel routines

     PAW routines

   This run was terminated on:  13:22:25  12Mar2024

   JOB DONE.