     Program PWSCF v.7.1 starts on 27Mar2024 at 22:27: 4

     Reading input from espresso.pwi
Warning: card &CELL ignored
Warning: card    CELL_DYNAMICS    = 'BFGS' ignored
Warning: card / ignored

     Current dimensions of program PWSCF are:
     Max number of different atomic species (ntypx) = 10
     Max number of k-points (npk) =  40000
     Max angular momentum in pseudopotentials (lmaxx) =  4
     file Ga.pbe-dn-kjpaw_psl.1.0.0.UPF: wavefunction(s)  4S renormalized
     file N.pbe-n-kjpaw_psl.1.0.0.UPF: wavefunction(s)  2S renormalized

     IMPORTANT: XC functional enforced from input :
     Exchange-correlation= BEEF-VDW
                           (   1   4  43  14   2   0   0)
     Any further DFT definition will be discarded
     Please, verify this is what you really want

     R & G space division:  proc/nbgrp/npool/nimage =      27
     Subspace diagonalization in iterative solution of the eigenvalue problem:
     a serial algorithm will be used

     Using Slab Decomposition

     bravais-lattice index     =            4
     lattice parameter (alat)  =      12.2626  a.u.
     unit-cell volume          =    2602.7676 (a.u.)^3
     number of atoms/cell      =           31
     number of atomic types    =            2
     number of electrons       =       276.00
     number of Kohn-Sham states=          166
     kinetic-energy cutoff     =      70.0000  Ry
     charge density cutoff     =     350.0000  Ry
     scf convergence threshold =      1.0E-07
     mixing beta               =       0.7000
     number of iterations used =            8  plain     mixing
     Exchange-correlation= BEEF-VDW
                           (   1   4  43  14   2   0   0)

     celldm(1)=  12.262616  celldm(2)=   0.000000  celldm(3)=   1.629879
     celldm(4)=   0.000000  celldm(5)=   0.000000  celldm(6)=   0.000000

     crystal axes: (cart. coord. in units of alat)
               a(1) = (   1.000000   0.000000   0.000000 )
               a(2) = (  -0.500000   0.866025   0.000000 )
               a(3) = (   0.000000   0.000000   1.629879 )

     reciprocal axes: (cart. coord. in units 2 pi/alat)
               b(1) = (  1.000000  0.577350 -0.000000 )
               b(2) = (  0.000000  1.154701  0.000000 )
               b(3) = (  0.000000 -0.000000  0.613542 )

     PseudoPot. # 1 for Ga read from file:
     /trace/group/acmegroup/atimmins/packages/espresso/pseudo/psl_1.0.0/pslibrary.1.0.0/pbe/PSEUDOPOTENTIALS/Ga.pbe-dn-kjpaw_psl.1.0.0.UPF
     MD5 check sum: cd2a01e492f15b435d17032472d8505c
     Pseudo is Projector augmented-wave + core cor, Zval = 13.0
     Generated using 'atomic' code by A. Dal Corso  v.7.1
     Shape of augmentation charge: PSQ
     Using radial grid of 1205 points,  6 beta functions with:
                l(1) =   0
                l(2) =   0
                l(3) =   1
                l(4) =   1
                l(5) =   2
                l(6) =   2
     Q(r) pseudized with 0 coefficients

     PseudoPot. # 2 for N  read from file:
     /trace/group/acmegroup/atimmins/packages/espresso/pseudo/psl_1.0.0/pslibrary.1.0.0/pbe/PSEUDOPOTENTIALS/N.pbe-n-kjpaw_psl.1.0.0.UPF
     MD5 check sum: f77f775694dac7e2c3fe1c82443d1a16
     Pseudo is Projector augmented-wave + core cor, Zval =  5.0
     Generated using 'atomic' code by A. Dal Corso  v.7.1
     Shape of augmentation charge: PSQ
     Using radial grid of 1085 points,  4 beta functions with:
                l(1) =   0
                l(2) =   0
                l(3) =   1
                l(4) =   1
     Q(r) pseudized with 0 coefficients

     atomic species   valence    mass     pseudopotential
        Ga            13.00    69.72300     Ga( 1.00)
        N              5.00    14.00700     N ( 1.00)

      6 Sym. Ops. (no inversion) found ( 4 have fractional translation)

                                    s                        frac. trans.

      isym =  1     identity

 cryst.   s( 1) = (     1          0          0      )
                  (     0          1          0      )
                  (     0          0          1      )

 cart.    s( 1) = (  1.0000000  0.0000000  0.0000000 )
                  (  0.0000000  1.0000000  0.0000000 )
                  (  0.0000000  0.0000000  1.0000000 )

      isym =  2     120 deg rotation - cryst. axis [0,0,1]

 cryst.   s( 2) = (     0          1          0      )    f =(  0.4999999 )
                  (    -1         -1          0      )       (  0.0000004 )
                  (     0          0          1      )       (  0.0000000 )

 cart.    s( 2) = ( -0.5000000 -0.8660254  0.0000000 )    f =(  0.4999998 )
                  (  0.8660254 -0.5000000  0.0000000 )       (  0.0000003 )
                  (  0.0000000  0.0000000  1.0000000 )       (  0.0000000 )

      isym =  3     120 deg rotation - cryst. axis [0,0,-1]

[...]

      isym =  4     inv. 180 deg rotation - cart. axis [1,0,0]

[...]

      isym =  5     inv. 180 deg rotation - cryst. axis [0,1,0]

 cryst.   s( 5) = (     1          1          0      )
                  (     0         -1          0      )
                  (     0          0          1      )

 cart.    s( 5) = (  0.5000000  0.8660254  0.0000000 )
                  (  0.8660254 -0.5000000  0.0000000 )
                  (  0.0000000  0.0000000  1.0000000 )

      isym =  6     inv. 180 deg rotation - cryst. axis [1,1,0]

 cryst.   s( 6) = (     0         -1          0      )    f =(  0.4999999 )
                  (    -1          0          0      )       (  0.4999999 )
                  (     0          0          1      )       (  0.0000000 )

 cart.    s( 6) = (  0.5000000 -0.8660254  0.0000000 )    f =(  0.2500000 )
                  ( -0.8660254 -0.5000000  0.0000000 )       (  0.4330127 )
                  (  0.0000000  0.0000000  1.0000000 )       (  0.0000000 )

     point group C_3v (3m)
     there are  3 classes
     the character table:

       E     2C3   3s_v
A_1    1.00  1.00  1.00
A_2    1.00  1.00 -1.00
E      2.00 -1.00  0.00

     the symmetry operations in each class and the name of the first element:

     E        1
          identity
     2C3      2    3
          120 deg rotation - cryst. axis [0,0,1]
     3s_v     4    5    6
          inv. 180 deg rotation - cart. axis [1,0,0]

   Cartesian axes

     site n.     atom                  positions (alat units)
         1           Ga  tau(   1) = (   0.2500002   0.1443375   1.2217266  )
         2           Ga  tau(   2) = (   0.0000002   0.5773502   0.4067871  )
         3           Ga  tau(   3) = (   0.0000002   0.5773502   1.2217266  )
         4           Ga  tau(   4) = (   0.7500002   0.1443375   0.4067871  )
         5           Ga  tau(   5) = (   0.7500002   0.1443375   1.2217266  )
         6           Ga  tau(   6) = (   0.5000002   0.5773502   0.4067871  )
         7           Ga  tau(   7) = (   0.5000002   0.5773502   1.2217266  )
         8           Ga  tau(   8) = (  -0.0000003   0.2886754   0.8142568  )
         9           Ga  tau(   9) = (  -0.0000003   0.2886754   1.6291964  )
        10           Ga  tau(  10) = (  -0.2500003   0.7216881   0.8142568  )
        11           Ga  tau(  11) = (  -0.2500003   0.7216881   1.6291964  )
        12           Ga  tau(  12) = (   0.4999997   0.2886754   0.8142568  )
        13           Ga  tau(  13) = (   0.4999997   0.2886754   1.6291964  )
        14           Ga  tau(  14) = (   0.2499997   0.7216881   0.8142568  )
        15           Ga  tau(  15) = (   0.2499997   0.7216881   1.6291964  )
        16           N   tau(  16) = (   0.2500002   0.1443375   0.7137548  )
        17           N   tau(  17) = (   0.2500002   0.1443375   1.5286943  )
        18           N   tau(  18) = (   0.0000002   0.5773502   0.7137548  )
        19           N   tau(  19) = (   0.0000002   0.5773502   1.5286943  )
        20           N   tau(  20) = (   0.7500002   0.1443375   0.7137548  )
        21           N   tau(  21) = (   0.7500002   0.1443375   1.5286943  )
        22           N   tau(  22) = (   0.5000002   0.5773502   0.7137548  )
        23           N   tau(  23) = (   0.5000002   0.5773502   1.5286943  )
        24           N   tau(  24) = (  -0.0000003   0.2886754   0.3062850  )
        25           N   tau(  25) = (  -0.0000003   0.2886754   1.1212245  )
        26           N   tau(  26) = (  -0.2500003   0.7216881   0.3062850  )
        27           N   tau(  27) = (  -0.2500003   0.7216881   1.1212245  )
        28           N   tau(  28) = (   0.4999997   0.2886754   0.3062850  )
        29           N   tau(  29) = (   0.4999997   0.2886754   1.1212245  )
        30           N   tau(  30) = (   0.2499997   0.7216881   0.3062850  )
        31           N   tau(  31) = (   0.2499997   0.7216881   1.1212245  )

   Crystallographic axes

     site n.     atom                  positions (cryst. coord.)
         1           Ga  tau(   1) = (  0.3333335  0.1666666  0.7495811  )
         2           Ga  tau(   2) = (  0.3333335  0.6666666  0.2495811  )
         3           Ga  tau(   3) = (  0.3333335  0.6666666  0.7495811  )
         4           Ga  tau(   4) = (  0.8333335  0.1666666  0.2495811  )
         5           Ga  tau(   5) = (  0.8333335  0.1666666  0.7495811  )
         6           Ga  tau(   6) = (  0.8333335  0.6666666  0.2495811  )
         7           Ga  tau(   7) = (  0.8333335  0.6666666  0.7495811  )
         8           Ga  tau(   8) = (  0.1666665  0.3333336  0.4995811  )
         9           Ga  tau(   9) = (  0.1666665  0.3333336  0.9995811  )
        10           Ga  tau(  10) = (  0.1666665  0.8333336  0.4995811  )
        11           Ga  tau(  11) = (  0.1666665  0.8333336  0.9995811  )
        12           Ga  tau(  12) = (  0.6666665  0.3333336  0.4995811  )
        13           Ga  tau(  13) = (  0.6666665  0.3333336  0.9995811  )
        14           Ga  tau(  14) = (  0.6666665  0.8333336  0.4995811  )
        15           Ga  tau(  15) = (  0.6666665  0.8333336  0.9995811  )
        16           N   tau(  16) = (  0.3333335  0.1666666  0.4379189  )
        17           N   tau(  17) = (  0.3333335  0.1666666  0.9379189  )
        18           N   tau(  18) = (  0.3333335  0.6666666  0.4379189  )
        19           N   tau(  19) = (  0.3333335  0.6666666  0.9379189  )
        20           N   tau(  20) = (  0.8333335  0.1666666  0.4379189  )
        21           N   tau(  21) = (  0.8333335  0.1666666  0.9379189  )
        22           N   tau(  22) = (  0.8333335  0.6666666  0.4379189  )
        23           N   tau(  23) = (  0.8333335  0.6666666  0.9379189  )
        24           N   tau(  24) = (  0.1666665  0.3333336  0.1879189  )
        25           N   tau(  25) = (  0.1666665  0.3333336  0.6879189  )
        26           N   tau(  26) = (  0.1666665  0.8333336  0.1879189  )
        27           N   tau(  27) = (  0.1666665  0.8333336  0.6879189  )
        28           N   tau(  28) = (  0.6666665  0.3333336  0.1879189  )
        29           N   tau(  29) = (  0.6666665  0.3333336  0.6879189  )
        30           N   tau(  30) = (  0.6666665  0.8333336  0.1879189  )
        31           N   tau(  31) = (  0.6666665  0.8333336  0.6879189  )

[...]
     atom   31 type  2   force =     0.00002952   -0.00001835   -0.66053934
     The local contribution  to forces
     atom    1 type  1   force =    -0.00007749    0.00024602   -1.09355458
     atom    2 type  1   force =    -1.03825151   -0.59926695   -0.46855760
     atom    3 type  1   force =    -0.02684450   -0.01520090   -0.24650523
     atom    4 type  1   force =    -0.00011140    1.19907643   -0.46855595
     atom    5 type  1   force =    -0.00007215    0.03115132   -0.24650514
     atom    6 type  1   force =     1.03813594   -0.59911701   -0.46855780
     atom    7 type  1   force =     0.02668971   -0.01520088   -0.24650525
     atom    8 type  1   force =    -1.23527516    0.71331664    8.24414901
     atom    9 type  1   force =    -3.35495928    1.93711847   -7.65129598
     atom   10 type  1   force =     0.00108860   -1.42812576    8.24416755
     atom   11 type  1   force =     0.00108884   -3.87574070   -7.65131973
     atom   12 type  1   force =     1.23745992    0.71331664    8.24417088
     atom   13 type  1   force =     3.35716094    1.93712460   -7.65132315
     atom   14 type  1   force =     0.00109998   -0.00049713    5.35055905
     atom   15 type  1   force =     0.00110078   -0.00049696   -6.00172175
     atom   16 type  2   force =    -0.00001320    0.00002075    8.95854506
     atom   17 type  2   force =    -0.00001002    0.00002191   -2.94831677
     atom   18 type  2   force =     0.15846001    0.09151479    2.45408051
     atom   19 type  2   force =     0.05965124    0.03446926   -1.74413348
     atom   20 type  2   force =    -0.00001066   -0.18296333    2.45408096
     atom   21 type  2   force =    -0.00000933   -0.06886944   -1.74413316
     atom   22 type  2   force =    -0.15848170    0.09151790    2.45408028
     atom   23 type  2   force =    -0.05967101    0.03446906   -1.74413345
     atom   24 type  2   force =    -5.89531627    3.40367213   -2.95803848
     atom   25 type  2   force =     0.01666521   -0.00961112    0.92267350
     atom   26 type  2   force =     0.00006824   -6.80751924   -2.95805986
     atom   27 type  2   force =     0.00008336    0.01910691    0.92267063
     atom   28 type  2   force =     5.89553678    3.40371494   -2.95806935
     atom   29 type  2   force =    -0.01649575   -0.00960929    0.92267048
     atom   30 type  2   force =     0.00009374   -0.00004036   -0.72652038
     atom   31 type  2   force =     0.00008617   -0.00003848    0.65236770
     The core correction contribution to forces
     atom    1 type  1   force =    -0.00000627    0.00001822    0.00035409
     atom    2 type  1   force =    -0.00187160   -0.00106944   -0.00109331
     atom    3 type  1   force =    -0.00045307   -0.00023928    0.00053030
     atom    4 type  1   force =    -0.00000908    0.00217702   -0.00109328
     atom    5 type  1   force =    -0.00000588    0.00053396    0.00053031
     atom    6 type  1   force =     0.00186277   -0.00105774   -0.00109335
     atom    7 type  1   force =     0.00044056   -0.00023927    0.00053030
     atom    8 type  1   force =     0.00271722   -0.00155942   -0.00062698
     atom    9 type  1   force =    -0.00027216    0.00016658    0.00316959
     atom   10 type  1   force =     0.00008032    0.00300790   -0.00062700
     atom   11 type  1   force =     0.00008023   -0.00044380    0.00316956
     atom   12 type  1   force =    -0.00255601   -0.00155940   -0.00062702
     atom   13 type  1   force =     0.00043344    0.00016656    0.00316956
     atom   14 type  1   force =     0.00008062   -0.00003669   -0.00027251
     atom   15 type  1   force =     0.00008062   -0.00003667   -0.00040653
     atom   16 type  2   force =     0.00000021   -0.00000025   -0.00880938
     atom   17 type  2   force =     0.00000024   -0.00000032   -0.00051113
     atom   18 type  2   force =    -0.00028221   -0.00016342    0.00009041
     atom   19 type  2   force =    -0.00062922   -0.00036376    0.00015306
     atom   20 type  2   force =     0.00000023    0.00032585    0.00009039
     atom   21 type  2   force =     0.00000023    0.00072652    0.00015305
     atom   22 type  2   force =     0.00028268   -0.00016339    0.00009040
     atom   23 type  2   force =     0.00062971   -0.00036377    0.00015306
     atom   24 type  2   force =     0.00560130   -0.00323400    0.00345889
     atom   25 type  2   force =     0.00020744   -0.00011980   -0.00164692
     atom   26 type  2   force =    -0.00000241    0.00647144    0.00345886
     atom   27 type  2   force =    -0.00000230    0.00024351   -0.00164697
     atom   28 type  2   force =    -0.00560571   -0.00323362    0.00345888
     atom   29 type  2   force =    -0.00021208   -0.00011981   -0.00164696
     atom   30 type  2   force =    -0.00000240    0.00000135   -0.00027533
     atom   31 type  2   force =    -0.00000233    0.00000129   -0.00014130
     The Hubbard contrib.    to forces
     atom    1 type  1   force =     0.00000000    0.00000000    0.00000000
     atom    2 type  1   force =     0.00000000    0.00000000    0.00000000
     atom    3 type  1   force =     0.00000000    0.00000000    0.00000000
     atom    4 type  1   force =     0.00000000    0.00000000    0.00000000
     atom    5 type  1   force =     0.00000000    0.00000000    0.00000000
     atom    6 type  1   force =     0.00000000    0.00000000    0.00000000
     atom    7 type  1   force =     0.00000000    0.00000000    0.00000000
     atom    8 type  1   force =     0.00000000    0.00000000    0.00000000
     atom    9 type  1   force =     0.00000000    0.00000000    0.00000000
     atom   10 type  1   force =     0.00000000    0.00000000    0.00000000
     atom   11 type  1   force =     0.00000000    0.00000000    0.00000000
     atom   12 type  1   force =     0.00000000    0.00000000    0.00000000
     atom   13 type  1   force =     0.00000000    0.00000000    0.00000000
     atom   14 type  1   force =     0.00000000    0.00000000    0.00000000
     atom   15 type  1   force =     0.00000000    0.00000000    0.00000000
     atom   16 type  2   force =     0.00000000    0.00000000    0.00000000
     atom   17 type  2   force =     0.00000000    0.00000000    0.00000000
     atom   18 type  2   force =     0.00000000    0.00000000    0.00000000
     atom   19 type  2   force =     0.00000000    0.00000000    0.00000000
     atom   20 type  2   force =     0.00000000    0.00000000    0.00000000
     atom   21 type  2   force =     0.00000000    0.00000000    0.00000000
     atom   22 type  2   force =     0.00000000    0.00000000    0.00000000
     atom   23 type  2   force =     0.00000000    0.00000000    0.00000000
     atom   24 type  2   force =     0.00000000    0.00000000    0.00000000
     atom   25 type  2   force =     0.00000000    0.00000000    0.00000000
     atom   26 type  2   force =     0.00000000    0.00000000    0.00000000
     atom   27 type  2   force =     0.00000000    0.00000000    0.00000000
     atom   28 type  2   force =     0.00000000    0.00000000    0.00000000
     atom   29 type  2   force =     0.00000000    0.00000000    0.00000000
     atom   30 type  2   force =     0.00000000    0.00000000    0.00000000
     atom   31 type  2   force =     0.00000000    0.00000000    0.00000000
     The SCF correction term to forces
     atom    1 type  1   force =    -0.00000000    0.00000000   -0.00006034
     atom    2 type  1   force =    -0.00001222   -0.00000705    0.00006089
     atom    3 type  1   force =     0.00001484    0.00000857   -0.00001037
     atom    4 type  1   force =     0.00000000    0.00001411    0.00006089
     atom    5 type  1   force =     0.00000000   -0.00001714   -0.00001037
     atom    6 type  1   force =     0.00001222   -0.00000705    0.00006089
     atom    7 type  1   force =    -0.00001484    0.00000857   -0.00001037
     atom    8 type  1   force =     0.00001985   -0.00001146   -0.00000593
     atom    9 type  1   force =    -0.00005223    0.00003015   -0.00003619
     atom   10 type  1   force =     0.00000000    0.00002292   -0.00000593
     atom   11 type  1   force =    -0.00000000   -0.00006031   -0.00003619
     atom   12 type  1   force =    -0.00001985   -0.00001146   -0.00000593
     atom   13 type  1   force =     0.00005223    0.00003015   -0.00003619
     atom   14 type  1   force =    -0.00000000    0.00000000    0.00002294
     atom   15 type  1   force =    -0.00000000    0.00000000   -0.00006380
     atom   16 type  2   force =    -0.00000000    0.00000000    0.00000202
     atom   17 type  2   force =     0.00000000   -0.00000000   -0.00001688
     atom   18 type  2   force =    -0.00000458   -0.00000265    0.00001078
     atom   19 type  2   force =    -0.00000392   -0.00000226   -0.00001683
     atom   20 type  2   force =    -0.00000000    0.00000529    0.00001078
     atom   21 type  2   force =    -0.00000000    0.00000453   -0.00001683
     atom   22 type  2   force =     0.00000458   -0.00000265    0.00001078
     atom   23 type  2   force =     0.00000392   -0.00000226   -0.00001683
     atom   24 type  2   force =    -0.00000607    0.00000350    0.00001394
     atom   25 type  2   force =    -0.00000283    0.00000163   -0.00001265
     atom   26 type  2   force =    -0.00000000   -0.00000700    0.00001394
     atom   27 type  2   force =    -0.00000000   -0.00000327   -0.00001265
     atom   28 type  2   force =     0.00000607    0.00000350    0.00001394
     atom   29 type  2   force =     0.00000283    0.00000163   -0.00001265
     atom   30 type  2   force =    -0.00000000    0.00000000    0.00001182
     atom   31 type  2   force =     0.00000000   -0.00000000   -0.00000173

     Total force =     0.002284     Total SCF correction =     0.000202

     Computing stress (Cartesian axis) and pressure

[...]

          total   stress  (Ry/bohr**3)                   (kbar)     P=       60.23
   0.00038379   0.00000000   0.00000000           56.46        0.00        0.00
   0.00000000   0.00038379   0.00000000            0.00       56.46        0.00
   0.00000000   0.00000000   0.00046079            0.00        0.00       67.78

     kinetic stress (kbar)  17818.93     -0.00      0.00
                                0.00  17818.93     -0.00
                                0.00     -0.00  17888.52

     local   stress (kbar)   1807.10     -0.07     -0.00
                               -0.07   1807.02      0.00
                               -0.00      0.00   2935.90

     nonloc. stress (kbar)      6.20     -0.00      0.00
                                0.00      6.20      0.00
                                0.00      0.00     -0.32

     hartree stress (kbar)  19919.28     -0.00      0.00
                               -0.00  19919.28     -0.00
                                0.00     -0.00  19335.19

     exc-cor stress (kbar)   4819.68      0.00     -0.00
                                0.00   4819.68      0.00
                               -0.00      0.00   4820.60

     corecor stress (kbar) -13267.94     -0.00     -0.00
                               -0.00 -13267.94     -0.00
                               -0.00     -0.00 -13268.76

     ewald   stress (kbar) -31200.23      0.09      0.00
                                0.09 -31200.11     -0.00
                                0.00     -0.00 -31796.09

     hubbard stress (kbar)      0.00      0.00      0.00
                                0.00      0.00      0.00
                                0.00      0.00      0.00

     DFT-D   stress (kbar)      0.00      0.00      0.00
                                0.00      0.00      0.00
                                0.00      0.00      0.00

     XDM     stress (kbar)      0.00      0.00      0.00
                                0.00      0.00      0.00
                                0.00      0.00      0.00

     dft-nl  stress (kbar)    153.42     -0.00      0.00
                               -0.00    153.42     -0.00
                                0.00     -0.00    152.74

     TS-vdW  stress (kbar)      0.00      0.00      0.00
                                0.00      0.00      0.00
                                0.00      0.00      0.00

     MDB     stress (kbar)      0.00      0.00      0.00
                                0.00      0.00      0.00
                                0.00      0.00      0.00

     3D-RISM stress (kbar)      0.00      0.00      0.00
                                0.00      0.00      0.00
                                0.00      0.00      0.00

[...]

     Non-local corr. energy    =       8.27274679 Ry

 BEEFens 2000 ensemble energies
             -0.672035107527620E+01
             -0.601445451879085E+02
             -0.258057183017888E+02
              0.212030377480767E+02
             -0.431675532094293E+02
             -0.555904028507090E+02
              0.286285264097726E+02
             -0.307345324489293E+01
              0.475894071883201E+02
             -0.203905387323400E+01
              0.232927151415239E+02
              0.952288155681032E+00
              0.100558907433631E+01
             -0.208571178115920E+01
              0.311447242863053E+02
             -0.227243653217777E+02
             -0.468703802701602E+02
             -0.152855396315461E+02
              0.114107182160998E+02
             -0.101113358776240E+01
              0.682101317352555E+02
              0.581180181144934E+02
             -0.331729005511212E+02
              0.121001248697112E+02
             -0.729252032859514E+02
              0.584718750191047E+02
              0.191254336781913E+02
              0.569238977920636E+02
              0.373740283005778E+02
             -0.182636656735428E+02
              0.137802232030379E+02
             -0.269447185343839E+02
              0.741809419512948E+01
              0.364822655011161E+02
              0.387824126692196E+02
             -0.139482378836593E+02
              0.861017510234418E+02
             -0.326414826368015E+02
             -0.235102581030336E+02
              0.344895859152665E+02
              0.153886978828098E+02
              0.258550358278057E+02
             -0.492146678504968E+02
             -0.139325766744162E+01
              0.483724471828347E+02
              0.627829094732051E+02
             -0.624398127513366E+02
              0.445166926161711E+01
              0.235614906883363E+02
              0.113733056440468E+02
              0.261399274030565E+02
              0.553598359112662E+02
             -0.334931126186687E+02
             -0.367026703665924E+02
             -0.477009615688053E+02
             -0.745090147918199E+01
             -0.434877092941989E+02
              0.421288182681894E+01
             -0.811240634999893E+01
             -0.339629628422368E+02
[...]
              0.424200837237142E+02
              0.233183242342043E+02
              0.297628439528891E+02
             -0.480001360092058E+02
             -0.458034199620367E+02
             -0.116692689390004E+02
             -0.449892944376515E+02
              0.721411406605264E+02
              0.618313176327320E+02
              0.295332474807621E+02
              0.799108485303480E+02
             -0.416039981131066E+02
             -0.170020715123554E+02
             -0.235543117432984E+02
              0.660563884986218E+02

 BEEF-vdW xc energy contributions
            1 :    -605.9693474289318
            2 :     545.5665960724235
            3 :    -444.3869075258049
            4 :     332.0609493567590
            5 :    -234.6431991459739
            6 :     164.7196303028769
            7 :    -120.0298431615436
            8 :     89.89691980929638
            9 :    -64.27458062751316
           10 :     39.54869154246933
           11 :    -18.34712700044793
           12 :     4.984478148975768
           13 :   -0.7275179683305169
           14 :     2.362245665219916
           15 :    -4.547533498855842
           16 :     3.586834445193290
           17 :    0.4515345271396427
           18 :    -4.671616674001484
           19 :     6.252711782529332
           20 :    -4.856190458530818
           21 :     2.735229689645848
           22 :    -2.716764200415128
           23 :     5.862321209059928
           24 :    -10.69034610382766
           25 :     14.44608344871165
           26 :    -15.25709821357486
           27 :     13.42102097405382
           28 :    -10.90591162090755
           29 :     9.624415167883399
           30 :    -9.952140027304267
           31 :    -52.16540279765604
           32 :    -35.71612245790061

     Writing all to output data dir ./GaN.save/

     General routines

     Parallel routines

     PAW routines

   This run was terminated on:  22:27:48  27Mar2024

   JOB DONE.