     Program PWSCF v.7.1 starts on 27Mar2024 at 20:31:30

     Reading input from espresso.pwi
Warning: card &CELL ignored
Warning: card    CELL_DYNAMICS    = 'BFGS' ignored
Warning: card / ignored

     Current dimensions of program PWSCF are:
     Max number of different atomic species (ntypx) = 10
     Max number of k-points (npk) =  40000
     Max angular momentum in pseudopotentials (lmaxx) =  4
     file Ga.pbe-dn-kjpaw_psl.1.0.0.UPF: wavefunction(s)  4S renormalized
     file N.pbe-n-kjpaw_psl.1.0.0.UPF: wavefunction(s)  2S renormalized

     IMPORTANT: XC functional enforced from input :
     Exchange-correlation= BEEF-VDW
                           (   1   4  43  14   2   0   0)
     Any further DFT definition will be discarded
     Please, verify this is what you really want

     R & G space division:  proc/nbgrp/npool/nimage =      27
     Subspace diagonalization in iterative solution of the eigenvalue problem:
     a serial algorithm will be used

     Using Slab Decomposition

     bravais-lattice index     =            4
     lattice parameter (alat)  =      12.2626  a.u.
     unit-cell volume          =    2602.7676 (a.u.)^3
     number of atoms/cell      =           31
     number of atomic types    =            2
     number of electrons       =       276.00
     number of Kohn-Sham states=          166
     kinetic-energy cutoff     =      70.0000  Ry
     charge density cutoff     =     350.0000  Ry
     scf convergence threshold =      1.0E-07
     mixing beta               =       0.7000
     number of iterations used =            8  plain     mixing
     energy convergence thresh.=      1.0E-04
     force convergence thresh. =      1.0E-03
     Exchange-correlation= BEEF-VDW
                           (   1   4  43  14   2   0   0)
     nstep                     =           50

     celldm(1)=  12.262616  celldm(2)=   0.000000  celldm(3)=   1.629879
     celldm(4)=   0.000000  celldm(5)=   0.000000  celldm(6)=   0.000000

     crystal axes: (cart. coord. in units of alat)
               a(1) = (   1.000000   0.000000   0.000000 )
               a(2) = (  -0.500000   0.866025   0.000000 )
               a(3) = (   0.000000   0.000000   1.629879 )

     reciprocal axes: (cart. coord. in units 2 pi/alat)
               b(1) = (  1.000000  0.577350 -0.000000 )
               b(2) = (  0.000000  1.154701  0.000000 )
               b(3) = (  0.000000 -0.000000  0.613542 )

     PseudoPot. # 1 for Ga read from file:
     /trace/group/acmegroup/atimmins/packages/espresso/pseudo/psl_1.0.0/pslibrary.1.0.0/pbe/PSEUDOPOTENTIALS/Ga.pbe-dn-kjpaw_psl.1.0.0.UPF
     MD5 check sum: cd2a01e492f15b435d17032472d8505c
     Pseudo is Projector augmented-wave + core cor, Zval = 13.0
     Generated using 'atomic' code by A. Dal Corso  v.7.1
     Shape of augmentation charge: PSQ
     Using radial grid of 1205 points,  6 beta functions with:
                l(1) =   0
                l(2) =   0
                l(3) =   1
                l(4) =   1
                l(5) =   2
                l(6) =   2
     Q(r) pseudized with 0 coefficients

     PseudoPot. # 2 for N  read from file:
     /trace/group/acmegroup/atimmins/packages/espresso/pseudo/psl_1.0.0/pslibrary.1.0.0/pbe/PSEUDOPOTENTIALS/N.pbe-n-kjpaw_psl.1.0.0.UPF
     MD5 check sum: f77f775694dac7e2c3fe1c82443d1a16
     Pseudo is Projector augmented-wave + core cor, Zval =  5.0
     Generated using 'atomic' code by A. Dal Corso  v.7.1
     Shape of augmentation charge: PSQ
     Using radial grid of 1085 points,  4 beta functions with:
                l(1) =   0
                l(2) =   0
                l(3) =   1
                l(4) =   1
     Q(r) pseudized with 0 coefficients

     atomic species   valence    mass     pseudopotential
        Ga            13.00    69.72300     Ga( 1.00)
        N              5.00    14.00700     N ( 1.00)

      6 Sym. Ops. (no inversion) found ( 4 have fractional translation)

                                    s                        frac. trans.

      isym =  1     identity

 cryst.   s( 1) = (     1          0          0      )
                  (     0          1          0      )
                  (     0          0          1      )

 cart.    s( 1) = (  1.0000000  0.0000000  0.0000000 )
                  (  0.0000000  1.0000000  0.0000000 )
                  (  0.0000000  0.0000000  1.0000000 )

      isym =  2     120 deg rotation - cryst. axis [0,0,1]

 cryst.   s( 2) = (     0          1          0      )    f =(  0.4999999 )
                  (    -1         -1          0      )       (  0.0000004 )
                  (     0          0          1      )       (  0.0000000 )

 cart.    s( 2) = ( -0.5000000 -0.8660254  0.0000000 )    f =(  0.4999998 )
                  (  0.8660254 -0.5000000  0.0000000 )       (  0.0000003 )
                  (  0.0000000  0.0000000  1.0000000 )       (  0.0000000 )

      isym =  3     120 deg rotation - cryst. axis [0,0,-1]

[...]

      isym =  4     inv. 180 deg rotation - cart. axis [1,0,0]

[...]

      isym =  5     inv. 180 deg rotation - cryst. axis [0,1,0]

 cryst.   s( 5) = (     1          1          0      )
                  (     0         -1          0      )
                  (     0          0          1      )

 cart.    s( 5) = (  0.5000000  0.8660254  0.0000000 )
                  (  0.8660254 -0.5000000  0.0000000 )
                  (  0.0000000  0.0000000  1.0000000 )

      isym =  6     inv. 180 deg rotation - cryst. axis [1,1,0]

 cryst.   s( 6) = (     0         -1          0      )    f =(  0.4999999 )
                  (    -1          0          0      )       (  0.4999999 )
                  (     0          0          1      )       (  0.0000000 )

 cart.    s( 6) = (  0.5000000 -0.8660254  0.0000000 )    f =(  0.2500000 )
                  ( -0.8660254 -0.5000000  0.0000000 )       (  0.4330127 )
                  (  0.0000000  0.0000000  1.0000000 )       (  0.0000000 )

     point group C_3v (3m)
     there are  3 classes
     the character table:

       E     2C3   3s_v
A_1    1.00  1.00  1.00
A_2    1.00  1.00 -1.00
E      2.00 -1.00  0.00

     the symmetry operations in each class and the name of the first element:

     E        1
          identity
     2C3      2    3
          120 deg rotation - cryst. axis [0,0,1]
     3s_v     4    5    6
          inv. 180 deg rotation - cart. axis [1,0,0]

   Cartesian axes

     site n.     atom                  positions (alat units)
         1           Ga  tau(   1) = (   0.2500002   0.1443375   1.2217266  )
         2           Ga  tau(   2) = (   0.0000002   0.5773502   0.4067871  )
         3           Ga  tau(   3) = (   0.0000002   0.5773502   1.2217266  )
         4           Ga  tau(   4) = (   0.7500002   0.1443375   0.4067871  )
         5           Ga  tau(   5) = (   0.7500002   0.1443375   1.2217266  )
         6           Ga  tau(   6) = (   0.5000002   0.5773502   0.4067871  )
         7           Ga  tau(   7) = (   0.5000002   0.5773502   1.2217266  )
         8           Ga  tau(   8) = (  -0.0000003   0.2886754   0.8142568  )
         9           Ga  tau(   9) = (  -0.0000003   0.2886754   1.6291964  )
        10           Ga  tau(  10) = (  -0.2500003   0.7216881   0.8142568  )
        11           Ga  tau(  11) = (  -0.2500003   0.7216881   1.6291964  )
        12           Ga  tau(  12) = (   0.4999997   0.2886754   0.8142568  )
        13           Ga  tau(  13) = (   0.4999997   0.2886754   1.6291964  )
        14           Ga  tau(  14) = (   0.2499997   0.7216881   0.8142568  )
        15           Ga  tau(  15) = (   0.2499997   0.7216881   1.6291964  )
        16           N   tau(  16) = (   0.2500002   0.1443375   0.7137548  )
        17           N   tau(  17) = (   0.2500002   0.1443375   1.5286943  )
        18           N   tau(  18) = (   0.0000002   0.5773502   0.7137548  )
        19           N   tau(  19) = (   0.0000002   0.5773502   1.5286943  )
        20           N   tau(  20) = (   0.7500002   0.1443375   0.7137548  )
        21           N   tau(  21) = (   0.7500002   0.1443375   1.5286943  )
        22           N   tau(  22) = (   0.5000002   0.5773502   0.7137548  )
        23           N   tau(  23) = (   0.5000002   0.5773502   1.5286943  )
        24           N   tau(  24) = (  -0.0000003   0.2886754   0.3062850  )
        25           N   tau(  25) = (  -0.0000003   0.2886754   1.1212245  )
        26           N   tau(  26) = (  -0.2500003   0.7216881   0.3062850  )
        27           N   tau(  27) = (  -0.2500003   0.7216881   1.1212245  )
        28           N   tau(  28) = (   0.4999997   0.2886754   0.3062850  )
        29           N   tau(  29) = (   0.4999997   0.2886754   1.1212245  )
        30           N   tau(  30) = (   0.2499997   0.7216881   0.3062850  )
        31           N   tau(  31) = (   0.2499997   0.7216881   1.1212245  )

   Crystallographic axes

     site n.     atom                  positions (cryst. coord.)
         1           Ga  tau(   1) = (  0.3333335  0.1666666  0.7495811  )
         2           Ga  tau(   2) = (  0.3333335  0.6666666  0.2495811  )
         3           Ga  tau(   3) = (  0.3333335  0.6666666  0.7495811  )
         4           Ga  tau(   4) = (  0.8333335  0.1666666  0.2495811  )
         5           Ga  tau(   5) = (  0.8333335  0.1666666  0.7495811  )
         6           Ga  tau(   6) = (  0.8333335  0.6666666  0.2495811  )
         7           Ga  tau(   7) = (  0.8333335  0.6666666  0.7495811  )
         8           Ga  tau(   8) = (  0.1666665  0.3333336  0.4995811  )
         9           Ga  tau(   9) = (  0.1666665  0.3333336  0.9995811  )
        10           Ga  tau(  10) = (  0.1666665  0.8333336  0.4995811  )
        11           Ga  tau(  11) = (  0.1666665  0.8333336  0.9995811  )
        12           Ga  tau(  12) = (  0.6666665  0.3333336  0.4995811  )
        13           Ga  tau(  13) = (  0.6666665  0.3333336  0.9995811  )
        14           Ga  tau(  14) = (  0.6666665  0.8333336  0.4995811  )
        15           Ga  tau(  15) = (  0.6666665  0.8333336  0.9995811  )
        16           N   tau(  16) = (  0.3333335  0.1666666  0.4379189  )
        17           N   tau(  17) = (  0.3333335  0.1666666  0.9379189  )
        18           N   tau(  18) = (  0.3333335  0.6666666  0.4379189  )
        19           N   tau(  19) = (  0.3333335  0.6666666  0.9379189  )
        20           N   tau(  20) = (  0.8333335  0.1666666  0.4379189  )
        21           N   tau(  21) = (  0.8333335  0.1666666  0.9379189  )
        22           N   tau(  22) = (  0.8333335  0.6666666  0.4379189  )
        23           N   tau(  23) = (  0.8333335  0.6666666  0.9379189  )
        24           N   tau(  24) = (  0.1666665  0.3333336  0.1879189  )
        25           N   tau(  25) = (  0.1666665  0.3333336  0.6879189  )
        26           N   tau(  26) = (  0.1666665  0.8333336  0.1879189  )
        27           N   tau(  27) = (  0.1666665  0.8333336  0.6879189  )
        28           N   tau(  28) = (  0.6666665  0.3333336  0.1879189  )
        29           N   tau(  29) = (  0.6666665  0.3333336  0.6879189  )
[...]
     atom   11 type  1   force =     0.00003649    3.83408009    7.79751724
     atom   12 type  1   force =    -1.42083717   -0.82036567   -8.29412725
     atom   13 type  1   force =    -3.32039296   -1.91707502    7.79751658
     atom   14 type  1   force =     0.00003027   -0.00001836   -5.35983273
     atom   15 type  1   force =     0.00002931   -0.00001775    5.97546245
     atom   16 type  2   force =    -0.00003636    0.00002266   -9.50677896
     atom   17 type  2   force =    -0.00002923    0.00001817    2.91749091
     atom   18 type  2   force =    -0.17628812   -0.10174220   -2.44782583
     atom   19 type  2   force =    -0.09843850   -0.05680013    1.75487012
     atom   20 type  2   force =    -0.00003084    0.20354356   -2.44782573
     atom   21 type  2   force =    -0.00002717    0.11365278    1.75487037
     atom   22 type  2   force =     0.17622825   -0.10174314   -2.44782346
     atom   23 type  2   force =     0.09838025   -0.05679779    1.75486961
     atom   24 type  2   force =     6.23172230   -3.59788984    3.17111057
     atom   25 type  2   force =    -0.00374911    0.00216226   -1.02166161
     atom   26 type  2   force =     0.00004717    7.19578526    3.17113782
     atom   27 type  2   force =     0.00003049   -0.00438219   -1.02166036
     atom   28 type  2   force =    -6.23170738   -3.59793571    3.17113635
     atom   29 type  2   force =     0.00380914    0.00216178   -1.02166064
     atom   30 type  2   force =     0.00002455   -0.00001520    0.71011732
     atom   31 type  2   force =     0.00002952   -0.00001835   -0.66053934
     The local contribution  to forces
     atom    1 type  1   force =    -0.00007749    0.00024602   -1.09361577
     atom    2 type  1   force =    -1.03826323   -0.59927372   -0.46849500
     atom    3 type  1   force =    -0.02683171   -0.01519351   -0.24651455
     atom    4 type  1   force =    -0.00011140    1.19908996   -0.46849336
     atom    5 type  1   force =    -0.00007215    0.03113655   -0.24651446
     atom    6 type  1   force =     1.03814765   -0.59912377   -0.46849521
     atom    7 type  1   force =     0.02667692   -0.01519349   -0.24651457
     atom    8 type  1   force =    -1.23525487    0.71330492    8.24414339
     atom    9 type  1   force =    -3.35501374    1.93714991   -7.65133298
     atom   10 type  1   force =     0.00108860   -1.42810233    8.24416193
     atom   11 type  1   force =     0.00108883   -3.87580359   -7.65135673
     atom   12 type  1   force =     1.23743963    0.71330493    8.24416526
     atom   13 type  1   force =     3.35721540    1.93715604   -7.65136014
     atom   14 type  1   force =     0.00109998   -0.00049713    5.35057999
     atom   15 type  1   force =     0.00110078   -0.00049696   -6.00178503
     atom   16 type  2   force =    -0.00001320    0.00002075    8.95853063
     atom   17 type  2   force =    -0.00001002    0.00002191   -2.94833918
     atom   18 type  2   force =     0.15845290    0.09151068    2.45408814
     atom   19 type  2   force =     0.05964417    0.03446518   -1.74415045
     atom   20 type  2   force =    -0.00001066   -0.18295512    2.45408859
     atom   21 type  2   force =    -0.00000933   -0.06886127   -1.74415014
     atom   22 type  2   force =    -0.15847459    0.09151379    2.45408792
     atom   23 type  2   force =    -0.05966394    0.03446498   -1.74415043
     atom   24 type  2   force =    -5.89532673    3.40367817   -2.95802512
     atom   25 type  2   force =     0.01666584   -0.00961148    0.92266028
     atom   26 type  2   force =     0.00006824   -6.80753131   -2.95804649
     atom   27 type  2   force =     0.00008336    0.01910763    0.92265741
     atom   28 type  2   force =     5.89554724    3.40372098   -2.95805598
     atom   29 type  2   force =    -0.01649638   -0.00960965    0.92265726
     atom   30 type  2   force =     0.00009374   -0.00004036   -0.72650659
     atom   31 type  2   force =     0.00008617   -0.00003848    0.65236999
     The core correction contribution to forces
     atom    1 type  1   force =    -0.00000627    0.00001822    0.00035421
     atom    2 type  1   force =    -0.00187146   -0.00106936   -0.00109342
     atom    3 type  1   force =    -0.00045348   -0.00023952    0.00053021
     atom    4 type  1   force =    -0.00000908    0.00217686   -0.00109338
     atom    5 type  1   force =    -0.00000587    0.00053443    0.00053022
     atom    6 type  1   force =     0.00186263   -0.00105766   -0.00109345
     atom    7 type  1   force =     0.00044096   -0.00023950    0.00053020
     atom    8 type  1   force =     0.00271707   -0.00155934   -0.00062682
     atom    9 type  1   force =    -0.00027194    0.00016645    0.00316969
     atom   10 type  1   force =     0.00008032    0.00300773   -0.00062684
     atom   11 type  1   force =     0.00008023   -0.00044354    0.00316966
     atom   12 type  1   force =    -0.00255586   -0.00155931   -0.00062685
     atom   13 type  1   force =     0.00043321    0.00016643    0.00316966
     atom   14 type  1   force =     0.00008062   -0.00003669   -0.00027283
     atom   15 type  1   force =     0.00008062   -0.00003667   -0.00040608
     atom   16 type  2   force =     0.00000021   -0.00000025   -0.00880961
     atom   17 type  2   force =     0.00000024   -0.00000032   -0.00051118
     atom   18 type  2   force =    -0.00028223   -0.00016343    0.00009033
     atom   19 type  2   force =    -0.00062924   -0.00036377    0.00015312
     atom   20 type  2   force =     0.00000023    0.00032586    0.00009031
     atom   21 type  2   force =     0.00000023    0.00072654    0.00015312
     atom   22 type  2   force =     0.00028269   -0.00016340    0.00009033
     atom   23 type  2   force =     0.00062973   -0.00036378    0.00015312
     atom   24 type  2   force =     0.00560130   -0.00323400    0.00345885
     atom   25 type  2   force =     0.00020755   -0.00011987   -0.00164691
     atom   26 type  2   force =    -0.00000241    0.00647144    0.00345882
     atom   27 type  2   force =    -0.00000230    0.00024363   -0.00164696
     atom   28 type  2   force =    -0.00560571   -0.00323362    0.00345884
     atom   29 type  2   force =    -0.00021219   -0.00011987   -0.00164695
     atom   30 type  2   force =    -0.00000240    0.00000135   -0.00027533
     atom   31 type  2   force =    -0.00000233    0.00000129   -0.00014129
     The Hubbard contrib.    to forces
     atom    1 type  1   force =     0.00000000    0.00000000    0.00000000
     atom    2 type  1   force =     0.00000000    0.00000000    0.00000000
     atom    3 type  1   force =     0.00000000    0.00000000    0.00000000
     atom    4 type  1   force =     0.00000000    0.00000000    0.00000000
     atom    5 type  1   force =     0.00000000    0.00000000    0.00000000
     atom    6 type  1   force =     0.00000000    0.00000000    0.00000000
     atom    7 type  1   force =     0.00000000    0.00000000    0.00000000
     atom    8 type  1   force =     0.00000000    0.00000000    0.00000000
     atom    9 type  1   force =     0.00000000    0.00000000    0.00000000
     atom   10 type  1   force =     0.00000000    0.00000000    0.00000000
     atom   11 type  1   force =     0.00000000    0.00000000    0.00000000
     atom   12 type  1   force =     0.00000000    0.00000000    0.00000000
     atom   13 type  1   force =     0.00000000    0.00000000    0.00000000
     atom   14 type  1   force =     0.00000000    0.00000000    0.00000000
     atom   15 type  1   force =     0.00000000    0.00000000    0.00000000
     atom   16 type  2   force =     0.00000000    0.00000000    0.00000000
     atom   17 type  2   force =     0.00000000    0.00000000    0.00000000
     atom   18 type  2   force =     0.00000000    0.00000000    0.00000000
     atom   19 type  2   force =     0.00000000    0.00000000    0.00000000
     atom   20 type  2   force =     0.00000000    0.00000000    0.00000000
     atom   21 type  2   force =     0.00000000    0.00000000    0.00000000
     atom   22 type  2   force =     0.00000000    0.00000000    0.00000000
     atom   23 type  2   force =     0.00000000    0.00000000    0.00000000
     atom   24 type  2   force =     0.00000000    0.00000000    0.00000000
     atom   25 type  2   force =     0.00000000    0.00000000    0.00000000
     atom   26 type  2   force =     0.00000000    0.00000000    0.00000000
     atom   27 type  2   force =     0.00000000    0.00000000    0.00000000
     atom   28 type  2   force =     0.00000000    0.00000000    0.00000000
     atom   29 type  2   force =     0.00000000    0.00000000    0.00000000
     atom   30 type  2   force =     0.00000000    0.00000000    0.00000000
     atom   31 type  2   force =     0.00000000    0.00000000    0.00000000
     The SCF correction term to forces
     atom    1 type  1   force =     0.00000000   -0.00000000    0.00000531
     atom    2 type  1   force =     0.00001289    0.00000744   -0.00000825
     atom    3 type  1   force =    -0.00000581   -0.00000336   -0.00000013
     atom    4 type  1   force =    -0.00000000   -0.00001488   -0.00000825
     atom    5 type  1   force =    -0.00000000    0.00000671   -0.00000013
     atom    6 type  1   force =    -0.00001289    0.00000744   -0.00000825
     atom    7 type  1   force =     0.00000581   -0.00000336   -0.00000013
     atom    8 type  1   force =    -0.00000478    0.00000276    0.00000204
     atom    9 type  1   force =     0.00001314   -0.00000759    0.00001917
     atom   10 type  1   force =    -0.00000000   -0.00000552    0.00000204
     atom   11 type  1   force =    -0.00000000    0.00001517    0.00001917
     atom   12 type  1   force =     0.00000478    0.00000276    0.00000204
     atom   13 type  1   force =    -0.00001314   -0.00000759    0.00001917
     atom   14 type  1   force =     0.00000000   -0.00000000   -0.00001323
     atom   15 type  1   force =    -0.00000000    0.00000000    0.00002431
     atom   16 type  2   force =     0.00000000   -0.00000000    0.00000091
     atom   17 type  2   force =    -0.00000000    0.00000000    0.00000416
     atom   18 type  2   force =     0.00000235    0.00000136   -0.00000018
     atom   19 type  2   force =     0.00000244    0.00000141    0.00000359
     atom   20 type  2   force =     0.00000000   -0.00000272   -0.00000018
     atom   21 type  2   force =     0.00000000   -0.00000281    0.00000359
     atom   22 type  2   force =    -0.00000235    0.00000136   -0.00000018
     atom   23 type  2   force =    -0.00000244    0.00000141    0.00000359
     atom   24 type  2   force =     0.00000303   -0.00000175   -0.00000152
     atom   25 type  2   force =     0.00000137   -0.00000079    0.00000080
     atom   26 type  2   force =    -0.00000000    0.00000349   -0.00000152
     atom   27 type  2   force =     0.00000000    0.00000159    0.00000080
     atom   28 type  2   force =    -0.00000303   -0.00000175   -0.00000152
     atom   29 type  2   force =    -0.00000137   -0.00000079    0.00000080
     atom   30 type  2   force =     0.00000000   -0.00000000   -0.00000206
     atom   31 type  2   force =    -0.00000000    0.00000000   -0.00000398

     Total force =     0.002285     Total SCF correction =     0.000062

     Computing stress (Cartesian axis) and pressure

     Non-local corr. energy    =       8.27274675 Ry

          total   stress  (Ry/bohr**3)                   (kbar)     P=       60.23
   0.00038378  -0.00000000   0.00000000           56.46       -0.00        0.00
   0.00000000   0.00038378   0.00000000            0.00       56.46        0.00
   0.00000000   0.00000000   0.00046078            0.00        0.00       67.78

     kinetic stress (kbar)  17818.93     -0.00      0.00
                               -0.00  17818.93     -0.00
                                0.00     -0.00  17888.52

     local   stress (kbar)   1807.10     -0.07     -0.00
                               -0.07   1807.01      0.00
                               -0.00      0.00   2935.90

     nonloc. stress (kbar)      6.20     -0.00      0.00
                               -0.00      6.20     -0.00
                                0.00     -0.00     -0.32

     hartree stress (kbar)  19919.29     -0.00      0.00
                               -0.00  19919.29     -0.00
                                0.00     -0.00  19335.19

     exc-cor stress (kbar)   4819.68      0.00     -0.00
                                0.00   4819.68      0.00
                               -0.00      0.00   4820.60

     corecor stress (kbar) -13267.94     -0.00     -0.00
                               -0.00 -13267.94     -0.00
                               -0.00     -0.00 -13268.76

     ewald   stress (kbar) -31200.23      0.09      0.00
                                0.09 -31200.11     -0.00
                                0.00     -0.00 -31796.09

     hubbard stress (kbar)      0.00      0.00      0.00
                                0.00      0.00      0.00
                                0.00      0.00      0.00

     DFT-D   stress (kbar)      0.00      0.00      0.00
                                0.00      0.00      0.00
                                0.00      0.00      0.00

     XDM     stress (kbar)      0.00      0.00      0.00
                                0.00      0.00      0.00
                                0.00      0.00      0.00

     dft-nl  stress (kbar)    153.42     -0.00      0.00
                               -0.00    153.42     -0.00
                                0.00     -0.00    152.74

     TS-vdW  stress (kbar)      0.00      0.00      0.00
                                0.00      0.00      0.00
                                0.00      0.00      0.00

     MDB     stress (kbar)      0.00      0.00      0.00
                                0.00      0.00      0.00
                                0.00      0.00      0.00

     3D-RISM stress (kbar)      0.00      0.00      0.00
                                0.00      0.00      0.00
                                0.00      0.00      0.00

     Energy error            =      1.7E-05 Ry
     Gradient error          =      8.0E-04 Ry/Bohr

     bfgs converged in  11 scf cycles and  10 bfgs steps
     (criteria: energy <  1.0E-04 Ry, force <  1.0E-03 Ry/Bohr)

     End of BFGS Geometry Optimization

     Final energy             =   -4712.2089214112 Ry

     File ./GaN.bfgs deleted, as requested
Begin final coordinates

ATOMIC_POSITIONS (angstrom)
Ga            1.6222756606        0.9366198184        7.9008625302
Ga            0.0086574632        3.7514787218        2.6548687073
Ga           -0.0029083978        3.7448011689        7.9256014430
Ga            4.8668240777        0.9266247178        2.6548687073
Ga            4.8668240777        0.9399798237        7.9256014430
Ga            3.2358938580        3.7514787218        2.6548687073
Ga            3.2474597190        3.7448011689        7.9256014430
Ga            0.0219712852        1.8605561847        5.2515932910
Ga            0.0015291656        1.8723584479       10.5981020294
Ga           -1.6222761733        4.7084763232        5.2515932910
Ga           -1.6222761733        4.6848717967       10.5981020294
Ga            3.2225732023        1.8605561847        5.2515932910
Ga            3.2430153219        1.8723584479       10.5981020294
Ga            1.6222722437        4.6831037996        5.2819595073
Ga            1.6222722437        4.6831037996       10.5678724026
N             1.6222756606        0.9366198184        4.7822177374
N             1.6222756606        0.9366198184        9.9137061160
N             0.0025018200        3.7479247596        4.6393571395
N             0.0059737228        3.7499292636        9.9045881179
N             4.8668240777        0.9337326422        4.6393571395
N             4.8668240777        0.9297236342        9.9045881179
N             3.2420495012        3.7479247596        4.6393571395
N             3.2385775984        3.7499292636        9.9045881179
N            -0.1186356900        1.9417356597        1.9484950284
N            -0.0101228692        1.8790857534        7.2810123914
N            -1.6222761733        4.5461173732        1.9484950284
N            -1.6222761733        4.6714171859        7.2810123914
N             3.3631801775        1.9417356597        1.9484950284
N             3.2546673567        1.8790857534        7.2810123914
N             1.6222722437        4.6831037996        1.9850005970
N             1.6222722437        4.6831037996        7.2702662864
End final coordinates

     Writing all to output data dir ./GaN.save/

     General routines

     Parallel routines

     PAW routines

   This run was terminated on:  21: 3:51  27Mar2024

   JOB DONE.