     Program PWSCF v.7.1 starts on 19Feb2024 at 16:11:20

     Reading input from espresso.pwi
Warning: card &CELL ignored
Warning: card    CELL_DYNAMICS    = 'BFGS' ignored
Warning: card / ignored

     Current dimensions of program PWSCF are:
     Max number of different atomic species (ntypx) = 10
     Max number of k-points (npk) =  40000
     Max angular momentum in pseudopotentials (lmaxx) =  4
     file C.pbe-n-kjpaw_psl.1.0.0.UPF: wavefunction(s)  2S 2P renormalized

     IMPORTANT: XC functional enforced from input :
     Exchange-correlation= BEEF-VDW
                           (   1   4  43  14   2   0   0)
     Any further DFT definition will be discarded
     Please, verify this is what you really want

     Found identity + (  0.0000  0.0000  0.3333) symmetry
     This is a supercell, fractional translations are disabled

     K-points division:     npool     =       4
     R & G space division:  proc/nbgrp/npool/nimage =      64
     Subspace diagonalization in iterative solution of the eigenvalue problem:
     a serial algorithm will be used

     Using Slab Decomposition

     bravais-lattice index     =            1
     lattice parameter (alat)  =      20.2520  a.u.
     unit-cell volume          =    8306.2556 (a.u.)^3
     number of atoms/cell      =          216
     number of atomic types    =            1
     number of electrons       =       864.00
     number of Kohn-Sham states=          518
     kinetic-energy cutoff     =      70.0000  Ry
     charge density cutoff     =     350.0000  Ry
     scf convergence threshold =      1.0E-07
     mixing beta               =       0.7000
     number of iterations used =            8  plain     mixing
     Exchange-correlation= BEEF-VDW
                           (   1   4  43  14   2   0   0)

     celldm(1)=  20.252024  celldm(2)=   0.000000  celldm(3)=   0.000000
     celldm(4)=   0.000000  celldm(5)=   0.000000  celldm(6)=   0.000000

     crystal axes: (cart. coord. in units of alat)
               a(1) = (   1.000000   0.000000   0.000000 )
               a(2) = (   0.000000   1.000000   0.000000 )
               a(3) = (   0.000000   0.000000   1.000000 )

     reciprocal axes: (cart. coord. in units 2 pi/alat)
               b(1) = (  1.000000  0.000000  0.000000 )
               b(2) = (  0.000000  1.000000  0.000000 )
               b(3) = (  0.000000  0.000000  1.000000 )

     PseudoPot. # 1 for C  read from file:
     /trace/group/acmegroup/atimmins/packages/espresso/pseudo/psl_1.0.0/pslibrary.1.0.0/pbe/PSEUDOPOTENTIALS/C.pbe-n-kjpaw_psl.1.0.0.UPF
     MD5 check sum: 5459cf7f2c8c37df2f7cde8914797f4d
     Pseudo is Projector augmented-wave + core cor, Zval =  4.0
     Generated using 'atomic' code by A. Dal Corso  v.7.1
     Shape of augmentation charge: PSQ
     Using radial grid of 1073 points,  4 beta functions with:
                l(1) =   0
                l(2) =   0
                l(3) =   1
                l(4) =   1
     Q(r) pseudized with 0 coefficients

     atomic species   valence    mass     pseudopotential
        C              4.00    12.01100     C ( 1.00)

     24 Sym. Ops. (no inversion) found

                                    s                        frac. trans.

      isym =  1     identity

 cryst.   s( 1) = (     1          0          0      )
                  (     0          1          0      )
                  (     0          0          1      )

 cart.    s( 1) = (  1.0000000  0.0000000  0.0000000 )
                  (  0.0000000  1.0000000  0.0000000 )
                  (  0.0000000  0.0000000  1.0000000 )

      isym =  2     180 deg rotation - cart. axis [0,0,1]

[...]

 cryst.   s( 9) = (     0          1          0      )
                  (     0          0          1      )
                  (     1          0          0      )

 cart.    s( 9) = (  0.0000000  0.0000000  1.0000000 )
                  (  1.0000000  0.0000000  0.0000000 )
                  (  0.0000000  1.0000000  0.0000000 )

[...]

 cryst.   s(10) = (     0         -1          0      )
                  (     0          0         -1      )
                  (     1          0          0      )

 cart.    s(10) = (  0.0000000  0.0000000  1.0000000 )
                  ( -1.0000000  0.0000000  0.0000000 )
                  (  0.0000000 -1.0000000  0.0000000 )

[...]

      isym = 12     120 deg rotation - cart. axis [-1,-1,1]

[...]

      isym = 13     inv. 180 deg rotation - cart. axis [1,1,0]

[...]

      isym = 24     inv.  90 deg rotation - cart. axis [1,0,0]

 cryst.   s(24) = (    -1          0          0      )
                  (     0          0         -1      )
                  (     0          1          0      )

 cart.    s(24) = ( -1.0000000  0.0000000  0.0000000 )
                  (  0.0000000  0.0000000  1.0000000 )
                  (  0.0000000 -1.0000000  0.0000000 )

     point group T_d (-43m)
     there are  5 classes
     the character table:

       E     8C3   3C2   6S4   6s_d
A_1    1.00  1.00  1.00  1.00  1.00
A_2    1.00  1.00  1.00 -1.00 -1.00
E      2.00 -1.00  2.00  0.00  0.00
T_1    3.00  0.00 -1.00  1.00 -1.00
T_2    3.00  0.00 -1.00 -1.00  1.00

     the symmetry operations in each class and the name of the first element:

     E        1
          identity
     8C3      5    7    8    6   12    9   10   11
          120 deg rotation - cart. axis [-1,-1,-1]
     3C2      2    3    4
          180 deg rotation - cart. axis [0,0,1]
     6S4     15   16   20   19   23   24
          inv.  90 deg rotation - cart. axis [0,0,-1]
     6s_d    13   14   17   18   21   22
          inv. 180 deg rotation - cart. axis [1,1,0]

   Cartesian axes

     site n.     atom                  positions (alat units)
         1           C   tau(   1) = (   0.0833353   0.2499980   0.0833353  )
         2           C   tau(   2) = (   0.0833353   0.2499980   0.4166687  )
         3           C   tau(   3) = (   0.0833353   0.2499980   0.7500020  )
         4           C   tau(   4) = (   0.0833353   0.5833313   0.0833353  )
         5           C   tau(   5) = (   0.0833353   0.5833313   0.4166687  )
         6           C   tau(   6) = (   0.0833353   0.5833313   0.7500020  )
         7           C   tau(   7) = (   0.0833353   0.9166647   0.0833353  )
         8           C   tau(   8) = (   0.0833353   0.9166647   0.4166687  )
         9           C   tau(   9) = (   0.0833353   0.9166647   0.7500020  )
        10           C   tau(  10) = (   0.4166687   0.2499980   0.0833353  )
        11           C   tau(  11) = (   0.4166687   0.2499980   0.4166687  )
        12           C   tau(  12) = (   0.4166687   0.2499980   0.7500020  )
        13           C   tau(  13) = (   0.4166687   0.5833313   0.0833353  )
        14           C   tau(  14) = (   0.4166687   0.5833313   0.4166687  )
        15           C   tau(  15) = (   0.4166687   0.5833313   0.7500020  )
        16           C   tau(  16) = (   0.4166687   0.9166647   0.0833353  )
        17           C   tau(  17) = (   0.4166687   0.9166647   0.4166687  )
        18           C   tau(  18) = (   0.4166687   0.9166647   0.7500020  )
        19           C   tau(  19) = (   0.7500020   0.2499980   0.0833353  )
        20           C   tau(  20) = (   0.7500020   0.2499980   0.4166687  )
        21           C   tau(  21) = (   0.7500020   0.2499980   0.7500020  )
        22           C   tau(  22) = (   0.7500020   0.5833313   0.0833353  )
        23           C   tau(  23) = (   0.7500020   0.5833313   0.4166687  )
        24           C   tau(  24) = (   0.7500020   0.5833313   0.7500020  )
        25           C   tau(  25) = (   0.7500020   0.9166647   0.0833353  )
        26           C   tau(  26) = (   0.7500020   0.9166647   0.4166687  )
        27           C   tau(  27) = (   0.7500020   0.9166647   0.7500020  )
        28           C   tau(  28) = (   0.0000000   0.0000000   0.1666667  )
        29           C   tau(  29) = (   0.0000000   0.0000000   0.5000000  )
        30           C   tau(  30) = (   0.0000000   0.0000000   0.8333333  )
        31           C   tau(  31) = (   0.0000000   0.3333333   0.1666667  )
        32           C   tau(  32) = (   0.0000000   0.3333333   0.5000000  )
        33           C   tau(  33) = (   0.0000000   0.3333333   0.8333333  )
        34           C   tau(  34) = (   0.0000000   0.6666667   0.1666667  )
        35           C   tau(  35) = (   0.0000000   0.6666667   0.5000000  )
        36           C   tau(  36) = (   0.0000000   0.6666667   0.8333333  )
        37           C   tau(  37) = (   0.3333333   0.0000000   0.1666667  )
        38           C   tau(  38) = (   0.3333333   0.0000000   0.5000000  )
        39           C   tau(  39) = (   0.3333333   0.0000000   0.8333333  )
        40           C   tau(  40) = (   0.3333333   0.3333333   0.1666667  )
        41           C   tau(  41) = (   0.3333333   0.3333333   0.5000000  )
        42           C   tau(  42) = (   0.3333333   0.3333333   0.8333333  )
        43           C   tau(  43) = (   0.3333333   0.6666667   0.1666667  )
        44           C   tau(  44) = (   0.3333333   0.6666667   0.5000000  )
        45           C   tau(  45) = (   0.3333333   0.6666667   0.8333333  )
        46           C   tau(  46) = (   0.6666667   0.0000000   0.1666667  )
        47           C   tau(  47) = (   0.6666667   0.0000000   0.5000000  )
        48           C   tau(  48) = (   0.6666667   0.0000000   0.8333333  )
        49           C   tau(  49) = (   0.6666667   0.3333333   0.1666667  )
        50           C   tau(  50) = (   0.6666667   0.3333333   0.5000000  )
        51           C   tau(  51) = (   0.6666667   0.3333333   0.8333333  )
        52           C   tau(  52) = (   0.6666667   0.6666667   0.1666667  )
        53           C   tau(  53) = (   0.6666667   0.6666667   0.5000000  )
        54           C   tau(  54) = (   0.6666667   0.6666667   0.8333333  )
        55           C   tau(  55) = (   0.0833353   0.0833353   0.2499980  )
        56           C   tau(  56) = (   0.0833353   0.0833353   0.5833313  )
        57           C   tau(  57) = (   0.0833353   0.0833353   0.9166647  )
        58           C   tau(  58) = (   0.0833353   0.4166687   0.2499980  )
        59           C   tau(  59) = (   0.0833353   0.4166687   0.5833313  )
        60           C   tau(  60) = (   0.0833353   0.4166687   0.9166647  )
[...]
       202           C   tau( 202) = (   0.5000000   0.5000000   0.1666667  )
       203           C   tau( 203) = (   0.5000000   0.5000000   0.5000000  )
       204           C   tau( 204) = (   0.5000000   0.5000000   0.8333333  )
       205           C   tau( 205) = (   0.5000000   0.8333333   0.1666667  )
       206           C   tau( 206) = (   0.5000000   0.8333333   0.5000000  )
       207           C   tau( 207) = (   0.5000000   0.8333333   0.8333333  )
       208           C   tau( 208) = (   0.8333333   0.1666667   0.1666667  )
       209           C   tau( 209) = (   0.8333333   0.1666667   0.5000000  )
       210           C   tau( 210) = (   0.8333333   0.1666667   0.8333333  )
       211           C   tau( 211) = (   0.8333333   0.5000000   0.1666667  )
[...]
     atom   25 type  1   force =     0.00000000    0.00000000    0.00000000
     atom   26 type  1   force =     0.00000000    0.00000000    0.00000000
     atom   27 type  1   force =     0.00000000    0.00000000    0.00000000
     atom   28 type  1   force =     0.00000000    0.00000000    0.00000000
     atom   29 type  1   force =     0.00000000    0.00000000    0.00000000
     atom   30 type  1   force =     0.00000000    0.00000000    0.00000000
     atom   31 type  1   force =     0.00000000    0.00000000    0.00000000
     atom   32 type  1   force =     0.00000000    0.00000000    0.00000000
     atom   33 type  1   force =     0.00000000    0.00000000    0.00000000
     atom   34 type  1   force =     0.00000000    0.00000000    0.00000000
     atom   35 type  1   force =     0.00000000    0.00000000    0.00000000
     atom   36 type  1   force =     0.00000000    0.00000000    0.00000000
     atom   37 type  1   force =     0.00000000    0.00000000    0.00000000
     atom   38 type  1   force =     0.00000000    0.00000000    0.00000000
     atom   39 type  1   force =     0.00000000    0.00000000    0.00000000
     atom   40 type  1   force =     0.00000000    0.00000000    0.00000000
     atom   41 type  1   force =     0.00000000    0.00000000    0.00000000
     atom   42 type  1   force =     0.00000000    0.00000000    0.00000000
     atom   43 type  1   force =     0.00000000    0.00000000    0.00000000
     atom   44 type  1   force =     0.00000000    0.00000000    0.00000000
     atom   45 type  1   force =     0.00000000    0.00000000    0.00000000
     atom   46 type  1   force =     0.00000000    0.00000000    0.00000000
     atom   47 type  1   force =     0.00000000    0.00000000    0.00000000
     atom   48 type  1   force =     0.00000000    0.00000000    0.00000000
     atom   49 type  1   force =     0.00000000    0.00000000    0.00000000
     atom   50 type  1   force =     0.00000000    0.00000000    0.00000000
     atom   51 type  1   force =     0.00000000    0.00000000    0.00000000
     atom   52 type  1   force =     0.00000000    0.00000000    0.00000000
     atom   53 type  1   force =     0.00000000    0.00000000    0.00000000
     atom   54 type  1   force =     0.00000000    0.00000000    0.00000000
     atom   55 type  1   force =     0.00000000    0.00000000    0.00000000
     atom   56 type  1   force =     0.00000000    0.00000000    0.00000000
     atom   57 type  1   force =     0.00000000    0.00000000    0.00000000
     atom   58 type  1   force =     0.00000000    0.00000000    0.00000000
     atom   59 type  1   force =     0.00000000    0.00000000    0.00000000
     atom   60 type  1   force =     0.00000000    0.00000000    0.00000000
[...]
     atom  202 type  1   force =     0.00000000    0.00000000    0.00000000
     atom  203 type  1   force =     0.00000000    0.00000000    0.00000000
     atom  204 type  1   force =     0.00000000    0.00000000    0.00000000
     atom  205 type  1   force =     0.00000000    0.00000000    0.00000000
     atom  206 type  1   force =     0.00000000    0.00000000    0.00000000
     atom  207 type  1   force =     0.00000000    0.00000000    0.00000000
     atom  208 type  1   force =     0.00000000    0.00000000    0.00000000
     atom  209 type  1   force =     0.00000000    0.00000000    0.00000000
     atom  210 type  1   force =     0.00000000    0.00000000    0.00000000
     atom  211 type  1   force =     0.00000000    0.00000000    0.00000000
     atom  212 type  1   force =     0.00000000    0.00000000    0.00000000
     atom  213 type  1   force =     0.00000000    0.00000000    0.00000000
     atom  214 type  1   force =     0.00000000    0.00000000    0.00000000
     atom  215 type  1   force =     0.00000000    0.00000000    0.00000000
     atom  216 type  1   force =     0.00000000    0.00000000    0.00000000
     The SCF correction term to forces
     atom    1 type  1   force =    -0.00000596   -0.00006928   -0.00000596
     atom    2 type  1   force =     0.00000845   -0.00002571   -0.00002754
     atom    3 type  1   force =     0.00000007   -0.00004638    0.00004638
     atom    4 type  1   force =     0.00000300    0.00004061    0.00000300
     atom    5 type  1   force =     0.00002129    0.00001424   -0.00001424
     atom    6 type  1   force =     0.00000845    0.00002754    0.00002571
     atom    7 type  1   force =    -0.00002224    0.00002224   -0.00002224
     atom    8 type  1   force =     0.00000300   -0.00000300   -0.00004061
     atom    9 type  1   force =    -0.00000596    0.00000596    0.00006928
     atom   10 type  1   force =    -0.00002754   -0.00002571    0.00000845
     atom   11 type  1   force =    -0.00000354    0.00001160   -0.00000354
     atom   12 type  1   force =    -0.00001888   -0.00000930    0.00000930
     atom   13 type  1   force =    -0.00001424    0.00001424    0.00002129
     atom   14 type  1   force =     0.00001083   -0.00001083    0.00001083
     atom   15 type  1   force =    -0.00000354    0.00000354   -0.00001160
     atom   16 type  1   force =    -0.00004061   -0.00000300    0.00000300
     atom   17 type  1   force =    -0.00001424   -0.00002129   -0.00001424
     atom   18 type  1   force =    -0.00002754   -0.00000845    0.00002571
     atom   19 type  1   force =     0.00004638   -0.00004638    0.00000007
     atom   20 type  1   force =     0.00000930   -0.00000930   -0.00001888
     atom   21 type  1   force =     0.00002969   -0.00002969    0.00002969
     atom   22 type  1   force =     0.00002571    0.00002754    0.00000845
     atom   23 type  1   force =    -0.00001160    0.00000354   -0.00000354
     atom   24 type  1   force =     0.00000930    0.00001888    0.00000930
     atom   25 type  1   force =     0.00006928    0.00000596   -0.00000596
     atom   26 type  1   force =     0.00002571   -0.00000845   -0.00002754
     atom   27 type  1   force =     0.00004638   -0.00000007    0.00004638
     atom   28 type  1   force =    -0.00000000   -0.00000000   -0.00005722
     atom   29 type  1   force =     0.00000000    0.00000000   -0.00000000
     atom   30 type  1   force =     0.00000000    0.00000000    0.00005722
     atom   31 type  1   force =    -0.00000223   -0.00006095   -0.00001852
     atom   32 type  1   force =     0.00000000   -0.00002507   -0.00000000
     atom   33 type  1   force =     0.00000223   -0.00006095    0.00001852
     atom   34 type  1   force =     0.00000223    0.00006095   -0.00001852
     atom   35 type  1   force =    -0.00000000    0.00002507   -0.00000000
     atom   36 type  1   force =    -0.00000223    0.00006095    0.00001852
     atom   37 type  1   force =    -0.00006095   -0.00000223   -0.00001852
     atom   38 type  1   force =    -0.00002507    0.00000000   -0.00000000
     atom   39 type  1   force =    -0.00006095    0.00000223    0.00001852
     atom   40 type  1   force =    -0.00002608   -0.00002608    0.00000670
     atom   41 type  1   force =     0.00000356    0.00000356   -0.00000405
     atom   42 type  1   force =    -0.00003003   -0.00003003   -0.00000615
     atom   43 type  1   force =    -0.00003003    0.00003003    0.00000615
     atom   44 type  1   force =     0.00000356   -0.00000356    0.00000405
     atom   45 type  1   force =    -0.00002608    0.00002608   -0.00000670
     atom   46 type  1   force =     0.00006095    0.00000223   -0.00001852
     atom   47 type  1   force =     0.00002507   -0.00000000   -0.00000000
     atom   48 type  1   force =     0.00006095   -0.00000223    0.00001852
     atom   49 type  1   force =     0.00003003   -0.00003003    0.00000615
     atom   50 type  1   force =    -0.00000356    0.00000356    0.00000405
     atom   51 type  1   force =     0.00002608   -0.00002608   -0.00000670
     atom   52 type  1   force =     0.00002608    0.00002608    0.00000670
     atom   53 type  1   force =    -0.00000356   -0.00000356   -0.00000405
     atom   54 type  1   force =     0.00003003    0.00003003   -0.00000615
     atom   55 type  1   force =    -0.00000596   -0.00000596   -0.00006928
     atom   56 type  1   force =     0.00000300    0.00000300    0.00004061
     atom   57 type  1   force =    -0.00002224   -0.00002224    0.00002224
     atom   58 type  1   force =     0.00000845   -0.00002754   -0.00002571
     atom   59 type  1   force =     0.00002129   -0.00001424    0.00001424
     atom   60 type  1   force =     0.00000300   -0.00004061   -0.00000300
[...]
     atom  202 type  1   force =    -0.00000000   -0.00000000    0.00002774
     atom  203 type  1   force =     0.00000000    0.00000000    0.00000000
     atom  204 type  1   force =     0.00000000    0.00000000   -0.00002774
     atom  205 type  1   force =    -0.00000280    0.00000075   -0.00000075
     atom  206 type  1   force =     0.00000000   -0.00002774    0.00000000
     atom  207 type  1   force =     0.00000280    0.00000075    0.00000075
     atom  208 type  1   force =     0.00002897   -0.00002897   -0.00002897
     atom  209 type  1   force =     0.00000075   -0.00000075   -0.00000280
     atom  210 type  1   force =     0.00003332   -0.00003332    0.00003332
     atom  211 type  1   force =     0.00000075   -0.00000280   -0.00000075
     atom  212 type  1   force =    -0.00002774    0.00000000    0.00000000
     atom  213 type  1   force =     0.00000075    0.00000280    0.00000075
     atom  214 type  1   force =     0.00003332    0.00003332   -0.00003332
     atom  215 type  1   force =     0.00000075    0.00000075    0.00000280
     atom  216 type  1   force =     0.00002897    0.00002897    0.00002897

     Total force =     0.012852     Total SCF correction =     0.000628

     Computing stress (Cartesian axis) and pressure

[...]

          total   stress  (Ry/bohr**3)                   (kbar)     P=       -0.31
  -0.00000209   0.00000000   0.00000000           -0.31        0.00        0.00
   0.00000000  -0.00000209   0.00000000            0.00       -0.31        0.00
   0.00000000   0.00000000  -0.00000209            0.00        0.00       -0.31

     kinetic stress (kbar)  18998.41      0.00      0.00
                                0.00  18998.41      0.00
                                0.00      0.00  18998.41

     local   stress (kbar)  -3483.68     -0.00     -0.00
                               -0.00  -3483.68     -0.00
                               -0.00     -0.00  -3483.68

     nonloc. stress (kbar)   4322.85      0.00      0.00
                                0.00   4322.85      0.00
                                0.00      0.00   4322.85

     hartree stress (kbar)   1266.97      0.00      0.00
                                0.00   1266.97      0.00
                                0.00      0.00   1266.97

     exc-cor stress (kbar)   -414.43      0.00      0.00
                                0.00   -414.43      0.00
                                0.00      0.00   -414.43

     corecor stress (kbar)  -4435.10     -0.00     -0.00
                               -0.00  -4435.10     -0.00
                               -0.00     -0.00  -4435.10

     ewald   stress (kbar) -16280.15      0.00      0.00
                                0.00 -16280.15      0.00
                                0.00      0.00 -16280.15

     hubbard stress (kbar)      0.00      0.00      0.00
                                0.00      0.00      0.00
                                0.00      0.00      0.00

     DFT-D   stress (kbar)      0.00      0.00      0.00
                                0.00      0.00      0.00
                                0.00      0.00      0.00

     XDM     stress (kbar)      0.00      0.00      0.00
                                0.00      0.00      0.00
                                0.00      0.00      0.00

     dft-nl  stress (kbar)     24.81     -0.00     -0.00
                               -0.00     24.81     -0.00
                               -0.00     -0.00     24.81

     TS-vdW  stress (kbar)      0.00      0.00      0.00
                                0.00      0.00      0.00
                                0.00      0.00      0.00

     MDB     stress (kbar)      0.00      0.00      0.00
                                0.00      0.00      0.00
                                0.00      0.00      0.00

     3D-RISM stress (kbar)      0.00      0.00      0.00
                                0.00      0.00      0.00
                                0.00      0.00      0.00

[...]

     Non-local corr. energy    =       7.38315585 Ry

 BEEFens 2000 ensemble energies
             -0.130695377728138E+02
             -0.910593223335477E+02
             -0.323248937932352E+02
              0.357464612580261E+02
             -0.602261485718358E+02
             -0.842513300490470E+02
              0.498705053244475E+02
             -0.103330964073292E+02
              0.692170698487895E+02
             -0.114592404244053E+01
              0.281432060302051E+02
              0.141587359328784E+01
              0.389241589432066E+01
             -0.820341642947028E+01
              0.468617612258611E+02
             -0.350383239236438E+02
             -0.803956817809956E+02
             -0.222882557873109E+02
              0.181648889969173E+02
              0.195547474574516E+01
              0.962121950193375E+02
              0.872528193203682E+02
             -0.428791760734456E+02
              0.240668448566186E+02
             -0.109313231720331E+03
              0.880370413280406E+02
              0.315063446347308E+02
              0.926811748509938E+02
              0.584712737915069E+02
             -0.365197392479279E+02
              0.228079153069317E+02
             -0.474435836225291E+02
              0.141339273293205E+01
              0.466409489348267E+02
              0.601764115254716E+02
             -0.148278060317382E+02
              0.129729887227933E+03
             -0.454225110990433E+02
             -0.328494825950040E+02
              0.502769260959388E+02
              0.173268445929824E+02
              0.423125666523644E+02
             -0.739252950554003E+02
             -0.304042545810319E+01
              0.783501532683762E+02
              0.955750126206935E+02
             -0.866217830516122E+02
              0.716963103565191E+01
              0.341470132373027E+02
              0.797995008473782E+01
              0.417591770182032E+02
              0.837913229264036E+02
             -0.561393764736831E+02
             -0.590564374524042E+02
             -0.748660876552092E+02
             -0.206291270864054E+02
             -0.625181805291824E+02
              0.334025081640641E+01
             -0.166158358629211E+02
             -0.567013529816881E+02
[...]
              0.735364793697782E+02
              0.300855807116285E+02
              0.512725075802235E+02
             -0.734136136129400E+02
             -0.572203008578563E+02
             -0.232788618787148E+02
             -0.629243686667926E+02
              0.113395905526413E+03
              0.972626769551195E+02
              0.422738479802735E+02
              0.114679408715065E+03
             -0.615177381825447E+02
             -0.295855962572183E+02
             -0.305456231878987E+02
              0.904846087713033E+02

 BEEF-vdW xc energy contributions
            1 :    -884.4063725924291
            2 :     780.3822126703275
            3 :    -600.9886657362704
            4 :     392.7251504829045
            5 :    -203.0746160531951
            6 :     64.82024916104729
            7 :     12.17425594597944
            8 :    -39.20010222169867
            9 :     39.06662278991348
           10 :    -33.93209441935937
           11 :     36.33671854518593
           12 :    -46.82143415664927
           13 :     57.86580316227924
           14 :    -60.88365000497538
           15 :     52.09013809243606
           16 :    -34.39116610821407
           17 :     15.04263745398316
           18 :    -1.143925925745634
           19 :    -4.128286323654834
           20 :     2.519080296142874
           21 :     1.223946359111778
           22 :    -2.650609854730305
           23 :    0.1765004277721118
           24 :     4.471903490372029
           25 :    -7.892654633417351
           26 :     7.456366893494760
           27 :    -2.975629563799771
           28 :    -3.332137295710822
           29 :     8.373528906312572
           30 :    -10.09938029981095
           31 :    -115.6979869612305
           32 :    -83.96326195105235

     Writing all to output data dir ./diamond.save/

     General routines

     Parallel routines

     PAW routines

   This run was terminated on:  16:13:55  19Feb2024

   JOB DONE.