     Program PWSCF v.7.1 starts on 18Feb2024 at  8:30:38

     Reading input from espresso.pwi
Warning: card &CELL ignored
Warning: card    CELL_DYNAMICS    = 'BFGS' ignored
Warning: card / ignored

     Current dimensions of program PWSCF are:
     Max number of different atomic species (ntypx) = 10
     Max number of k-points (npk) =  40000
     Max angular momentum in pseudopotentials (lmaxx) =  4
     file Ga.pbe-dn-kjpaw_psl.1.0.0.UPF: wavefunction(s)  4S renormalized
     file N.pbe-n-kjpaw_psl.1.0.0.UPF: wavefunction(s)  2S renormalized

     IMPORTANT: XC functional enforced from input :
     Exchange-correlation= BEEF-VDW
                           (   1   4  43  14   2   0   0)
     Any further DFT definition will be discarded
     Please, verify this is what you really want

     K-points division:     npool     =       4
     R & G space division:  proc/nbgrp/npool/nimage =      32
     Subspace diagonalization in iterative solution of the eigenvalue problem:
     a serial algorithm will be used

     Using Slab Decomposition

     bravais-lattice index     =            4
     lattice parameter (alat)  =      18.3939  a.u.
     unit-cell volume          =    5856.2271 (a.u.)^3
     number of atoms/cell      =           72
     number of atomic types    =            2
     number of electrons       =       654.00
     number of Kohn-Sham states=          392
     kinetic-energy cutoff     =      70.0000  Ry
     charge density cutoff     =     350.0000  Ry
     scf convergence threshold =      1.0E-07
     mixing beta               =       0.7000
     number of iterations used =            8  plain     mixing
     Exchange-correlation= BEEF-VDW
                           (   1   4  43  14   2   0   0)

     celldm(1)=  18.393924  celldm(2)=   0.000000  celldm(3)=   1.086586
     celldm(4)=   0.000000  celldm(5)=   0.000000  celldm(6)=   0.000000

     crystal axes: (cart. coord. in units of alat)
               a(1) = (   1.000000   0.000000   0.000000 )
               a(2) = (  -0.500000   0.866025   0.000000 )
               a(3) = (   0.000000   0.000000   1.086586 )

     reciprocal axes: (cart. coord. in units 2 pi/alat)
               b(1) = (  1.000000  0.577350 -0.000000 )
               b(2) = (  0.000000  1.154701  0.000000 )
               b(3) = (  0.000000 -0.000000  0.920314 )

     PseudoPot. # 1 for Ga read from file:
     /trace/group/acmegroup/atimmins/packages/espresso/pseudo/psl_1.0.0/pslibrary.1.0.0/pbe/PSEUDOPOTENTIALS/Ga.pbe-dn-kjpaw_psl.1.0.0.UPF
     MD5 check sum: cd2a01e492f15b435d17032472d8505c
     Pseudo is Projector augmented-wave + core cor, Zval = 13.0
     Generated using 'atomic' code by A. Dal Corso  v.7.1
     Shape of augmentation charge: PSQ
     Using radial grid of 1205 points,  6 beta functions with:
                l(1) =   0
                l(2) =   0
                l(3) =   1
                l(4) =   1
                l(5) =   2
                l(6) =   2
     Q(r) pseudized with 0 coefficients

     PseudoPot. # 2 for N  read from file:
     /trace/group/acmegroup/atimmins/packages/espresso/pseudo/psl_1.0.0/pslibrary.1.0.0/pbe/PSEUDOPOTENTIALS/N.pbe-n-kjpaw_psl.1.0.0.UPF
     MD5 check sum: f77f775694dac7e2c3fe1c82443d1a16
     Pseudo is Projector augmented-wave + core cor, Zval =  5.0
     Generated using 'atomic' code by A. Dal Corso  v.7.1
     Shape of augmentation charge: PSQ
     Using radial grid of 1085 points,  4 beta functions with:
                l(1) =   0
                l(2) =   0
                l(3) =   1
                l(4) =   1
     Q(r) pseudized with 0 coefficients

     atomic species   valence    mass     pseudopotential
        Ga            13.00    69.72300     Ga( 1.00)
        N              5.00    14.00700     N ( 1.00)

      6 Sym. Ops. (no inversion) found ( 4 have fractional translation)

                                    s                        frac. trans.

      isym =  1     identity

 cryst.   s( 1) = (     1          0          0      )
                  (     0          1          0      )
                  (     0          0          1      )

 cart.    s( 1) = (  1.0000000  0.0000000  0.0000000 )
                  (  0.0000000  1.0000000  0.0000000 )
                  (  0.0000000  0.0000000  1.0000000 )

      isym =  2     120 deg rotation - cryst. axis [0,0,1]

 cryst.   s( 2) = (     0          1          0      )    f =( -0.3333334 )
                  (    -1         -1          0      )       (  0.0000003 )
                  (     0          0          1      )       (  0.0000000 )

 cart.    s( 2) = ( -0.5000000 -0.8660254  0.0000000 )    f =( -0.3333335 )
                  (  0.8660254 -0.5000000  0.0000000 )       (  0.0000002 )
                  (  0.0000000  0.0000000  1.0000000 )       (  0.0000000 )

      isym =  3     120 deg rotation - cryst. axis [0,0,-1]

[...]

      isym =  4     inv. 180 deg rotation - cart. axis [1,0,0]

[...]

      isym =  5     inv. 180 deg rotation - cryst. axis [0,1,0]

 cryst.   s( 5) = (     1          1          0      )
                  (     0         -1          0      )
                  (     0          0          1      )

 cart.    s( 5) = (  0.5000000  0.8660254  0.0000000 )
                  (  0.8660254 -0.5000000  0.0000000 )
                  (  0.0000000  0.0000000  1.0000000 )

      isym =  6     inv. 180 deg rotation - cryst. axis [1,1,0]

 cryst.   s( 6) = (     0         -1          0      )    f =( -0.3333334 )
                  (    -1          0          0      )       ( -0.3333334 )
                  (     0          0          1      )       (  0.0000000 )

 cart.    s( 6) = (  0.5000000 -0.8660254  0.0000000 )    f =( -0.1666667 )
                  ( -0.8660254 -0.5000000  0.0000000 )       ( -0.2886752 )
                  (  0.0000000  0.0000000  1.0000000 )       (  0.0000000 )

     point group C_3v (3m)
     there are  3 classes
     the character table:

       E     2C3   3s_v
A_1    1.00  1.00  1.00
A_2    1.00  1.00 -1.00
E      2.00 -1.00  0.00

     the symmetry operations in each class and the name of the first element:

     E        1
          identity
     2C3      2    3
          120 deg rotation - cryst. axis [0,0,1]
     3s_v     4    5    6
          inv. 180 deg rotation - cart. axis [1,0,0]

   Cartesian axes

     site n.     atom                  positions (alat units)
         1           Ga  tau(   1) = (   0.1666668   0.0962250   0.2711914  )
         2           Ga  tau(   2) = (   0.1666668   0.0962250   0.8144844  )
         3           Ga  tau(   3) = (   0.0000001   0.3849001   0.2711914  )
         4           Ga  tau(   4) = (   0.0000001   0.3849001   0.8144844  )
         5           Ga  tau(   5) = (  -0.1666665   0.6735752   0.2711914  )
         6           Ga  tau(   6) = (  -0.1666665   0.6735752   0.8144844  )
         7           Ga  tau(   7) = (   0.5000001   0.0962250   0.2711914  )
         8           Ga  tau(   8) = (   0.5000001   0.0962250   0.8144844  )
         9           Ga  tau(   9) = (   0.3333335   0.3849001   0.2711914  )
        10           Ga  tau(  10) = (   0.3333335   0.3849001   0.8144844  )
        11           Ga  tau(  11) = (   0.1666668   0.6735752   0.2711914  )
        12           Ga  tau(  12) = (   0.1666668   0.6735752   0.8144844  )
        13           Ga  tau(  13) = (   0.8333335   0.0962250   0.2711914  )
        14           Ga  tau(  14) = (   0.8333335   0.0962250   0.8144844  )
        15           Ga  tau(  15) = (   0.6666668   0.3849001   0.2711914  )
        16           Ga  tau(  16) = (   0.6666668   0.3849001   0.8144844  )
        17           Ga  tau(  17) = (   0.5000001   0.6735752   0.2711914  )
        18           Ga  tau(  18) = (   0.5000001   0.6735752   0.8144844  )
        19           Ga  tau(  19) = (  -0.0000002   0.1924502   0.5428379  )
        20           Ga  tau(  20) = (  -0.0000002   0.1924502   1.0861309  )
        21           Ga  tau(  21) = (  -0.1666669   0.4811254   0.5428379  )
        22           Ga  tau(  22) = (  -0.1666669   0.4811254   1.0861309  )
        23           Ga  tau(  23) = (  -0.3333335   0.7698005   0.5428379  )
        24           Ga  tau(  24) = (  -0.3333335   0.7698005   1.0861309  )
        25           Ga  tau(  25) = (   0.3333331   0.1924502   0.5428379  )
        26           Ga  tau(  26) = (   0.3333331   0.1924502   1.0861309  )
        27           Ga  tau(  27) = (   0.1666665   0.4811254   0.5428379  )
        28           Ga  tau(  28) = (   0.1666665   0.4811254   1.0861309  )
        29           Ga  tau(  29) = (  -0.0000002   0.7698005   0.5428379  )
        30           Ga  tau(  30) = (  -0.0000002   0.7698005   1.0861309  )
        31           Ga  tau(  31) = (   0.6666665   0.1924502   0.5428379  )
        32           Ga  tau(  32) = (   0.6666665   0.1924502   1.0861309  )
        33           Ga  tau(  33) = (   0.4999998   0.4811254   0.5428379  )
        34           Ga  tau(  34) = (   0.4999998   0.4811254   1.0861309  )
        35           Ga  tau(  35) = (   0.3333331   0.7698005   0.5428379  )
        36           Ga  tau(  36) = (   0.3333331   0.7698005   1.0861309  )
        37           N   tau(  37) = (   0.1666668   0.0962250   1.0191295  )
        38           N   tau(  38) = (   0.0000001   0.3849001   0.4758365  )
        39           N   tau(  39) = (   0.0000001   0.3849001   1.0191295  )
        40           N   tau(  40) = (  -0.1666665   0.6735752   0.4758365  )
        41           N   tau(  41) = (  -0.1666665   0.6735752   1.0191295  )
        42           N   tau(  42) = (   0.5000001   0.0962250   0.4758365  )
        43           N   tau(  43) = (   0.5000001   0.0962250   1.0191295  )
        44           N   tau(  44) = (   0.3333335   0.3849001   0.4758365  )
        45           N   tau(  45) = (   0.3333335   0.3849001   1.0191295  )
        46           N   tau(  46) = (   0.1666668   0.6735752   0.4758365  )
        47           N   tau(  47) = (   0.1666668   0.6735752   1.0191295  )
        48           N   tau(  48) = (   0.8333335   0.0962250   0.4758365  )
        49           N   tau(  49) = (   0.8333335   0.0962250   1.0191295  )
        50           N   tau(  50) = (   0.6666668   0.3849001   0.4758365  )
        51           N   tau(  51) = (   0.6666668   0.3849001   1.0191295  )
        52           N   tau(  52) = (   0.5000001   0.6735752   0.4758365  )
        53           N   tau(  53) = (   0.5000001   0.6735752   1.0191295  )
        54           N   tau(  54) = (  -0.0000002   0.1924502   0.2041900  )
        55           N   tau(  55) = (  -0.0000002   0.1924502   0.7474830  )
        56           N   tau(  56) = (  -0.1666669   0.4811254   0.2041900  )
        57           N   tau(  57) = (  -0.1666669   0.4811254   0.7474830  )
        58           N   tau(  58) = (  -0.3333335   0.7698005   0.2041900  )
        59           N   tau(  59) = (  -0.3333335   0.7698005   0.7474830  )
        60           N   tau(  60) = (   0.3333331   0.1924502   0.2041900  )
        61           N   tau(  61) = (   0.3333331   0.1924502   0.7474830  )
[...]
     atom   19 type  1   force =     0.00000000    0.00000000    0.00000000
     atom   20 type  1   force =     0.00000000    0.00000000    0.00000000
     atom   21 type  1   force =     0.00000000    0.00000000    0.00000000
     atom   22 type  1   force =     0.00000000    0.00000000    0.00000000
     atom   23 type  1   force =     0.00000000    0.00000000    0.00000000
     atom   24 type  1   force =     0.00000000    0.00000000    0.00000000
     atom   25 type  1   force =     0.00000000    0.00000000    0.00000000
     atom   26 type  1   force =     0.00000000    0.00000000    0.00000000
     atom   27 type  1   force =     0.00000000    0.00000000    0.00000000
     atom   28 type  1   force =     0.00000000    0.00000000    0.00000000
     atom   29 type  1   force =     0.00000000    0.00000000    0.00000000
     atom   30 type  1   force =     0.00000000    0.00000000    0.00000000
     atom   31 type  1   force =     0.00000000    0.00000000    0.00000000
     atom   32 type  1   force =     0.00000000    0.00000000    0.00000000
     atom   33 type  1   force =     0.00000000    0.00000000    0.00000000
     atom   34 type  1   force =     0.00000000    0.00000000    0.00000000
     atom   35 type  1   force =     0.00000000    0.00000000    0.00000000
     atom   36 type  1   force =     0.00000000    0.00000000    0.00000000
     atom   37 type  2   force =     0.00000000    0.00000000    0.00000000
     atom   38 type  2   force =     0.00000000    0.00000000    0.00000000
     atom   39 type  2   force =     0.00000000    0.00000000    0.00000000
     atom   40 type  2   force =     0.00000000    0.00000000    0.00000000
     atom   41 type  2   force =     0.00000000    0.00000000    0.00000000
     atom   42 type  2   force =     0.00000000    0.00000000    0.00000000
     atom   43 type  2   force =     0.00000000    0.00000000    0.00000000
     atom   44 type  2   force =     0.00000000    0.00000000    0.00000000
     atom   45 type  2   force =     0.00000000    0.00000000    0.00000000
     atom   46 type  2   force =     0.00000000    0.00000000    0.00000000
     atom   47 type  2   force =     0.00000000    0.00000000    0.00000000
     atom   48 type  2   force =     0.00000000    0.00000000    0.00000000
     atom   49 type  2   force =     0.00000000    0.00000000    0.00000000
     atom   50 type  2   force =     0.00000000    0.00000000    0.00000000
     atom   51 type  2   force =     0.00000000    0.00000000    0.00000000
     atom   52 type  2   force =     0.00000000    0.00000000    0.00000000
     atom   53 type  2   force =     0.00000000    0.00000000    0.00000000
     atom   54 type  2   force =     0.00000000    0.00000000    0.00000000
     atom   55 type  2   force =     0.00000000    0.00000000    0.00000000
     atom   56 type  2   force =     0.00000000    0.00000000    0.00000000
     atom   57 type  2   force =     0.00000000    0.00000000    0.00000000
     atom   58 type  2   force =     0.00000000    0.00000000    0.00000000
     atom   59 type  2   force =     0.00000000    0.00000000    0.00000000
     atom   60 type  2   force =     0.00000000    0.00000000    0.00000000
     atom   61 type  2   force =     0.00000000    0.00000000    0.00000000
     atom   62 type  2   force =     0.00000000    0.00000000    0.00000000
     atom   63 type  2   force =     0.00000000    0.00000000    0.00000000
     atom   64 type  2   force =     0.00000000    0.00000000    0.00000000
     atom   65 type  2   force =     0.00000000    0.00000000    0.00000000
     atom   66 type  2   force =     0.00000000    0.00000000    0.00000000
     atom   67 type  2   force =     0.00000000    0.00000000    0.00000000
     atom   68 type  2   force =     0.00000000    0.00000000    0.00000000
     atom   69 type  2   force =     0.00000000    0.00000000    0.00000000
     atom   70 type  2   force =     0.00000000    0.00000000    0.00000000
     atom   71 type  2   force =     0.00000000    0.00000000    0.00000000
     atom   72 type  1   force =     0.00000000    0.00000000    0.00000000
     The SCF correction term to forces
     atom    1 type  1   force =    -0.00000000    0.00000000   -0.00011074
     atom    2 type  1   force =    -0.00000000    0.00000000    0.00006731
     atom    3 type  1   force =     0.00000204    0.00000767   -0.00004689
     atom    4 type  1   force =     0.00000917   -0.00001018    0.00003177
     atom    5 type  1   force =     0.00000766   -0.00000207   -0.00004689
     atom    6 type  1   force =    -0.00000423    0.00001303    0.00003177
     atom    7 type  1   force =     0.00000562   -0.00000560   -0.00004689
     atom    8 type  1   force =    -0.00001340   -0.00000285    0.00003177
     atom    9 type  1   force =    -0.00000204    0.00000767   -0.00004689
     atom   10 type  1   force =    -0.00000917   -0.00001018    0.00003177
     atom   11 type  1   force =    -0.00000000    0.00000000   -0.00003402
     atom   12 type  1   force =    -0.00000000    0.00000000    0.00002886
     atom   13 type  1   force =    -0.00000562   -0.00000560   -0.00004689
     atom   14 type  1   force =     0.00001340   -0.00000285    0.00003177
     atom   15 type  1   force =    -0.00000000    0.00000000   -0.00005877
     atom   16 type  1   force =    -0.00000000    0.00000000    0.00005664
     atom   17 type  1   force =    -0.00000766   -0.00000207   -0.00004689
     atom   18 type  1   force =     0.00000423    0.00001303    0.00003177
     atom   19 type  1   force =    -0.00005026    0.00002902    0.00003456
     atom   20 type  1   force =     0.00000504   -0.00000291    0.00000576
     atom   21 type  1   force =     0.00001994    0.00001151   -0.00001195
     atom   22 type  1   force =    -0.00001583   -0.00000914    0.00000074
     atom   23 type  1   force =     0.00000000   -0.00005804    0.00003456
     atom   24 type  1   force =     0.00000000    0.00000581    0.00000576
     atom   25 type  1   force =     0.00005027    0.00002902    0.00003456
     atom   26 type  1   force =    -0.00000503   -0.00000291    0.00000576
     atom   27 type  1   force =     0.00000000    0.00000472   -0.00000388
     atom   28 type  1   force =     0.00000000   -0.00000719    0.00000625
     atom   29 type  1   force =     0.00000409   -0.00000236   -0.00000388
     atom   30 type  1   force =    -0.00000622    0.00000359    0.00000625
     atom   31 type  1   force =     0.00000000   -0.00002302   -0.00001195
     atom   32 type  1   force =     0.00000000    0.00001828    0.00000074
     atom   33 type  1   force =    -0.00001993    0.00001151   -0.00001195
     atom   34 type  1   force =     0.00001584   -0.00000914    0.00000074
     atom   35 type  1   force =    -0.00000408   -0.00000236   -0.00000388
     atom   36 type  1   force =     0.00000623    0.00000359    0.00000625
     atom   37 type  2   force =    -0.00000000    0.00000000   -0.00000734
     atom   38 type  2   force =     0.00000052    0.00001173   -0.00001429
     atom   39 type  2   force =    -0.00000228   -0.00000050    0.00001036
     atom   40 type  2   force =     0.00001042   -0.00000542   -0.00001429
     atom   41 type  2   force =    -0.00000157   -0.00000173    0.00001036
     atom   42 type  2   force =     0.00000990   -0.00000632   -0.00001429
     atom   43 type  2   force =     0.00000071    0.00000223    0.00001036
     atom   44 type  2   force =    -0.00000052    0.00001173   -0.00001429
     atom   45 type  2   force =     0.00000228   -0.00000050    0.00001036
     atom   46 type  2   force =    -0.00000000    0.00000000   -0.00000830
     atom   47 type  2   force =    -0.00000000    0.00000000   -0.00000137
     atom   48 type  2   force =    -0.00000990   -0.00000632   -0.00001429
     atom   49 type  2   force =    -0.00000071    0.00000223    0.00001036
     atom   50 type  2   force =    -0.00000000    0.00000000   -0.00001014
     atom   51 type  2   force =    -0.00000000    0.00000000    0.00000878
     atom   52 type  2   force =    -0.00001042   -0.00000542   -0.00001429
     atom   53 type  2   force =     0.00000157   -0.00000173    0.00001036
     atom   54 type  2   force =    -0.00001044    0.00000603   -0.00002129
     atom   55 type  2   force =     0.00000630   -0.00000364    0.00002962
     atom   56 type  2   force =    -0.00000049   -0.00000028   -0.00001736
     atom   57 type  2   force =    -0.00000118   -0.00000068    0.00002127
     atom   58 type  2   force =     0.00000000   -0.00001206   -0.00002129
     atom   59 type  2   force =     0.00000000    0.00000727    0.00002962
     atom   60 type  2   force =     0.00001045    0.00000603   -0.00002129
     atom   61 type  2   force =    -0.00000630   -0.00000364    0.00002962
     atom   62 type  2   force =     0.00000000   -0.00000497   -0.00001053
     atom   63 type  2   force =     0.00000000   -0.00000247    0.00001720
     atom   64 type  2   force =    -0.00000430    0.00000248   -0.00001053
     atom   65 type  2   force =    -0.00000214    0.00000124    0.00001720
     atom   66 type  2   force =     0.00000000    0.00000056   -0.00001736
     atom   67 type  2   force =     0.00000000    0.00000136    0.00002127
     atom   68 type  2   force =     0.00000049   -0.00000028   -0.00001736
     atom   69 type  2   force =     0.00000118   -0.00000068    0.00002127
     atom   70 type  2   force =     0.00000430    0.00000248   -0.00001053
     atom   71 type  2   force =     0.00000214    0.00000124    0.00001720
     atom   72 type  1   force =    -0.00000000    0.00000000   -0.00002268

     Total force =     0.002310     Total SCF correction =     0.000274
     SCF correction compared to forces is large: reduce conv_thr to get better values

     Computing stress (Cartesian axis) and pressure

[...]

          total   stress  (Ry/bohr**3)                   (kbar)     P=      -16.93
  -0.00012354  -0.00000000   0.00000000          -18.17       -0.00        0.00
   0.00000000  -0.00012354   0.00000000            0.00      -18.17        0.00
   0.00000000  -0.00000000  -0.00009816            0.00       -0.00      -14.44

     kinetic stress (kbar)  18472.56     -0.00      0.00
                                0.00  18472.56     -0.00
                                0.00     -0.00  18471.42

     local   stress (kbar)   5876.51     -0.07     -0.00
                               -0.07   5876.41      0.00
                               -0.00      0.00   3987.38

     nonloc. stress (kbar)    151.78     -0.00      0.00
                                0.00    151.78     -0.00
                                0.00     -0.00    157.28

     hartree stress (kbar)  19992.11     -0.00     -0.00
                               -0.00  19992.11      0.00
                               -0.00      0.00  20829.89

     exc-cor stress (kbar)   5430.69      0.00      0.00
                                0.00   5430.69      0.00
                                0.00      0.00   5431.28

     corecor stress (kbar) -14467.57     -0.00      0.00
                               -0.00 -14467.57      0.00
                                0.00      0.00 -14467.18

     ewald   stress (kbar) -35639.73      0.10      0.00
                                0.10 -35639.61     -0.00
                                0.00     -0.00 -34589.04

     hubbard stress (kbar)      0.00      0.00      0.00
                                0.00      0.00      0.00
                                0.00      0.00      0.00

     DFT-D   stress (kbar)      0.00      0.00      0.00
                                0.00      0.00      0.00
                                0.00      0.00      0.00

     XDM     stress (kbar)      0.00      0.00      0.00
                                0.00      0.00      0.00
                                0.00      0.00      0.00

     dft-nl  stress (kbar)    165.46     -0.00     -0.00
                               -0.00    165.46     -0.00
                               -0.00     -0.00    164.51

     TS-vdW  stress (kbar)      0.00      0.00      0.00
                                0.00      0.00      0.00
                                0.00      0.00      0.00

     MDB     stress (kbar)      0.00      0.00      0.00
                                0.00      0.00      0.00
                                0.00      0.00      0.00

     3D-RISM stress (kbar)      0.00      0.00      0.00
                                0.00      0.00      0.00
                                0.00      0.00      0.00

[...]

     Non-local corr. energy    =      19.99676065 Ry

 BEEFens 2000 ensemble energies
             -0.161264260459305E+02
             -0.145699128652738E+03
             -0.627670547179501E+02
              0.512469828800502E+02
             -0.104926705381687E+03
             -0.134845920752793E+03
              0.691664370954077E+02
             -0.721671255276215E+01
              0.115475599600309E+03
             -0.500792599890849E+01
              0.567997068108143E+02
              0.237443202857443E+01
              0.221004255718270E+01
             -0.493385972121200E+01
              0.755287542673672E+02
             -0.550056667419124E+02
             -0.113217440357272E+03
             -0.369933992734070E+02
              0.277068345563246E+02
             -0.253338368690174E+01
              0.165601314917934E+03
              0.140766559239638E+03
             -0.807748135594791E+02
              0.291014387715343E+02
             -0.176806726769004E+03
              0.141776161568758E+03
              0.462798408464284E+02
              0.137636876865270E+03
              0.904688268176926E+02
             -0.439082294010977E+02
              0.333289769855202E+02
             -0.649542718425492E+02
              0.183632967348307E+02
              0.887183307099421E+02
              0.939298115452331E+02
             -0.340050841399004E+02
              0.208677861094139E+03
             -0.793363773751553E+02
             -0.570272891925566E+02
              0.836765662882018E+02
              0.374609106124159E+02
              0.625896089100748E+02
             -0.119354043296030E+03
             -0.334456764060474E+01
              0.117058822435910E+03
              0.152189474488089E+03
             -0.151603989117049E+03
              0.107599948384485E+02
              0.570795404086224E+02
              0.280317315266714E+02
              0.632761077453776E+02
              0.134141106244284E+03
             -0.810778737377717E+02
             -0.889526865091671E+02
             -0.115625147339867E+03
             -0.177558198545314E+02
             -0.105481797005168E+03
              0.103827251851949E+02
             -0.193906316455540E+02
             -0.821141247624817E+02
[...]
              0.102430649807366E+03
              0.567488944966763E+02
              0.718681851327974E+02
             -0.116345021581516E+03
             -0.111637878841090E+03
             -0.280851325746271E+02
             -0.109267619826505E+03
              0.174726681830669E+03
              0.149725839059388E+03
              0.715854727166320E+02
              0.193936281500535E+03
             -0.100860310321428E+03
             -0.410405865881921E+02
             -0.572828451250550E+02
              0.160509432466231E+03

 BEEF-vdW xc energy contributions
            1 :    -1469.736449360563
            2 :     1324.147974429670
            3 :    -1080.250824858503
            4 :     809.4705178902109
            5 :    -574.6586334193553
            6 :     406.1668935773741
            7 :    -298.4256935323569
            8 :     225.4633437988848
            9 :    -162.8840073788776
           10 :     102.0268906313083
           11 :    -49.50448699243407
           12 :     16.01798258732174
           13 :    -4.719243859544349
           14 :     7.719859093282139
           15 :    -11.94790954466498
           16 :     8.465634796022186
           17 :     2.361398225057201
           18 :    -13.27644524186167
           19 :     17.34189324108615
           20 :    -13.82408496510834
           21 :     8.358381604264650
           22 :    -7.915757943603694
           23 :     15.08221286421417
           24 :    -26.24498493973510
           25 :     34.77799558277866
           26 :    -36.29767496366185
           27 :     31.70157138946206
           28 :    -25.82529323691733
           29 :     23.18584775885074
           30 :    -24.43886414767417
           31 :    -125.4432206076156
           32 :    -85.97655278332309

     Writing all to output data dir ./GaN.save/

     General routines

     Parallel routines

     PAW routines

   This run was terminated on:   8:32:28  18Feb2024

   JOB DONE.