     Program PWSCF v.7.1 starts on 27Sep2023 at 11: 9:44

     Reading input from espresso.pwi
Warning: card &CELL ignored
Warning: card    CELL_DYNAMICS    = 'BFGS' ignored
Warning: card / ignored

     Current dimensions of program PWSCF are:
     Max number of different atomic species (ntypx) = 10
     Max number of k-points (npk) =  40000
     Max angular momentum in pseudopotentials (lmaxx) =  4
     file Ga.pbe-dn-kjpaw_psl.1.0.0.UPF: wavefunction(s)  4S renormalized
     file N.pbe-n-kjpaw_psl.1.0.0.UPF: wavefunction(s)  2S renormalized

     IMPORTANT: XC functional enforced from input :
     Exchange-correlation= BEEF-VDW
                           (   1   4  43  14   2   0   0)
     Any further DFT definition will be discarded
     Please, verify this is what you really want

     K-points division:     npool     =       4
     R & G space division:  proc/nbgrp/npool/nimage =      32
     Subspace diagonalization in iterative solution of the eigenvalue problem:
     a serial algorithm will be used

     Using Slab Decomposition

     bravais-lattice index     =            4
     lattice parameter (alat)  =      18.3939  a.u.
     unit-cell volume          =    5856.2271 (a.u.)^3
     number of atoms/cell      =           72
     number of atomic types    =            2
     number of electrons       =       654.00
     number of Kohn-Sham states=          392
     kinetic-energy cutoff     =      70.0000  Ry
     charge density cutoff     =     350.0000  Ry
     scf convergence threshold =      1.0E-09
     mixing beta               =       0.7000
     number of iterations used =            8  plain     mixing
     energy convergence thresh.=      1.0E-04
     force convergence thresh. =      1.0E-03
     Exchange-correlation= BEEF-VDW
                           (   1   4  43  14   2   0   0)
     nstep                     =           50

     celldm(1)=  18.393924  celldm(2)=   0.000000  celldm(3)=   1.086586
     celldm(4)=   0.000000  celldm(5)=   0.000000  celldm(6)=   0.000000

     crystal axes: (cart. coord. in units of alat)
               a(1) = (   1.000000   0.000000   0.000000 )
               a(2) = (  -0.500000   0.866025   0.000000 )
               a(3) = (   0.000000   0.000000   1.086586 )

     reciprocal axes: (cart. coord. in units 2 pi/alat)
               b(1) = (  1.000000  0.577350 -0.000000 )
               b(2) = (  0.000000  1.154701  0.000000 )
               b(3) = (  0.000000 -0.000000  0.920314 )

     PseudoPot. # 1 for Ga read from file:
     //group///packages/espresso/pseudo/psl_1.0.0/pslibrary.1.0.0/pbe/PSEUDOPOTENTIALS/Ga.pbe-dn-kjpaw_psl.1.0.0.UPF
     MD5 check sum: cd2a01e492f15b435d17032472d8505c
     Pseudo is Projector augmented-wave + core cor, Zval = 13.0
     Generated using 'atomic' code by A. Dal Corso  v.7.1
     Shape of augmentation charge: PSQ
     Using radial grid of 1205 points,  6 beta functions with:
                l(1) =   0
                l(2) =   0
                l(3) =   1
                l(4) =   1
                l(5) =   2
                l(6) =   2
     Q(r) pseudized with 0 coefficients

     PseudoPot. # 2 for N  read from file:
     //group///packages/espresso/pseudo/psl_1.0.0/pslibrary.1.0.0/pbe/PSEUDOPOTENTIALS/N.pbe-n-kjpaw_psl.1.0.0.UPF
     MD5 check sum: f77f775694dac7e2c3fe1c82443d1a16
     Pseudo is Projector augmented-wave + core cor, Zval =  5.0
     Generated using 'atomic' code by A. Dal Corso  v.7.1
     Shape of augmentation charge: PSQ
     Using radial grid of 1085 points,  4 beta functions with:
                l(1) =   0
                l(2) =   0
                l(3) =   1
                l(4) =   1
     Q(r) pseudized with 0 coefficients

     atomic species   valence    mass     pseudopotential
        Ga            13.00    69.72300     Ga( 1.00)
        N              5.00    14.00700     N ( 1.00)

      6 Sym. Ops. (no inversion) found ( 4 have fractional translation)

                                    s                        frac. trans.

      isym =  1     identity

 cryst.   s( 1) = (     1          0          0      )
                  (     0          1          0      )
                  (     0          0          1      )

 cart.    s( 1) = (  1.0000000  0.0000000  0.0000000 )
                  (  0.0000000  1.0000000  0.0000000 )
                  (  0.0000000  0.0000000  1.0000000 )

      isym =  2     120 deg rotation - cryst. axis [0,0,1]

 cryst.   s( 2) = (     0          1          0      )    f =( -0.3333334 )
                  (    -1         -1          0      )       (  0.0000003 )
                  (     0          0          1      )       (  0.0000000 )

 cart.    s( 2) = ( -0.5000000 -0.8660254  0.0000000 )    f =( -0.3333335 )
                  (  0.8660254 -0.5000000  0.0000000 )       (  0.0000002 )
                  (  0.0000000  0.0000000  1.0000000 )       (  0.0000000 )

      isym =  3     120 deg rotation - cryst. axis [0,0,-1]

[...]

      isym =  4     inv. 180 deg rotation - cart. axis [1,0,0]

[...]

      isym =  5     inv. 180 deg rotation - cryst. axis [0,1,0]

 cryst.   s( 5) = (     1          1          0      )
                  (     0         -1          0      )
                  (     0          0          1      )

 cart.    s( 5) = (  0.5000000  0.8660254  0.0000000 )
                  (  0.8660254 -0.5000000  0.0000000 )
                  (  0.0000000  0.0000000  1.0000000 )

      isym =  6     inv. 180 deg rotation - cryst. axis [1,1,0]

 cryst.   s( 6) = (     0         -1          0      )    f =( -0.3333334 )
                  (    -1          0          0      )       ( -0.3333334 )
                  (     0          0          1      )       (  0.0000000 )

 cart.    s( 6) = (  0.5000000 -0.8660254  0.0000000 )    f =( -0.1666667 )
                  ( -0.8660254 -0.5000000  0.0000000 )       ( -0.2886752 )
                  (  0.0000000  0.0000000  1.0000000 )       (  0.0000000 )

     point group C_3v (3m)
     there are  3 classes
     the character table:

       E     2C3   3s_v
A_1    1.00  1.00  1.00
A_2    1.00  1.00 -1.00
E      2.00 -1.00  0.00

     the symmetry operations in each class and the name of the first element:

     E        1
          identity
     2C3      2    3
          120 deg rotation - cryst. axis [0,0,1]
     3s_v     4    5    6
          inv. 180 deg rotation - cart. axis [1,0,0]

   Cartesian axes

     site n.     atom                  positions (alat units)
         1           Ga  tau(   1) = (   0.1666668   0.0962250   0.2711914  )
         2           Ga  tau(   2) = (   0.1666668   0.0962250   0.8144844  )
         3           Ga  tau(   3) = (   0.0000001   0.3849001   0.2711914  )
         4           Ga  tau(   4) = (   0.0000001   0.3849001   0.8144844  )
         5           Ga  tau(   5) = (  -0.1666665   0.6735752   0.2711914  )
         6           Ga  tau(   6) = (  -0.1666665   0.6735752   0.8144844  )
         7           Ga  tau(   7) = (   0.5000001   0.0962250   0.2711914  )
         8           Ga  tau(   8) = (   0.5000001   0.0962250   0.8144844  )
         9           Ga  tau(   9) = (   0.3333335   0.3849001   0.2711914  )
        10           Ga  tau(  10) = (   0.3333335   0.3849001   0.8144844  )
        11           Ga  tau(  11) = (   0.1666668   0.6735752   0.2711914  )
        12           Ga  tau(  12) = (   0.1666668   0.6735752   0.8144844  )
        13           Ga  tau(  13) = (   0.8333335   0.0962250   0.2711914  )
        14           Ga  tau(  14) = (   0.8333335   0.0962250   0.8144844  )
        15           Ga  tau(  15) = (   0.6666668   0.3849001   0.2711914  )
        16           Ga  tau(  16) = (   0.6666668   0.3849001   0.8144844  )
        17           Ga  tau(  17) = (   0.5000001   0.6735752   0.2711914  )
        18           Ga  tau(  18) = (   0.5000001   0.6735752   0.8144844  )
        19           Ga  tau(  19) = (  -0.0000002   0.1924502   0.5428379  )
        20           Ga  tau(  20) = (  -0.0000002   0.1924502   1.0861309  )
        21           Ga  tau(  21) = (  -0.1666669   0.4811254   0.5428379  )
        22           Ga  tau(  22) = (  -0.1666669   0.4811254   1.0861309  )
        23           Ga  tau(  23) = (  -0.3333335   0.7698005   0.5428379  )
        24           Ga  tau(  24) = (  -0.3333335   0.7698005   1.0861309  )
        25           Ga  tau(  25) = (   0.3333331   0.1924502   0.5428379  )
        26           Ga  tau(  26) = (   0.3333331   0.1924502   1.0861309  )
        27           Ga  tau(  27) = (   0.1666665   0.4811254   0.5428379  )
        28           Ga  tau(  28) = (   0.1666665   0.4811254   1.0861309  )
        29           Ga  tau(  29) = (  -0.0000002   0.7698005   0.5428379  )
        30           Ga  tau(  30) = (  -0.0000002   0.7698005   1.0861309  )
        31           Ga  tau(  31) = (   0.6666665   0.1924502   0.5428379  )
        32           Ga  tau(  32) = (   0.6666665   0.1924502   1.0861309  )
        33           Ga  tau(  33) = (   0.4999998   0.4811254   0.5428379  )
        34           Ga  tau(  34) = (   0.4999998   0.4811254   1.0861309  )
        35           Ga  tau(  35) = (   0.3333331   0.7698005   0.5428379  )
        36           Ga  tau(  36) = (   0.3333331   0.7698005   1.0861309  )
        37           N   tau(  37) = (   0.1666668   0.0962250   1.0191295  )
        38           N   tau(  38) = (   0.0000001   0.3849001   0.4758365  )
        39           N   tau(  39) = (   0.0000001   0.3849001   1.0191295  )
        40           N   tau(  40) = (  -0.1666665   0.6735752   0.4758365  )
        41           N   tau(  41) = (  -0.1666665   0.6735752   1.0191295  )
        42           N   tau(  42) = (   0.5000001   0.0962250   0.4758365  )
        43           N   tau(  43) = (   0.5000001   0.0962250   1.0191295  )
        44           N   tau(  44) = (   0.3333335   0.3849001   0.4758365  )
        45           N   tau(  45) = (   0.3333335   0.3849001   1.0191295  )
        46           N   tau(  46) = (   0.1666668   0.6735752   0.4758365  )
        47           N   tau(  47) = (   0.1666668   0.6735752   1.0191295  )
        48           N   tau(  48) = (   0.8333335   0.0962250   0.4758365  )
        49           N   tau(  49) = (   0.8333335   0.0962250   1.0191295  )
        50           N   tau(  50) = (   0.6666668   0.3849001   0.4758365  )
        51           N   tau(  51) = (   0.6666668   0.3849001   1.0191295  )
        52           N   tau(  52) = (   0.5000001   0.6735752   0.4758365  )
        53           N   tau(  53) = (   0.5000001   0.6735752   1.0191295  )
        54           N   tau(  54) = (  -0.0000002   0.1924502   0.2041900  )
        55           N   tau(  55) = (  -0.0000002   0.1924502   0.7474830  )
        56           N   tau(  56) = (  -0.1666669   0.4811254   0.2041900  )
        57           N   tau(  57) = (  -0.1666669   0.4811254   0.7474830  )
        58           N   tau(  58) = (  -0.3333335   0.7698005   0.2041900  )
        59           N   tau(  59) = (  -0.3333335   0.7698005   0.7474830  )
        60           N   tau(  60) = (   0.3333331   0.1924502   0.2041900  )
[...]
     atom   35 type  1   force =     0.00000000    0.00000000    0.00000000
     atom   36 type  1   force =     0.00000000    0.00000000    0.00000000
     atom   37 type  2   force =     0.00000000    0.00000000    0.00000000
     atom   38 type  2   force =     0.00000000    0.00000000    0.00000000
     atom   39 type  2   force =     0.00000000    0.00000000    0.00000000
     atom   40 type  2   force =     0.00000000    0.00000000    0.00000000
     atom   41 type  2   force =     0.00000000    0.00000000    0.00000000
     atom   42 type  2   force =     0.00000000    0.00000000    0.00000000
     atom   43 type  2   force =     0.00000000    0.00000000    0.00000000
     atom   44 type  2   force =     0.00000000    0.00000000    0.00000000
     atom   45 type  2   force =     0.00000000    0.00000000    0.00000000
     atom   46 type  2   force =     0.00000000    0.00000000    0.00000000
     atom   47 type  2   force =     0.00000000    0.00000000    0.00000000
     atom   48 type  2   force =     0.00000000    0.00000000    0.00000000
     atom   49 type  2   force =     0.00000000    0.00000000    0.00000000
     atom   50 type  2   force =     0.00000000    0.00000000    0.00000000
     atom   51 type  2   force =     0.00000000    0.00000000    0.00000000
     atom   52 type  2   force =     0.00000000    0.00000000    0.00000000
     atom   53 type  2   force =     0.00000000    0.00000000    0.00000000
     atom   54 type  2   force =     0.00000000    0.00000000    0.00000000
     atom   55 type  2   force =     0.00000000    0.00000000    0.00000000
     atom   56 type  2   force =     0.00000000    0.00000000    0.00000000
     atom   57 type  2   force =     0.00000000    0.00000000    0.00000000
     atom   58 type  2   force =     0.00000000    0.00000000    0.00000000
     atom   59 type  2   force =     0.00000000    0.00000000    0.00000000
     atom   60 type  2   force =     0.00000000    0.00000000    0.00000000
     atom   61 type  2   force =     0.00000000    0.00000000    0.00000000
     atom   62 type  2   force =     0.00000000    0.00000000    0.00000000
     atom   63 type  2   force =     0.00000000    0.00000000    0.00000000
     atom   64 type  2   force =     0.00000000    0.00000000    0.00000000
     atom   65 type  2   force =     0.00000000    0.00000000    0.00000000
     atom   66 type  2   force =     0.00000000    0.00000000    0.00000000
     atom   67 type  2   force =     0.00000000    0.00000000    0.00000000
     atom   68 type  2   force =     0.00000000    0.00000000    0.00000000
     atom   69 type  2   force =     0.00000000    0.00000000    0.00000000
     atom   70 type  2   force =     0.00000000    0.00000000    0.00000000
     atom   71 type  2   force =     0.00000000    0.00000000    0.00000000
     atom   72 type  1   force =     0.00000000    0.00000000    0.00000000
     The SCF correction term to forces
     atom    1 type  1   force =     0.00000000   -0.00000000    0.00000700
     atom    2 type  1   force =     0.00000000   -0.00000000   -0.00000668
     atom    3 type  1   force =    -0.00000018    0.00000081    0.00000306
     atom    4 type  1   force =     0.00000081   -0.00000076   -0.00000297
     atom    5 type  1   force =     0.00000061   -0.00000056    0.00000306
     atom    6 type  1   force =    -0.00000026    0.00000108   -0.00000297
     atom    7 type  1   force =     0.00000079   -0.00000025    0.00000306
     atom    8 type  1   force =    -0.00000106   -0.00000032   -0.00000297
     atom    9 type  1   force =     0.00000018    0.00000081    0.00000306
     atom   10 type  1   force =    -0.00000081   -0.00000076   -0.00000297
     atom   11 type  1   force =     0.00000000    0.00000000    0.00000246
     atom   12 type  1   force =     0.00000000    0.00000000   -0.00000392
     atom   13 type  1   force =    -0.00000079   -0.00000025    0.00000306
     atom   14 type  1   force =     0.00000106   -0.00000032   -0.00000297
     atom   15 type  1   force =     0.00000000   -0.00000000    0.00000387
     atom   16 type  1   force =    -0.00000000    0.00000000   -0.00000439
     atom   17 type  1   force =    -0.00000061   -0.00000056    0.00000306
     atom   18 type  1   force =     0.00000026    0.00000108   -0.00000297
     atom   19 type  1   force =    -0.00000031    0.00000018    0.00000190
     atom   20 type  1   force =    -0.00000013    0.00000007   -0.00000324
     atom   21 type  1   force =     0.00000066    0.00000038   -0.00000019
     atom   22 type  1   force =     0.00000044    0.00000025   -0.00000079
     atom   23 type  1   force =     0.00000000   -0.00000036    0.00000190
     atom   24 type  1   force =    -0.00000000   -0.00000015   -0.00000324
     atom   25 type  1   force =     0.00000031    0.00000018    0.00000190
     atom   26 type  1   force =     0.00000013    0.00000007   -0.00000324
     atom   27 type  1   force =    -0.00000000   -0.00000144    0.00000082
     atom   28 type  1   force =     0.00000000    0.00000051    0.00000021
     atom   29 type  1   force =    -0.00000125    0.00000072    0.00000082
     atom   30 type  1   force =     0.00000044   -0.00000025    0.00000021
     atom   31 type  1   force =    -0.00000000   -0.00000076   -0.00000019
     atom   32 type  1   force =    -0.00000000   -0.00000050   -0.00000079
     atom   33 type  1   force =    -0.00000066    0.00000038   -0.00000019
     atom   34 type  1   force =    -0.00000044    0.00000025   -0.00000079
     atom   35 type  1   force =     0.00000125    0.00000072    0.00000082
     atom   36 type  1   force =    -0.00000044   -0.00000025    0.00000021
     atom   37 type  2   force =     0.00000000   -0.00000000   -0.00000192
     atom   38 type  2   force =     0.00000004   -0.00000004    0.00000061
     atom   39 type  2   force =    -0.00000002    0.00000001   -0.00000083
     atom   40 type  2   force =    -0.00000001    0.00000005    0.00000061
     atom   41 type  2   force =     0.00000000   -0.00000002   -0.00000083
     atom   42 type  2   force =    -0.00000005   -0.00000002    0.00000061
     atom   43 type  2   force =     0.00000002    0.00000001   -0.00000083
     atom   44 type  2   force =    -0.00000004   -0.00000004    0.00000061
     atom   45 type  2   force =     0.00000002    0.00000001   -0.00000083
     atom   46 type  2   force =     0.00000000   -0.00000000    0.00000037
     atom   47 type  2   force =    -0.00000000    0.00000000   -0.00000010
     atom   48 type  2   force =     0.00000005   -0.00000002    0.00000061
     atom   49 type  2   force =    -0.00000002    0.00000001   -0.00000083
     atom   50 type  2   force =    -0.00000000    0.00000000    0.00000046
     atom   51 type  2   force =     0.00000000    0.00000000   -0.00000056
     atom   52 type  2   force =     0.00000001    0.00000005    0.00000061
     atom   53 type  2   force =    -0.00000000   -0.00000002   -0.00000083
     atom   54 type  2   force =    -0.00000068    0.00000039    0.00000141
     atom   55 type  2   force =     0.00000056   -0.00000032   -0.00000115
     atom   56 type  2   force =     0.00000005    0.00000003    0.00000138
     atom   57 type  2   force =     0.00000002    0.00000001   -0.00000117
     atom   58 type  2   force =    -0.00000000   -0.00000079    0.00000141
     atom   59 type  2   force =     0.00000000    0.00000065   -0.00000115
     atom   60 type  2   force =     0.00000068    0.00000039    0.00000141
     atom   61 type  2   force =    -0.00000056   -0.00000032   -0.00000115
     atom   62 type  2   force =     0.00000000    0.00000072    0.00000110
     atom   63 type  2   force =     0.00000000   -0.00000038   -0.00000114
     atom   64 type  2   force =     0.00000062   -0.00000036    0.00000110
     atom   65 type  2   force =    -0.00000033    0.00000019   -0.00000114
     atom   66 type  2   force =    -0.00000000   -0.00000006    0.00000138
     atom   67 type  2   force =     0.00000000   -0.00000003   -0.00000117
     atom   68 type  2   force =    -0.00000005    0.00000003    0.00000138
     atom   69 type  2   force =    -0.00000002    0.00000001   -0.00000117
     atom   70 type  2   force =    -0.00000062   -0.00000036    0.00000110
     atom   71 type  2   force =     0.00000033    0.00000019   -0.00000114
     atom   72 type  1   force =    -0.00000000    0.00000000    0.00000558

     Total force =     0.002268     Total SCF correction =     0.000020

     Computing stress (Cartesian axis) and pressure

     Non-local corr. energy    =      19.99697675 Ry

          total   stress  (Ry/bohr**3)                   (kbar)     P=      -16.93
  -0.00012356  -0.00000000   0.00000000          -18.18       -0.00        0.00
  -0.00000000  -0.00012356  -0.00000000           -0.00      -18.18       -0.00
   0.00000000   0.00000000  -0.00009816            0.00        0.00      -14.44

     kinetic stress (kbar)  18473.64      0.00      0.00
                                0.00  18473.64     -0.00
                                0.00     -0.00  18472.49

     local   stress (kbar)   5876.60     -0.07     -0.00
                               -0.07   5876.51      0.00
                               -0.00      0.00   3987.46

     nonloc. stress (kbar)    150.46     -0.00      0.00
                                0.00    150.46     -0.00
                                0.00     -0.00    156.00

     hartree stress (kbar)  19992.25     -0.00     -0.00
                               -0.00  19992.25      0.00
                               -0.00      0.00  20830.04

     exc-cor stress (kbar)   5430.68      0.00      0.00
                                0.00   5430.68      0.00
                                0.00      0.00   5431.26

     corecor stress (kbar) -14467.56     -0.00      0.00
                               -0.00 -14467.56      0.00
                                0.00      0.00 -14467.17

     ewald   stress (kbar) -35639.73      0.10      0.00
                                0.10 -35639.61     -0.00
                                0.00     -0.00 -34589.04

     hubbard stress (kbar)      0.00      0.00      0.00
                                0.00      0.00      0.00
                                0.00      0.00      0.00

     DFT-D   stress (kbar)      0.00      0.00      0.00
                                0.00      0.00      0.00
                                0.00      0.00      0.00

     XDM     stress (kbar)      0.00      0.00      0.00
                                0.00      0.00      0.00
                                0.00      0.00      0.00

     dft-nl  stress (kbar)    165.47     -0.00     -0.00
                               -0.00    165.47     -0.00
                               -0.00     -0.00    164.51

     TS-vdW  stress (kbar)      0.00      0.00      0.00
                                0.00      0.00      0.00
                                0.00      0.00      0.00

     MDB     stress (kbar)      0.00      0.00      0.00
                                0.00      0.00      0.00
                                0.00      0.00      0.00

     3D-RISM stress (kbar)      0.00      0.00      0.00
                                0.00      0.00      0.00
                                0.00      0.00      0.00

     Energy error            =      1.6E-05 Ry
     Gradient error          =      7.5E-04 Ry/Bohr

     bfgs converged in  20 scf cycles and  19 bfgs steps
     (criteria: energy <  1.0E-04 Ry, force <  1.0E-03 Ry/Bohr)

     End of BFGS Geometry Optimization

     Final energy             =  -11497.9017566344 Ry

     File ./GaN.bfgs deleted, as requested
Begin final coordinates

ATOMIC_POSITIONS (angstrom)
Ga            1.6222756606        0.9366198184        2.0745119291
Ga            1.6222756606        0.9366198184        7.9067139338
Ga           -0.0015539511        3.7567678313        2.6225135171
Ga            0.0032496441        3.7901872618        7.9623256691
Ga           -1.6141419494        6.5498521760        2.6225135171
Ga           -1.5827980760        6.5373024962        7.9623256691
Ga            4.8765102880        0.9328235071        2.6225135171
Ga            4.9030505662        0.9119537564        7.9623256691
Ga            3.2461052723        3.7567678313        2.6225135171
Ga            3.2413016771        3.7901872618        7.9623256691
Ga            1.6222756606        6.5563425246        2.6619415541
Ga            1.6222756606        6.5563425246        7.9515115118
Ga            8.1016862844        0.9328235071        2.6225135171
Ga            8.0751460062        0.9119537564        7.9623256691
Ga            6.4890982862        3.7464811715        2.6462458620
Ga            6.4890982862        3.7464811715        7.9546176699
Ga            4.8586932706        6.5498521760        2.6225135171
Ga            4.8273493972        6.5373024962        7.9623256691
Ga           -0.2738627524        2.0313560459        5.4203527562
Ga           -0.0470446873        1.9004025750       10.4733384172
Ga           -1.6318294797        4.6775881956        5.3044565195
Ga           -1.6299159973        4.6786929452       10.5925127256
Ga           -3.2445503819        7.1767379539        5.4203527562
Ga           -3.2445503819        7.4386448957       10.4733384172
Ga            3.5184072399        2.0313560459        5.4203527562
Ga            3.2915891748        1.9004025750       10.4733384172
Ga            1.6222722437        4.6978653262        5.3087788697
Ga            1.6222722437        4.6951326075       10.5962028111
Ga            0.0127818922        7.4855843894        5.3087788697
Ga            0.0104152884        7.4869507487       10.5962028111
Ga            6.4890948693        1.8842736545        5.3044565195
Ga            6.4890948693        1.8820641553       10.5925127256
Ga            4.8763739672        4.6775881956        5.3044565195
Ga            4.8744604848        4.6786929452       10.5925127256
Ga            3.2317625953        7.4855843894        5.3087788697
Ga            3.2341291991        7.4869507487       10.5962028111
N             1.6222756606        0.9366198184        9.9217951144
N            -0.0106545525        3.7849366376        4.6254151066
N             0.0004450625        3.7751113445        9.9273269883
N            -1.5942973483        6.5278864208        4.6254151066
N            -1.5972564942        6.5424116160        9.9273269883
N             4.9054554905        0.9266204561        4.6254151066
N             4.8913967296        0.9219205540        9.9273269883
N             3.2552058737        3.7849366376        4.6254151066
N             3.2441062587        3.7751113445        9.9273269883
N             1.6222756606        6.5563425246        4.6462925784
N             1.6222756606        6.5563425246        9.9351557532
N             8.0727410819        0.9266204561        4.6254151066
N             8.0867998428        0.9219205540        9.9273269883
N             6.4890982862        3.7464811715        4.6412447509
N             6.4890982862        3.7464811715        9.9325660404
N             4.8388486695        6.5278864208        4.6254151066
N             4.8418078154        6.5424116160        9.9273269883
N            -0.0466566154        1.9001785216        1.9122828599
N            -0.0345429692        1.8931847047        7.3429765990
N            -1.6263589323        4.6807466176        1.9977514511
N            -1.6261456291        4.6808697683        7.2807092461
N            -3.2445503819        7.4390930025        1.9122828599
N            -3.2445503819        7.4530806363        7.3429765990
N             3.2912011029        1.9001785216        1.9122828599
N             3.2790874567        1.8931847047        7.3429765990
N             1.6222722437        4.6843045143        2.0059275898
N             1.6222722437        4.6878577851        7.2840980143
N             0.0010378846        7.4923647953        2.0059275898
N             0.0041151074        7.4905881600        7.2840980143
N             6.4890948693        1.8779568105        1.9977514511
N             6.4890948693        1.8777105092        7.2807092461
N             4.8709034198        4.6807466176        1.9977514511
N             4.8706901166        4.6808697683        7.2807092461
N             3.2435066029        7.4923647953        2.0059275898
N             3.2404293801        7.4905881600        7.2840980143
Ga            1.6222756606        0.9366198184        4.4866979095
End final coordinates

     Writing all to output data dir ./GaN.save/

     General routines

     Parallel routines

     PAW routines

   This run was terminated on:  12:59:16  27Sep2023

   JOB DONE.