     Program PWSCF v.7.1 starts on 28Mar2024 at  6:46:46

     Reading input from espresso.pwi
Warning: card &CELL ignored
Warning: card    CELL_DYNAMICS    = 'BFGS' ignored
Warning: card / ignored

     Current dimensions of program PWSCF are:
     Max number of different atomic species (ntypx) = 10
     Max number of k-points (npk) =  40000
     Max angular momentum in pseudopotentials (lmaxx) =  4
     file Pb.pbe-dn-kjpaw_psl.1.0.0.UPF: wavefunction(s)  6S 6P 5D renormalized
     file I.pbe-dn-kjpaw_psl.1.0.0.UPF: wavefunction(s)  5S 5P renormalized

     IMPORTANT: XC functional enforced from input :
     Exchange-correlation= BEEF-VDW
                           (   1   4  43  14   2   0   0)
     Any further DFT definition will be discarded
     Please, verify this is what you really want

     R & G space division:  proc/nbgrp/npool/nimage =      20
     Subspace diagonalization in iterative solution of the eigenvalue problem:
     a serial algorithm will be used

     Using Slab Decomposition

     bravais-lattice index     =            4
     lattice parameter (alat)  =      17.8060  a.u.
     unit-cell volume          =    7656.2263 (a.u.)^3
     number of atoms/cell      =           24
     number of atomic types    =            2
     number of electrons       =       389.00
     number of Kohn-Sham states=          234
     kinetic-energy cutoff     =      70.0000  Ry
     charge density cutoff     =     350.0000  Ry
     scf convergence threshold =      1.0E-07
     mixing beta               =       0.7000
     number of iterations used =            8  plain     mixing
     Exchange-correlation= BEEF-VDW
                           (   1   4  43  14   2   0   0)

     celldm(1)=  17.806016  celldm(2)=   0.000000  celldm(3)=   1.565971
     celldm(4)=   0.000000  celldm(5)=   0.000000  celldm(6)=   0.000000

     crystal axes: (cart. coord. in units of alat)
               a(1) = (   1.000000   0.000000   0.000000 )
               a(2) = (  -0.500000   0.866025   0.000000 )
               a(3) = (   0.000000   0.000000   1.565971 )

     reciprocal axes: (cart. coord. in units 2 pi/alat)
               b(1) = (  1.000000  0.577350 -0.000000 )
               b(2) = (  0.000000  1.154701  0.000000 )
               b(3) = (  0.000000 -0.000000  0.638581 )

     PseudoPot. # 1 for Pb read from file:
     /trace/group/acmegroup/atimmins/packages/espresso/pseudo/psl_1.0.0/pslibrary.1.0.0/pbe/PSEUDOPOTENTIALS/Pb.pbe-dn-kjpaw_psl.1.0.0.UPF
     MD5 check sum: 39ab5b8a6bbd56b7735ad9f188aac93a
     Pseudo is Projector augmented-wave + core cor, Zval = 14.0
     Generated using 'atomic' code by A. Dal Corso  v.7.1
     Shape of augmentation charge: PSQ
     Using radial grid of 1281 points,  6 beta functions with:
                l(1) =   0
                l(2) =   0
                l(3) =   1
                l(4) =   1
                l(5) =   2
                l(6) =   2
     Q(r) pseudized with 0 coefficients

     PseudoPot. # 2 for I  read from file:
     /trace/group/acmegroup/atimmins/packages/espresso/pseudo/psl_1.0.0/pslibrary.1.0.0/pbe/PSEUDOPOTENTIALS/I.pbe-dn-kjpaw_psl.1.0.0.UPF
     MD5 check sum: bfa8781bc1224d19af3f3980e3fab11e
     Pseudo is Projector augmented-wave + core cor, Zval = 17.0
     Generated using 'atomic' code by A. Dal Corso  v.7.1
     Shape of augmentation charge: PSQ
     Using radial grid of 1247 points,  6 beta functions with:
                l(1) =   0
                l(2) =   0
                l(3) =   1
                l(4) =   1
                l(5) =   2
                l(6) =   2
     Q(r) pseudized with 0 coefficients

     atomic species   valence    mass     pseudopotential
        Pb            14.00   207.20000     Pb( 1.00)
        I             17.00   126.90447     I ( 1.00)

     No symmetry found

                                    s                        frac. trans.

      isym =  1     identity

 cryst.   s( 1) = (     1          0          0      )
                  (     0          1          0      )
                  (     0          0          1      )

 cart.    s( 1) = (  1.0000000  0.0000000  0.0000000 )
                  (  0.0000000  1.0000000  0.0000000 )
                  (  0.0000000  0.0000000  1.0000000 )

     point group C_1 (1)
     there are  1 classes
     the character table:

       E
A      1.00

     the symmetry operations in each class and the name of the first element:

     E        1
          identity

   Cartesian axes

     site n.     atom                  positions (alat units)
         1           Pb  tau(   1) = (   0.2500068   0.4329836   0.7829793  )
         2           Pb  tau(   2) = (   0.0000153   0.8659852   1.5659567  )
         3           Pb  tau(   3) = (   0.0000051   0.8659943   0.7829710  )
         4           Pb  tau(   4) = (   0.7500170   0.4329726   1.5659715  )
         5           Pb  tau(   5) = (   0.7500068   0.4329816   0.7829858  )
         6           Pb  tau(   6) = (   0.5000153   0.8659833   1.5659633  )
         7           Pb  tau(   7) = (   0.5000051   0.8659923   0.7829776  )
         8           I   tau(   8) = (   0.2500107   0.1443099   0.5818649  )
         9           I   tau(   9) = (   0.2500209   0.1443009   1.3648506  )
        10           I   tau(  10) = (   0.0000091   0.5773207   0.5818567  )
        11           I   tau(  11) = (   0.0000193   0.5773116   1.3648424  )
        12           I   tau(  12) = (   0.7500107   0.1443080   0.5818714  )
        13           I   tau(  13) = (   0.7500209   0.1442990   1.3648571  )
        14           I   tau(  14) = (   0.5000091   0.5773187   0.5818632  )
        15           I   tau(  15) = (   0.5000193   0.5773097   1.3648489  )
        16           I   tau(  16) = (  -0.0000034   0.2886595   0.2011110  )
        17           I   tau(  17) = (   0.0000068   0.2886504   0.9840967  )
        18           I   tau(  18) = (  -0.2500051   0.7216702   0.2011027  )
        19           I   tau(  19) = (  -0.2499949   0.7216611   0.9840884  )
        20           I   tau(  20) = (   0.4999966   0.2886575   0.2011175  )
        21           I   tau(  21) = (   0.5000068   0.2886485   0.9841032  )
        22           I   tau(  22) = (   0.2499949   0.7216682   0.2011092  )
        23           I   tau(  23) = (   0.2500051   0.7216592   0.9840949  )
        24           I   tau(  24) = (   0.2500170   0.4329745   1.5659650  )

   Crystallographic axes

     site n.     atom                  positions (cryst. coord.)
         1           Pb  tau(   1) = (  0.4999900  0.4999663  0.4999959  )
         2           Pb  tau(   2) = (  0.4999921  0.9999536  0.9999906  )
         3           Pb  tau(   3) = (  0.4999871  0.9999640  0.4999906  )
         4           Pb  tau(   4) = (  0.9999938  0.4999537  1.0000001  )
         5           Pb  tau(   5) = (  0.9999888  0.4999641  0.5000001  )
         6           Pb  tau(   6) = (  0.9999910  0.9999514  0.9999948  )
         7           Pb  tau(   7) = (  0.9999860  0.9999618  0.4999948  )
         8           I   tau(   8) = (  0.3333281  0.1666348  0.3715680  )
         9           I   tau(   9) = (  0.3333331  0.1666243  0.8715680  )
        10           I   tau(  10) = (  0.3333253  0.6666325  0.3715628  )
        11           I   tau(  11) = (  0.3333303  0.6666220  0.8715628  )
        12           I   tau(  12) = (  0.8333270  0.1666326  0.3715722  )
        13           I   tau(  13) = (  0.8333320  0.1666221  0.8715722  )
        14           I   tau(  14) = (  0.8333242  0.6666303  0.3715669  )
        15           I   tau(  15) = (  0.8333292  0.6666198  0.8715669  )
        16           I   tau(  16) = (  0.1666542  0.3333152  0.1284257  )
        17           I   tau(  17) = (  0.1666592  0.3333048  0.6284257  )
        18           I   tau(  18) = (  0.1666514  0.8333129  0.1284204  )
        19           I   tau(  19) = (  0.1666564  0.8333025  0.6284204  )
        20           I   tau(  20) = (  0.6666531  0.3333130  0.1284299  )
        21           I   tau(  21) = (  0.6666581  0.3333026  0.6284299  )
        22           I   tau(  22) = (  0.6666503  0.8333107  0.1284246  )
        23           I   tau(  23) = (  0.6666553  0.8333003  0.6284246  )
        24           I   tau(  24) = (  0.4999949  0.4999559  0.9999959  )

     number of k points=     4  Gaussian smearing, width (Ry)=  0.0100
                       cart. coord. in units 2pi/alat
        k(    1) = (   0.0000000   0.0000000   0.0000000), wk =   0.5000000
        k(    2) = (   0.0000000  -0.5773503   0.0000000), wk =   0.5000000
        k(    3) = (   0.5000000  -0.2886751   0.0000000), wk =   0.5000000
        k(    4) = (  -0.5000000  -0.2886751   0.0000000), wk =   0.5000000

                       cryst. coord.
        k(    1) = (   0.0000000   0.0000000   0.0000000), wk =   0.5000000
        k(    2) = (   0.0000000  -0.5000000   0.0000000), wk =   0.5000000
        k(    3) = (   0.5000000  -0.5000000   0.0000000), wk =   0.5000000
        k(    4) = (  -0.5000000  -0.0000000   0.0000000), wk =   0.5000000

     Atomic positions and unit cell read from directory:
     ./PbI2.save/
     Atomic positions from file used, from input discarded

     Check: negative core charge=   -0.000002

     The initial density is read from file :
     ./PbI2.save/charge-density

     %%%%%%%%%%%%%%%%%%%%%%%%%%%%%%%%%%%%%%%%%%%%%%%%%%%%%%%%%%%%%%%%%%%%%%%%
     %                                                                      %
     % You are using vdW-DF, which was implemented by the Thonhauser group. %
     % Please cite the following two papers that made this development      %
     % possible and the two reviews that describe the various versions:     %
     %                                                                      %
     %   T. Thonhauser et al., PRL 115, 136402 (2015).                      %
     %   T. Thonhauser et al., PRB 76, 125112 (2007).                       %
     %   K. Berland et al., Rep. Prog. Phys. 78, 066501 (2015).             %
     %   D.C. Langreth et al., J. Phys.: Condens. Matter 21, 084203 (2009). %
     %                                                                      %
     % If you are calculating stress with vdW-DF, please also cite:         %
     %                                                                      %
     %   R. Sabatini et al., J. Phys.: Condens. Matter 24, 424209 (2012).   %
     %                                                                      %
     %%%%%%%%%%%%%%%%%%%%%%%%%%%%%%%%%%%%%%%%%%%%%%%%%%%%%%%%%%%%%%%%%%%%%%%%

     %%%%%%%%%%%%%%%%%%%%%%%%%%%%%%%%%%%%%%%%%%%%%%%%%%%%%%%%%%%%%%%%%%%%%%%%
     %                                                                      %
     %  vdW-DF NEWS:                                                        %
     %                                                                      %
     %  * vdW-DF3 is now available. DOI: 10.1021/acs.jctc.0c00471           %
     %    use with input_dft = 'vdW-DF3-opt1' or 'vdW-DF3-opt2'             %
     %                                                                      %
[...]
     atom   22 type  2   force =     0.00000217    0.07584740   -0.13095993
     atom   23 type  2   force =     0.00000785    0.00233068   -0.26880991
     atom   24 type  2   force =    -0.00000171    0.00000045    0.00001402
     The ionic contribution  to forces
     atom    1 type  1   force =     0.00011980    0.00043280    0.00325164
     atom    2 type  1   force =     0.00040317   -0.00011524   -0.00286256
     atom    3 type  1   force =    -0.00092627   -0.00002346    0.00289179
     atom    4 type  1   force =     0.00026694    0.00136785   -0.00293783
     atom    5 type  1   force =    -0.00026504    0.00150742    0.00316807
     atom    6 type  1   force =    -0.00083046    0.00042234   -0.00293202
     atom    7 type  1   force =     0.00078022   -0.00021368    0.00319176
     atom    8 type  2   force =     0.00030075    0.54679568  -15.24891528
     atom    9 type  2   force =    -0.00032454    6.62556531  -10.26223503
     atom   10 type  2   force =     0.47356154   -0.27374796  -15.24888713
     atom   11 type  2   force =     5.73580570   -3.31183121  -10.26348825
     atom   12 type  2   force =    -0.00035557    0.00017223  -12.04981432
     atom   13 type  2   force =     0.00043545   -0.00066404  -12.98244821
     atom   14 type  2   force =    -0.47342355   -0.27402929  -15.24898158
     atom   15 type  2   force =    -5.73719482   -3.31235309  -10.26306793
     atom   16 type  2   force =     5.73744590    3.31150090   10.25757038
     atom   17 type  2   force =     0.47453318    0.27336703   15.25367736
     atom   18 type  2   force =    -0.00006935   -0.00005876   12.97807058
     atom   19 type  2   force =     0.00004742   -0.00048745   12.05402587
     atom   20 type  2   force =    -5.73670709    3.31149107   10.25908293
     atom   21 type  2   force =    -0.47443076    0.27373389   15.25376693
     atom   22 type  2   force =     0.00030046   -6.62456061   10.25706318
     atom   23 type  2   force =     0.00034998   -0.54786515   15.25384060
     atom   24 type  2   force =     0.00017694   -0.00040659   -0.00303097
     The local contribution  to forces
     atom    1 type  1   force =    -0.00012349   -0.00040997   -0.00321409
     atom    2 type  1   force =    -0.00039102    0.00012001    0.00286488
     atom    3 type  1   force =     0.00090882    0.00003877   -0.00285008
     atom    4 type  1   force =    -0.00025915   -0.00132528    0.00290656
     atom    5 type  1   force =     0.00025985   -0.00146470   -0.00313294
     atom    6 type  1   force =     0.00080317   -0.00039639    0.00292615
     atom    7 type  1   force =    -0.00076991    0.00022926   -0.00315489
     atom    8 type  2   force =    -0.00028440   -0.54434154   14.98575980
     atom    9 type  2   force =     0.00033080   -6.55138723   10.13425751
     atom   10 type  2   force =    -0.47145276    0.27250396   14.98574735
     atom   11 type  2   force =    -5.67155065    3.27470195   10.13552372
     atom   12 type  2   force =     0.00034127   -0.00015111   11.75117459
     atom   13 type  2   force =    -0.00044264    0.00067827   12.78432793
     atom   14 type  2   force =     0.47131800    0.27276652   14.98583648
     atom   15 type  2   force =     5.67296493    3.27522836   10.13509335
     atom   16 type  2   force =    -5.67319247   -3.27441246  -10.12960782
     atom   17 type  2   force =    -0.47242133   -0.27212097  -14.99053729
     atom   18 type  2   force =     0.00008567    0.00004295  -12.77996135
     atom   19 type  2   force =    -0.00002405    0.00045397  -11.75541612
     atom   20 type  2   force =     5.67242845   -3.27439750  -10.13111556
     atom   21 type  2   force =     0.47232259   -0.27251285  -14.99064072
     atom   22 type  2   force =    -0.00030986    6.55038988  -10.12911220
     atom   23 type  2   force =    -0.00037082    0.54539748  -14.99069653
     atom   24 type  2   force =    -0.00017569    0.00040541    0.00301024
     The core correction contribution to forces
     atom    1 type  1   force =    -0.00000020    0.00000015   -0.00000157
     atom    2 type  1   force =     0.00000004    0.00000012    0.00000090
     atom    3 type  1   force =     0.00000019    0.00000025   -0.00000203
     atom    4 type  1   force =     0.00000020    0.00000058    0.00000083
     atom    5 type  1   force =     0.00000014   -0.00000012   -0.00000191
     atom    6 type  1   force =    -0.00000028    0.00000050    0.00000074
     atom    7 type  1   force =    -0.00000023    0.00000044   -0.00000194
     atom    8 type  2   force =    -0.00000043   -0.00003030   -0.00565923
     atom    9 type  2   force =    -0.00000014    0.00170978   -0.00311589
     atom   10 type  2   force =    -0.00002808    0.00001779   -0.00565937
     atom   11 type  2   force =     0.00148729   -0.00085900   -0.00311644
     atom   12 type  2   force =    -0.00000051    0.00000227   -0.00656469
     atom   13 type  2   force =    -0.00000090    0.00000276   -0.00440472
     atom   14 type  2   force =     0.00002725    0.00001778   -0.00565893
     atom   15 type  2   force =    -0.00148378   -0.00085687   -0.00311642
     atom   16 type  2   force =     0.00148314    0.00085591    0.00311516
     atom   17 type  2   force =    -0.00002828   -0.00001399    0.00565782
     atom   18 type  2   force =    -0.00000067    0.00000250    0.00440474
     atom   19 type  2   force =    -0.00000062    0.00000230    0.00656679
     atom   20 type  2   force =    -0.00148389    0.00085628    0.00311630
     atom   21 type  2   force =     0.00002738   -0.00001412    0.00565745
     atom   22 type  2   force =    -0.00000008   -0.00171390    0.00311498
     atom   23 type  2   force =    -0.00000058    0.00003367    0.00565751
     atom   24 type  2   force =    -0.00000083    0.00000263    0.00000217
     The Hubbard contrib.    to forces
     atom    1 type  1   force =     0.00000000    0.00000000    0.00000000
     atom    2 type  1   force =     0.00000000    0.00000000    0.00000000
     atom    3 type  1   force =     0.00000000    0.00000000    0.00000000
     atom    4 type  1   force =     0.00000000    0.00000000    0.00000000
     atom    5 type  1   force =     0.00000000    0.00000000    0.00000000
     atom    6 type  1   force =     0.00000000    0.00000000    0.00000000
     atom    7 type  1   force =     0.00000000    0.00000000    0.00000000
     atom    8 type  2   force =     0.00000000    0.00000000    0.00000000
     atom    9 type  2   force =     0.00000000    0.00000000    0.00000000
     atom   10 type  2   force =     0.00000000    0.00000000    0.00000000
     atom   11 type  2   force =     0.00000000    0.00000000    0.00000000
     atom   12 type  2   force =     0.00000000    0.00000000    0.00000000
     atom   13 type  2   force =     0.00000000    0.00000000    0.00000000
     atom   14 type  2   force =     0.00000000    0.00000000    0.00000000
     atom   15 type  2   force =     0.00000000    0.00000000    0.00000000
     atom   16 type  2   force =     0.00000000    0.00000000    0.00000000
     atom   17 type  2   force =     0.00000000    0.00000000    0.00000000
     atom   18 type  2   force =     0.00000000    0.00000000    0.00000000
     atom   19 type  2   force =     0.00000000    0.00000000    0.00000000
     atom   20 type  2   force =     0.00000000    0.00000000    0.00000000
     atom   21 type  2   force =     0.00000000    0.00000000    0.00000000
     atom   22 type  2   force =     0.00000000    0.00000000    0.00000000
     atom   23 type  2   force =     0.00000000    0.00000000    0.00000000
     atom   24 type  2   force =     0.00000000    0.00000000    0.00000000
     The SCF correction term to forces
     atom    1 type  1   force =     0.00000031   -0.00000014    0.00000013
     atom    2 type  1   force =     0.00000121    0.00000141    0.00000024
     atom    3 type  1   force =    -0.00000188   -0.00000082   -0.00000149
     atom    4 type  1   force =    -0.00000030   -0.00000192    0.00000029
     atom    5 type  1   force =    -0.00000027    0.00000159   -0.00000123
     atom    6 type  1   force =    -0.00000122    0.00000136    0.00000069
     atom    7 type  1   force =     0.00000196   -0.00000123   -0.00000164
     atom    8 type  2   force =    -0.00002149    0.00000157   -0.00003641
     atom    9 type  2   force =    -0.00001189   -0.00002521   -0.00000571
     atom   10 type  2   force =     0.00002765    0.00000182   -0.00006069
     atom   11 type  2   force =    -0.00004516    0.00003539    0.00001019
     atom   12 type  2   force =     0.00002375   -0.00003343   -0.00008096
     atom   13 type  2   force =     0.00000985   -0.00001343    0.00002614
     atom   14 type  2   force =    -0.00002787    0.00002728   -0.00004638
     atom   15 type  2   force =     0.00002196    0.00003607    0.00000125
     atom   16 type  2   force =    -0.00002216   -0.00003812    0.00000030
     atom   17 type  2   force =     0.00002978   -0.00002541    0.00004591
     atom   18 type  2   force =    -0.00001033    0.00001392   -0.00002090
     atom   19 type  2   force =    -0.00002414    0.00003378    0.00007507
     atom   20 type  2   force =     0.00004643   -0.00003625   -0.00000824
     atom   21 type  2   force =    -0.00002976   -0.00000032    0.00006004
     atom   22 type  2   force =     0.00001259    0.00002709    0.00000935
     atom   23 type  2   force =     0.00002163   -0.00000444    0.00003611
     atom   24 type  2   force =     0.00000008   -0.00000064    0.00000614

     Total force =     0.001163     Total SCF correction =     0.000223
     SCF correction compared to forces is large: reduce conv_thr to get better values

     Computing stress (Cartesian axis) and pressure

[...]

          total   stress  (Ry/bohr**3)                   (kbar)     P=       32.44
   0.00022916   0.00000001  -0.00000000           33.71        0.00       -0.00
   0.00000001   0.00022918   0.00000001            0.00       33.71        0.00
  -0.00000000   0.00000001   0.00020323           -0.00        0.00       29.90

     kinetic stress (kbar)  14717.43      0.01     -0.00
                                0.01  14717.44      0.00
                               -0.00      0.00  14716.09

     local   stress (kbar)  -6528.67      0.14     -0.18
                                0.14  -6528.38      0.20
                               -0.18      0.20   -295.25

     nonloc. stress (kbar)   -629.10      0.00     -0.00
                                0.00   -629.09      0.00
                               -0.00      0.00   -637.34

     hartree stress (kbar)  11838.23     -0.05      0.07
                               -0.05  11838.12     -0.08
                                0.07     -0.08   8992.61

     exc-cor stress (kbar)   7085.82     -0.00      0.00
                               -0.00   7085.82     -0.00
                                0.00     -0.00   7085.69

     corecor stress (kbar) -11517.11     -0.00      0.00
                               -0.00 -11517.11     -0.00
                                0.00     -0.00 -11516.99

     ewald   stress (kbar) -15018.67     -0.10      0.11
                               -0.10 -15018.86     -0.12
                                0.11     -0.12 -18401.38

     hubbard stress (kbar)      0.00      0.00      0.00
                                0.00      0.00      0.00
                                0.00      0.00      0.00

     DFT-D   stress (kbar)      0.00      0.00      0.00
                                0.00      0.00      0.00
                                0.00      0.00      0.00

     XDM     stress (kbar)      0.00      0.00      0.00
                                0.00      0.00      0.00
                                0.00      0.00      0.00

     dft-nl  stress (kbar)     85.78      0.00     -0.00
                                0.00     85.78      0.00
                               -0.00      0.00     86.47

     TS-vdW  stress (kbar)      0.00      0.00      0.00
                                0.00      0.00      0.00
                                0.00      0.00      0.00

     MDB     stress (kbar)      0.00      0.00      0.00
                                0.00      0.00      0.00
                                0.00      0.00      0.00

     3D-RISM stress (kbar)      0.00      0.00      0.00
                                0.00      0.00      0.00
                                0.00      0.00      0.00

[...]

     Non-local corr. energy    =      11.80308356 Ry

 BEEFens 2000 ensemble energies
             -0.984123383693174E+01
             -0.992065787203274E+02
             -0.450962145697237E+02
              0.346374230000508E+02
             -0.757998396810256E+02
             -0.928615582241102E+02
              0.476321891890361E+02
              0.216180738299613E+00
              0.803711525473117E+02
             -0.506680946326020E+01
              0.410280718800356E+02
              0.426591830289286E+01
             -0.314667612355524E+01
             -0.252797776329612E+01
              0.513560373678041E+02
             -0.385034154485047E+02
             -0.758354823460975E+02
             -0.244211488485494E+02
              0.219892592677284E+02
             -0.406527182160289E+00
              0.111704762629091E+03
              0.932659165194266E+02
             -0.574751957255540E+02
              0.198791780884620E+02
             -0.119681132291313E+03
              0.982580813300661E+02
              0.335674627579435E+02
              0.887825529127939E+02
              0.598680673064875E+02
             -0.278157375525948E+02
              0.218895522656200E+02
             -0.392002381416819E+02
              0.162900603209646E+02
              0.594378722303843E+02
              0.639426100753026E+02
             -0.277522521088049E+02
              0.141239814499268E+03
             -0.567538297719603E+02
             -0.378598424257802E+02
              0.564726858899373E+02
              0.248858966552400E+02
              0.428752152766097E+02
             -0.828618363902496E+02
             -0.534728127839719E+01
              0.795341579690178E+02
              0.103886885926691E+03
             -0.105404200016965E+03
              0.682376194417962E+01
              0.366193133013681E+02
              0.235908131782712E+02
              0.413088631312796E+02
              0.906166924896762E+02
             -0.588239248411771E+02
             -0.571262363569508E+02
             -0.795987688818374E+02
             -0.116482715451825E+02
             -0.678846743940207E+02
              0.880975113867260E+01
             -0.980711582351148E+01
             -0.538462833440227E+02
[...]
              0.672259906086222E+02
              0.430602868329707E+02
              0.439953542553459E+02
             -0.812558261122734E+02
             -0.839224190261959E+02
             -0.189365903287167E+02
             -0.750018272167644E+02
              0.119144387825510E+03
              0.100376123106605E+03
              0.472737407204459E+02
              0.130455156980968E+03
             -0.652527643439603E+02
             -0.280875797095132E+02
             -0.403989581370878E+02
              0.112794628533533E+03

 BEEF-vdW xc energy contributions
            1 :    -1020.099055141881
            2 :     935.0771611338007
            3 :    -789.7562348416104
            4 :     622.5220043376592
            5 :    -469.9358150130768
            6 :     354.8692646622560
            7 :    -282.4804742862373
            8 :     243.3997357043645
            9 :    -220.9998550984831
           10 :     199.4187672393310
           11 :    -169.5420963489025
           12 :     131.0250828584180
           13 :    -90.07001557729245
           14 :     54.67852911039381
           15 :    -30.14566615851982
           16 :     16.91753489876578
           17 :    -11.26759905073254
           18 :     7.808881224421839
           19 :    -2.307391430280404
           20 :    -6.524690405322872
           21 :     16.94059065649162
           22 :    -25.63483406242585
           23 :     29.89264349049517
           24 :    -29.21379595756503
           25 :     25.56349072918829
           26 :    -22.21858630156657
           27 :     21.94967820081683
           28 :    -25.56801144993142
           29 :     31.57928665677014
           30 :    -37.05604126072649
           31 :    -87.30220136074217
           32 :    -62.77530792017637

     Writing all to output data dir ./PbI2.save/

     General routines

     Parallel routines

     PAW routines

   This run was terminated on:   6:48:31  28Mar2024

   JOB DONE.