     Program PWSCF v.7.1 starts on 28Mar2024 at  3:21:24

     Reading input from espresso.pwi
Warning: card &CELL ignored
Warning: card    CELL_DYNAMICS    = 'BFGS' ignored
Warning: card / ignored

     Current dimensions of program PWSCF are:
     Max number of different atomic species (ntypx) = 10
     Max number of k-points (npk) =  40000
     Max angular momentum in pseudopotentials (lmaxx) =  4
     file Pb.pbe-dn-kjpaw_psl.1.0.0.UPF: wavefunction(s)  6S 6P 5D renormalized
     file I.pbe-dn-kjpaw_psl.1.0.0.UPF: wavefunction(s)  5S 5P renormalized

     IMPORTANT: XC functional enforced from input :
     Exchange-correlation= BEEF-VDW
                           (   1   4  43  14   2   0   0)
     Any further DFT definition will be discarded
     Please, verify this is what you really want

     R & G space division:  proc/nbgrp/npool/nimage =      20
     Subspace diagonalization in iterative solution of the eigenvalue problem:
     a serial algorithm will be used

     Using Slab Decomposition

     bravais-lattice index     =            4
     lattice parameter (alat)  =      17.8060  a.u.
     unit-cell volume          =    7656.2263 (a.u.)^3
     number of atoms/cell      =           24
     number of atomic types    =            2
     number of electrons       =       389.00
     number of Kohn-Sham states=          234
     kinetic-energy cutoff     =      70.0000  Ry
     charge density cutoff     =     350.0000  Ry
     scf convergence threshold =      1.0E-07
     mixing beta               =       0.7000
     number of iterations used =            8  plain     mixing
     energy convergence thresh.=      1.0E-04
     force convergence thresh. =      1.0E-03
     Exchange-correlation= BEEF-VDW
                           (   1   4  43  14   2   0   0)
     nstep                     =           50

     celldm(1)=  17.806016  celldm(2)=   0.000000  celldm(3)=   1.565971
     celldm(4)=   0.000000  celldm(5)=   0.000000  celldm(6)=   0.000000

     crystal axes: (cart. coord. in units of alat)
               a(1) = (   1.000000   0.000000   0.000000 )
               a(2) = (  -0.500000   0.866025   0.000000 )
               a(3) = (   0.000000   0.000000   1.565971 )

     reciprocal axes: (cart. coord. in units 2 pi/alat)
               b(1) = (  1.000000  0.577350 -0.000000 )
               b(2) = (  0.000000  1.154701  0.000000 )
               b(3) = (  0.000000 -0.000000  0.638581 )

     PseudoPot. # 1 for Pb read from file:
     /trace/group/acmegroup/atimmins/packages/espresso/pseudo/psl_1.0.0/pslibrary.1.0.0/pbe/PSEUDOPOTENTIALS/Pb.pbe-dn-kjpaw_psl.1.0.0.UPF
     MD5 check sum: 39ab5b8a6bbd56b7735ad9f188aac93a
     Pseudo is Projector augmented-wave + core cor, Zval = 14.0
     Generated using 'atomic' code by A. Dal Corso  v.7.1
     Shape of augmentation charge: PSQ
     Using radial grid of 1281 points,  6 beta functions with:
                l(1) =   0
                l(2) =   0
                l(3) =   1
                l(4) =   1
                l(5) =   2
                l(6) =   2
     Q(r) pseudized with 0 coefficients

     PseudoPot. # 2 for I  read from file:
     /trace/group/acmegroup/atimmins/packages/espresso/pseudo/psl_1.0.0/pslibrary.1.0.0/pbe/PSEUDOPOTENTIALS/I.pbe-dn-kjpaw_psl.1.0.0.UPF
     MD5 check sum: bfa8781bc1224d19af3f3980e3fab11e
     Pseudo is Projector augmented-wave + core cor, Zval = 17.0
     Generated using 'atomic' code by A. Dal Corso  v.7.1
     Shape of augmentation charge: PSQ
     Using radial grid of 1247 points,  6 beta functions with:
                l(1) =   0
                l(2) =   0
                l(3) =   1
                l(4) =   1
                l(5) =   2
                l(6) =   2
     Q(r) pseudized with 0 coefficients

     atomic species   valence    mass     pseudopotential
        Pb            14.00   207.20000     Pb( 1.00)
        I             17.00   126.90447     I ( 1.00)

     No symmetry found

                                    s                        frac. trans.

      isym =  1     identity

 cryst.   s( 1) = (     1          0          0      )
                  (     0          1          0      )
                  (     0          0          1      )

 cart.    s( 1) = (  1.0000000  0.0000000  0.0000000 )
                  (  0.0000000  1.0000000  0.0000000 )
                  (  0.0000000  0.0000000  1.0000000 )

     point group C_1 (1)
     there are  1 classes
     the character table:

       E
A      1.00

     the symmetry operations in each class and the name of the first element:

     E        1
          identity

   Cartesian axes

     site n.     atom                  positions (alat units)
         1           Pb  tau(   1) = (   0.2500068   0.4329836   0.7829793  )
         2           Pb  tau(   2) = (   0.0000153   0.8659852   1.5659567  )
         3           Pb  tau(   3) = (   0.0000051   0.8659943   0.7829710  )
         4           Pb  tau(   4) = (   0.7500170   0.4329726   1.5659715  )
         5           Pb  tau(   5) = (   0.7500068   0.4329816   0.7829858  )
         6           Pb  tau(   6) = (   0.5000153   0.8659833   1.5659633  )
         7           Pb  tau(   7) = (   0.5000051   0.8659923   0.7829776  )
         8           I   tau(   8) = (   0.2500107   0.1443099   0.5818649  )
         9           I   tau(   9) = (   0.2500209   0.1443009   1.3648506  )
        10           I   tau(  10) = (   0.0000091   0.5773207   0.5818567  )
        11           I   tau(  11) = (   0.0000193   0.5773116   1.3648424  )
        12           I   tau(  12) = (   0.7500107   0.1443080   0.5818714  )
        13           I   tau(  13) = (   0.7500209   0.1442990   1.3648571  )
        14           I   tau(  14) = (   0.5000091   0.5773187   0.5818632  )
        15           I   tau(  15) = (   0.5000193   0.5773097   1.3648489  )
        16           I   tau(  16) = (  -0.0000034   0.2886595   0.2011110  )
        17           I   tau(  17) = (   0.0000068   0.2886504   0.9840967  )
        18           I   tau(  18) = (  -0.2500051   0.7216702   0.2011027  )
        19           I   tau(  19) = (  -0.2499949   0.7216611   0.9840884  )
        20           I   tau(  20) = (   0.4999966   0.2886575   0.2011175  )
        21           I   tau(  21) = (   0.5000068   0.2886485   0.9841032  )
        22           I   tau(  22) = (   0.2499949   0.7216682   0.2011092  )
        23           I   tau(  23) = (   0.2500051   0.7216592   0.9840949  )
        24           I   tau(  24) = (   0.2500170   0.4329745   1.5659650  )

   Crystallographic axes

     site n.     atom                  positions (cryst. coord.)
         1           Pb  tau(   1) = (  0.4999900  0.4999663  0.4999959  )
         2           Pb  tau(   2) = (  0.4999921  0.9999536  0.9999906  )
         3           Pb  tau(   3) = (  0.4999871  0.9999640  0.4999906  )
         4           Pb  tau(   4) = (  0.9999938  0.4999537  1.0000001  )
         5           Pb  tau(   5) = (  0.9999888  0.4999641  0.5000001  )
         6           Pb  tau(   6) = (  0.9999910  0.9999514  0.9999948  )
         7           Pb  tau(   7) = (  0.9999860  0.9999618  0.4999948  )
         8           I   tau(   8) = (  0.3333281  0.1666348  0.3715680  )
         9           I   tau(   9) = (  0.3333331  0.1666243  0.8715680  )
        10           I   tau(  10) = (  0.3333253  0.6666325  0.3715628  )
        11           I   tau(  11) = (  0.3333303  0.6666220  0.8715628  )
        12           I   tau(  12) = (  0.8333270  0.1666326  0.3715722  )
        13           I   tau(  13) = (  0.8333320  0.1666221  0.8715722  )
        14           I   tau(  14) = (  0.8333242  0.6666303  0.3715669  )
        15           I   tau(  15) = (  0.8333292  0.6666198  0.8715669  )
        16           I   tau(  16) = (  0.1666542  0.3333152  0.1284257  )
        17           I   tau(  17) = (  0.1666592  0.3333048  0.6284257  )
        18           I   tau(  18) = (  0.1666514  0.8333129  0.1284204  )
        19           I   tau(  19) = (  0.1666564  0.8333025  0.6284204  )
        20           I   tau(  20) = (  0.6666531  0.3333130  0.1284299  )
        21           I   tau(  21) = (  0.6666581  0.3333026  0.6284299  )
        22           I   tau(  22) = (  0.6666503  0.8333107  0.1284246  )
        23           I   tau(  23) = (  0.6666553  0.8333003  0.6284246  )
        24           I   tau(  24) = (  0.4999949  0.4999559  0.9999959  )

     number of k points=     4  Gaussian smearing, width (Ry)=  0.0100
                       cart. coord. in units 2pi/alat
        k(    1) = (   0.0000000   0.0000000   0.0000000), wk =   0.5000000
        k(    2) = (   0.0000000  -0.5773503   0.0000000), wk =   0.5000000
        k(    3) = (   0.5000000  -0.2886751   0.0000000), wk =   0.5000000
        k(    4) = (  -0.5000000  -0.2886751   0.0000000), wk =   0.5000000

                       cryst. coord.
        k(    1) = (   0.0000000   0.0000000   0.0000000), wk =   0.5000000
        k(    2) = (   0.0000000  -0.5000000   0.0000000), wk =   0.5000000
        k(    3) = (   0.5000000  -0.5000000   0.0000000), wk =   0.5000000
        k(    4) = (  -0.5000000  -0.0000000   0.0000000), wk =   0.5000000

     Check: negative core charge=   -0.000002

     Initial potential from superposition of free atoms

     starting charge     386.9823, renormalised to     389.0000

     %%%%%%%%%%%%%%%%%%%%%%%%%%%%%%%%%%%%%%%%%%%%%%%%%%%%%%%%%%%%%%%%%%%%%%%%
     %                                                                      %
     % You are using vdW-DF, which was implemented by the Thonhauser group. %
     % Please cite the following two papers that made this development      %
     % possible and the two reviews that describe the various versions:     %
     %                                                                      %
     %   T. Thonhauser et al., PRL 115, 136402 (2015).                      %
     %   T. Thonhauser et al., PRB 76, 125112 (2007).                       %
     %   K. Berland et al., Rep. Prog. Phys. 78, 066501 (2015).             %
     %   D.C. Langreth et al., J. Phys.: Condens. Matter 21, 084203 (2009). %
     %                                                                      %
     % If you are calculating stress with vdW-DF, please also cite:         %
     %                                                                      %
     %   R. Sabatini et al., J. Phys.: Condens. Matter 24, 424209 (2012).   %
     %                                                                      %
     %%%%%%%%%%%%%%%%%%%%%%%%%%%%%%%%%%%%%%%%%%%%%%%%%%%%%%%%%%%%%%%%%%%%%%%%

     %%%%%%%%%%%%%%%%%%%%%%%%%%%%%%%%%%%%%%%%%%%%%%%%%%%%%%%%%%%%%%%%%%%%%%%%
     %                                                                      %
     %  vdW-DF NEWS:                                                        %
     %                                                                      %
     %  * vdW-DF3 is now available. DOI: 10.1021/acs.jctc.0c00471           %
     %    use with input_dft = 'vdW-DF3-opt1' or 'vdW-DF3-opt2'             %
     %                                                                      %
[...]
     atom   19 type  2   force =     0.00000177   -0.00000255    0.00019365
     atom   20 type  2   force =    -0.00002282    0.00001352    0.00011807
     atom   21 type  2   force =    -0.00008985    0.00005389    0.00000734
     atom   22 type  2   force =     0.00000010   -0.00002722    0.00011298
     atom   23 type  2   force =    -0.00000153   -0.00010521    0.00000910
     atom   24 type  2   force =    -0.00000097    0.00000074   -0.00000474
     The non-local contrib.  to forces
     atom    1 type  1   force =     0.00000441   -0.00002034   -0.00001902
     atom    2 type  1   force =    -0.00001247   -0.00000659   -0.00001151
     atom    3 type  1   force =     0.00001432   -0.00001464   -0.00001722
     atom    4 type  1   force =    -0.00000796   -0.00003945    0.00002056
     atom    5 type  1   force =     0.00000350   -0.00003609   -0.00001246
     atom    6 type  1   force =     0.00002710   -0.00002743   -0.00000370
     atom    7 type  1   force =    -0.00000813   -0.00001600   -0.00001324
     atom    8 type  2   force =     0.00000409   -0.00231667    0.26881472
     atom    9 type  2   force =     0.00000429   -0.07584758    0.13098937
     atom   10 type  2   force =    -0.00201485    0.00117268    0.26882170
     atom   11 type  2   force =    -0.06567918    0.03794446    0.13096161
     atom   12 type  2   force =    -0.00000785    0.00001055    0.30505570
     atom   13 type  2   force =    -0.00000144   -0.00000257    0.20322614
     atom   14 type  2   force =     0.00201150    0.00116743    0.26881385
     atom   15 type  2   force =     0.06567466    0.03793950    0.13097812
     atom   16 type  2   force =    -0.06569836   -0.03790112   -0.13096029
     atom   17 type  2   force =    -0.00201879   -0.00115280   -0.26882785
     atom   18 type  2   force =    -0.00000620    0.00000226   -0.20320861
     atom   19 type  2   force =    -0.00000074    0.00000113   -0.30504704
     atom   20 type  2   force =     0.06570053   -0.03790538   -0.13095653
     atom   21 type  2   force =     0.00201524   -0.00115101   -0.26882690
     atom   22 type  2   force =    -0.00000072    0.07584089   -0.13095775
     atom   23 type  2   force =     0.00000120    0.00233271   -0.26882268
     atom   24 type  2   force =    -0.00000174    0.00000077    0.00001170
     The ionic contribution  to forces
     atom    1 type  1   force =     0.00011980    0.00043280    0.00325164
     atom    2 type  1   force =     0.00040317   -0.00011524   -0.00286256
     atom    3 type  1   force =    -0.00092627   -0.00002346    0.00289179
     atom    4 type  1   force =     0.00026694    0.00136785   -0.00293783
     atom    5 type  1   force =    -0.00026504    0.00150742    0.00316807
     atom    6 type  1   force =    -0.00083046    0.00042234   -0.00293202
     atom    7 type  1   force =     0.00078022   -0.00021368    0.00319176
     atom    8 type  2   force =     0.00030075    0.54679568  -15.24891528
     atom    9 type  2   force =    -0.00032454    6.62556531  -10.26223503
     atom   10 type  2   force =     0.47356154   -0.27374796  -15.24888713
     atom   11 type  2   force =     5.73580570   -3.31183121  -10.26348825
     atom   12 type  2   force =    -0.00035557    0.00017223  -12.04981432
     atom   13 type  2   force =     0.00043545   -0.00066404  -12.98244821
     atom   14 type  2   force =    -0.47342355   -0.27402929  -15.24898158
     atom   15 type  2   force =    -5.73719482   -3.31235309  -10.26306793
     atom   16 type  2   force =     5.73744590    3.31150090   10.25757038
     atom   17 type  2   force =     0.47453318    0.27336703   15.25367736
     atom   18 type  2   force =    -0.00006935   -0.00005876   12.97807058
     atom   19 type  2   force =     0.00004742   -0.00048745   12.05402587
     atom   20 type  2   force =    -5.73670709    3.31149107   10.25908293
     atom   21 type  2   force =    -0.47443076    0.27373389   15.25376693
     atom   22 type  2   force =     0.00030046   -6.62456061   10.25706318
     atom   23 type  2   force =     0.00034998   -0.54786515   15.25384060
     atom   24 type  2   force =     0.00017694   -0.00040659   -0.00303097
     The local contribution  to forces
     atom    1 type  1   force =    -0.00012307   -0.00041019   -0.00321321
     atom    2 type  1   force =    -0.00038942    0.00012193    0.00286439
     atom    3 type  1   force =     0.00090632    0.00003764   -0.00285165
     atom    4 type  1   force =    -0.00025958   -0.00132787    0.00290625
     atom    5 type  1   force =     0.00025949   -0.00146267   -0.00313409
     atom    6 type  1   force =     0.00080155   -0.00039457    0.00292625
     atom    7 type  1   force =    -0.00076728    0.00022759   -0.00315664
     atom    8 type  2   force =    -0.00030849   -0.54433915   14.98571813
     atom    9 type  2   force =     0.00031816   -6.55141748   10.13425156
     atom   10 type  2   force =    -0.47142115    0.27250560   14.98567848
     atom   11 type  2   force =    -5.67160629    3.27474387   10.13553527
     atom   12 type  2   force =     0.00036806   -0.00018886   11.75107969
     atom   13 type  2   force =    -0.00043159    0.00066319   12.78435888
     atom   14 type  2   force =     0.47128608    0.27279695   14.98578372
     atom   15 type  2   force =     5.67299267    3.27526924   10.13509528
     atom   16 type  2   force =    -5.67322034   -3.27445597  -10.12960812
     atom   17 type  2   force =    -0.47238708   -0.27214898  -14.99048438
     atom   18 type  2   force =     0.00007404    0.00005858  -12.77998613
     atom   19 type  2   force =    -0.00005136    0.00049221  -11.75532798
     atom   20 type  2   force =     5.67248578   -3.27444048  -10.13112486
     atom   21 type  2   force =     0.47228832   -0.27251264  -14.99057198
     atom   22 type  2   force =    -0.00029632    6.55042246  -10.12910187
     atom   23 type  2   force =    -0.00034655    0.54539151  -14.99065451
     atom   24 type  2   force =    -0.00017559    0.00040462    0.00301873
     The core correction contribution to forces
     atom    1 type  1   force =    -0.00000019    0.00000014   -0.00000150
     atom    2 type  1   force =     0.00000008    0.00000016    0.00000082
     atom    3 type  1   force =     0.00000014    0.00000022   -0.00000203
     atom    4 type  1   force =     0.00000019    0.00000052    0.00000077
     atom    5 type  1   force =     0.00000013   -0.00000009   -0.00000189
     atom    6 type  1   force =    -0.00000031    0.00000053    0.00000067
     atom    7 type  1   force =    -0.00000018    0.00000040   -0.00000194
     atom    8 type  2   force =    -0.00000051   -0.00003027   -0.00565942
     atom    9 type  2   force =    -0.00000014    0.00170964   -0.00311563
     atom   10 type  2   force =    -0.00002796    0.00001777   -0.00565965
     atom   11 type  2   force =     0.00148663   -0.00085863   -0.00311643
     atom   12 type  2   force =    -0.00000040    0.00000211   -0.00656527
     atom   13 type  2   force =    -0.00000087    0.00000272   -0.00440442
     atom   14 type  2   force =     0.00002712    0.00001788   -0.00565914
     atom   15 type  2   force =    -0.00148347   -0.00085669   -0.00311625
     atom   16 type  2   force =     0.00148280    0.00085569    0.00311505
     atom   17 type  2   force =    -0.00002813   -0.00001405    0.00565805
     atom   18 type  2   force =    -0.00000071    0.00000255    0.00440452
     atom   19 type  2   force =    -0.00000073    0.00000246    0.00656728
     atom   20 type  2   force =    -0.00148318    0.00085588    0.00311638
     atom   21 type  2   force =     0.00002722   -0.00001409    0.00565773
     atom   22 type  2   force =    -0.00000007   -0.00171371    0.00311482
     atom   23 type  2   force =    -0.00000049    0.00003360    0.00565770
     atom   24 type  2   force =    -0.00000083    0.00000262    0.00000243
     The Hubbard contrib.    to forces
     atom    1 type  1   force =     0.00000000    0.00000000    0.00000000
     atom    2 type  1   force =     0.00000000    0.00000000    0.00000000
     atom    3 type  1   force =     0.00000000    0.00000000    0.00000000
     atom    4 type  1   force =     0.00000000    0.00000000    0.00000000
     atom    5 type  1   force =     0.00000000    0.00000000    0.00000000
     atom    6 type  1   force =     0.00000000    0.00000000    0.00000000
     atom    7 type  1   force =     0.00000000    0.00000000    0.00000000
     atom    8 type  2   force =     0.00000000    0.00000000    0.00000000
     atom    9 type  2   force =     0.00000000    0.00000000    0.00000000
     atom   10 type  2   force =     0.00000000    0.00000000    0.00000000
     atom   11 type  2   force =     0.00000000    0.00000000    0.00000000
     atom   12 type  2   force =     0.00000000    0.00000000    0.00000000
     atom   13 type  2   force =     0.00000000    0.00000000    0.00000000
     atom   14 type  2   force =     0.00000000    0.00000000    0.00000000
     atom   15 type  2   force =     0.00000000    0.00000000    0.00000000
     atom   16 type  2   force =     0.00000000    0.00000000    0.00000000
     atom   17 type  2   force =     0.00000000    0.00000000    0.00000000
     atom   18 type  2   force =     0.00000000    0.00000000    0.00000000
     atom   19 type  2   force =     0.00000000    0.00000000    0.00000000
     atom   20 type  2   force =     0.00000000    0.00000000    0.00000000
     atom   21 type  2   force =     0.00000000    0.00000000    0.00000000
     atom   22 type  2   force =     0.00000000    0.00000000    0.00000000
     atom   23 type  2   force =     0.00000000    0.00000000    0.00000000
     atom   24 type  2   force =     0.00000000    0.00000000    0.00000000
     The SCF correction term to forces
     atom    1 type  1   force =    -0.00000012    0.00000013   -0.00000080
     atom    2 type  1   force =    -0.00000049   -0.00000065    0.00000072
     atom    3 type  1   force =     0.00000070    0.00000040    0.00000024
     atom    4 type  1   force =     0.00000018    0.00000085    0.00000053
     atom    5 type  1   force =     0.00000006   -0.00000043    0.00000003
     atom    6 type  1   force =     0.00000046   -0.00000054    0.00000059
     atom    7 type  1   force =    -0.00000078    0.00000056    0.00000033
     atom    8 type  2   force =     0.00000617   -0.00000171    0.00001234
     atom    9 type  2   force =     0.00000309    0.00001259   -0.00000008
     atom   10 type  2   force =    -0.00000916    0.00000016    0.00001914
     atom   11 type  2   force =     0.00001691   -0.00001235   -0.00000407
     atom   12 type  2   force =    -0.00000668    0.00000934    0.00002914
     atom   13 type  2   force =    -0.00000282    0.00000387   -0.00001293
     atom   14 type  2   force =     0.00000925   -0.00000739    0.00001516
     atom   15 type  2   force =    -0.00001060   -0.00001288   -0.00000231
     atom   16 type  2   force =     0.00001188    0.00001429   -0.00000254
     atom   17 type  2   force =    -0.00000983    0.00000586   -0.00001528
     atom   18 type  2   force =     0.00000306   -0.00000400    0.00000932
     atom   19 type  2   force =     0.00000697   -0.00000973   -0.00002532
     atom   20 type  2   force =    -0.00001909    0.00001360   -0.00000067
     atom   21 type  2   force =     0.00000990   -0.00000110   -0.00001926
     atom   22 type  2   force =    -0.00000347   -0.00001507   -0.00000621
     atom   23 type  2   force =    -0.00000589    0.00000330   -0.00001283
     atom   24 type  2   force =     0.00000003    0.00000049   -0.00000745

     Total force =     0.001121     Total SCF correction =     0.000079

     Computing stress (Cartesian axis) and pressure

     Non-local corr. energy    =      11.80308441 Ry

          total   stress  (Ry/bohr**3)                   (kbar)     P=       32.43
   0.00022913   0.00000001   0.00000000           33.71        0.00        0.00
   0.00000001   0.00022914  -0.00000000            0.00       33.71       -0.00
   0.00000000  -0.00000000   0.00020319            0.00       -0.00       29.89

     kinetic stress (kbar)  14717.43      0.01     -0.00
                                0.01  14717.44      0.00
                               -0.00      0.00  14716.09

     local   stress (kbar)  -6528.65      0.14     -0.17
                                0.14  -6528.39      0.19
                               -0.17      0.19   -295.26

     nonloc. stress (kbar)   -629.10      0.00     -0.00
                                0.00   -629.09      0.00
                               -0.00      0.00   -637.35

     hartree stress (kbar)  11838.22     -0.05      0.07
                               -0.05  11838.12     -0.08
                                0.07     -0.08   8992.61

     exc-cor stress (kbar)   7085.82     -0.00     -0.00
                               -0.00   7085.82      0.00
                               -0.00      0.00   7085.69

     corecor stress (kbar) -11517.11     -0.00      0.00
                               -0.00 -11517.11     -0.00
                                0.00     -0.00 -11516.99

     ewald   stress (kbar) -15018.67     -0.10      0.11
                               -0.10 -15018.86     -0.12
                                0.11     -0.12 -18401.38

     hubbard stress (kbar)      0.00      0.00      0.00
                                0.00      0.00      0.00
                                0.00      0.00      0.00

     DFT-D   stress (kbar)      0.00      0.00      0.00
                                0.00      0.00      0.00
                                0.00      0.00      0.00

     XDM     stress (kbar)      0.00      0.00      0.00
                                0.00      0.00      0.00
                                0.00      0.00      0.00

     dft-nl  stress (kbar)     85.78      0.00     -0.00
                                0.00     85.78      0.00
                               -0.00      0.00     86.47

     TS-vdW  stress (kbar)      0.00      0.00      0.00
                                0.00      0.00      0.00
                                0.00      0.00      0.00

     MDB     stress (kbar)      0.00      0.00      0.00
                                0.00      0.00      0.00
                                0.00      0.00      0.00

     3D-RISM stress (kbar)      0.00      0.00      0.00
                                0.00      0.00      0.00
                                0.00      0.00      0.00

     Energy error            =      9.1E-06 Ry
     Gradient error          =      7.2E-04 Ry/Bohr

     bfgs converged in  14 scf cycles and  13 bfgs steps
     (criteria: energy <  1.0E-04 Ry, force <  1.0E-03 Ry/Bohr)

     End of BFGS Geometry Optimization

     Final energy             =  -15855.3896565080 Ry

     File ./PbI2.bfgs deleted, as requested
Begin final coordinates

ATOMIC_POSITIONS (angstrom)
Pb            2.3556877063        4.0797932531        7.3775198904
Pb            0.0001085834        8.1597923482       14.7553809575
Pb            0.0000683397        8.1598722783        7.3774783017
Pb            7.0670462564        4.0797135338       14.7555093819
Pb            7.0669820522        4.0797799495        7.3775336116
Pb            4.7113725011        8.1598089671       14.7554179939
Pb            4.7113261304        8.1598835046        7.3775143028
I             2.3556820372        1.3681583656        5.4988747181
I             2.3557823844        1.0219970034       12.6750717958
I             0.0072959627        5.4356825198        5.4988782633
I            -0.2919492573        5.6083698883       12.6752119303
I             7.0669537257        1.3598088237        5.5442132404
I             7.0669918809        1.3597703434       12.8205500557
I             4.7040878959        5.4356915385        5.4989022946
I             5.0037528499        5.6084991322       12.6751658659
I            -0.2923013325        2.5509914788        2.0803358987
I             0.0072841234        2.7239856723        9.2563426093
I            -2.3555599995        6.7998895283        1.9347869807
I            -2.3555623365        6.7998980595        9.2110931545
I             5.0035525550        2.5510631042        2.0801513314
I             4.7040933053        2.7239819591        9.2563127939
I             2.3556765625        7.1375186831        2.0803840714
I             2.3556837733        6.7915599499        9.2563188136
I             2.3557400767        4.0797675583       14.7555840945
End final coordinates

     Writing all to output data dir ./PbI2.save/

     General routines

     Parallel routines

     PAW routines

   This run was terminated on:   5: 1: 0  28Mar2024

   JOB DONE.