     Program PWSCF v.7.1 starts on 19Feb2024 at 13: 3:30

     Reading input from espresso.pwi
Warning: card &CELL ignored
Warning: card    CELL_DYNAMICS    = 'BFGS' ignored
Warning: card / ignored

     Current dimensions of program PWSCF are:
     Max number of different atomic species (ntypx) = 10
     Max number of k-points (npk) =  40000
     Max angular momentum in pseudopotentials (lmaxx) =  4
     file C.pbe-n-kjpaw_psl.1.0.0.UPF: wavefunction(s)  2S 2P renormalized

     IMPORTANT: XC functional enforced from input :
     Exchange-correlation= BEEF-VDW
                           (   1   4  43  14   2   0   0)
     Any further DFT definition will be discarded
     Please, verify this is what you really want

     R & G space division:  proc/nbgrp/npool/nimage =     256
     wavefunctions fft division:  task group distribution
                                  #TG    x Z-proc =       8     32
     Subspace diagonalization in iterative solution of the eigenvalue problem:
     a serial algorithm will be used

     Using Pencil Decomposition

     bravais-lattice index     =            1
     lattice parameter (alat)  =      27.0027  a.u.
     unit-cell volume          =   19688.9026 (a.u.)^3
     number of atoms/cell      =          511
     number of atomic types    =            1
     number of electrons       =      2046.00
     number of Kohn-Sham states=         1228
     kinetic-energy cutoff     =      70.0000  Ry
     charge density cutoff     =     350.0000  Ry
     scf convergence threshold =      1.0E-07
     mixing beta               =       0.7000
     number of iterations used =            8  plain     mixing
     Exchange-correlation= BEEF-VDW
                           (   1   4  43  14   2   0   0)

     celldm(1)=  27.002699  celldm(2)=   0.000000  celldm(3)=   0.000000
     celldm(4)=   0.000000  celldm(5)=   0.000000  celldm(6)=   0.000000

     crystal axes: (cart. coord. in units of alat)
               a(1) = (   1.000000   0.000000   0.000000 )
               a(2) = (   0.000000   1.000000   0.000000 )
               a(3) = (   0.000000   0.000000   1.000000 )

     reciprocal axes: (cart. coord. in units 2 pi/alat)
               b(1) = (  1.000000  0.000000  0.000000 )
               b(2) = (  0.000000  1.000000  0.000000 )
               b(3) = (  0.000000  0.000000  1.000000 )

     PseudoPot. # 1 for C  read from file:
     //group///packages/espresso/pseudo/psl_1.0.0/pslibrary.1.0.0/pbe/PSEUDOPOTENTIALS/C.pbe-n-kjpaw_psl.1.0.0.UPF
     MD5 check sum: 5459cf7f2c8c37df2f7cde8914797f4d
     Pseudo is Projector augmented-wave + core cor, Zval =  4.0
     Generated using 'atomic' code by A. Dal Corso  v.7.1
     Shape of augmentation charge: PSQ
     Using radial grid of 1073 points,  4 beta functions with:
                l(1) =   0
                l(2) =   0
                l(3) =   1
                l(4) =   1
     Q(r) pseudized with 0 coefficients

     atomic species   valence    mass     pseudopotential
        C              4.00    12.01100     C ( 1.00)

      6 Sym. Ops. (no inversion) found ( 4 have fractional translation)

                                    s                        frac. trans.

      isym =  1     identity

 cryst.   s( 1) = (     1          0          0      )
                  (     0          1          0      )
                  (     0          0          1      )

 cart.    s( 1) = (  1.0000000  0.0000000  0.0000000 )
                  (  0.0000000  1.0000000  0.0000000 )
                  (  0.0000000  0.0000000  1.0000000 )

      isym =  2     120 deg rotation - cart. axis [1,-1,1]

 cryst.   s( 2) = (     0          0          1      )    f =( -0.2500000 )
                  (    -1          0          0      )       ( -0.2500000 )
                  (     0         -1          0      )       (  0.0000000 )

 cart.    s( 2) = (  0.0000000 -1.0000000  0.0000000 )    f =( -0.2500000 )
                  (  0.0000000  0.0000000 -1.0000000 )       ( -0.2500000 )
                  (  1.0000000  0.0000000  0.0000000 )       (  0.0000000 )

      isym =  3     120 deg rotation - cart. axis [-1,1,-1]

[...]

      isym =  4     inv. 180 deg rotation - cart. axis [1,1,0]

[...]

 cryst.   s( 5) = (     0          0          1      )
                  (     0          1          0      )
                  (     1          0          0      )

 cart.    s( 5) = (  0.0000000  0.0000000  1.0000000 )
                  (  0.0000000  1.0000000  0.0000000 )
                  (  1.0000000  0.0000000  0.0000000 )

      isym =  6     inv. 180 deg rotation - cart. axis [0,1,1]

 cryst.   s( 6) = (     1          0          0      )    f =(  0.0000000 )
                  (     0          0         -1      )       ( -0.2500000 )
                  (     0         -1          0      )       ( -0.2500000 )

 cart.    s( 6) = (  1.0000000  0.0000000  0.0000000 )    f =(  0.0000000 )
                  (  0.0000000  0.0000000 -1.0000000 )       ( -0.2500000 )
                  (  0.0000000 -1.0000000  0.0000000 )       ( -0.2500000 )

     point group C_3v (3m)
     there are  3 classes
     the character table:

       E     2C3   3s_v
A_1    1.00  1.00  1.00
A_2    1.00  1.00 -1.00
E      2.00 -1.00  0.00

     the symmetry operations in each class and the name of the first element:

     E        1
          identity
     2C3      2    3
          120 deg rotation - cart. axis [1,-1,1]
     3s_v     4    5    6
          inv. 180 deg rotation - cart. axis [1,1,0]

   Cartesian axes

     site n.     atom                  positions (alat units)
         1           C   tau(   1) = (   0.0625015   0.1874985   0.3125015  )
         2           C   tau(   2) = (   0.0625015   0.1874985   0.5625015  )
         3           C   tau(   3) = (   0.0625015   0.1874985   0.8125015  )
         4           C   tau(   4) = (   0.0625015   0.4374985   0.0625015  )
         5           C   tau(   5) = (   0.0625015   0.4374985   0.3125015  )
         6           C   tau(   6) = (   0.0625015   0.4374985   0.5625015  )
         7           C   tau(   7) = (   0.0625015   0.4374985   0.8125015  )
         8           C   tau(   8) = (   0.0625015   0.6874985   0.0625015  )
         9           C   tau(   9) = (   0.0625015   0.6874985   0.3125015  )
        10           C   tau(  10) = (   0.0625015   0.6874985   0.5625015  )
        11           C   tau(  11) = (   0.0625015   0.6874985   0.8125015  )
        12           C   tau(  12) = (   0.0625015   0.9374985   0.0625015  )
        13           C   tau(  13) = (   0.0625015   0.9374985   0.3125015  )
        14           C   tau(  14) = (   0.0625015   0.9374985   0.5625015  )
        15           C   tau(  15) = (   0.0625015   0.9374985   0.8125015  )
        16           C   tau(  16) = (   0.3125015   0.1874985   0.0625015  )
        17           C   tau(  17) = (   0.3125015   0.1874985   0.3125015  )
        18           C   tau(  18) = (   0.3125015   0.1874985   0.5625015  )
        19           C   tau(  19) = (   0.3125015   0.1874985   0.8125015  )
        20           C   tau(  20) = (   0.3125015   0.4374985   0.0625015  )
        21           C   tau(  21) = (   0.3125015   0.4374985   0.3125015  )
        22           C   tau(  22) = (   0.3125015   0.4374985   0.5625015  )
        23           C   tau(  23) = (   0.3125015   0.4374985   0.8125015  )
        24           C   tau(  24) = (   0.3125015   0.6874985   0.0625015  )
        25           C   tau(  25) = (   0.3125015   0.6874985   0.3125015  )
        26           C   tau(  26) = (   0.3125015   0.6874985   0.5625015  )
        27           C   tau(  27) = (   0.3125015   0.6874985   0.8125015  )
        28           C   tau(  28) = (   0.3125015   0.9374985   0.0625015  )
        29           C   tau(  29) = (   0.3125015   0.9374985   0.3125015  )
        30           C   tau(  30) = (   0.3125015   0.9374985   0.5625015  )
        31           C   tau(  31) = (   0.3125015   0.9374985   0.8125015  )
        32           C   tau(  32) = (   0.5625015   0.1874985   0.0625015  )
        33           C   tau(  33) = (   0.5625015   0.1874985   0.3125015  )
        34           C   tau(  34) = (   0.5625015   0.1874985   0.5625015  )
        35           C   tau(  35) = (   0.5625015   0.1874985   0.8125015  )
        36           C   tau(  36) = (   0.5625015   0.4374985   0.0625015  )
        37           C   tau(  37) = (   0.5625015   0.4374985   0.3125015  )
        38           C   tau(  38) = (   0.5625015   0.4374985   0.5625015  )
        39           C   tau(  39) = (   0.5625015   0.4374985   0.8125015  )
        40           C   tau(  40) = (   0.5625015   0.6874985   0.0625015  )
        41           C   tau(  41) = (   0.5625015   0.6874985   0.3125015  )
        42           C   tau(  42) = (   0.5625015   0.6874985   0.5625015  )
        43           C   tau(  43) = (   0.5625015   0.6874985   0.8125015  )
        44           C   tau(  44) = (   0.5625015   0.9374985   0.0625015  )
        45           C   tau(  45) = (   0.5625015   0.9374985   0.3125015  )
        46           C   tau(  46) = (   0.5625015   0.9374985   0.5625015  )
        47           C   tau(  47) = (   0.5625015   0.9374985   0.8125015  )
        48           C   tau(  48) = (   0.8125015   0.1874985   0.0625015  )
        49           C   tau(  49) = (   0.8125015   0.1874985   0.3125015  )
        50           C   tau(  50) = (   0.8125015   0.1874985   0.5625015  )
        51           C   tau(  51) = (   0.8125015   0.1874985   0.8125015  )
        52           C   tau(  52) = (   0.8125015   0.4374985   0.0625015  )
        53           C   tau(  53) = (   0.8125015   0.4374985   0.3125015  )
        54           C   tau(  54) = (   0.8125015   0.4374985   0.5625015  )
        55           C   tau(  55) = (   0.8125015   0.4374985   0.8125015  )
        56           C   tau(  56) = (   0.8125015   0.6874985   0.0625015  )
        57           C   tau(  57) = (   0.8125015   0.6874985   0.3125015  )
        58           C   tau(  58) = (   0.8125015   0.6874985   0.5625015  )
        59           C   tau(  59) = (   0.8125015   0.6874985   0.8125015  )
        60           C   tau(  60) = (   0.8125015   0.9374985   0.0625015  )
[...]
       497           C   tau( 497) = (   0.8750000   0.1250000   0.3750000  )
       498           C   tau( 498) = (   0.8750000   0.1250000   0.6250000  )
       499           C   tau( 499) = (   0.8750000   0.1250000   0.8750000  )
       500           C   tau( 500) = (   0.8750000   0.3750000   0.1250000  )
       501           C   tau( 501) = (   0.8750000   0.3750000   0.3750000  )
       502           C   tau( 502) = (   0.8750000   0.3750000   0.6250000  )
       503           C   tau( 503) = (   0.8750000   0.3750000   0.8750000  )
       504           C   tau( 504) = (   0.8750000   0.6250000   0.1250000  )
       505           C   tau( 505) = (   0.8750000   0.6250000   0.3750000  )
       506           C   tau( 506) = (   0.8750000   0.6250000   0.6250000  )
       507           C   tau( 507) = (   0.8750000   0.6250000   0.8750000  )
[...]
     atom   26 type  1   force =     0.00000000    0.00000000    0.00000000
     atom   27 type  1   force =     0.00000000    0.00000000    0.00000000
     atom   28 type  1   force =     0.00000000    0.00000000    0.00000000
     atom   29 type  1   force =     0.00000000    0.00000000    0.00000000
     atom   30 type  1   force =     0.00000000    0.00000000    0.00000000
     atom   31 type  1   force =     0.00000000    0.00000000    0.00000000
     atom   32 type  1   force =     0.00000000    0.00000000    0.00000000
     atom   33 type  1   force =     0.00000000    0.00000000    0.00000000
     atom   34 type  1   force =     0.00000000    0.00000000    0.00000000
     atom   35 type  1   force =     0.00000000    0.00000000    0.00000000
     atom   36 type  1   force =     0.00000000    0.00000000    0.00000000
     atom   37 type  1   force =     0.00000000    0.00000000    0.00000000
     atom   38 type  1   force =     0.00000000    0.00000000    0.00000000
     atom   39 type  1   force =     0.00000000    0.00000000    0.00000000
     atom   40 type  1   force =     0.00000000    0.00000000    0.00000000
     atom   41 type  1   force =     0.00000000    0.00000000    0.00000000
     atom   42 type  1   force =     0.00000000    0.00000000    0.00000000
     atom   43 type  1   force =     0.00000000    0.00000000    0.00000000
     atom   44 type  1   force =     0.00000000    0.00000000    0.00000000
     atom   45 type  1   force =     0.00000000    0.00000000    0.00000000
     atom   46 type  1   force =     0.00000000    0.00000000    0.00000000
     atom   47 type  1   force =     0.00000000    0.00000000    0.00000000
     atom   48 type  1   force =     0.00000000    0.00000000    0.00000000
     atom   49 type  1   force =     0.00000000    0.00000000    0.00000000
     atom   50 type  1   force =     0.00000000    0.00000000    0.00000000
     atom   51 type  1   force =     0.00000000    0.00000000    0.00000000
     atom   52 type  1   force =     0.00000000    0.00000000    0.00000000
     atom   53 type  1   force =     0.00000000    0.00000000    0.00000000
     atom   54 type  1   force =     0.00000000    0.00000000    0.00000000
     atom   55 type  1   force =     0.00000000    0.00000000    0.00000000
     atom   56 type  1   force =     0.00000000    0.00000000    0.00000000
     atom   57 type  1   force =     0.00000000    0.00000000    0.00000000
     atom   58 type  1   force =     0.00000000    0.00000000    0.00000000
     atom   59 type  1   force =     0.00000000    0.00000000    0.00000000
     atom   60 type  1   force =     0.00000000    0.00000000    0.00000000
[...]
     atom  497 type  1   force =     0.00000000    0.00000000    0.00000000
     atom  498 type  1   force =     0.00000000    0.00000000    0.00000000
     atom  499 type  1   force =     0.00000000    0.00000000    0.00000000
     atom  500 type  1   force =     0.00000000    0.00000000    0.00000000
     atom  501 type  1   force =     0.00000000    0.00000000    0.00000000
     atom  502 type  1   force =     0.00000000    0.00000000    0.00000000
     atom  503 type  1   force =     0.00000000    0.00000000    0.00000000
     atom  504 type  1   force =     0.00000000    0.00000000    0.00000000
     atom  505 type  1   force =     0.00000000    0.00000000    0.00000000
     atom  506 type  1   force =     0.00000000    0.00000000    0.00000000
     atom  507 type  1   force =     0.00000000    0.00000000    0.00000000
     atom  508 type  1   force =     0.00000000    0.00000000    0.00000000
     atom  509 type  1   force =     0.00000000    0.00000000    0.00000000
     atom  510 type  1   force =     0.00000000    0.00000000    0.00000000
     atom  511 type  1   force =     0.00000000    0.00000000    0.00000000
     The SCF correction term to forces
     atom    1 type  1   force =    -0.00002412    0.00002412    0.00000023
     atom    2 type  1   force =     0.00000163   -0.00000163   -0.00000529
     atom    3 type  1   force =     0.00000455   -0.00000455    0.00004600
     atom    4 type  1   force =     0.00000455   -0.00004600    0.00000455
     atom    5 type  1   force =     0.00002338   -0.00000523   -0.00000211
     atom    6 type  1   force =    -0.00000128    0.00000558   -0.00000729
     atom    7 type  1   force =    -0.00002125   -0.00000336    0.00000336
     atom    8 type  1   force =     0.00000163    0.00000529    0.00000163
     atom    9 type  1   force =     0.00000236    0.00000211    0.00000687
     atom   10 type  1   force =    -0.00000083    0.00000275   -0.00000275
     atom   11 type  1   force =    -0.00000128    0.00000729   -0.00000558
     atom   12 type  1   force =    -0.00002412   -0.00000023   -0.00002412
     atom   13 type  1   force =    -0.00003575   -0.00002116    0.00002116
     atom   14 type  1   force =     0.00000236   -0.00000687   -0.00000211
     atom   15 type  1   force =     0.00002338    0.00000211    0.00000523
     atom   16 type  1   force =     0.00000023    0.00002412   -0.00002412
     atom   17 type  1   force =     0.00002116    0.00003575    0.00002116
     atom   18 type  1   force =     0.00000687   -0.00000236   -0.00000211
     atom   19 type  1   force =    -0.00000211   -0.00002338    0.00000523
     atom   20 type  1   force =    -0.00000211   -0.00000523    0.00002338
     atom   21 type  1   force =    -0.00002136   -0.00002062   -0.00002136
     atom   22 type  1   force =    -0.00004095   -0.00004475   -0.00002643
     atom   23 type  1   force =    -0.00001236   -0.00002123    0.00002123
     atom   24 type  1   force =     0.00000687    0.00000211    0.00000236
     atom   25 type  1   force =    -0.00004321   -0.00001772   -0.00004321
     atom   26 type  1   force =    -0.00009495    0.00000443   -0.00000443
     atom   27 type  1   force =    -0.00004095    0.00002643    0.00004475
     atom   28 type  1   force =     0.00002116   -0.00002116   -0.00003575
     atom   29 type  1   force =    -0.00000449    0.00000449   -0.00000449
     atom   30 type  1   force =    -0.00004321    0.00004321    0.00001772
     atom   31 type  1   force =    -0.00002136    0.00002136    0.00002062
     atom   32 type  1   force =    -0.00000529   -0.00000163    0.00000163
     atom   33 type  1   force =    -0.00000211   -0.00000236    0.00000687
     atom   34 type  1   force =    -0.00000275    0.00000083   -0.00000275
     atom   35 type  1   force =    -0.00000729    0.00000128   -0.00000558
     atom   36 type  1   force =    -0.00000729    0.00000558   -0.00000128
     atom   37 type  1   force =    -0.00002643   -0.00004475   -0.00004095
     atom   38 type  1   force =     0.00000180   -0.00009499    0.00000180
     atom   39 type  1   force =     0.00002087   -0.00004080    0.00004080
     atom   40 type  1   force =    -0.00000275    0.00000275   -0.00000083
     atom   41 type  1   force =    -0.00000443    0.00000443   -0.00009495
     atom   42 type  1   force =     0.00000058   -0.00000058    0.00000058
     atom   43 type  1   force =     0.00000180   -0.00000180    0.00009499
     atom   44 type  1   force =    -0.00000211   -0.00000687    0.00000236
     atom   45 type  1   force =     0.00001772    0.00004321   -0.00004321
     atom   46 type  1   force =    -0.00000443    0.00009495   -0.00000443
     atom   47 type  1   force =    -0.00002643    0.00004095    0.00004475
     atom   48 type  1   force =     0.00004600   -0.00000455    0.00000455
     atom   49 type  1   force =     0.00000523   -0.00002338   -0.00000211
     atom   50 type  1   force =    -0.00000558    0.00000128   -0.00000729
     atom   51 type  1   force =     0.00000336    0.00002125    0.00000336
     atom   52 type  1   force =     0.00000336   -0.00000336   -0.00002125
     atom   53 type  1   force =     0.00002123   -0.00002123   -0.00001236
     atom   54 type  1   force =     0.00004080   -0.00004080    0.00002087
     atom   55 type  1   force =     0.00001489   -0.00001489    0.00001489
     atom   56 type  1   force =    -0.00000558    0.00000729   -0.00000128
     atom   57 type  1   force =     0.00004475    0.00002643   -0.00004095
     atom   58 type  1   force =     0.00009499   -0.00000180    0.00000180
     atom   59 type  1   force =     0.00004080   -0.00002087    0.00004080
     atom   60 type  1   force =     0.00000523    0.00000211    0.00002338
[...]
     atom  497 type  1   force =     0.00000124   -0.00000314    0.00000045
     atom  498 type  1   force =     0.00000623    0.00001960   -0.00001868
     atom  499 type  1   force =     0.00004325    0.00002357    0.00004325
     atom  500 type  1   force =     0.00004325   -0.00004325   -0.00002357
     atom  501 type  1   force =     0.00002987   -0.00002987    0.00000679
     atom  502 type  1   force =     0.00001958   -0.00001958    0.00000573
     atom  503 type  1   force =     0.00000996   -0.00000996    0.00000996
     atom  504 type  1   force =     0.00000623    0.00001868   -0.00001960
     atom  505 type  1   force =     0.00006561    0.00001477   -0.00000891
     atom  506 type  1   force =     0.00008265   -0.00000729    0.00000729
     atom  507 type  1   force =     0.00001958   -0.00000573    0.00001958
     atom  508 type  1   force =     0.00000124   -0.00000045    0.00000314
     atom  509 type  1   force =     0.00003714    0.00001667   -0.00001667
     atom  510 type  1   force =     0.00006561    0.00000891   -0.00001477
     atom  511 type  1   force =     0.00002987   -0.00000679    0.00002987

     Total force =     0.003806     Total SCF correction =     0.001123
     SCF correction compared to forces is large: reduce conv_thr to get better values

     Computing stress (Cartesian axis) and pressure

[...]

          total   stress  (Ry/bohr**3)                   (kbar)     P=       21.20
   0.00014412  -0.00000003   0.00000003           21.20       -0.00        0.00
  -0.00000003   0.00014412  -0.00000003           -0.00       21.20       -0.00
   0.00000003  -0.00000003   0.00014412            0.00       -0.00       21.20

     kinetic stress (kbar)  18982.75     -0.00      0.00
                               -0.00  18982.75     -0.00
                                0.00     -0.00  18982.75

     local   stress (kbar)  -3528.89      0.01     -0.01
                                0.01  -3528.89      0.01
                               -0.01      0.01  -3528.89

     nonloc. stress (kbar)   4317.35      0.00     -0.00
                                0.00   4317.35      0.00
                               -0.00      0.00   4317.35

     hartree stress (kbar)   1284.27     -0.00      0.00
                               -0.00   1284.27     -0.00
                                0.00     -0.00   1284.27

     exc-cor stress (kbar)   -417.69      0.00     -0.00
                                0.00   -417.69      0.00
                               -0.00      0.00   -417.69

     corecor stress (kbar)  -4426.94     -0.00      0.00
                               -0.00  -4426.94     -0.00
                                0.00     -0.00  -4426.94

     ewald   stress (kbar) -16214.49     -0.01      0.01
                               -0.01 -16214.49     -0.01
                                0.01     -0.01 -16214.49

     hubbard stress (kbar)      0.00      0.00      0.00
                                0.00      0.00      0.00
                                0.00      0.00      0.00

     DFT-D   stress (kbar)      0.00      0.00      0.00
                                0.00      0.00      0.00
                                0.00      0.00      0.00

     XDM     stress (kbar)      0.00      0.00      0.00
                                0.00      0.00      0.00
                                0.00      0.00      0.00

     dft-nl  stress (kbar)     24.84      0.00     -0.00
                                0.00     24.84      0.00
                               -0.00      0.00     24.84

     TS-vdW  stress (kbar)      0.00      0.00      0.00
                                0.00      0.00      0.00
                                0.00      0.00      0.00

     MDB     stress (kbar)      0.00      0.00      0.00
                                0.00      0.00      0.00
                                0.00      0.00      0.00

     3D-RISM stress (kbar)      0.00      0.00      0.00
                                0.00      0.00      0.00
                                0.00      0.00      0.00

[...]

     Non-local corr. energy    =      17.48171920 Ry

 BEEFens 2000 ensemble energies
             -0.309334794058030E+02
             -0.215578210671502E+03
             -0.765444540872281E+02
              0.846305204229208E+02
             -0.142572095581879E+03
             -0.199443139135281E+03
              0.118042016198945E+03
             -0.244427352730011E+02
              0.163903082449007E+03
             -0.270797265746637E+01
              0.665966370656238E+02
              0.337569147951382E+01
              0.920917688030585E+01
             -0.193908696676804E+02
              0.110952725964240E+03
             -0.829406315223227E+02
             -0.190330941848822E+03
             -0.527578108975023E+02
              0.430354263895069E+02
              0.465020747651874E+01
              0.227761818669222E+03
              0.206563401350924E+03
             -0.101501869420868E+03
              0.569954935206848E+02
             -0.258756162824283E+03
              0.208428712953886E+03
              0.746090506299753E+02
              0.219400309604902E+03
              0.138436818554857E+03
             -0.864519627371021E+02
              0.539833770434659E+02
             -0.112346296308629E+03
              0.334424379798469E+01
              0.110403460684182E+03
              0.142446159495695E+03
             -0.351274069970041E+02
              0.307120586382744E+03
             -0.107494176975473E+03
             -0.777673004036823E+02
              0.119028822033932E+03
              0.410079279431706E+02
              0.100125133330981E+03
             -0.175029546274752E+03
             -0.721360433681457E+01
              0.185488889822553E+03
              0.226266210895627E+03
             -0.205043542652394E+03
              0.170066147558109E+02
              0.808577200836815E+02
              0.188985715901481E+02
              0.988880512460890E+02
              0.198381932497643E+03
             -0.132879548281073E+03
             -0.139755280051325E+03
             -0.177223660851950E+03
             -0.488659862135298E+02
             -0.147983829955990E+03
              0.792484988730234E+01
             -0.393358368007803E+02
             -0.134216142826379E+03
[...]
              0.174095695884839E+03
              0.712491344537978E+02
              0.121370699475578E+03
             -0.173795331721810E+03
             -0.135470573380687E+03
             -0.550980492369558E+02
             -0.148951299848500E+03
              0.268443748711025E+03
              0.230286351155836E+03
              0.100086608046168E+03
              0.271492843282459E+03
             -0.145639441001297E+03
             -0.700504396278177E+02
             -0.722972731351907E+02
              0.214222877895438E+03

 BEEF-vdW xc energy contributions
            1 :    -2093.868453047254
            2 :     1847.706700657811
            3 :    -1423.137149707792
            4 :     930.1296852627224
            5 :    -481.0275017651702
            6 :     153.4671650540172
            7 :     29.08844645480895
            8 :    -93.23302782911605
            9 :     92.88021752502118
           10 :    -80.50289471545693
           11 :     85.89612955704206
           12 :    -110.4802717891953
           13 :     136.5487431987876
           14 :    -143.7835481783914
           15 :     123.1529018179258
           16 :    -81.43769041327323
           17 :     35.75339997877791
           18 :    -2.913941923551647
           19 :    -9.502899064782468
           20 :     5.577722233755594
           21 :     3.436725045850835
           22 :    -6.910731461995510
           23 :    0.9591257486940776
           24 :     10.42290140869591
           25 :    -19.15352097265895
           26 :     18.83443662107038
           27 :    -8.755084119264211
           28 :    -6.081327896523362
           29 :     18.45222972039846
           30 :    -23.38860743610439
           31 :    -273.9301695743538
           32 :    -198.8160453995201

     Writing all to output data dir ./diamond.save/

     General routines

     Parallel routines

     PAW routines

   This run was terminated on:  13:16:45  19Feb2024

   JOB DONE.