     Program PWSCF v.7.1 starts on 20May2024 at 10:42:18

     Reading input from espresso.pwi
Warning: card &CELL ignored
Warning: card    CELL_DYNAMICS    = 'BFGS' ignored
Warning: card / ignored

     Current dimensions of program PWSCF are:
     Max number of different atomic species (ntypx) = 10
     Max number of k-points (npk) =  40000
     Max angular momentum in pseudopotentials (lmaxx) =  4
     file Ga.pbe-dn-kjpaw_psl.1.0.0.UPF: wavefunction(s)  4S renormalized
     file N.pbe-n-kjpaw_psl.1.0.0.UPF: wavefunction(s)  2S renormalized

     IMPORTANT: XC functional enforced from input :
     Exchange-correlation= BEEF-VDW
                           (   1   4  43  14   2   0   0)
     Any further DFT definition will be discarded
     Please, verify this is what you really want

     K-points division:     npool     =       2
     R & G space division:  proc/nbgrp/npool/nimage =      64
     Subspace diagonalization in iterative solution of the eigenvalue problem:
     a serial algorithm will be used

     Using Slab Decomposition

     bravais-lattice index     =            4
     lattice parameter (alat)  =      30.6565  a.u.
     unit-cell volume          =   24400.9461 (a.u.)^3
     number of atoms/cell      =          299
     number of atomic types    =            2
     number of electrons       =      2697.00
     number of Kohn-Sham states=         1619
     kinetic-energy cutoff     =      70.0000  Ry
     charge density cutoff     =     350.0000  Ry
     scf convergence threshold =      1.0E-07
     mixing beta               =       0.7000
     number of iterations used =            8  plain     mixing
     energy convergence thresh.=      1.0E-04
     force convergence thresh. =      1.0E-03
     Exchange-correlation= BEEF-VDW
                           (   1   4  43  14   2   0   0)
     nstep                     =           50

     celldm(1)=  30.656540  celldm(2)=   0.000000  celldm(3)=   0.977927
     celldm(4)=   0.000000  celldm(5)=   0.000000  celldm(6)=   0.000000

     crystal axes: (cart. coord. in units of alat)
               a(1) = (   1.000000   0.000000   0.000000 )
               a(2) = (  -0.500000   0.866025   0.000000 )
               a(3) = (   0.000000   0.000000   0.977927 )

     reciprocal axes: (cart. coord. in units 2 pi/alat)
               b(1) = (  1.000000  0.577350 -0.000000 )
               b(2) = (  0.000000  1.154701  0.000000 )
               b(3) = (  0.000000 -0.000000  1.022571 )

     PseudoPot. # 1 for Ga read from file:
     //group///packages/espresso/pseudo/psl_1.0.0/pslibrary.1.0.0/pbe/PSEUDOPOTENTIALS/Ga.pbe-dn-kjpaw_psl.1.0.0.UPF
     MD5 check sum: cd2a01e492f15b435d17032472d8505c
     Pseudo is Projector augmented-wave + core cor, Zval = 13.0
     Generated using 'atomic' code by A. Dal Corso  v.7.1
     Shape of augmentation charge: PSQ
     Using radial grid of 1205 points,  6 beta functions with:
                l(1) =   0
                l(2) =   0
                l(3) =   1
                l(4) =   1
                l(5) =   2
                l(6) =   2
     Q(r) pseudized with 0 coefficients

     PseudoPot. # 2 for N  read from file:
     //group///packages/espresso/pseudo/psl_1.0.0/pslibrary.1.0.0/pbe/PSEUDOPOTENTIALS/N.pbe-n-kjpaw_psl.1.0.0.UPF
     MD5 check sum: f77f775694dac7e2c3fe1c82443d1a16
     Pseudo is Projector augmented-wave + core cor, Zval =  5.0
     Generated using 'atomic' code by A. Dal Corso  v.7.1
     Shape of augmentation charge: PSQ
     Using radial grid of 1085 points,  4 beta functions with:
                l(1) =   0
                l(2) =   0
                l(3) =   1
                l(4) =   1
     Q(r) pseudized with 0 coefficients

     atomic species   valence    mass     pseudopotential
        Ga            13.00    69.72300     Ga( 1.00)
        N              5.00    14.00700     N ( 1.00)

      2 Sym. Ops. (no inversion) found

                                    s                        frac. trans.

      isym =  1     identity

 cryst.   s( 1) = (     1          0          0      )
                  (     0          1          0      )
                  (     0          0          1      )

 cart.    s( 1) = (  1.0000000  0.0000000  0.0000000 )
                  (  0.0000000  1.0000000  0.0000000 )
                  (  0.0000000  0.0000000  1.0000000 )

      isym =  2     inv. 180 deg rotation - cryst. axis [0,1,0]

 cryst.   s( 2) = (     1          1          0      )
                  (     0         -1          0      )
                  (     0          0          1      )

 cart.    s( 2) = (  0.5000000  0.8660254  0.0000000 )
                  (  0.8660254 -0.5000000  0.0000000 )
                  (  0.0000000  0.0000000  1.0000000 )

     point group C_s (m)
     there are  2 classes
     the character table:

       E     s
A'     1.00  1.00
A''    1.00 -1.00

     the symmetry operations in each class and the name of the first element:

     E        1
          identity
     s        2
          inv. 180 deg rotation - cryst. axis [0,1,0]

   Cartesian axes

     site n.     atom                  positions (alat units)
         1           Ga  tau(   1) = (   0.1000001   0.0577350   0.1627148  )
         2           Ga  tau(   2) = (   0.1000001   0.0577350   0.4886906  )
         3           Ga  tau(   3) = (   0.1000001   0.0577350   0.8146665  )
         4           Ga  tau(   4) = (   0.0000001   0.2309401   0.1627148  )
         5           Ga  tau(   5) = (   0.0000001   0.2309401   0.4886906  )
         6           Ga  tau(   6) = (   0.0000001   0.2309401   0.8146665  )
         7           Ga  tau(   7) = (  -0.0999999   0.4041451   0.1627148  )
         8           Ga  tau(   8) = (  -0.0999999   0.4041451   0.4886906  )
         9           Ga  tau(   9) = (  -0.0999999   0.4041451   0.8146665  )
        10           Ga  tau(  10) = (  -0.1999999   0.5773502   0.1627148  )
        11           Ga  tau(  11) = (  -0.1999999   0.5773502   0.4886906  )
        12           Ga  tau(  12) = (  -0.1999999   0.5773502   0.8146665  )
        13           Ga  tau(  13) = (  -0.2999999   0.7505553   0.1627148  )
        14           Ga  tau(  14) = (  -0.2999999   0.7505553   0.4886906  )
        15           Ga  tau(  15) = (  -0.2999999   0.7505553   0.8146665  )
        16           Ga  tau(  16) = (   0.3000001   0.0577350   0.1627148  )
        17           Ga  tau(  17) = (   0.3000001   0.0577350   0.4886906  )
        18           Ga  tau(  18) = (   0.3000001   0.0577350   0.8146665  )
        19           Ga  tau(  19) = (   0.2000001   0.2309401   0.1627148  )
        20           Ga  tau(  20) = (   0.2000001   0.2309401   0.4886906  )
        21           Ga  tau(  21) = (   0.2000001   0.2309401   0.8146665  )
        22           Ga  tau(  22) = (   0.1000001   0.4041451   0.1627148  )
        23           Ga  tau(  23) = (   0.1000001   0.4041451   0.4886906  )
        24           Ga  tau(  24) = (   0.1000001   0.4041451   0.8146665  )
        25           Ga  tau(  25) = (   0.0000001   0.5773502   0.1627148  )
        26           Ga  tau(  26) = (   0.0000001   0.5773502   0.4886906  )
        27           Ga  tau(  27) = (   0.0000001   0.5773502   0.8146665  )
        28           Ga  tau(  28) = (  -0.0999999   0.7505553   0.1627148  )
        29           Ga  tau(  29) = (  -0.0999999   0.7505553   0.4886906  )
        30           Ga  tau(  30) = (  -0.0999999   0.7505553   0.8146665  )
        31           Ga  tau(  31) = (   0.5000001   0.0577350   0.1627148  )
        32           Ga  tau(  32) = (   0.5000001   0.0577350   0.4886906  )
        33           Ga  tau(  33) = (   0.5000001   0.0577350   0.8146665  )
        34           Ga  tau(  34) = (   0.4000001   0.2309401   0.1627148  )
        35           Ga  tau(  35) = (   0.4000001   0.2309401   0.4886906  )
        36           Ga  tau(  36) = (   0.4000001   0.2309401   0.8146665  )
        37           Ga  tau(  37) = (   0.3000001   0.4041451   0.1627148  )
        38           Ga  tau(  38) = (   0.3000001   0.4041451   0.4886906  )
        39           Ga  tau(  39) = (   0.3000001   0.4041451   0.8146665  )
        40           Ga  tau(  40) = (   0.2000001   0.5773502   0.1627148  )
        41           Ga  tau(  41) = (   0.2000001   0.5773502   0.4886906  )
        42           Ga  tau(  42) = (   0.2000001   0.5773502   0.8146665  )
        43           Ga  tau(  43) = (   0.1000001   0.7505553   0.1627148  )
        44           Ga  tau(  44) = (   0.1000001   0.7505553   0.4886906  )
        45           Ga  tau(  45) = (   0.1000001   0.7505553   0.8146665  )
        46           Ga  tau(  46) = (   0.7000001   0.0577350   0.1627148  )
        47           Ga  tau(  47) = (   0.7000001   0.0577350   0.4886906  )
        48           Ga  tau(  48) = (   0.7000001   0.0577350   0.8146665  )
        49           Ga  tau(  49) = (   0.6000001   0.2309401   0.1627148  )
        50           Ga  tau(  50) = (   0.6000001   0.2309401   0.4886906  )
        51           Ga  tau(  51) = (   0.6000001   0.2309401   0.8146665  )
        52           Ga  tau(  52) = (   0.5000001   0.4041451   0.1627148  )
        53           Ga  tau(  53) = (   0.5000001   0.4041451   0.4886906  )
        54           Ga  tau(  54) = (   0.5000001   0.4041451   0.8146665  )
        55           Ga  tau(  55) = (   0.4000001   0.5773502   0.1627148  )
        56           Ga  tau(  56) = (   0.4000001   0.5773502   0.4886906  )
        57           Ga  tau(  57) = (   0.4000001   0.5773502   0.8146665  )
        58           Ga  tau(  58) = (   0.3000001   0.7505553   0.1627148  )
        59           Ga  tau(  59) = (   0.3000001   0.7505553   0.4886906  )
        60           Ga  tau(  60) = (   0.3000001   0.7505553   0.8146665  )
[...]
       285           N   tau( 285) = (   0.7999999   0.1154701   0.1225140  )
       286           N   tau( 286) = (   0.7999999   0.1154701   0.4484898  )
       287           N   tau( 287) = (   0.7999999   0.1154701   0.7744656  )
       288           N   tau( 288) = (   0.6999999   0.2886752   0.1225140  )
       289           N   tau( 289) = (   0.6999999   0.2886752   0.4484898  )
       290           N   tau( 290) = (   0.6999999   0.2886752   0.7744656  )
       291           N   tau( 291) = (   0.5999999   0.4618803   0.1225140  )
       292           N   tau( 292) = (   0.5999999   0.4618803   0.4484898  )
       293           N   tau( 293) = (   0.5999999   0.4618803   0.7744656  )
       294           N   tau( 294) = (   0.4999999   0.6350854   0.1225140  )
       295           N   tau( 295) = (   0.4999999   0.6350854   0.4484898  )
       296           N   tau( 296) = (   0.4999999   0.6350854   0.7744656  )
       297           N   tau( 297) = (   0.3999999   0.8082905   0.1225140  )
       298           N   tau( 298) = (   0.3999999   0.8082905   0.4484898  )
       299           N   tau( 299) = (   0.3999999   0.8082905   0.7744656  )

   Crystallographic axes

     site n.     atom                  positions (cryst. coord.)
         1           Ga  tau(   1) = (  0.1333334  0.0666666  0.1663874  )
[...]
     atom   53 type  1   force =     0.00000000    0.00000000    0.00000000
     atom   54 type  1   force =     0.00000000    0.00000000    0.00000000
     atom   55 type  1   force =     0.00000000    0.00000000    0.00000000
     atom   56 type  1   force =     0.00000000    0.00000000    0.00000000
     atom   57 type  1   force =     0.00000000    0.00000000    0.00000000
     atom   58 type  1   force =     0.00000000    0.00000000    0.00000000
     atom   59 type  1   force =     0.00000000    0.00000000    0.00000000
     atom   60 type  1   force =     0.00000000    0.00000000    0.00000000
[...]
     atom  285 type  2   force =     0.00000000    0.00000000    0.00000000
     atom  286 type  2   force =     0.00000000    0.00000000    0.00000000
     atom  287 type  2   force =     0.00000000    0.00000000    0.00000000
     atom  288 type  2   force =     0.00000000    0.00000000    0.00000000
     atom  289 type  2   force =     0.00000000    0.00000000    0.00000000
     atom  290 type  2   force =     0.00000000    0.00000000    0.00000000
     atom  291 type  2   force =     0.00000000    0.00000000    0.00000000
     atom  292 type  2   force =     0.00000000    0.00000000    0.00000000
     atom  293 type  2   force =     0.00000000    0.00000000    0.00000000
     atom  294 type  2   force =     0.00000000    0.00000000    0.00000000
     atom  295 type  2   force =     0.00000000    0.00000000    0.00000000
     atom  296 type  2   force =     0.00000000    0.00000000    0.00000000
     atom  297 type  2   force =     0.00000000    0.00000000    0.00000000
     atom  298 type  2   force =     0.00000000    0.00000000    0.00000000
     atom  299 type  2   force =     0.00000000    0.00000000    0.00000000
     The SCF correction term to forces
     atom    1 type  1   force =    -0.00001130   -0.00000652   -0.00000649
     atom    2 type  1   force =    -0.00001950   -0.00001126    0.00002405
     atom    3 type  1   force =    -0.00000416   -0.00000240   -0.00002026
     atom    4 type  1   force =    -0.00001284    0.00001039   -0.00000136
     atom    5 type  1   force =    -0.00000065   -0.00001862    0.00001124
     atom    6 type  1   force =     0.00000792   -0.00001196   -0.00001241
     atom    7 type  1   force =     0.00000080    0.00000426   -0.00000005
     atom    8 type  1   force =     0.00000534   -0.00000488   -0.00000397
     atom    9 type  1   force =     0.00001219   -0.00000479    0.00000277
     atom   10 type  1   force =     0.00000409   -0.00000143   -0.00000005
     atom   11 type  1   force =    -0.00000156    0.00000707   -0.00000397
     atom   12 type  1   force =     0.00000194    0.00001295    0.00000277
     atom   13 type  1   force =     0.00000258   -0.00001631   -0.00000136
     atom   14 type  1   force =    -0.00001645    0.00000875    0.00001124
     atom   15 type  1   force =    -0.00000640    0.00001284   -0.00001241
     atom   16 type  1   force =     0.00000127   -0.00001849   -0.00001803
     atom   17 type  1   force =    -0.00002279   -0.00001835    0.00002490
     atom   18 type  1   force =    -0.00002163   -0.00001018   -0.00001127
     atom   19 type  1   force =    -0.00001538    0.00001034   -0.00001803
     atom   20 type  1   force =    -0.00002729   -0.00001056    0.00002490
     atom   21 type  1   force =    -0.00001964   -0.00001364   -0.00001127
     atom   22 type  1   force =    -0.00001648    0.00000511   -0.00000701
     atom   23 type  1   force =    -0.00001438   -0.00001170    0.00000314
     atom   24 type  1   force =    -0.00000732   -0.00001242    0.00000161
     atom   25 type  1   force =    -0.00000688   -0.00000397   -0.00000201
     atom   26 type  1   force =    -0.00000777   -0.00000448   -0.00000491
     atom   27 type  1   force =    -0.00000574   -0.00000332    0.00000615
     atom   28 type  1   force =    -0.00000381   -0.00001682   -0.00000701
     atom   29 type  1   force =    -0.00001733   -0.00000661    0.00000314
     atom   30 type  1   force =    -0.00001442   -0.00000013    0.00000161
     atom   31 type  1   force =     0.00000674   -0.00001244   -0.00000984
     atom   32 type  1   force =    -0.00000283   -0.00001145    0.00000656
     atom   33 type  1   force =    -0.00001007   -0.00001316    0.00000285
     atom   34 type  1   force =     0.00000361    0.00000208   -0.00001291
     atom   35 type  1   force =    -0.00000942   -0.00000544    0.00001171
     atom   36 type  1   force =    -0.00002095   -0.00001210   -0.00000025
     atom   37 type  1   force =    -0.00000741    0.00001206   -0.00000984
     atom   38 type  1   force =    -0.00001133    0.00000327    0.00000656
     atom   39 type  1   force =    -0.00001643   -0.00000214    0.00000285
     atom   40 type  1   force =    -0.00000838    0.00000398   -0.00000402
     atom   41 type  1   force =    -0.00000423    0.00000291   -0.00000127
     atom   42 type  1   force =    -0.00000161    0.00000052    0.00000561
     atom   43 type  1   force =    -0.00000074   -0.00000925   -0.00000402
     atom   44 type  1   force =     0.00000040   -0.00000511   -0.00000127
     atom   45 type  1   force =    -0.00000036   -0.00000166    0.00000561
     atom   46 type  1   force =     0.00000881   -0.00000348   -0.00000435
     atom   47 type  1   force =     0.00001871   -0.00000401    0.00000217
     atom   48 type  1   force =     0.00001658   -0.00000887    0.00000167
     atom   49 type  1   force =     0.00001397    0.00000107   -0.00000139
     atom   50 type  1   force =     0.00001325   -0.00000378   -0.00000255
     atom   51 type  1   force =     0.00000710   -0.00000962    0.00000555
     atom   52 type  1   force =     0.00000792    0.00001157   -0.00000139
     atom   53 type  1   force =     0.00000336    0.00001336   -0.00000255
     atom   54 type  1   force =    -0.00000478    0.00001096    0.00000555
     atom   55 type  1   force =     0.00000139    0.00000937   -0.00000435
     atom   56 type  1   force =     0.00000588    0.00001821    0.00000217
     atom   57 type  1   force =     0.00000061    0.00001879    0.00000167
     atom   58 type  1   force =     0.00000232    0.00000134   -0.00000507
     atom   59 type  1   force =     0.00001734    0.00001001    0.00000319
     atom   60 type  1   force =     0.00001360    0.00000785   -0.00000025
[...]
     atom  285 type  2   force =     0.00000452   -0.00000021   -0.00000123
     atom  286 type  2   force =     0.00001111   -0.00000089    0.00000212
     atom  287 type  2   force =     0.00001187   -0.00000367   -0.00000126
     atom  288 type  2   force =     0.00000648    0.00000179    0.00000084
     atom  289 type  2   force =     0.00000888    0.00000055   -0.00000284
     atom  290 type  2   force =     0.00000879   -0.00000210    0.00000142
     atom  291 type  2   force =     0.00000479    0.00000471    0.00000084
     atom  292 type  2   force =     0.00000492    0.00000741   -0.00000284
     atom  293 type  2   force =     0.00000258    0.00000867    0.00000142
     atom  294 type  2   force =     0.00000208    0.00000402   -0.00000123
     atom  295 type  2   force =     0.00000478    0.00001007    0.00000212
     atom  296 type  2   force =     0.00000276    0.00001212   -0.00000126
     atom  297 type  2   force =     0.00000060    0.00000035   -0.00000350
     atom  298 type  2   force =     0.00000791    0.00000456    0.00000545
     atom  299 type  2   force =     0.00000868    0.00000501   -0.00000220

     Total force =     0.006754     Total SCF correction =     0.000246

     Computing stress (Cartesian axis) and pressure

[...]

          total   stress  (Ry/bohr**3)                   (kbar)     P=       18.96
   0.00011798  -0.00000017   0.00000014           17.36       -0.03        0.02
  -0.00000017   0.00011818   0.00000008           -0.03       17.38        0.01
   0.00000014   0.00000008   0.00015049            0.02        0.01       22.14

     kinetic stress (kbar)  18388.93     -0.01      0.01
                               -0.01  18388.94      0.01
                                0.01      0.01  18387.52

     local   stress (kbar)   5425.19      0.13      0.73
                                0.13   5424.86      0.42
                                0.73      0.42   3752.28

     nonloc. stress (kbar)     93.21      0.01      0.00
                                0.01     93.20      0.00
                                0.00      0.00    102.92

     hartree stress (kbar)  19601.04     -0.04     -0.30
                               -0.04  19601.09     -0.18
                               -0.30     -0.18  20361.65

     exc-cor stress (kbar)   5222.49     -0.00     -0.00
                               -0.00   5222.49     -0.00
                               -0.00     -0.00   5222.87

     corecor stress (kbar) -14106.62      0.00     -0.00
                                0.00 -14106.62     -0.00
                               -0.00     -0.00 -14106.08

     ewald   stress (kbar) -34768.87     -0.10     -0.42
                               -0.10 -34768.52     -0.24
                               -0.42     -0.24 -33860.12

     hubbard stress (kbar)      0.00      0.00      0.00
                                0.00      0.00      0.00
                                0.00      0.00      0.00

     DFT-D   stress (kbar)      0.00      0.00      0.00
                                0.00      0.00      0.00
                                0.00      0.00      0.00

     XDM     stress (kbar)      0.00      0.00      0.00
                                0.00      0.00      0.00
                                0.00      0.00      0.00

     dft-nl  stress (kbar)    161.96      0.00      0.00
                                0.00    161.96      0.00
                                0.00      0.00    161.08

     TS-vdW  stress (kbar)      0.00      0.00      0.00
                                0.00      0.00      0.00
                                0.00      0.00      0.00

     MDB     stress (kbar)      0.00      0.00      0.00
                                0.00      0.00      0.00
                                0.00      0.00      0.00

     3D-RISM stress (kbar)      0.00      0.00      0.00
                                0.00      0.00      0.00
                                0.00      0.00      0.00

     Energy error            =      8.1E-05 Ry
     Gradient error          =      2.0E-03 Ry/Bohr

     number of scf cycles    =   6
     number of bfgs steps    =   5

     energy             old  =  -46812.7680584938 Ry
     energy             new  =  -46812.7681391212 Ry

     CASE: energy            _new < energy            _old

     new trust radius        =       0.0100777453 bohr
     new conv_thr            =       0.0000000010 Ry

ATOMIC_POSITIONS (angstrom)
Ga            1.6205395902        0.9356174977        2.6986474359
Ga            1.6218816479        0.9363923351        7.9387539381
Ga            1.6218553660        0.9363771612       13.2132378902
Ga            0.0012481399        3.7464024074        2.6378040696
Ga            0.0015353167        3.7475326336        7.9264502022
Ga            0.0000396886        3.7473394485       13.2167756168
Ga           -1.6221910927        6.5558521570        2.6403659190
Ga           -1.6224073179        6.5562663463        7.9278876453
Ga           -1.6224579563        6.5559206435       13.2165937927
Ga           -3.2449308039        9.3665197843        2.6403659190
Ga           -3.2446802180        9.3661254331        7.9278876453
Ga           -3.2450049246        9.3662544304       13.2165937927
Ga           -4.8662660413       12.1771842760        2.6378040696
Ga           -4.8651436483       12.1768678654        7.9264502022
Ga           -4.8660587656       12.1756692060       13.2167756168
Ga            4.8660048958        0.9350271328        2.6379414615
Ga            4.8671304597        0.9342268312        7.9262550915
Ga            4.8677272147        0.9357578432       13.2164919863
Ga            3.2427609720        3.7465680819        2.6379414615
Ga            3.2426306724        3.7479429997        7.9262550915
Ga            3.2442549452        3.7476942987       13.2164919863
Ga            1.6224939673        6.5565814682        2.6394949317
Ga            1.6225204275        6.5577085702        7.9292690886
Ga            1.6224669159        6.5561665672       13.2161058461
Ga           -0.0001448791        9.3661193932        2.6396875051
Ga            0.0000471779        9.3662302774        7.9283912845
Ga            0.0000066617        9.3662068854       13.2161514275
Ga           -1.6219566719       12.1761348180        2.6394949317
Ga           -1.6209673428       12.1755941822        7.9292690886
Ga           -1.6223295124       12.1763188413       13.2161058461
Ga            8.1109774625        0.9363526131        2.6401848809
Ga            8.1114473903        0.9363393431        7.9277461992
Ga            8.1112128828        0.9365713781       13.2164545784
Ga            6.4887726517        3.7462931663        2.6395821266
Ga            6.4886155424        3.7462024592        7.9303017059
Ga            6.4894374541        3.7466769902       13.2162744080
Ga            4.8663951551        6.5561340194        2.6401848809
Ga            4.8666186268        6.5565476237        7.9277461992
Ga            4.8667023212        6.5562285168       13.2164545784
Ga            3.2449145961        9.3660715769        2.6398447796
Ga            3.2447553669        9.3661751000        7.9285837274
Ga            3.2448368502        9.3661560606       13.2163296092
Ga            1.6223434484       12.1764472439        2.6398447796
Ga            1.6223534874       12.1762575858        7.9285837274
Ga            1.6223777405       12.1763376721       13.2163296092
Ga           11.3559317854        0.9359859478        2.6401465280
Ga           11.3554352343        0.9359676516        7.9278109614
Ga           11.3558078536        0.9362497699       13.2164741567
Ga            9.7332613480        3.7465489807        2.6400512278
Ga            9.7332524482        3.7465972092        7.9286840777
Ga            9.7332657536        3.7467076501       13.2166864769
Ga            8.1112385415        6.5559748925        2.6400512278
Ga            8.1112758588        6.5559430708        7.9286840777
Ga            8.1113781561        6.5558993731       13.2166864769
Ga            6.4885547750        9.3665302297        2.6401465280
Ga            6.4882906544        9.3661093519        7.9278109614
Ga            6.4887212856        9.3662909906       13.2164741567
Ga            4.8663049398       12.1757655063        2.6397180036
Ga            4.8652969373       12.1751835358        7.9294166097
Ga            4.8667117970       12.1760004054       13.2163385439
[...]
N            12.9768125417        1.8730327171        1.9872860648
N            12.9782774921        1.8733023932        7.2764427652
N            12.9774906900        1.8734692706       12.5635689489
N            11.3558715573        4.6831215690        1.9869600086
N            11.3562603610        4.6828963583        7.2765820576
N            11.3554804915        4.6833644753       12.5639834102
N             9.7336357064        7.4929164849        1.9869600086
N             9.7336350700        7.4933658041        7.2765820576
N             9.7336505365        7.4924563588       12.5639834102
N             8.1104978660       10.3017369812        1.9872860648
N             8.1114638875       10.3028708274        7.2764427652
N             8.1112150066       10.3021059982       12.5635689489
N             6.4868279690       13.1113790633        1.9842549071
N             6.4863273573       13.1110900350        7.2758307380
N             6.4883908251       13.1122813787       12.5633267052

     Writing config-only to output data dir ./GaN.save/
     NEW-OLD atomic charge density approx. for the potential

     Check: negative core charge=   -0.000003

[...]

     Self-consistent Calculation

[...]

     ethr =  1.00E-06,  avg # of iterations =  3.0

     Non-local corr. energy    =      81.65638869 Ry

     total energy              =  -46812.76712818 Ry
     estimated scf accuracy    <       0.00308408 Ry

     iteration #  2     ecut=    70.00 Ry     beta= 0.70
     Davidson diagonalization with overlap

     max_seconds     =  154800.00
     Calculation stopped in k-point loop, point #     1
     Calculation stopped in scf loop at iteration #     1

     Writing config to output data dir ./GaN.save/

     General routines

     Parallel routines

     PAW routines

   This run was terminated on:   5:47:24  22May2024

   JOB DONE.