     Program PWSCF v.7.1 starts on 18Jun2024 at  9:42:41

     Reading input from espresso.pwi
Warning: card &CELL ignored
Warning: card    CELL_DYNAMICS    = 'BFGS' ignored
Warning: card / ignored

     Current dimensions of program PWSCF are:
     Max number of different atomic species (ntypx) = 10
     Max number of k-points (npk) =  40000
     Max angular momentum in pseudopotentials (lmaxx) =  4
     file Ga.pbe-dn-kjpaw_psl.1.0.0.UPF: wavefunction(s)  4S renormalized
     file N.pbe-n-kjpaw_psl.1.0.0.UPF: wavefunction(s)  2S renormalized

     IMPORTANT: XC functional enforced from input :
     Exchange-correlation= BEEF-VDW
                           (   1   4  43  14   2   0   0)
     Any further DFT definition will be discarded
     Please, verify this is what you really want

     K-points division:     npool     =       2
     R & G space division:  proc/nbgrp/npool/nimage =      64
     Subspace diagonalization in iterative solution of the eigenvalue problem:
     a serial algorithm will be used

     Using Slab Decomposition

     bravais-lattice index     =            4
     lattice parameter (alat)  =      30.6565  a.u.
     unit-cell volume          =   24400.9461 (a.u.)^3
     number of atoms/cell      =          299
     number of atomic types    =            2
     number of electrons       =      2697.00
     number of Kohn-Sham states=         1619
     kinetic-energy cutoff     =      70.0000  Ry
     charge density cutoff     =     350.0000  Ry
     scf convergence threshold =      1.0E-07
     mixing beta               =       0.7000
     number of iterations used =            8  plain     mixing
     Exchange-correlation= BEEF-VDW
                           (   1   4  43  14   2   0   0)

     celldm(1)=  30.656540  celldm(2)=   0.000000  celldm(3)=   0.977927
     celldm(4)=   0.000000  celldm(5)=   0.000000  celldm(6)=   0.000000

     crystal axes: (cart. coord. in units of alat)
               a(1) = (   1.000000   0.000000   0.000000 )
               a(2) = (  -0.500000   0.866025   0.000000 )
               a(3) = (   0.000000   0.000000   0.977927 )

     reciprocal axes: (cart. coord. in units 2 pi/alat)
               b(1) = (  1.000000  0.577350 -0.000000 )
               b(2) = (  0.000000  1.154701  0.000000 )
               b(3) = (  0.000000 -0.000000  1.022571 )

     PseudoPot. # 1 for Ga read from file:
     //group///packages/espresso/pseudo/psl_1.0.0/pslibrary.1.0.0/pbe/PSEUDOPOTENTIALS/Ga.pbe-dn-kjpaw_psl.1.0.0.UPF
     MD5 check sum: cd2a01e492f15b435d17032472d8505c
     Pseudo is Projector augmented-wave + core cor, Zval = 13.0
     Generated using 'atomic' code by A. Dal Corso  v.7.1
     Shape of augmentation charge: PSQ
     Using radial grid of 1205 points,  6 beta functions with:
                l(1) =   0
                l(2) =   0
                l(3) =   1
                l(4) =   1
                l(5) =   2
                l(6) =   2
     Q(r) pseudized with 0 coefficients

     PseudoPot. # 2 for N  read from file:
     //group///packages/espresso/pseudo/psl_1.0.0/pslibrary.1.0.0/pbe/PSEUDOPOTENTIALS/N.pbe-n-kjpaw_psl.1.0.0.UPF
     MD5 check sum: f77f775694dac7e2c3fe1c82443d1a16
     Pseudo is Projector augmented-wave + core cor, Zval =  5.0
     Generated using 'atomic' code by A. Dal Corso  v.7.1
     Shape of augmentation charge: PSQ
     Using radial grid of 1085 points,  4 beta functions with:
                l(1) =   0
                l(2) =   0
                l(3) =   1
                l(4) =   1
     Q(r) pseudized with 0 coefficients

     atomic species   valence    mass     pseudopotential
        Ga            13.00    69.72300     Ga( 1.00)
        N              5.00    14.00700     N ( 1.00)

      2 Sym. Ops. (no inversion) found

                                    s                        frac. trans.

      isym =  1     identity

 cryst.   s( 1) = (     1          0          0      )
                  (     0          1          0      )
                  (     0          0          1      )

 cart.    s( 1) = (  1.0000000  0.0000000  0.0000000 )
                  (  0.0000000  1.0000000  0.0000000 )
                  (  0.0000000  0.0000000  1.0000000 )

      isym =  2     inv. 180 deg rotation - cryst. axis [0,1,0]

 cryst.   s( 2) = (     1          1          0      )
                  (     0         -1          0      )
                  (     0          0          1      )

 cart.    s( 2) = (  0.5000000  0.8660254  0.0000000 )
                  (  0.8660254 -0.5000000  0.0000000 )
                  (  0.0000000  0.0000000  1.0000000 )

     point group C_s (m)
     there are  2 classes
     the character table:

       E     s
A'     1.00  1.00
A''    1.00 -1.00

     the symmetry operations in each class and the name of the first element:

     E        1
          identity
     s        2
          inv. 180 deg rotation - cryst. axis [0,1,0]

   Cartesian axes

     site n.     atom                  positions (alat units)
         1           Ga  tau(   1) = (   0.1000001   0.0577350   0.1627148  )
         2           Ga  tau(   2) = (   0.1000001   0.0577350   0.4886906  )
         3           Ga  tau(   3) = (   0.1000001   0.0577350   0.8146665  )
         4           Ga  tau(   4) = (   0.0000001   0.2309401   0.1627148  )
         5           Ga  tau(   5) = (   0.0000001   0.2309401   0.4886906  )
         6           Ga  tau(   6) = (   0.0000001   0.2309401   0.8146665  )
         7           Ga  tau(   7) = (  -0.0999999   0.4041451   0.1627148  )
         8           Ga  tau(   8) = (  -0.0999999   0.4041451   0.4886906  )
         9           Ga  tau(   9) = (  -0.0999999   0.4041451   0.8146665  )
        10           Ga  tau(  10) = (  -0.1999999   0.5773502   0.1627148  )
        11           Ga  tau(  11) = (  -0.1999999   0.5773502   0.4886906  )
        12           Ga  tau(  12) = (  -0.1999999   0.5773502   0.8146665  )
        13           Ga  tau(  13) = (  -0.2999999   0.7505553   0.1627148  )
        14           Ga  tau(  14) = (  -0.2999999   0.7505553   0.4886906  )
        15           Ga  tau(  15) = (  -0.2999999   0.7505553   0.8146665  )
        16           Ga  tau(  16) = (   0.3000001   0.0577350   0.1627148  )
        17           Ga  tau(  17) = (   0.3000001   0.0577350   0.4886906  )
        18           Ga  tau(  18) = (   0.3000001   0.0577350   0.8146665  )
        19           Ga  tau(  19) = (   0.2000001   0.2309401   0.1627148  )
        20           Ga  tau(  20) = (   0.2000001   0.2309401   0.4886906  )
        21           Ga  tau(  21) = (   0.2000001   0.2309401   0.8146665  )
        22           Ga  tau(  22) = (   0.1000001   0.4041451   0.1627148  )
        23           Ga  tau(  23) = (   0.1000001   0.4041451   0.4886906  )
        24           Ga  tau(  24) = (   0.1000001   0.4041451   0.8146665  )
        25           Ga  tau(  25) = (   0.0000001   0.5773502   0.1627148  )
        26           Ga  tau(  26) = (   0.0000001   0.5773502   0.4886906  )
        27           Ga  tau(  27) = (   0.0000001   0.5773502   0.8146665  )
        28           Ga  tau(  28) = (  -0.0999999   0.7505553   0.1627148  )
        29           Ga  tau(  29) = (  -0.0999999   0.7505553   0.4886906  )
        30           Ga  tau(  30) = (  -0.0999999   0.7505553   0.8146665  )
        31           Ga  tau(  31) = (   0.5000001   0.0577350   0.1627148  )
        32           Ga  tau(  32) = (   0.5000001   0.0577350   0.4886906  )
        33           Ga  tau(  33) = (   0.5000001   0.0577350   0.8146665  )
        34           Ga  tau(  34) = (   0.4000001   0.2309401   0.1627148  )
        35           Ga  tau(  35) = (   0.4000001   0.2309401   0.4886906  )
        36           Ga  tau(  36) = (   0.4000001   0.2309401   0.8146665  )
        37           Ga  tau(  37) = (   0.3000001   0.4041451   0.1627148  )
        38           Ga  tau(  38) = (   0.3000001   0.4041451   0.4886906  )
        39           Ga  tau(  39) = (   0.3000001   0.4041451   0.8146665  )
        40           Ga  tau(  40) = (   0.2000001   0.5773502   0.1627148  )
        41           Ga  tau(  41) = (   0.2000001   0.5773502   0.4886906  )
        42           Ga  tau(  42) = (   0.2000001   0.5773502   0.8146665  )
        43           Ga  tau(  43) = (   0.1000001   0.7505553   0.1627148  )
        44           Ga  tau(  44) = (   0.1000001   0.7505553   0.4886906  )
        45           Ga  tau(  45) = (   0.1000001   0.7505553   0.8146665  )
        46           Ga  tau(  46) = (   0.7000001   0.0577350   0.1627148  )
        47           Ga  tau(  47) = (   0.7000001   0.0577350   0.4886906  )
        48           Ga  tau(  48) = (   0.7000001   0.0577350   0.8146665  )
        49           Ga  tau(  49) = (   0.6000001   0.2309401   0.1627148  )
        50           Ga  tau(  50) = (   0.6000001   0.2309401   0.4886906  )
        51           Ga  tau(  51) = (   0.6000001   0.2309401   0.8146665  )
        52           Ga  tau(  52) = (   0.5000001   0.4041451   0.1627148  )
        53           Ga  tau(  53) = (   0.5000001   0.4041451   0.4886906  )
        54           Ga  tau(  54) = (   0.5000001   0.4041451   0.8146665  )
        55           Ga  tau(  55) = (   0.4000001   0.5773502   0.1627148  )
        56           Ga  tau(  56) = (   0.4000001   0.5773502   0.4886906  )
        57           Ga  tau(  57) = (   0.4000001   0.5773502   0.8146665  )
        58           Ga  tau(  58) = (   0.3000001   0.7505553   0.1627148  )
        59           Ga  tau(  59) = (   0.3000001   0.7505553   0.4886906  )
        60           Ga  tau(  60) = (   0.3000001   0.7505553   0.8146665  )
[...]
       285           N   tau( 285) = (   0.7999999   0.1154701   0.1225140  )
       286           N   tau( 286) = (   0.7999999   0.1154701   0.4484898  )
       287           N   tau( 287) = (   0.7999999   0.1154701   0.7744656  )
       288           N   tau( 288) = (   0.6999999   0.2886752   0.1225140  )
       289           N   tau( 289) = (   0.6999999   0.2886752   0.4484898  )
       290           N   tau( 290) = (   0.6999999   0.2886752   0.7744656  )
       291           N   tau( 291) = (   0.5999999   0.4618803   0.1225140  )
       292           N   tau( 292) = (   0.5999999   0.4618803   0.4484898  )
       293           N   tau( 293) = (   0.5999999   0.4618803   0.7744656  )
       294           N   tau( 294) = (   0.4999999   0.6350854   0.1225140  )
       295           N   tau( 295) = (   0.4999999   0.6350854   0.4484898  )
       296           N   tau( 296) = (   0.4999999   0.6350854   0.7744656  )
       297           N   tau( 297) = (   0.3999999   0.8082905   0.1225140  )
       298           N   tau( 298) = (   0.3999999   0.8082905   0.4484898  )
       299           N   tau( 299) = (   0.3999999   0.8082905   0.7744656  )

   Crystallographic axes

     site n.     atom                  positions (cryst. coord.)
         1           Ga  tau(   1) = (  0.1333334  0.0666666  0.1663874  )
         2           Ga  tau(   2) = (  0.1333334  0.0666666  0.4997208  )
         3           Ga  tau(   3) = (  0.1333334  0.0666666  0.8330541  )
[...]
     atom   26 type  1   force =     0.00000000    0.00000000    0.00000000
     atom   27 type  1   force =     0.00000000    0.00000000    0.00000000
     atom   28 type  1   force =     0.00000000    0.00000000    0.00000000
     atom   29 type  1   force =     0.00000000    0.00000000    0.00000000
     atom   30 type  1   force =     0.00000000    0.00000000    0.00000000
     atom   31 type  1   force =     0.00000000    0.00000000    0.00000000
     atom   32 type  1   force =     0.00000000    0.00000000    0.00000000
     atom   33 type  1   force =     0.00000000    0.00000000    0.00000000
     atom   34 type  1   force =     0.00000000    0.00000000    0.00000000
     atom   35 type  1   force =     0.00000000    0.00000000    0.00000000
     atom   36 type  1   force =     0.00000000    0.00000000    0.00000000
     atom   37 type  1   force =     0.00000000    0.00000000    0.00000000
     atom   38 type  1   force =     0.00000000    0.00000000    0.00000000
     atom   39 type  1   force =     0.00000000    0.00000000    0.00000000
     atom   40 type  1   force =     0.00000000    0.00000000    0.00000000
     atom   41 type  1   force =     0.00000000    0.00000000    0.00000000
     atom   42 type  1   force =     0.00000000    0.00000000    0.00000000
     atom   43 type  1   force =     0.00000000    0.00000000    0.00000000
     atom   44 type  1   force =     0.00000000    0.00000000    0.00000000
     atom   45 type  1   force =     0.00000000    0.00000000    0.00000000
     atom   46 type  1   force =     0.00000000    0.00000000    0.00000000
     atom   47 type  1   force =     0.00000000    0.00000000    0.00000000
     atom   48 type  1   force =     0.00000000    0.00000000    0.00000000
     atom   49 type  1   force =     0.00000000    0.00000000    0.00000000
     atom   50 type  1   force =     0.00000000    0.00000000    0.00000000
     atom   51 type  1   force =     0.00000000    0.00000000    0.00000000
     atom   52 type  1   force =     0.00000000    0.00000000    0.00000000
     atom   53 type  1   force =     0.00000000    0.00000000    0.00000000
     atom   54 type  1   force =     0.00000000    0.00000000    0.00000000
     atom   55 type  1   force =     0.00000000    0.00000000    0.00000000
     atom   56 type  1   force =     0.00000000    0.00000000    0.00000000
     atom   57 type  1   force =     0.00000000    0.00000000    0.00000000
     atom   58 type  1   force =     0.00000000    0.00000000    0.00000000
     atom   59 type  1   force =     0.00000000    0.00000000    0.00000000
     atom   60 type  1   force =     0.00000000    0.00000000    0.00000000
[...]
     atom  285 type  2   force =     0.00000000    0.00000000    0.00000000
     atom  286 type  2   force =     0.00000000    0.00000000    0.00000000
     atom  287 type  2   force =     0.00000000    0.00000000    0.00000000
     atom  288 type  2   force =     0.00000000    0.00000000    0.00000000
     atom  289 type  2   force =     0.00000000    0.00000000    0.00000000
     atom  290 type  2   force =     0.00000000    0.00000000    0.00000000
     atom  291 type  2   force =     0.00000000    0.00000000    0.00000000
     atom  292 type  2   force =     0.00000000    0.00000000    0.00000000
     atom  293 type  2   force =     0.00000000    0.00000000    0.00000000
     atom  294 type  2   force =     0.00000000    0.00000000    0.00000000
     atom  295 type  2   force =     0.00000000    0.00000000    0.00000000
     atom  296 type  2   force =     0.00000000    0.00000000    0.00000000
     atom  297 type  2   force =     0.00000000    0.00000000    0.00000000
     atom  298 type  2   force =     0.00000000    0.00000000    0.00000000
     atom  299 type  2   force =     0.00000000    0.00000000    0.00000000
     The SCF correction term to forces
     atom    1 type  1   force =     0.00003805    0.00002196   -0.00003278
     atom    2 type  1   force =     0.00004982    0.00002876   -0.00002940
     atom    3 type  1   force =     0.00003401    0.00001963   -0.00003183
     atom    4 type  1   force =     0.00001054    0.00007137    0.00005012
     atom    5 type  1   force =     0.00004015   -0.00000248   -0.00001096
     atom    6 type  1   force =     0.00003036    0.00003183   -0.00002716
     atom    7 type  1   force =     0.00002772    0.00004229    0.00001112
     atom    8 type  1   force =     0.00003137    0.00002381   -0.00000513
     atom    9 type  1   force =     0.00003619    0.00003072   -0.00000721
     atom   10 type  1   force =     0.00005049    0.00000286    0.00001112
     atom   11 type  1   force =     0.00003630    0.00001526   -0.00000513
     atom   12 type  1   force =     0.00004469    0.00001598   -0.00000721
     atom   13 type  1   force =     0.00006707   -0.00002656    0.00005012
     atom   14 type  1   force =     0.00001793    0.00003602   -0.00001096
     atom   15 type  1   force =     0.00004274    0.00001038   -0.00002716
     atom   16 type  1   force =     0.00006244   -0.00001295    0.00003793
     atom   17 type  1   force =    -0.00005051    0.00000774   -0.00002038
     atom   18 type  1   force =     0.00001093   -0.00000480   -0.00002237
     atom   19 type  1   force =     0.00002000    0.00006055    0.00003793
     atom   20 type  1   force =    -0.00001855   -0.00004762   -0.00002038
     atom   21 type  1   force =     0.00000131    0.00001187   -0.00002237
     atom   22 type  1   force =    -0.00000533    0.00003197    0.00000605
     atom   23 type  1   force =    -0.00000904    0.00000170   -0.00000134
     atom   24 type  1   force =    -0.00000227    0.00001366   -0.00000781
     atom   25 type  1   force =     0.00000557    0.00000321   -0.00000218
     atom   26 type  1   force =    -0.00000195   -0.00000113   -0.00000613
     atom   27 type  1   force =     0.00000250    0.00000145    0.00000300
     atom   28 type  1   force =     0.00002502   -0.00002060    0.00000605
     atom   29 type  1   force =    -0.00000305   -0.00000868   -0.00000134
     atom   30 type  1   force =     0.00001070   -0.00000879   -0.00000781
     atom   31 type  1   force =    -0.00000928   -0.00001971   -0.00000176
     atom   32 type  1   force =    -0.00002436   -0.00002659   -0.00000316
     atom   33 type  1   force =    -0.00002602   -0.00002714    0.00000221
     atom   34 type  1   force =     0.00000160    0.00000092    0.00000932
     atom   35 type  1   force =    -0.00003892   -0.00002247   -0.00000782
     atom   36 type  1   force =    -0.00002779   -0.00001604    0.00000021
     atom   37 type  1   force =    -0.00002171    0.00000182   -0.00000176
     atom   38 type  1   force =    -0.00003521   -0.00000780   -0.00000316
     atom   39 type  1   force =    -0.00003652   -0.00000896    0.00000221
     atom   40 type  1   force =    -0.00004789   -0.00002029   -0.00000328
     atom   41 type  1   force =    -0.00003591   -0.00001219   -0.00000162
     atom   42 type  1   force =    -0.00003966   -0.00001824    0.00000272
     atom   43 type  1   force =    -0.00004151   -0.00003133   -0.00000328
     atom   44 type  1   force =    -0.00002851   -0.00002501   -0.00000162
     atom   45 type  1   force =    -0.00003563   -0.00002523    0.00000272
     atom   46 type  1   force =    -0.00005627   -0.00000853    0.00000349
     atom   47 type  1   force =    -0.00001711   -0.00001402    0.00000595
     atom   48 type  1   force =    -0.00002940   -0.00001794   -0.00000752
     atom   49 type  1   force =    -0.00002405    0.00000013    0.00000335
     atom   50 type  1   force =    -0.00000947   -0.00000979   -0.00001560
     atom   51 type  1   force =    -0.00001978   -0.00001340    0.00000808
     atom   52 type  1   force =    -0.00001191   -0.00002089    0.00000335
     atom   53 type  1   force =    -0.00001321   -0.00000331   -0.00001560
     atom   54 type  1   force =    -0.00002150   -0.00001043    0.00000808
     atom   55 type  1   force =    -0.00003552   -0.00004447    0.00000349
     atom   56 type  1   force =    -0.00002070   -0.00000781    0.00000595
     atom   57 type  1   force =    -0.00003023   -0.00001649   -0.00000752
     atom   58 type  1   force =    -0.00006170   -0.00003562    0.00000788
     atom   59 type  1   force =    -0.00002014   -0.00001163    0.00001556
     atom   60 type  1   force =    -0.00003400   -0.00001963   -0.00001772
[...]
     atom  285 type  2   force =    -0.00000992    0.00000896    0.00000495
     atom  286 type  2   force =     0.00001111    0.00000424    0.00000133
     atom  287 type  2   force =     0.00000388    0.00000133   -0.00000655
     atom  288 type  2   force =    -0.00000345    0.00000765    0.00000468
     atom  289 type  2   force =     0.00000699    0.00000414   -0.00000547
     atom  290 type  2   force =     0.00000703    0.00000266    0.00000158
     atom  291 type  2   force =     0.00000490   -0.00000681    0.00000468
     atom  292 type  2   force =     0.00000707    0.00000398   -0.00000547
     atom  293 type  2   force =     0.00000582    0.00000476    0.00000158
     atom  294 type  2   force =     0.00000280   -0.00001307    0.00000495
     atom  295 type  2   force =     0.00000923    0.00000750    0.00000133
     atom  296 type  2   force =     0.00000309    0.00000269   -0.00000655
     atom  297 type  2   force =    -0.00000958   -0.00000553    0.00000238
     atom  298 type  2   force =     0.00001087    0.00000628    0.00000752
     atom  299 type  2   force =     0.00000170    0.00000098   -0.00001180

     Total force =     0.003314     Total SCF correction =     0.000546
     SCF correction compared to forces is large: reduce conv_thr to get better values

     Computing stress (Cartesian axis) and pressure

[...]

          total   stress  (Ry/bohr**3)                   (kbar)     P=       18.85
   0.00011683  -0.00000035   0.00000040           17.19       -0.05        0.06
  -0.00000035   0.00011723   0.00000023           -0.05       17.25        0.03
   0.00000040   0.00000023   0.00015043            0.06        0.03       22.13

     kinetic stress (kbar)  18388.33     -0.03      0.03
                               -0.03  18388.36      0.02
                                0.03      0.02  18387.17

     local   stress (kbar)   5425.23      0.32      1.54
                                0.32   5424.69      0.89
                                1.54      0.89   3759.17

     nonloc. stress (kbar)     93.68      0.01      0.00
                                0.01     93.66      0.00
                                0.00      0.00    103.41

     hartree stress (kbar)  19600.72     -0.10     -0.66
                               -0.10  19600.83     -0.38
                               -0.66     -0.38  20358.66

     exc-cor stress (kbar)   5222.52     -0.00     -0.00
                               -0.00   5222.52     -0.00
                               -0.00     -0.00   5222.89

     corecor stress (kbar) -14106.62      0.00     -0.00
                                0.00 -14106.62     -0.00
                               -0.00     -0.00 -14106.08

     ewald   stress (kbar) -34768.65     -0.25     -0.86
                               -0.25 -34768.14     -0.50
                               -0.86     -0.50 -33864.17

     hubbard stress (kbar)      0.00      0.00      0.00
                                0.00      0.00      0.00
                                0.00      0.00      0.00

     DFT-D   stress (kbar)      0.00      0.00      0.00
                                0.00      0.00      0.00
                                0.00      0.00      0.00

     XDM     stress (kbar)      0.00      0.00      0.00
                                0.00      0.00      0.00
                                0.00      0.00      0.00

     dft-nl  stress (kbar)    161.96     -0.00      0.00
                               -0.00    161.96      0.00
                                0.00      0.00    161.09

     TS-vdW  stress (kbar)      0.00      0.00      0.00
                                0.00      0.00      0.00
                                0.00      0.00      0.00

     MDB     stress (kbar)      0.00      0.00      0.00
                                0.00      0.00      0.00
                                0.00      0.00      0.00

     3D-RISM stress (kbar)      0.00      0.00      0.00
                                0.00      0.00      0.00
                                0.00      0.00      0.00

[...]

     Non-local corr. energy    =      81.65639223 Ry

 BEEFens 2000 ensemble energies
             -0.660950274372592E+02
             -0.595186672629315E+03
             -0.255954458406696E+03
              0.209463965527344E+03
             -0.428023069673636E+03
             -0.550409631424090E+03
              0.282810840415175E+03
             -0.297358248813835E+02
              0.471475007024549E+03
             -0.203592068379830E+02
              0.231293583450543E+03
              0.966552833875028E+01
              0.937862052968762E+01
             -0.202009620692188E+02
              0.308543232754310E+03
             -0.224662302686441E+03
             -0.463028286442813E+03
             -0.151238654929650E+03
              0.113110083786954E+03
             -0.101360857530954E+02
              0.675838248961107E+03
              0.575139861458992E+03
             -0.329369906268300E+03
              0.119185336498624E+03
             -0.721980455791369E+03
              0.578904553997012E+03
              0.189053337322035E+03
              0.562724155711584E+03
              0.369774224056330E+03
             -0.179995034893310E+03
              0.136231620700274E+03
             -0.265811129406831E+03
              0.744588470300168E+02
              0.361795701797705E+03
              0.383661961500233E+03
             -0.138550749708593E+03
              0.852311398887809E+03
             -0.323573628453726E+03
             -0.232813300517868E+03
              0.341562077041887E+03
              0.152808408990291E+03
              0.255728917495492E+03
             -0.487315637168147E+03
             -0.137169275747319E+02
              0.478308344772736E+03
              0.621299676224232E+03
             -0.618580045445509E+03
              0.440092992804031E+02
              0.233149275010547E+03
              0.113648276080268E+03
              0.258575112252845E+03
              0.547884665783762E+03
             -0.331288465161408E+03
             -0.363168304642300E+03
             -0.472152560263416E+03
             -0.730098432102714E+02
             -0.430561559077923E+03
              0.422043143753540E+02
             -0.796246504638079E+02
             -0.335634109047350E+03
[...]
              0.418755257731885E+03
              0.231385455065389E+03
              0.293982337866507E+03
             -0.475177595712152E+03
             -0.454982250620687E+03
             -0.115071175912024E+03
             -0.445878409409003E+03
              0.713786842957267E+03
              0.611681762468646E+03
              0.292247604117807E+03
              0.791603073709980E+03
             -0.411899608416417E+03
             -0.167873500392215E+03
             -0.233639835335427E+03
              0.654777828539527E+03

 BEEF-vdW xc energy contributions
            1 :    -6000.955151415241
            2 :     5405.566599736218
            3 :    -4407.837021443180
            4 :     3299.541957687437
            5 :    -2337.725388134306
            6 :     1646.986041262095
            7 :    -1205.288023716616
            8 :     907.0315299032436
            9 :    -652.6040986073949
           10 :     406.2260926607778
           11 :    -194.2787804740201
           12 :     59.89367989568564
           13 :    -15.60751978148437
           14 :     29.15803369448986
           15 :    -47.35302947202217
           16 :     34.01358948927736
           17 :     9.067538047488597
           18 :    -52.15325015142207
           19 :     67.14167790186457
           20 :    -51.58198154822821
           21 :     29.11854780693648
           22 :    -28.56938155499756
           23 :     60.27411544577990
           24 :    -108.6868694258028
           25 :     145.7198057837822
           26 :    -152.6891945072821
           27 :     133.0553869751220
           28 :    -106.9292177181596
           29 :     93.40553906118657
           30 :    -95.79362062332257
           31 :    -514.0637532767396
           32 :    -352.3500679701237

     Writing all to output data dir ./GaN.save/

     General routines

     Parallel routines

     PAW routines

   This run was terminated on:  11:28:45  18Jun2024

   JOB DONE.