     Program PWSCF v.7.1 starts on 17Jun2024 at 10:36:25

     Reading input from espresso.pwi
Warning: card &CELL ignored
Warning: card    CELL_DYNAMICS    = 'BFGS' ignored
Warning: card / ignored

     Current dimensions of program PWSCF are:
     Max number of different atomic species (ntypx) = 10
     Max number of k-points (npk) =  40000
     Max angular momentum in pseudopotentials (lmaxx) =  4
     file Ga.pbe-dn-kjpaw_psl.1.0.0.UPF: wavefunction(s)  4S renormalized
     file N.pbe-n-kjpaw_psl.1.0.0.UPF: wavefunction(s)  2S renormalized

     IMPORTANT: XC functional enforced from input :
     Exchange-correlation= BEEF-VDW
                           (   1   4  43  14   2   0   0)
     Any further DFT definition will be discarded
     Please, verify this is what you really want

     K-points division:     npool     =       2
     R & G space division:  proc/nbgrp/npool/nimage =      64
     Subspace diagonalization in iterative solution of the eigenvalue problem:
     a serial algorithm will be used

     Using Slab Decomposition

     bravais-lattice index     =            4
     lattice parameter (alat)  =      30.6565  a.u.
     unit-cell volume          =   24400.9461 (a.u.)^3
     number of atoms/cell      =          299
     number of atomic types    =            2
     number of electrons       =      2697.00
     number of Kohn-Sham states=         1619
     kinetic-energy cutoff     =      70.0000  Ry
     charge density cutoff     =     350.0000  Ry
     scf convergence threshold =      1.0E-07
     mixing beta               =       0.7000
     number of iterations used =            8  plain     mixing
     energy convergence thresh.=      1.0E-04
     force convergence thresh. =      1.0E-03
     Exchange-correlation= BEEF-VDW
                           (   1   4  43  14   2   0   0)
     nstep                     =           50

     celldm(1)=  30.656540  celldm(2)=   0.000000  celldm(3)=   0.977927
     celldm(4)=   0.000000  celldm(5)=   0.000000  celldm(6)=   0.000000

     crystal axes: (cart. coord. in units of alat)
               a(1) = (   1.000000   0.000000   0.000000 )
               a(2) = (  -0.500000   0.866025   0.000000 )
               a(3) = (   0.000000   0.000000   0.977927 )

     reciprocal axes: (cart. coord. in units 2 pi/alat)
               b(1) = (  1.000000  0.577350 -0.000000 )
               b(2) = (  0.000000  1.154701  0.000000 )
               b(3) = (  0.000000 -0.000000  1.022571 )

     PseudoPot. # 1 for Ga read from file:
     //group///packages/espresso/pseudo/psl_1.0.0/pslibrary.1.0.0/pbe/PSEUDOPOTENTIALS/Ga.pbe-dn-kjpaw_psl.1.0.0.UPF
     MD5 check sum: cd2a01e492f15b435d17032472d8505c
     Pseudo is Projector augmented-wave + core cor, Zval = 13.0
     Generated using 'atomic' code by A. Dal Corso  v.7.1
     Shape of augmentation charge: PSQ
     Using radial grid of 1205 points,  6 beta functions with:
                l(1) =   0
                l(2) =   0
                l(3) =   1
                l(4) =   1
                l(5) =   2
                l(6) =   2
     Q(r) pseudized with 0 coefficients

     PseudoPot. # 2 for N  read from file:
     //group///packages/espresso/pseudo/psl_1.0.0/pslibrary.1.0.0/pbe/PSEUDOPOTENTIALS/N.pbe-n-kjpaw_psl.1.0.0.UPF
     MD5 check sum: f77f775694dac7e2c3fe1c82443d1a16
     Pseudo is Projector augmented-wave + core cor, Zval =  5.0
     Generated using 'atomic' code by A. Dal Corso  v.7.1
     Shape of augmentation charge: PSQ
     Using radial grid of 1085 points,  4 beta functions with:
                l(1) =   0
                l(2) =   0
                l(3) =   1
                l(4) =   1
     Q(r) pseudized with 0 coefficients

     atomic species   valence    mass     pseudopotential
        Ga            13.00    69.72300     Ga( 1.00)
        N              5.00    14.00700     N ( 1.00)

      2 Sym. Ops. (no inversion) found

                                    s                        frac. trans.

      isym =  1     identity

 cryst.   s( 1) = (     1          0          0      )
                  (     0          1          0      )
                  (     0          0          1      )

 cart.    s( 1) = (  1.0000000  0.0000000  0.0000000 )
                  (  0.0000000  1.0000000  0.0000000 )
                  (  0.0000000  0.0000000  1.0000000 )

      isym =  2     inv. 180 deg rotation - cryst. axis [0,1,0]

 cryst.   s( 2) = (     1          1          0      )
                  (     0         -1          0      )
                  (     0          0          1      )

 cart.    s( 2) = (  0.5000000  0.8660254  0.0000000 )
                  (  0.8660254 -0.5000000  0.0000000 )
                  (  0.0000000  0.0000000  1.0000000 )

     point group C_s (m)
     there are  2 classes
     the character table:

       E     s
A'     1.00  1.00
A''    1.00 -1.00

     the symmetry operations in each class and the name of the first element:

     E        1
          identity
     s        2
          inv. 180 deg rotation - cryst. axis [0,1,0]

   Cartesian axes

     site n.     atom                  positions (alat units)
         1           Ga  tau(   1) = (   0.1000001   0.0577350   0.1627148  )
         2           Ga  tau(   2) = (   0.1000001   0.0577350   0.4886906  )
         3           Ga  tau(   3) = (   0.1000001   0.0577350   0.8146665  )
         4           Ga  tau(   4) = (   0.0000001   0.2309401   0.1627148  )
         5           Ga  tau(   5) = (   0.0000001   0.2309401   0.4886906  )
         6           Ga  tau(   6) = (   0.0000001   0.2309401   0.8146665  )
         7           Ga  tau(   7) = (  -0.0999999   0.4041451   0.1627148  )
         8           Ga  tau(   8) = (  -0.0999999   0.4041451   0.4886906  )
         9           Ga  tau(   9) = (  -0.0999999   0.4041451   0.8146665  )
        10           Ga  tau(  10) = (  -0.1999999   0.5773502   0.1627148  )
        11           Ga  tau(  11) = (  -0.1999999   0.5773502   0.4886906  )
        12           Ga  tau(  12) = (  -0.1999999   0.5773502   0.8146665  )
        13           Ga  tau(  13) = (  -0.2999999   0.7505553   0.1627148  )
        14           Ga  tau(  14) = (  -0.2999999   0.7505553   0.4886906  )
        15           Ga  tau(  15) = (  -0.2999999   0.7505553   0.8146665  )
        16           Ga  tau(  16) = (   0.3000001   0.0577350   0.1627148  )
        17           Ga  tau(  17) = (   0.3000001   0.0577350   0.4886906  )
        18           Ga  tau(  18) = (   0.3000001   0.0577350   0.8146665  )
        19           Ga  tau(  19) = (   0.2000001   0.2309401   0.1627148  )
        20           Ga  tau(  20) = (   0.2000001   0.2309401   0.4886906  )
        21           Ga  tau(  21) = (   0.2000001   0.2309401   0.8146665  )
        22           Ga  tau(  22) = (   0.1000001   0.4041451   0.1627148  )
        23           Ga  tau(  23) = (   0.1000001   0.4041451   0.4886906  )
        24           Ga  tau(  24) = (   0.1000001   0.4041451   0.8146665  )
        25           Ga  tau(  25) = (   0.0000001   0.5773502   0.1627148  )
        26           Ga  tau(  26) = (   0.0000001   0.5773502   0.4886906  )
        27           Ga  tau(  27) = (   0.0000001   0.5773502   0.8146665  )
        28           Ga  tau(  28) = (  -0.0999999   0.7505553   0.1627148  )
        29           Ga  tau(  29) = (  -0.0999999   0.7505553   0.4886906  )
        30           Ga  tau(  30) = (  -0.0999999   0.7505553   0.8146665  )
        31           Ga  tau(  31) = (   0.5000001   0.0577350   0.1627148  )
        32           Ga  tau(  32) = (   0.5000001   0.0577350   0.4886906  )
        33           Ga  tau(  33) = (   0.5000001   0.0577350   0.8146665  )
        34           Ga  tau(  34) = (   0.4000001   0.2309401   0.1627148  )
        35           Ga  tau(  35) = (   0.4000001   0.2309401   0.4886906  )
        36           Ga  tau(  36) = (   0.4000001   0.2309401   0.8146665  )
        37           Ga  tau(  37) = (   0.3000001   0.4041451   0.1627148  )
        38           Ga  tau(  38) = (   0.3000001   0.4041451   0.4886906  )
        39           Ga  tau(  39) = (   0.3000001   0.4041451   0.8146665  )
        40           Ga  tau(  40) = (   0.2000001   0.5773502   0.1627148  )
        41           Ga  tau(  41) = (   0.2000001   0.5773502   0.4886906  )
        42           Ga  tau(  42) = (   0.2000001   0.5773502   0.8146665  )
        43           Ga  tau(  43) = (   0.1000001   0.7505553   0.1627148  )
        44           Ga  tau(  44) = (   0.1000001   0.7505553   0.4886906  )
        45           Ga  tau(  45) = (   0.1000001   0.7505553   0.8146665  )
        46           Ga  tau(  46) = (   0.7000001   0.0577350   0.1627148  )
        47           Ga  tau(  47) = (   0.7000001   0.0577350   0.4886906  )
        48           Ga  tau(  48) = (   0.7000001   0.0577350   0.8146665  )
        49           Ga  tau(  49) = (   0.6000001   0.2309401   0.1627148  )
        50           Ga  tau(  50) = (   0.6000001   0.2309401   0.4886906  )
        51           Ga  tau(  51) = (   0.6000001   0.2309401   0.8146665  )
        52           Ga  tau(  52) = (   0.5000001   0.4041451   0.1627148  )
        53           Ga  tau(  53) = (   0.5000001   0.4041451   0.4886906  )
        54           Ga  tau(  54) = (   0.5000001   0.4041451   0.8146665  )
        55           Ga  tau(  55) = (   0.4000001   0.5773502   0.1627148  )
        56           Ga  tau(  56) = (   0.4000001   0.5773502   0.4886906  )
        57           Ga  tau(  57) = (   0.4000001   0.5773502   0.8146665  )
        58           Ga  tau(  58) = (   0.3000001   0.7505553   0.1627148  )
        59           Ga  tau(  59) = (   0.3000001   0.7505553   0.4886906  )
        60           Ga  tau(  60) = (   0.3000001   0.7505553   0.8146665  )
[...]
       285           N   tau( 285) = (   0.7999999   0.1154701   0.1225140  )
       286           N   tau( 286) = (   0.7999999   0.1154701   0.4484898  )
       287           N   tau( 287) = (   0.7999999   0.1154701   0.7744656  )
       288           N   tau( 288) = (   0.6999999   0.2886752   0.1225140  )
       289           N   tau( 289) = (   0.6999999   0.2886752   0.4484898  )
       290           N   tau( 290) = (   0.6999999   0.2886752   0.7744656  )
       291           N   tau( 291) = (   0.5999999   0.4618803   0.1225140  )
       292           N   tau( 292) = (   0.5999999   0.4618803   0.4484898  )
       293           N   tau( 293) = (   0.5999999   0.4618803   0.7744656  )
       294           N   tau( 294) = (   0.4999999   0.6350854   0.1225140  )
       295           N   tau( 295) = (   0.4999999   0.6350854   0.4484898  )
       296           N   tau( 296) = (   0.4999999   0.6350854   0.7744656  )
       297           N   tau( 297) = (   0.3999999   0.8082905   0.1225140  )
       298           N   tau( 298) = (   0.3999999   0.8082905   0.4484898  )
       299           N   tau( 299) = (   0.3999999   0.8082905   0.7744656  )

   Crystallographic axes

     site n.     atom                  positions (cryst. coord.)
         1           Ga  tau(   1) = (  0.1333334  0.0666666  0.1663874  )
[...]
     atom   44 type  1   force =     0.00000000    0.00000000    0.00000000
     atom   45 type  1   force =     0.00000000    0.00000000    0.00000000
     atom   46 type  1   force =     0.00000000    0.00000000    0.00000000
     atom   47 type  1   force =     0.00000000    0.00000000    0.00000000
     atom   48 type  1   force =     0.00000000    0.00000000    0.00000000
     atom   49 type  1   force =     0.00000000    0.00000000    0.00000000
     atom   50 type  1   force =     0.00000000    0.00000000    0.00000000
     atom   51 type  1   force =     0.00000000    0.00000000    0.00000000
     atom   52 type  1   force =     0.00000000    0.00000000    0.00000000
     atom   53 type  1   force =     0.00000000    0.00000000    0.00000000
     atom   54 type  1   force =     0.00000000    0.00000000    0.00000000
     atom   55 type  1   force =     0.00000000    0.00000000    0.00000000
     atom   56 type  1   force =     0.00000000    0.00000000    0.00000000
     atom   57 type  1   force =     0.00000000    0.00000000    0.00000000
     atom   58 type  1   force =     0.00000000    0.00000000    0.00000000
     atom   59 type  1   force =     0.00000000    0.00000000    0.00000000
     atom   60 type  1   force =     0.00000000    0.00000000    0.00000000
[...]
     atom  285 type  2   force =     0.00000000    0.00000000    0.00000000
     atom  286 type  2   force =     0.00000000    0.00000000    0.00000000
     atom  287 type  2   force =     0.00000000    0.00000000    0.00000000
     atom  288 type  2   force =     0.00000000    0.00000000    0.00000000
     atom  289 type  2   force =     0.00000000    0.00000000    0.00000000
     atom  290 type  2   force =     0.00000000    0.00000000    0.00000000
     atom  291 type  2   force =     0.00000000    0.00000000    0.00000000
     atom  292 type  2   force =     0.00000000    0.00000000    0.00000000
     atom  293 type  2   force =     0.00000000    0.00000000    0.00000000
     atom  294 type  2   force =     0.00000000    0.00000000    0.00000000
     atom  295 type  2   force =     0.00000000    0.00000000    0.00000000
     atom  296 type  2   force =     0.00000000    0.00000000    0.00000000
     atom  297 type  2   force =     0.00000000    0.00000000    0.00000000
     atom  298 type  2   force =     0.00000000    0.00000000    0.00000000
     atom  299 type  2   force =     0.00000000    0.00000000    0.00000000
     The SCF correction term to forces
     atom    1 type  1   force =     0.00002445    0.00001412    0.00007404
     atom    2 type  1   force =    -0.00001193   -0.00000688   -0.00003652
     atom    3 type  1   force =    -0.00000725   -0.00000418    0.00003679
     atom    4 type  1   force =    -0.00001034    0.00001043   -0.00000671
     atom    5 type  1   force =    -0.00001410    0.00001975    0.00001324
     atom    6 type  1   force =    -0.00000729   -0.00000531    0.00001239
     atom    7 type  1   force =    -0.00000646   -0.00000804   -0.00000845
     atom    8 type  1   force =    -0.00000711   -0.00000297    0.00000663
     atom    9 type  1   force =    -0.00000844   -0.00000658   -0.00000220
     atom   10 type  1   force =    -0.00001019   -0.00000158   -0.00000845
     atom   11 type  1   force =    -0.00000612   -0.00000467    0.00000663
     atom   12 type  1   force =    -0.00000992   -0.00000402   -0.00000220
     atom   13 type  1   force =     0.00000387   -0.00001417   -0.00000671
     atom   14 type  1   force =     0.00001006   -0.00002208    0.00001324
     atom   15 type  1   force =    -0.00000825   -0.00000365    0.00001239
     atom   16 type  1   force =     0.00002446   -0.00000311   -0.00001115
     atom   17 type  1   force =     0.00002240   -0.00000274    0.00000428
     atom   18 type  1   force =     0.00000046    0.00000056    0.00000781
     atom   19 type  1   force =     0.00000953    0.00002274   -0.00001115
     atom   20 type  1   force =     0.00000883    0.00002077    0.00000428
     atom   21 type  1   force =     0.00000071    0.00000012    0.00000781
     atom   22 type  1   force =     0.00000217   -0.00000169    0.00000105
     atom   23 type  1   force =     0.00000342    0.00000412    0.00000819
     atom   24 type  1   force =     0.00000099   -0.00000295   -0.00000248
     atom   25 type  1   force =    -0.00000105   -0.00000060   -0.00000035
     atom   26 type  1   force =     0.00000128    0.00000074    0.00000363
     atom   27 type  1   force =     0.00000069    0.00000040   -0.00000321
     atom   28 type  1   force =    -0.00000038    0.00000272    0.00000105
     atom   29 type  1   force =     0.00000528    0.00000090    0.00000819
     atom   30 type  1   force =    -0.00000206    0.00000234   -0.00000248
     atom   31 type  1   force =     0.00000407    0.00000426   -0.00000422
     atom   32 type  1   force =     0.00000604    0.00000606    0.00000606
     atom   33 type  1   force =     0.00000615    0.00000659   -0.00000537
     atom   34 type  1   force =    -0.00000226   -0.00000131   -0.00000007
     atom   35 type  1   force =     0.00000895    0.00000516    0.00000399
     atom   36 type  1   force =     0.00000762    0.00000440   -0.00000705
     atom   37 type  1   force =     0.00000572    0.00000139   -0.00000422
     atom   38 type  1   force =     0.00000827    0.00000220    0.00000606
     atom   39 type  1   force =     0.00000878    0.00000203   -0.00000537
     atom   40 type  1   force =     0.00001054    0.00000439   -0.00000021
     atom   41 type  1   force =     0.00000760    0.00000188    0.00000236
     atom   42 type  1   force =     0.00000837    0.00000461   -0.00000302
     atom   43 type  1   force =     0.00000907    0.00000693   -0.00000021
     atom   44 type  1   force =     0.00000542    0.00000565    0.00000236
     atom   45 type  1   force =     0.00000817    0.00000494   -0.00000302
     atom   46 type  1   force =     0.00001116    0.00000247   -0.00000688
     atom   47 type  1   force =     0.00000054    0.00000272    0.00000467
     atom   48 type  1   force =     0.00000605    0.00000434   -0.00000275
     atom   49 type  1   force =     0.00000569    0.00000044   -0.00000517
     atom   50 type  1   force =     0.00000150    0.00000266    0.00000472
     atom   51 type  1   force =     0.00000422    0.00000325   -0.00000640
     atom   52 type  1   force =     0.00000322    0.00000471   -0.00000517
     atom   53 type  1   force =     0.00000306   -0.00000003    0.00000472
     atom   54 type  1   force =     0.00000492    0.00000203   -0.00000640
     atom   55 type  1   force =     0.00000772    0.00000843   -0.00000688
     atom   56 type  1   force =     0.00000263   -0.00000089    0.00000467
     atom   57 type  1   force =     0.00000679    0.00000307   -0.00000275
     atom   58 type  1   force =     0.00000760    0.00000439    0.00000035
     atom   59 type  1   force =    -0.00000140   -0.00000081    0.00000506
     atom   60 type  1   force =     0.00000742    0.00000428   -0.00000003
[...]
     atom  285 type  2   force =     0.00000156   -0.00000162   -0.00000070
     atom  286 type  2   force =    -0.00000293   -0.00000086   -0.00000016
     atom  287 type  2   force =    -0.00000122    0.00000018    0.00000067
     atom  288 type  2   force =     0.00000121   -0.00000146   -0.00000085
     atom  289 type  2   force =    -0.00000139   -0.00000052    0.00000189
     atom  290 type  2   force =    -0.00000165   -0.00000028   -0.00000138
     atom  291 type  2   force =    -0.00000066    0.00000178   -0.00000085
     atom  292 type  2   force =    -0.00000115   -0.00000095    0.00000189
     atom  293 type  2   force =    -0.00000107   -0.00000129   -0.00000138
     atom  294 type  2   force =    -0.00000062    0.00000217   -0.00000070
     atom  295 type  2   force =    -0.00000221   -0.00000211   -0.00000016
     atom  296 type  2   force =    -0.00000045   -0.00000115    0.00000067
     atom  297 type  2   force =     0.00000142    0.00000082   -0.00000008
     atom  298 type  2   force =    -0.00000284   -0.00000164   -0.00000147
     atom  299 type  2   force =    -0.00000045   -0.00000026    0.00000218

     Total force =     0.003214     Total SCF correction =     0.000290

     Computing stress (Cartesian axis) and pressure

     Non-local corr. energy    =      81.65639092 Ry

          total   stress  (Ry/bohr**3)                   (kbar)     P=       18.85
   0.00011683  -0.00000035   0.00000040           17.19       -0.05        0.06
  -0.00000035   0.00011724   0.00000023           -0.05       17.25        0.03
   0.00000040   0.00000023   0.00015044            0.06        0.03       22.13

     kinetic stress (kbar)  18388.33     -0.03      0.03
                               -0.03  18388.36      0.02
                                0.03      0.02  18387.17

     local   stress (kbar)   5425.23      0.32      1.54
                                0.32   5424.69      0.89
                                1.54      0.89   3759.17

     nonloc. stress (kbar)     93.68      0.01      0.00
                                0.01     93.67      0.00
                                0.00      0.00    103.41

     hartree stress (kbar)  19600.72     -0.10     -0.66
                               -0.10  19600.83     -0.38
                               -0.66     -0.38  20358.66

     exc-cor stress (kbar)   5222.52     -0.00     -0.00
                               -0.00   5222.52     -0.00
                               -0.00     -0.00   5222.89

     corecor stress (kbar) -14106.62      0.00     -0.00
                                0.00 -14106.62     -0.00
                               -0.00     -0.00 -14106.08

     ewald   stress (kbar) -34768.65     -0.25     -0.86
                               -0.25 -34768.14     -0.50
                               -0.86     -0.50 -33864.17

     hubbard stress (kbar)      0.00      0.00      0.00
                                0.00      0.00      0.00
                                0.00      0.00      0.00

     DFT-D   stress (kbar)      0.00      0.00      0.00
                                0.00      0.00      0.00
                                0.00      0.00      0.00

     XDM     stress (kbar)      0.00      0.00      0.00
                                0.00      0.00      0.00
                                0.00      0.00      0.00

     dft-nl  stress (kbar)    161.96     -0.00      0.00
                               -0.00    161.96      0.00
                                0.00      0.00    161.09

     TS-vdW  stress (kbar)      0.00      0.00      0.00
                                0.00      0.00      0.00
                                0.00      0.00      0.00

     MDB     stress (kbar)      0.00      0.00      0.00
                                0.00      0.00      0.00
                                0.00      0.00      0.00

     3D-RISM stress (kbar)      0.00      0.00      0.00
                                0.00      0.00      0.00
                                0.00      0.00      0.00

     Energy error            =      2.1E-05 Ry
     Gradient error          =      9.2E-04 Ry/Bohr

     bfgs converged in  11 scf cycles and  10 bfgs steps
     (criteria: energy <  1.0E-04 Ry, force <  1.0E-03 Ry/Bohr)

     End of BFGS Geometry Optimization

     Final energy             =  -46812.7683213512 Ry

     File ./GaN.bfgs deleted, as requested
Begin final coordinates

ATOMIC_POSITIONS (angstrom)
Ga            1.6188394963        0.9346359480        2.6954301062
Ga            1.6220326879        0.9364795380        7.9430103630
Ga            1.6218531608        0.9363758880       13.2112162746
Ga            0.0012334474        3.7456797885        2.6370642299
Ga            0.0017533564        3.7476563508        7.9261902460
Ga           -0.0000186544        3.7474192072       13.2156170909
Ga           -1.6221472507        6.5558937818        2.6409235365
Ga           -1.6224433178        6.5563514886        7.9275966630
Ga           -1.6224875900        6.5559393273       13.2167943122
Ga           -3.2448728348        9.3665369403        2.6409235365
Ga           -3.2446244826        9.3660516852        7.9275966630
Ga           -3.2450035609        9.3662194250       13.2167943122
Ga           -4.8668991939       12.1775328614        2.6370642299
Ga           -4.8649274863       12.1769948347        7.9261902460
Ga           -4.8660188640       12.1755788001       13.2156170909
Ga            4.8649277576        0.9354515750        2.6375945742
Ga            4.8674920371        0.9339991142        7.9264611592
Ga            4.8677652096        0.9358206035       13.2154320718
Ga            3.2425899806        3.7454230319        2.6375945742
Ga            3.2426142524        3.7483699934        7.9264611592
Ga            3.2443282946        3.7476958231       13.2154320718
Ga            1.6225023069        6.5558509863        2.6394534464
Ga            1.6225218688        6.5572762488        7.9284815042
Ga            1.6224803799        6.5562814003       13.2162668909
Ga           -0.0001427084        9.3661206465        2.6400171174
Ga            0.0000032833        9.3662049348        7.9282515280
Ga           -0.0000655443        9.3661651972       13.2161804570
Ga           -1.6225851180       12.1765072813        2.6394534464
Ga           -1.6213410235       12.1758115912        7.9284815042
Ga           -1.6222233320       12.1762730849       13.2162668909
Ga            8.1108865775        0.9362500513        2.6407408456
Ga            8.1115326367        0.9363181282        7.9274074751
Ga            8.1112309708        0.9365742625       13.2166596050
Ga            6.4887311482        3.7462692043        2.6396732208
Ga            6.4885489185        3.7461639939        7.9301320612
Ga            6.4894317521        3.7466736981       13.2165455515
Ga            4.8662608914        6.5561065915        2.6407408456
Ga            4.8666428773        6.5566320567        7.9274074751
Ga            4.8667138632        6.5562427392       13.2166596050
Ga            3.2449198672        9.3660854438        2.6401631823
Ga            3.2447961324        9.3661568523        7.9284410919
Ga            3.2449020690        9.3661083720       13.2163473232
Ga            1.6223580930       12.1764448754        2.6401631823
Ga            1.6223580672       12.1763020136        7.9284410919
Ga            1.6223690503       12.1764179975       13.2163473232
Ga           11.3559311940        0.9358520795        2.6407006525
Ga           11.3553002336        0.9359073176        7.9274829779
Ga           11.3557469842        0.9362318025       13.2166818778
Ga            9.7331986692        3.7464743425        2.6405428493
Ga            9.7331941593        3.7466009648        7.9287993818
Ga            9.7332214419        3.7466322448       13.2169096165
Ga            8.1111425635        6.5559579302        2.6405428493
Ga            8.1112499667        6.5558907134        7.9287993818
Ga            8.1112906973        6.5558987008       13.2169096165
Ga            6.4884385459        9.3665966517        2.6407006525
Ga            6.4881709033        9.3660226049        7.9274829779
Ga            6.4886752908        9.3662472598       13.2166818778
Ga            4.8670357041       12.1761874132        2.6396224088
Ga            4.8656957969       12.1754138175        7.9286105694
Ga            4.8665946635       12.1759327784       13.2164927680
[...]
N            12.9771281740        1.8728440284        1.9878878762
N            12.9785428148        1.8731966015        7.2761248633
N            12.9773638794        1.8735309319       12.5634335570
N            11.3559108698        4.6830128808        1.9875087471
N            11.3563049302        4.6827929284        7.2766064381
N            11.3555301524        4.6832796779       12.5641202472
N             9.7335612359        7.4930048746        1.9875087471
N             9.7335677817        7.4934561171        7.2766064381
N             9.7336019303        7.4925417651       12.5641202472
N             8.1104922730       10.3021046712        1.9878878762
N             8.1115049307       10.3031534995        7.2761248633
N             8.1112050015       10.3019653463       12.5634335570
N             6.4875607855       13.1118021551        1.9843740984
N             6.4865596168       13.1112241301        7.2749164596
N             6.4882384117       13.1121933828       12.5629829237
End final coordinates

     Writing all to output data dir ./GaN.save/

     General routines

     Parallel routines

     PAW routines

   This run was terminated on:  11:42:45  17Jun2024

   JOB DONE.