     Program PWSCF v.7.1 starts on 17Mar2024 at 17:10:31

     Reading input from espresso.pwi
Warning: card &CELL ignored
Warning: card    CELL_DYNAMICS    = 'BFGS' ignored
Warning: card / ignored

     Current dimensions of program PWSCF are:
     Max number of different atomic species (ntypx) = 10
     Max number of k-points (npk) =  40000
     Max angular momentum in pseudopotentials (lmaxx) =  4
     file Pb.pbe-dn-kjpaw_psl.1.0.0.UPF: wavefunction(s)  6S 6P 5D renormalized
     file I.pbe-dn-kjpaw_psl.1.0.0.UPF: wavefunction(s)  5S 5P renormalized

     IMPORTANT: XC functional enforced from input :
     Exchange-correlation= BEEF-VDW
                           (   1   4  43  14   2   0   0)
     Any further DFT definition will be discarded
     Please, verify this is what you really want

     R & G space division:  proc/nbgrp/npool/nimage =     256
     wavefunctions fft division:  task group distribution
                                  #TG    x Z-proc =       8     32
     Subspace diagonalization in iterative solution of the eigenvalue problem:
     a serial algorithm will be used

     Using Pencil Decomposition

     bravais-lattice index     =            4
     lattice parameter (alat)  =      35.6120  a.u.
     unit-cell volume          =   45937.3577 (a.u.)^3
     number of atoms/cell      =          143
     number of atomic types    =            2
     number of electrons       =      2286.00
     number of Kohn-Sham states=         1372
     kinetic-energy cutoff     =      70.0000  Ry
     charge density cutoff     =     350.0000  Ry
     scf convergence threshold =      1.0E-07
     mixing beta               =       0.7000
     number of iterations used =            8  plain     mixing
     Exchange-correlation= BEEF-VDW
                           (   1   4  43  14   2   0   0)

     celldm(1)=  35.612033  celldm(2)=   0.000000  celldm(3)=   1.174479
     celldm(4)=   0.000000  celldm(5)=   0.000000  celldm(6)=   0.000000

     crystal axes: (cart. coord. in units of alat)
               a(1) = (   1.000000   0.000000   0.000000 )
               a(2) = (  -0.500000   0.866025   0.000000 )
               a(3) = (   0.000000   0.000000   1.174479 )

     reciprocal axes: (cart. coord. in units 2 pi/alat)
               b(1) = (  1.000000  0.577350 -0.000000 )
               b(2) = (  0.000000  1.154701  0.000000 )
               b(3) = (  0.000000 -0.000000  0.851442 )

     PseudoPot. # 1 for Pb read from file:
     //group///packages/espresso/pseudo/psl_1.0.0/pslibrary.1.0.0/pbe/PSEUDOPOTENTIALS/Pb.pbe-dn-kjpaw_psl.1.0.0.UPF
     MD5 check sum: 39ab5b8a6bbd56b7735ad9f188aac93a
     Pseudo is Projector augmented-wave + core cor, Zval = 14.0
     Generated using 'atomic' code by A. Dal Corso  v.7.1
     Shape of augmentation charge: PSQ
     Using radial grid of 1281 points,  6 beta functions with:
                l(1) =   0
                l(2) =   0
                l(3) =   1
                l(4) =   1
                l(5) =   2
                l(6) =   2
     Q(r) pseudized with 0 coefficients

     PseudoPot. # 2 for I  read from file:
     //group///packages/espresso/pseudo/psl_1.0.0/pslibrary.1.0.0/pbe/PSEUDOPOTENTIALS/I.pbe-dn-kjpaw_psl.1.0.0.UPF
     MD5 check sum: bfa8781bc1224d19af3f3980e3fab11e
     Pseudo is Projector augmented-wave + core cor, Zval = 17.0
     Generated using 'atomic' code by A. Dal Corso  v.7.1
     Shape of augmentation charge: PSQ
     Using radial grid of 1247 points,  6 beta functions with:
                l(1) =   0
                l(2) =   0
                l(3) =   1
                l(4) =   1
                l(5) =   2
                l(6) =   2
     Q(r) pseudized with 0 coefficients

     atomic species   valence    mass     pseudopotential
        Pb            14.00   207.20000     Pb( 1.00)
        I             17.00   126.90447     I ( 1.00)

     No symmetry found

                                    s                        frac. trans.

      isym =  1     identity

 cryst.   s( 1) = (     1          0          0      )
                  (     0          1          0      )
                  (     0          0          1      )

 cart.    s( 1) = (  1.0000000  0.0000000  0.0000000 )
                  (  0.0000000  1.0000000  0.0000000 )
                  (  0.0000000  0.0000000  1.0000000 )

     point group C_1 (1)
     there are  1 classes
     the character table:

       E
A      1.00

     the symmetry operations in each class and the name of the first element:

     E        1
          identity

   Cartesian axes

     site n.     atom                  positions (alat units)
         1           Pb  tau(   1) = (   0.1250136   0.2164827   1.1744753  )
         2           Pb  tau(   2) = (   0.1250034   0.2164918   0.3914896  )
         3           Pb  tau(   3) = (   0.1250085   0.2164873   0.7829825  )
         4           Pb  tau(   4) = (   0.0000128   0.4329881   1.1744712  )
         5           Pb  tau(   5) = (   0.0000026   0.4329971   0.3914855  )
         6           Pb  tau(   6) = (   0.0000077   0.4329926   0.7829784  )
         7           Pb  tau(   7) = (  -0.1249881   0.6494934   1.1744671  )
         8           Pb  tau(   8) = (  -0.1249983   0.6495025   0.3914814  )
         9           Pb  tau(   9) = (  -0.1249932   0.6494980   0.7829742  )
        10           Pb  tau(  10) = (  -0.2499889   0.8659988   1.1744630  )
        11           Pb  tau(  11) = (  -0.2499991   0.8660078   0.3914773  )
        12           Pb  tau(  12) = (  -0.2499940   0.8660033   0.7829701  )
        13           Pb  tau(  13) = (   0.3750136   0.2164818   1.1744786  )
        14           Pb  tau(  14) = (   0.3750034   0.2164908   0.3914929  )
        15           Pb  tau(  15) = (   0.3750085   0.2164863   0.7829857  )
        16           Pb  tau(  16) = (   0.2500128   0.4329871   1.1744745  )
        17           Pb  tau(  17) = (   0.2500026   0.4329962   0.3914888  )
        18           Pb  tau(  18) = (   0.2500077   0.4329916   0.7829816  )
        19           Pb  tau(  19) = (   0.1250119   0.6494925   1.1744703  )
        20           Pb  tau(  20) = (   0.1250017   0.6495015   0.3914847  )
        21           Pb  tau(  21) = (   0.1250068   0.6494970   0.7829775  )
        22           Pb  tau(  22) = (   0.0000111   0.8659978   1.1744662  )
        23           Pb  tau(  23) = (   0.0000009   0.8660069   0.3914805  )
        24           Pb  tau(  24) = (   0.0000060   0.8660024   0.7829734  )
        25           Pb  tau(  25) = (   0.6250136   0.2164808   1.1744818  )
        26           Pb  tau(  26) = (   0.6250034   0.2164898   0.3914962  )
        27           Pb  tau(  27) = (   0.6250085   0.2164853   0.7829890  )
        28           Pb  tau(  28) = (   0.5000128   0.4329862   1.1744777  )
        29           Pb  tau(  29) = (   0.5000026   0.4329952   0.3914920  )
        30           Pb  tau(  30) = (   0.5000077   0.4329907   0.7829849  )
        31           Pb  tau(  31) = (   0.3750119   0.6494915   1.1744736  )
        32           Pb  tau(  32) = (   0.3750017   0.6495006   0.3914879  )
        33           Pb  tau(  33) = (   0.3750068   0.6494960   0.7829808  )
        34           Pb  tau(  34) = (   0.2500111   0.8659969   1.1744695  )
        35           Pb  tau(  35) = (   0.2500009   0.8660059   0.3914838  )
        36           Pb  tau(  36) = (   0.2500060   0.8660014   0.7829766  )
        37           Pb  tau(  37) = (   0.8750136   0.2164798   1.1744851  )
        38           Pb  tau(  38) = (   0.8750034   0.2164889   0.3914994  )
        39           Pb  tau(  39) = (   0.8750085   0.2164844   0.7829923  )
        40           Pb  tau(  40) = (   0.7500128   0.4329852   1.1744810  )
        41           Pb  tau(  41) = (   0.7500026   0.4329942   0.3914953  )
        42           Pb  tau(  42) = (   0.7500077   0.4329897   0.7829881  )
        43           Pb  tau(  43) = (   0.6250119   0.6494906   1.1744769  )
        44           Pb  tau(  44) = (   0.6250017   0.6494996   0.3914912  )
        45           Pb  tau(  45) = (   0.6250068   0.6494951   0.7829840  )
        46           Pb  tau(  46) = (   0.5000111   0.8659959   1.1744727  )
        47           Pb  tau(  47) = (   0.5000009   0.8660050   0.3914870  )
        48           Pb  tau(  48) = (   0.5000060   0.8660004   0.7829799  )
        49           I   tau(  49) = (   0.1250105   0.0721505   0.6824253  )
        50           I   tau(  50) = (   0.1250156   0.0721459   1.0739182  )
        51           I   tau(  51) = (   0.0000045   0.2886603   0.2909283  )
        52           I   tau(  52) = (   0.0000096   0.2886558   0.6824212  )
        53           I   tau(  53) = (   0.0000147   0.2886513   1.0739140  )
        54           I   tau(  54) = (  -0.1249963   0.5051657   0.2909242  )
        55           I   tau(  55) = (  -0.1249912   0.5051612   0.6824171  )
        56           I   tau(  56) = (  -0.1249861   0.5051566   1.0739099  )
        57           I   tau(  57) = (  -0.2499971   0.7216710   0.2909201  )
        58           I   tau(  58) = (  -0.2499920   0.7216665   0.6824129  )
        59           I   tau(  59) = (  -0.2499869   0.7216620   1.0739058  )
        60           I   tau(  60) = (   0.3750054   0.0721540   0.2909357  )
[...]
       129           I   tau( 129) = (   0.1249958   0.7938439   0.1005496  )
       130           I   tau( 130) = (   0.1250009   0.7938394   0.4920425  )
       131           I   tau( 131) = (   0.1250060   0.7938348   0.8835353  )
       132           I   tau( 132) = (   0.7499983   0.1443268   0.1005653  )
       133           I   tau( 133) = (   0.7500034   0.1443223   0.4920581  )
       134           I   tau( 134) = (   0.7500085   0.1443178   0.8835509  )
       135           I   tau( 135) = (   0.6249975   0.3608322   0.1005611  )
       136           I   tau( 136) = (   0.6250026   0.3608277   0.4920540  )
       137           I   tau( 137) = (   0.6250077   0.3608232   0.8835468  )
       138           I   tau( 138) = (   0.4999966   0.5773376   0.1005570  )
       139           I   tau( 139) = (   0.5000017   0.5773330   0.4920499  )
       140           I   tau( 140) = (   0.5000068   0.5773285   0.8835427  )
       141           I   tau( 141) = (   0.3749958   0.7938429   0.1005529  )
       142           I   tau( 142) = (   0.3750009   0.7938384   0.4920457  )
       143           I   tau( 143) = (   0.3750060   0.7938339   0.8835386  )

   Crystallographic axes

     site n.     atom                  positions (cryst. coord.)
         1           Pb  tau(   1) = (  0.2500000  0.2499727  0.9999973  )
         2           Pb  tau(   2) = (  0.2499950  0.2499832  0.3333306  )
         3           Pb  tau(   3) = (  0.2499975  0.2499780  0.6666639  )
         4           Pb  tau(   4) = (  0.2499986  0.4999716  0.9999938  )
         5           Pb  tau(   5) = (  0.2499936  0.4999820  0.3333271  )
         6           Pb  tau(   6) = (  0.2499961  0.4999768  0.6666604  )
         7           Pb  tau(   7) = (  0.2499972  0.7499704  0.9999902  )
         8           Pb  tau(   8) = (  0.2499922  0.7499809  0.3333236  )
[...]
     atom   26 type  1   force =     0.00000000    0.00000000    0.00000000
     atom   27 type  1   force =     0.00000000    0.00000000    0.00000000
     atom   28 type  1   force =     0.00000000    0.00000000    0.00000000
     atom   29 type  1   force =     0.00000000    0.00000000    0.00000000
     atom   30 type  1   force =     0.00000000    0.00000000    0.00000000
     atom   31 type  1   force =     0.00000000    0.00000000    0.00000000
     atom   32 type  1   force =     0.00000000    0.00000000    0.00000000
     atom   33 type  1   force =     0.00000000    0.00000000    0.00000000
     atom   34 type  1   force =     0.00000000    0.00000000    0.00000000
     atom   35 type  1   force =     0.00000000    0.00000000    0.00000000
     atom   36 type  1   force =     0.00000000    0.00000000    0.00000000
     atom   37 type  1   force =     0.00000000    0.00000000    0.00000000
     atom   38 type  1   force =     0.00000000    0.00000000    0.00000000
     atom   39 type  1   force =     0.00000000    0.00000000    0.00000000
     atom   40 type  1   force =     0.00000000    0.00000000    0.00000000
     atom   41 type  1   force =     0.00000000    0.00000000    0.00000000
     atom   42 type  1   force =     0.00000000    0.00000000    0.00000000
     atom   43 type  1   force =     0.00000000    0.00000000    0.00000000
     atom   44 type  1   force =     0.00000000    0.00000000    0.00000000
     atom   45 type  1   force =     0.00000000    0.00000000    0.00000000
     atom   46 type  1   force =     0.00000000    0.00000000    0.00000000
     atom   47 type  1   force =     0.00000000    0.00000000    0.00000000
     atom   48 type  1   force =     0.00000000    0.00000000    0.00000000
     atom   49 type  2   force =     0.00000000    0.00000000    0.00000000
     atom   50 type  2   force =     0.00000000    0.00000000    0.00000000
     atom   51 type  2   force =     0.00000000    0.00000000    0.00000000
     atom   52 type  2   force =     0.00000000    0.00000000    0.00000000
     atom   53 type  2   force =     0.00000000    0.00000000    0.00000000
     atom   54 type  2   force =     0.00000000    0.00000000    0.00000000
     atom   55 type  2   force =     0.00000000    0.00000000    0.00000000
     atom   56 type  2   force =     0.00000000    0.00000000    0.00000000
     atom   57 type  2   force =     0.00000000    0.00000000    0.00000000
     atom   58 type  2   force =     0.00000000    0.00000000    0.00000000
     atom   59 type  2   force =     0.00000000    0.00000000    0.00000000
     atom   60 type  2   force =     0.00000000    0.00000000    0.00000000
[...]
     atom  129 type  2   force =     0.00000000    0.00000000    0.00000000
     atom  130 type  2   force =     0.00000000    0.00000000    0.00000000
     atom  131 type  2   force =     0.00000000    0.00000000    0.00000000
     atom  132 type  2   force =     0.00000000    0.00000000    0.00000000
     atom  133 type  2   force =     0.00000000    0.00000000    0.00000000
     atom  134 type  2   force =     0.00000000    0.00000000    0.00000000
     atom  135 type  2   force =     0.00000000    0.00000000    0.00000000
     atom  136 type  2   force =     0.00000000    0.00000000    0.00000000
     atom  137 type  2   force =     0.00000000    0.00000000    0.00000000
     atom  138 type  2   force =     0.00000000    0.00000000    0.00000000
     atom  139 type  2   force =     0.00000000    0.00000000    0.00000000
     atom  140 type  2   force =     0.00000000    0.00000000    0.00000000
     atom  141 type  2   force =     0.00000000    0.00000000    0.00000000
     atom  142 type  2   force =     0.00000000    0.00000000    0.00000000
     atom  143 type  2   force =     0.00000000    0.00000000    0.00000000
     The SCF correction term to forces
     atom    1 type  1   force =     0.00000002    0.00002078   -0.00010994
     atom    2 type  1   force =    -0.00000001   -0.00000049    0.00012240
     atom    3 type  1   force =     0.00000004    0.00001272    0.00000094
     atom    4 type  1   force =     0.00001067    0.00003815   -0.00014200
     atom    5 type  1   force =     0.00001875    0.00002015    0.00011887
     atom    6 type  1   force =    -0.00001623    0.00001141    0.00001569
     atom    7 type  1   force =     0.00003822   -0.00000981   -0.00014206
     atom    8 type  1   force =     0.00002679    0.00000609    0.00011879
     atom    9 type  1   force =     0.00000178   -0.00001969    0.00001580
     atom   10 type  1   force =     0.00001802   -0.00001042   -0.00010993
     atom   11 type  1   force =    -0.00000030    0.00000023    0.00012256
     atom   12 type  1   force =     0.00001102   -0.00000633    0.00000089
     atom   13 type  1   force =     0.00001647    0.00000947   -0.00014814
     atom   14 type  1   force =    -0.00001947   -0.00001130    0.00013314
     atom   15 type  1   force =     0.00002691    0.00001558    0.00001757
     atom   16 type  1   force =    -0.00001065    0.00003798   -0.00014212
     atom   17 type  1   force =    -0.00001869    0.00002022    0.00011885
     atom   18 type  1   force =     0.00001623    0.00001141    0.00001569
     atom   19 type  1   force =    -0.00000010   -0.00000007   -0.00013771
     atom   20 type  1   force =     0.00000001   -0.00000005    0.00010600
     atom   21 type  1   force =    -0.00000005   -0.00000004    0.00001152
     atom   22 type  1   force =     0.00002765   -0.00002824   -0.00014206
     atom   23 type  1   force =     0.00000801   -0.00002621    0.00011871
     atom   24 type  1   force =     0.00001792    0.00000832    0.00001579
     atom   25 type  1   force =     0.00000004   -0.00000222   -0.00017251
     atom   26 type  1   force =    -0.00000005   -0.00001526    0.00014604
     atom   27 type  1   force =    -0.00000005    0.00001137    0.00002469
     atom   28 type  1   force =    -0.00000189    0.00000104   -0.00017257
     atom   29 type  1   force =    -0.00001320    0.00000762    0.00014615
     atom   30 type  1   force =     0.00000976   -0.00000568    0.00002466
     atom   31 type  1   force =    -0.00003822   -0.00000978   -0.00014216
     atom   32 type  1   force =    -0.00002682    0.00000618    0.00011892
     atom   33 type  1   force =    -0.00000173   -0.00001983    0.00001577
     atom   34 type  1   force =    -0.00002773   -0.00002819   -0.00014201
     atom   35 type  1   force =    -0.00000798   -0.00002629    0.00011878
     atom   36 type  1   force =    -0.00001802    0.00000838    0.00001576
     atom   37 type  1   force =    -0.00001649    0.00000953   -0.00014797
     atom   38 type  1   force =     0.00001950   -0.00001125    0.00013319
     atom   39 type  1   force =    -0.00002692    0.00001561    0.00001752
     atom   40 type  1   force =     0.00000191    0.00000109   -0.00017252
     atom   41 type  1   force =     0.00001319    0.00000764    0.00014612
     atom   42 type  1   force =    -0.00000981   -0.00000570    0.00002466
     atom   43 type  1   force =     0.00000007   -0.00001901   -0.00014811
     atom   44 type  1   force =     0.00000001    0.00002244    0.00013325
     atom   45 type  1   force =     0.00000000   -0.00003110    0.00001757
     atom   46 type  1   force =    -0.00001812   -0.00001042   -0.00010989
     atom   47 type  1   force =     0.00000029    0.00000015    0.00012251
     atom   48 type  1   force =    -0.00001091   -0.00000636    0.00000094
     atom   49 type  2   force =     0.00000004   -0.00000002   -0.00001880
     atom   50 type  2   force =     0.00000002    0.00000027   -0.00011001
     atom   51 type  2   force =     0.00002346    0.00000469    0.00009934
     atom   52 type  2   force =    -0.00001251    0.00001110    0.00000624
     atom   53 type  2   force =    -0.00001476    0.00004158   -0.00011878
     atom   54 type  2   force =     0.00003690    0.00002134    0.00010601
     atom   55 type  2   force =    -0.00000814   -0.00000473    0.00002740
     atom   56 type  2   force =     0.00001233    0.00000717   -0.00011337
     atom   57 type  2   force =     0.00001585    0.00001791    0.00009935
     atom   58 type  2   force =     0.00000339   -0.00001628    0.00000629
     atom   59 type  2   force =     0.00002867   -0.00003361   -0.00011874
     atom   60 type  2   force =    -0.00000753   -0.00002274    0.00009946
[...]
     atom  129 type  2   force =    -0.00000001   -0.00003645   -0.00011872
     atom  130 type  2   force =    -0.00000005   -0.00002387    0.00006851
     atom  131 type  2   force =    -0.00000012    0.00000620    0.00002200
     atom  132 type  2   force =    -0.00000995   -0.00002654   -0.00011404
     atom  133 type  2   force =    -0.00000831   -0.00001368    0.00010088
     atom  134 type  2   force =    -0.00002410    0.00002016    0.00000330
     atom  135 type  2   force =     0.00000003   -0.00000011   -0.00014255
     atom  136 type  2   force =    -0.00000001   -0.00000001    0.00011659
     atom  137 type  2   force =    -0.00000002   -0.00000002    0.00000111
     atom  138 type  2   force =    -0.00002797    0.00000466   -0.00011412
     atom  139 type  2   force =    -0.00001602   -0.00000034    0.00010085
     atom  140 type  2   force =     0.00000541   -0.00003084    0.00000321
     atom  141 type  2   force =    -0.00002898   -0.00001659   -0.00008912
     atom  142 type  2   force =    -0.00001434   -0.00000831    0.00008154
     atom  143 type  2   force =    -0.00002171   -0.00001265    0.00001306

     Total force =     0.004680     Total SCF correction =     0.001171
     SCF correction compared to forces is large: reduce conv_thr to get better values

     Computing stress (Cartesian axis) and pressure

[...]

          total   stress  (Ry/bohr**3)                   (kbar)     P=       -0.90
  -0.00000628   0.00000000  -0.00000000           -0.92        0.00       -0.00
   0.00000000  -0.00000628   0.00000000            0.00       -0.92        0.00
  -0.00000000   0.00000000  -0.00000579           -0.00        0.00       -0.85

     kinetic stress (kbar)  14902.36      0.00     -0.00
                                0.00  14902.36      0.00
                               -0.00      0.00  14913.21

     local   stress (kbar)  -7716.29     -0.00      0.00
                               -0.00  -7716.28     -0.02
                                0.00     -0.02   1413.19

     nonloc. stress (kbar)  -1089.87      0.00     -0.00
                                0.00  -1089.87      0.00
                               -0.00      0.00  -1096.08

     hartree stress (kbar)  12061.54      0.00     -0.00
                                0.00  12061.54      0.01
                               -0.00      0.01   7946.77

     exc-cor stress (kbar)   6890.76      0.00     -0.00
                                0.00   6890.76      0.00
                               -0.00      0.00   6889.59

     corecor stress (kbar) -11219.99     -0.00     -0.00
                               -0.00 -11219.99      0.00
                               -0.00      0.00 -11219.89

     ewald   stress (kbar) -13912.04      0.00     -0.00
                                0.00 -13912.04      0.01
                               -0.00      0.01 -18931.60

     hubbard stress (kbar)      0.00      0.00      0.00
                                0.00      0.00      0.00
                                0.00      0.00      0.00

     DFT-D   stress (kbar)      0.00      0.00      0.00
                                0.00      0.00      0.00
                                0.00      0.00      0.00

     XDM     stress (kbar)      0.00      0.00      0.00
                                0.00      0.00      0.00
                                0.00      0.00      0.00

     dft-nl  stress (kbar)     82.60     -0.00      0.00
                               -0.00     82.60     -0.00
                                0.00     -0.00     83.95

     TS-vdW  stress (kbar)      0.00      0.00      0.00
                                0.00      0.00      0.00
                                0.00      0.00      0.00

     MDB     stress (kbar)      0.00      0.00      0.00
                                0.00      0.00      0.00
                                0.00      0.00      0.00

     3D-RISM stress (kbar)      0.00      0.00      0.00
                                0.00      0.00      0.00
                                0.00      0.00      0.00

[...]

     Non-local corr. energy    =      68.48529851 Ry

 BEEFens 2000 ensemble energies
             -0.575505635331231E+02
             -0.579182001741911E+03
             -0.263606938964878E+03
              0.202284921789425E+03
             -0.442692685418238E+03
             -0.541976866726591E+03
              0.278190087764875E+03
              0.117407921502081E+01
              0.468833884439744E+03
             -0.296835104240849E+02
              0.240089972206260E+03
              0.244910537418701E+02
             -0.184138461708962E+02
             -0.148757692416375E+02
              0.299170806015823E+03
             -0.225374903595685E+03
             -0.442295571857708E+03
             -0.142774291741275E+03
              0.127893941749268E+03
             -0.275987364815046E+01
              0.652236030991399E+03
              0.544408246067482E+03
             -0.335312341288078E+03
              0.115887902134770E+03
             -0.698612588110379E+03
              0.573471333630074E+03
              0.196145894890148E+03
              0.517801386940274E+03
              0.348978582179844E+03
             -0.162006286896713E+03
              0.127715058892704E+03
             -0.228281135826271E+03
              0.953704240364377E+02
              0.347239978029232E+03
              0.373643143599902E+03
             -0.162408710431171E+03
              0.824196469365074E+03
             -0.331696022046071E+03
             -0.220914789559548E+03
              0.329647974589184E+03
              0.145355343599263E+03
              0.250478233116909E+03
             -0.483843496807820E+03
             -0.314602068054310E+02
              0.464192268308026E+03
              0.606738664683950E+03
             -0.616072831875267E+03
              0.395267714469342E+02
              0.213683258283988E+03
              0.137987837050077E+03
              0.240853617436065E+03
              0.528958794814614E+03
             -0.343505187987511E+03
             -0.333359591173858E+03
             -0.464418241698176E+03
             -0.673235038899534E+02
             -0.396217058777636E+03
              0.511685952881785E+02
             -0.571296369625147E+02
             -0.314298790066099E+03
[...]
              0.392484813518180E+03
              0.251440106247096E+03
              0.256286646124547E+03
             -0.474368407791321E+03
             -0.489912826629085E+03
             -0.110424713824397E+03
             -0.437886978412763E+03
              0.695222450118195E+03
              0.585626929877958E+03
              0.276258836030125E+03
              0.761433617943171E+03
             -0.380480281942796E+03
             -0.163906096542956E+03
             -0.236270316348397E+03
              0.658793470558639E+03

 BEEF-vdW xc energy contributions
            1 :    -5954.518483913030
            2 :     5456.030130483752
            3 :    -4606.343494929585
            4 :     3632.168703984425
            5 :    -2746.641522127183
            6 :     2080.760066056461
            7 :    -1662.209330610440
            8 :     1435.145557781734
            9 :    -1302.447635347821
           10 :     1172.364382396958
           11 :    -993.5294597841203
           12 :     766.1482208473690
           13 :    -527.5475883355530
           14 :     323.4941818349980
           15 :    -182.5866508594927
           16 :     105.5070729124373
           17 :    -70.15403017590415
           18 :     46.10203206599090
           19 :    -10.04170561249612
           20 :    -44.51768141761477
           21 :     106.9852343533994
           22 :    -158.3133618215024
           23 :     183.4040656187708
           24 :    -180.1434689533462
           25 :     160.2663332526072
           26 :    -142.3995081520679
           27 :     141.8754875136292
           28 :    -162.9263721139969
           29 :     196.9965037244856
           30 :    -227.6811793635161
           31 :    -512.7581896140664
           32 :    -368.9166581081536

     Writing all to output data dir ./PbI2.save/

     General routines

     Parallel routines

     PAW routines

   This run was terminated on:  17:26:45  17Mar2024

   JOB DONE.