     Program PWSCF v.7.1 starts on 15Mar2024 at 16:32:50

     Reading input from espresso.pwi
Warning: card &CELL ignored
Warning: card    CELL_DYNAMICS    = 'BFGS' ignored
Warning: card / ignored

     Current dimensions of program PWSCF are:
     Max number of different atomic species (ntypx) = 10
     Max number of k-points (npk) =  40000
     Max angular momentum in pseudopotentials (lmaxx) =  4
     file Pb.pbe-dn-kjpaw_psl.1.0.0.UPF: wavefunction(s)  6S 6P 5D renormalized
     file I.pbe-dn-kjpaw_psl.1.0.0.UPF: wavefunction(s)  5S 5P renormalized

     IMPORTANT: XC functional enforced from input :
     Exchange-correlation= BEEF-VDW
                           (   1   4  43  14   2   0   0)
     Any further DFT definition will be discarded
     Please, verify this is what you really want

     R & G space division:  proc/nbgrp/npool/nimage =     256
     wavefunctions fft division:  task group distribution
                                  #TG    x Z-proc =       8     32
     Subspace diagonalization in iterative solution of the eigenvalue problem:
     a serial algorithm will be used

     Using Pencil Decomposition

     bravais-lattice index     =            4
     lattice parameter (alat)  =      35.6120  a.u.
     unit-cell volume          =   45937.3577 (a.u.)^3
     number of atoms/cell      =          143
     number of atomic types    =            2
     number of electrons       =      2286.00
     number of Kohn-Sham states=         1372
     kinetic-energy cutoff     =      70.0000  Ry
     charge density cutoff     =     350.0000  Ry
     scf convergence threshold =      1.0E-07
     mixing beta               =       0.7000
     number of iterations used =            8  plain     mixing
     energy convergence thresh.=      1.0E-04
     force convergence thresh. =      1.0E-03
     Exchange-correlation= BEEF-VDW
                           (   1   4  43  14   2   0   0)
     nstep                     =           50

     celldm(1)=  35.612033  celldm(2)=   0.000000  celldm(3)=   1.174479
     celldm(4)=   0.000000  celldm(5)=   0.000000  celldm(6)=   0.000000

     crystal axes: (cart. coord. in units of alat)
               a(1) = (   1.000000   0.000000   0.000000 )
               a(2) = (  -0.500000   0.866025   0.000000 )
               a(3) = (   0.000000   0.000000   1.174479 )

     reciprocal axes: (cart. coord. in units 2 pi/alat)
               b(1) = (  1.000000  0.577350 -0.000000 )
               b(2) = (  0.000000  1.154701  0.000000 )
               b(3) = (  0.000000 -0.000000  0.851442 )

     PseudoPot. # 1 for Pb read from file:
     //group///packages/espresso/pseudo/psl_1.0.0/pslibrary.1.0.0/pbe/PSEUDOPOTENTIALS/Pb.pbe-dn-kjpaw_psl.1.0.0.UPF
     MD5 check sum: 39ab5b8a6bbd56b7735ad9f188aac93a
     Pseudo is Projector augmented-wave + core cor, Zval = 14.0
     Generated using 'atomic' code by A. Dal Corso  v.7.1
     Shape of augmentation charge: PSQ
     Using radial grid of 1281 points,  6 beta functions with:
                l(1) =   0
                l(2) =   0
                l(3) =   1
                l(4) =   1
                l(5) =   2
                l(6) =   2
     Q(r) pseudized with 0 coefficients

     PseudoPot. # 2 for I  read from file:
     //group///packages/espresso/pseudo/psl_1.0.0/pslibrary.1.0.0/pbe/PSEUDOPOTENTIALS/I.pbe-dn-kjpaw_psl.1.0.0.UPF
     MD5 check sum: bfa8781bc1224d19af3f3980e3fab11e
     Pseudo is Projector augmented-wave + core cor, Zval = 17.0
     Generated using 'atomic' code by A. Dal Corso  v.7.1
     Shape of augmentation charge: PSQ
     Using radial grid of 1247 points,  6 beta functions with:
                l(1) =   0
                l(2) =   0
                l(3) =   1
                l(4) =   1
                l(5) =   2
                l(6) =   2
     Q(r) pseudized with 0 coefficients

     atomic species   valence    mass     pseudopotential
        Pb            14.00   207.20000     Pb( 1.00)
        I             17.00   126.90447     I ( 1.00)

     No symmetry found

                                    s                        frac. trans.

      isym =  1     identity

 cryst.   s( 1) = (     1          0          0      )
                  (     0          1          0      )
                  (     0          0          1      )

 cart.    s( 1) = (  1.0000000  0.0000000  0.0000000 )
                  (  0.0000000  1.0000000  0.0000000 )
                  (  0.0000000  0.0000000  1.0000000 )

     point group C_1 (1)
     there are  1 classes
     the character table:

       E
A      1.00

     the symmetry operations in each class and the name of the first element:

     E        1
          identity

   Cartesian axes

     site n.     atom                  positions (alat units)
         1           Pb  tau(   1) = (   0.1250136   0.2164827   1.1744753  )
         2           Pb  tau(   2) = (   0.1250034   0.2164918   0.3914896  )
         3           Pb  tau(   3) = (   0.1250085   0.2164873   0.7829825  )
         4           Pb  tau(   4) = (   0.0000128   0.4329881   1.1744712  )
         5           Pb  tau(   5) = (   0.0000026   0.4329971   0.3914855  )
         6           Pb  tau(   6) = (   0.0000077   0.4329926   0.7829784  )
         7           Pb  tau(   7) = (  -0.1249881   0.6494934   1.1744671  )
         8           Pb  tau(   8) = (  -0.1249983   0.6495025   0.3914814  )
         9           Pb  tau(   9) = (  -0.1249932   0.6494980   0.7829742  )
        10           Pb  tau(  10) = (  -0.2499889   0.8659988   1.1744630  )
        11           Pb  tau(  11) = (  -0.2499991   0.8660078   0.3914773  )
        12           Pb  tau(  12) = (  -0.2499940   0.8660033   0.7829701  )
        13           Pb  tau(  13) = (   0.3750136   0.2164818   1.1744786  )
        14           Pb  tau(  14) = (   0.3750034   0.2164908   0.3914929  )
        15           Pb  tau(  15) = (   0.3750085   0.2164863   0.7829857  )
        16           Pb  tau(  16) = (   0.2500128   0.4329871   1.1744745  )
        17           Pb  tau(  17) = (   0.2500026   0.4329962   0.3914888  )
        18           Pb  tau(  18) = (   0.2500077   0.4329916   0.7829816  )
        19           Pb  tau(  19) = (   0.1250119   0.6494925   1.1744703  )
        20           Pb  tau(  20) = (   0.1250017   0.6495015   0.3914847  )
        21           Pb  tau(  21) = (   0.1250068   0.6494970   0.7829775  )
        22           Pb  tau(  22) = (   0.0000111   0.8659978   1.1744662  )
        23           Pb  tau(  23) = (   0.0000009   0.8660069   0.3914805  )
        24           Pb  tau(  24) = (   0.0000060   0.8660024   0.7829734  )
        25           Pb  tau(  25) = (   0.6250136   0.2164808   1.1744818  )
        26           Pb  tau(  26) = (   0.6250034   0.2164898   0.3914962  )
        27           Pb  tau(  27) = (   0.6250085   0.2164853   0.7829890  )
        28           Pb  tau(  28) = (   0.5000128   0.4329862   1.1744777  )
        29           Pb  tau(  29) = (   0.5000026   0.4329952   0.3914920  )
        30           Pb  tau(  30) = (   0.5000077   0.4329907   0.7829849  )
        31           Pb  tau(  31) = (   0.3750119   0.6494915   1.1744736  )
        32           Pb  tau(  32) = (   0.3750017   0.6495006   0.3914879  )
        33           Pb  tau(  33) = (   0.3750068   0.6494960   0.7829808  )
        34           Pb  tau(  34) = (   0.2500111   0.8659969   1.1744695  )
        35           Pb  tau(  35) = (   0.2500009   0.8660059   0.3914838  )
        36           Pb  tau(  36) = (   0.2500060   0.8660014   0.7829766  )
        37           Pb  tau(  37) = (   0.8750136   0.2164798   1.1744851  )
        38           Pb  tau(  38) = (   0.8750034   0.2164889   0.3914994  )
        39           Pb  tau(  39) = (   0.8750085   0.2164844   0.7829923  )
        40           Pb  tau(  40) = (   0.7500128   0.4329852   1.1744810  )
        41           Pb  tau(  41) = (   0.7500026   0.4329942   0.3914953  )
        42           Pb  tau(  42) = (   0.7500077   0.4329897   0.7829881  )
        43           Pb  tau(  43) = (   0.6250119   0.6494906   1.1744769  )
        44           Pb  tau(  44) = (   0.6250017   0.6494996   0.3914912  )
        45           Pb  tau(  45) = (   0.6250068   0.6494951   0.7829840  )
        46           Pb  tau(  46) = (   0.5000111   0.8659959   1.1744727  )
        47           Pb  tau(  47) = (   0.5000009   0.8660050   0.3914870  )
        48           Pb  tau(  48) = (   0.5000060   0.8660004   0.7829799  )
        49           I   tau(  49) = (   0.1250105   0.0721505   0.6824253  )
        50           I   tau(  50) = (   0.1250156   0.0721459   1.0739182  )
        51           I   tau(  51) = (   0.0000045   0.2886603   0.2909283  )
        52           I   tau(  52) = (   0.0000096   0.2886558   0.6824212  )
        53           I   tau(  53) = (   0.0000147   0.2886513   1.0739140  )
        54           I   tau(  54) = (  -0.1249963   0.5051657   0.2909242  )
        55           I   tau(  55) = (  -0.1249912   0.5051612   0.6824171  )
        56           I   tau(  56) = (  -0.1249861   0.5051566   1.0739099  )
        57           I   tau(  57) = (  -0.2499971   0.7216710   0.2909201  )
        58           I   tau(  58) = (  -0.2499920   0.7216665   0.6824129  )
        59           I   tau(  59) = (  -0.2499869   0.7216620   1.0739058  )
        60           I   tau(  60) = (   0.3750054   0.0721540   0.2909357  )
[...]
       129           I   tau( 129) = (   0.1249958   0.7938439   0.1005496  )
       130           I   tau( 130) = (   0.1250009   0.7938394   0.4920425  )
       131           I   tau( 131) = (   0.1250060   0.7938348   0.8835353  )
       132           I   tau( 132) = (   0.7499983   0.1443268   0.1005653  )
       133           I   tau( 133) = (   0.7500034   0.1443223   0.4920581  )
       134           I   tau( 134) = (   0.7500085   0.1443178   0.8835509  )
       135           I   tau( 135) = (   0.6249975   0.3608322   0.1005611  )
       136           I   tau( 136) = (   0.6250026   0.3608277   0.4920540  )
       137           I   tau( 137) = (   0.6250077   0.3608232   0.8835468  )
       138           I   tau( 138) = (   0.4999966   0.5773376   0.1005570  )
       139           I   tau( 139) = (   0.5000017   0.5773330   0.4920499  )
       140           I   tau( 140) = (   0.5000068   0.5773285   0.8835427  )
       141           I   tau( 141) = (   0.3749958   0.7938429   0.1005529  )
       142           I   tau( 142) = (   0.3750009   0.7938384   0.4920457  )
       143           I   tau( 143) = (   0.3750060   0.7938339   0.8835386  )

   Crystallographic axes

     site n.     atom                  positions (cryst. coord.)
         1           Pb  tau(   1) = (  0.2500000  0.2499727  0.9999973  )
         2           Pb  tau(   2) = (  0.2499950  0.2499832  0.3333306  )
         3           Pb  tau(   3) = (  0.2499975  0.2499780  0.6666639  )
         4           Pb  tau(   4) = (  0.2499986  0.4999716  0.9999938  )
         5           Pb  tau(   5) = (  0.2499936  0.4999820  0.3333271  )
         6           Pb  tau(   6) = (  0.2499961  0.4999768  0.6666604  )
[...]
     atom   56 type  2   force =     0.00000000    0.00000000    0.00000000
     atom   57 type  2   force =     0.00000000    0.00000000    0.00000000
     atom   58 type  2   force =     0.00000000    0.00000000    0.00000000
     atom   59 type  2   force =     0.00000000    0.00000000    0.00000000
     atom   60 type  2   force =     0.00000000    0.00000000    0.00000000
[...]
     atom  129 type  2   force =     0.00000000    0.00000000    0.00000000
     atom  130 type  2   force =     0.00000000    0.00000000    0.00000000
     atom  131 type  2   force =     0.00000000    0.00000000    0.00000000
     atom  132 type  2   force =     0.00000000    0.00000000    0.00000000
     atom  133 type  2   force =     0.00000000    0.00000000    0.00000000
     atom  134 type  2   force =     0.00000000    0.00000000    0.00000000
     atom  135 type  2   force =     0.00000000    0.00000000    0.00000000
     atom  136 type  2   force =     0.00000000    0.00000000    0.00000000
     atom  137 type  2   force =     0.00000000    0.00000000    0.00000000
     atom  138 type  2   force =     0.00000000    0.00000000    0.00000000
     atom  139 type  2   force =     0.00000000    0.00000000    0.00000000
     atom  140 type  2   force =     0.00000000    0.00000000    0.00000000
     atom  141 type  2   force =     0.00000000    0.00000000    0.00000000
     atom  142 type  2   force =     0.00000000    0.00000000    0.00000000
     atom  143 type  2   force =     0.00000000    0.00000000    0.00000000
     The SCF correction term to forces
     atom    1 type  1   force =    -0.00000002    0.00000254   -0.00000472
     atom    2 type  1   force =     0.00000004   -0.00000709   -0.00000078
     atom    3 type  1   force =     0.00000001   -0.00000450    0.00000572
     atom    4 type  1   force =     0.00000579    0.00000227   -0.00000259
     atom    5 type  1   force =    -0.00000602    0.00000067   -0.00000454
     atom    6 type  1   force =    -0.00000320   -0.00000605    0.00000443
     atom    7 type  1   force =     0.00000487    0.00000388   -0.00000263
     atom    8 type  1   force =    -0.00000236   -0.00000561   -0.00000462
     atom    9 type  1   force =    -0.00000678    0.00000021    0.00000450
     atom   10 type  1   force =     0.00000221   -0.00000131   -0.00000475
     atom   11 type  1   force =    -0.00000611    0.00000354   -0.00000078
     atom   12 type  1   force =    -0.00000392    0.00000228    0.00000576
     atom   13 type  1   force =    -0.00000737   -0.00000420   -0.00000227
     atom   14 type  1   force =     0.00000152    0.00000089   -0.00000044
     atom   15 type  1   force =    -0.00000048   -0.00000028   -0.00000166
     atom   16 type  1   force =    -0.00000581    0.00000230   -0.00000261
     atom   17 type  1   force =     0.00000603    0.00000071   -0.00000459
     atom   18 type  1   force =     0.00000319   -0.00000606    0.00000447
     atom   19 type  1   force =     0.00000001   -0.00000004   -0.00000302
     atom   20 type  1   force =     0.00000002    0.00000013   -0.00001923
     atom   21 type  1   force =     0.00000000   -0.00000005    0.00000815
     atom   22 type  1   force =    -0.00000093   -0.00000616   -0.00000264
     atom   23 type  1   force =     0.00000379    0.00000479   -0.00000449
     atom   24 type  1   force =    -0.00000360    0.00000585    0.00000453
     atom   25 type  1   force =     0.00000005   -0.00001028    0.00000467
     atom   26 type  1   force =     0.00000000    0.00000189    0.00000401
     atom   27 type  1   force =    -0.00000000    0.00000150   -0.00001565
     atom   28 type  1   force =    -0.00000901    0.00000519    0.00000474
     atom   29 type  1   force =     0.00000160   -0.00000097    0.00000404
     atom   30 type  1   force =     0.00000122   -0.00000073   -0.00001557
     atom   31 type  1   force =    -0.00000487    0.00000384   -0.00000261
     atom   32 type  1   force =     0.00000233   -0.00000559   -0.00000460
     atom   33 type  1   force =     0.00000682    0.00000018    0.00000448
     atom   34 type  1   force =     0.00000093   -0.00000611   -0.00000261
     atom   35 type  1   force =    -0.00000371    0.00000483   -0.00000446
     atom   36 type  1   force =     0.00000356    0.00000585    0.00000451
     atom   37 type  1   force =     0.00000740   -0.00000417   -0.00000220
     atom   38 type  1   force =    -0.00000160    0.00000088   -0.00000041
     atom   39 type  1   force =     0.00000053   -0.00000025   -0.00000171
     atom   40 type  1   force =     0.00000902    0.00000513    0.00000478
     atom   41 type  1   force =    -0.00000159   -0.00000096    0.00000403
     atom   42 type  1   force =    -0.00000123   -0.00000072   -0.00001557
     atom   43 type  1   force =     0.00000002    0.00000842   -0.00000220
     atom   44 type  1   force =     0.00000004   -0.00000174   -0.00000047
     atom   45 type  1   force =     0.00000002    0.00000051   -0.00000163
     atom   46 type  1   force =    -0.00000221   -0.00000126   -0.00000473
     atom   47 type  1   force =     0.00000602    0.00000355   -0.00000074
     atom   48 type  1   force =     0.00000396    0.00000227    0.00000570
     atom   49 type  2   force =    -0.00000006    0.00000006    0.00000613
     atom   50 type  2   force =     0.00000000   -0.00000000   -0.00000395
     atom   51 type  2   force =    -0.00000049   -0.00000471   -0.00000163
     atom   52 type  2   force =    -0.00000518   -0.00000554    0.00000447
     atom   53 type  2   force =     0.00000925    0.00000041   -0.00000203
     atom   54 type  2   force =    -0.00000356   -0.00000209    0.00000274
     atom   55 type  2   force =    -0.00001282   -0.00000752   -0.00000061
     atom   56 type  2   force =     0.00001323    0.00000762    0.00000335
     atom   57 type  2   force =    -0.00000437    0.00000200   -0.00000173
     atom   58 type  2   force =    -0.00000751   -0.00000174    0.00000447
     atom   59 type  2   force =     0.00000501    0.00000783   -0.00000203
     atom   60 type  2   force =    -0.00000383    0.00000299   -0.00000156
[...]
     atom  129 type  2   force =    -0.00000002   -0.00000301   -0.00000429
     atom  130 type  2   force =    -0.00000001    0.00001237   -0.00001055
     atom  131 type  2   force =    -0.00000002    0.00000237    0.00001065
     atom  132 type  2   force =     0.00000284   -0.00001000    0.00000277
     atom  133 type  2   force =    -0.00000764    0.00001105   -0.00000147
     atom  134 type  2   force =     0.00001031   -0.00000391   -0.00000530
     atom  135 type  2   force =     0.00000001    0.00000001    0.00001330
     atom  136 type  2   force =     0.00000002    0.00000003   -0.00000072
     atom  137 type  2   force =     0.00000004   -0.00000000   -0.00001691
     atom  138 type  2   force =    -0.00000722    0.00000755    0.00000258
     atom  139 type  2   force =     0.00000562   -0.00001224   -0.00000137
     atom  140 type  2   force =     0.00000173    0.00001087   -0.00000531
     atom  141 type  2   force =    -0.00000029   -0.00000023   -0.00000578
     atom  142 type  2   force =     0.00000949    0.00000550   -0.00000201
     atom  143 type  2   force =     0.00000647    0.00000380    0.00000789

     Total force =     0.005504     Total SCF correction =     0.000116

     Computing stress (Cartesian axis) and pressure

[...]

          total   stress  (Ry/bohr**3)                   (kbar)     P=       -0.92
  -0.00000642   0.00000000  -0.00000000           -0.94        0.00       -0.00
   0.00000000  -0.00000642   0.00000000            0.00       -0.94        0.00
  -0.00000000   0.00000000  -0.00000585           -0.00        0.00       -0.86

     kinetic stress (kbar)  14902.35      0.00     -0.00
                                0.00  14902.35      0.00
                               -0.00      0.00  14913.22

     local   stress (kbar)  -7716.31     -0.00      0.00
                               -0.00  -7716.30     -0.01
                                0.00     -0.01   1420.09

     nonloc. stress (kbar)  -1089.89      0.00     -0.00
                                0.00  -1089.89      0.00
                               -0.00      0.00  -1096.09

     hartree stress (kbar)  12061.52      0.00     -0.00
                                0.00  12061.52      0.00
                               -0.00      0.00   7943.39

     exc-cor stress (kbar)   6890.76      0.00     -0.00
                                0.00   6890.76      0.00
                               -0.00      0.00   6889.59

     corecor stress (kbar) -11219.99     -0.00     -0.00
                               -0.00 -11219.99      0.00
                               -0.00      0.00 -11219.89

     ewald   stress (kbar) -13911.99      0.00     -0.00
                                0.00 -13912.00      0.01
                               -0.00      0.01 -18935.13

     hubbard stress (kbar)      0.00      0.00      0.00
                                0.00      0.00      0.00
                                0.00      0.00      0.00

     DFT-D   stress (kbar)      0.00      0.00      0.00
                                0.00      0.00      0.00
                                0.00      0.00      0.00

     XDM     stress (kbar)      0.00      0.00      0.00
                                0.00      0.00      0.00
                                0.00      0.00      0.00

     dft-nl  stress (kbar)     82.60     -0.00      0.00
                               -0.00     82.60     -0.00
                                0.00     -0.00     83.96

     TS-vdW  stress (kbar)      0.00      0.00      0.00
                                0.00      0.00      0.00
                                0.00      0.00      0.00

     MDB     stress (kbar)      0.00      0.00      0.00
                                0.00      0.00      0.00
                                0.00      0.00      0.00

     3D-RISM stress (kbar)      0.00      0.00      0.00
                                0.00      0.00      0.00
                                0.00      0.00      0.00

     Energy error            =      2.0E-04 Ry
     Gradient error          =      1.2E-03 Ry/Bohr

     number of scf cycles    =  23
     number of bfgs steps    =  22

     energy             old  =  -96571.0273299851 Ry
     energy             new  =  -96571.0275302852 Ry

     CASE: energy            _new < energy            _old

     new trust radius        =       0.0294970113 bohr
     new conv_thr            =       0.0000000012 Ry

ATOMIC_POSITIONS (angstrom)
Pb            2.3557940788        4.0756055335       22.1452646043
Pb            2.3558128147        4.2523493073        7.4208199236
Pb            2.3557582614        4.0782899758       14.7656868220
Pb            0.0012258096        8.1619424416       22.1293063377
Pb           -0.0395514473        8.1794447237        7.3464654559
Pb           -0.0002468465        8.1582621168       14.7553411129
Pb           -2.3530894316       12.2397414368       22.1292685570
Pb           -2.3582072124       12.1954839920        7.3464498588
Pb           -2.3569838625       12.2402803754       14.7553486380
Pb           -4.7146566368       16.3219220713       22.1451846310
Pb           -4.5613767750       16.2333812549        7.4208794304
Pb           -4.7123495261       16.3206234848       14.7656799081
Pb            7.0628509989        4.0772755023       22.1512006387
Pb            7.0914135728        4.0937237057        7.3902632344
Pb            7.0700831208        4.0814408853       14.7624859843
Pb            4.7102991195        8.1619378737       22.1293513403
Pb            4.7510934299        8.1794587762        7.3465578571
Pb            4.7117588445        8.1582533018       14.7554001034
Pb            2.3557534936       12.2398738053       22.1277872220
Pb            2.3557414096       12.2398153560        7.3513658055
Pb            2.3557616784       12.2398209958       14.7268271566
Pb            0.0014380935       16.3179230629       22.1293172735
Pb            0.0371029258       16.3443712521        7.3465858783
Pb           -0.0009945484       16.3209693266       14.7553723841
Pb           11.7783024359        4.0752528061       22.1387941184
Pb           11.7782809560        4.1036776996        7.3828841885
Pb           11.7783007667        4.0816563122       14.7599262457
Pb            9.4188120856        8.1619728218       22.1387747596
Pb            9.4434096927        8.1477385259        7.3829080323
Pb            9.4243791361        8.1587773455       14.7599417220
Pb            7.0646081277       12.2397294070       22.1293381964
Pb            7.0697424933       12.1954685890        7.3465357790
Pb            7.0685208639       12.2402783881       14.7553838894
Pb            4.7100659858       16.3179182352       22.1293403003
Pb            4.6744346856       16.3443815798        7.3465841421
Pb            4.7125097933       16.3209847571       14.7553464022
Pb           16.4937958476        4.0772459093       22.1512428919
Pb           16.4652028240        4.0937160893        7.3902055728
Pb           16.4865163765        4.0814564234       14.7624134378
Pb           14.1377899479        8.1619692964       22.1387366875
Pb           14.1131455104        8.1477360659        7.3828071890
Pb           14.1322400114        8.1587873822       14.7598947125
Pb           11.7783005496       12.2445838084       22.1510382324
Pb           11.7782999593       12.2116292763        7.3901507949
Pb           11.7783154520       12.2363236151       14.7624359776
Pb            9.4262094128       16.3219024220       22.1452183959
Pb            9.2730590321       16.2334177014        7.4207707175
Pb            9.4238834941       16.3206325696       14.7656618073
I             2.3557551787        1.3597236476       12.8701128238
I             2.3557382103        1.3597196804       20.2616301767
I            -0.0043637072        5.4453814744        5.4818730516
I            -0.0023276314        5.4367167154       12.8699553442
I            -0.0012465923        5.4305171512       20.2644656899
I            -2.3523722012        9.5215518277        5.4772601163
I            -2.3560354883        9.5196031057       12.8679711585
I            -2.3566836784        9.5192209445       20.2507617664
I            -4.7085085800       13.5931837811        5.4818519356
I            -4.7150471882       13.5993991588       12.8699704577
I            -4.7198399612       13.6033715757       20.2643574050
I             7.0741912584        1.3607376728        5.4819211812
[...]
I             2.3557138505       14.9576908187        1.8846141442
I             2.3557379718       14.9747575903        9.2360691621
I             2.3557444997       14.9429574666       16.6280597585
I            14.1298217386        2.7175103810        1.8952934517
I            14.1310737384        2.7207519656        9.2544884307
I            14.1333727315        2.7155135767       16.6415548631
I            11.7782847219        6.7998422855        1.8885529347
I            11.7782987913        6.7997800416        9.2839777172
I            11.7783106550        6.7998030287       16.6463003544
I             9.4186734677       10.8775021049        1.8952173826
I             9.4221360520       10.8769419639        9.2544889452
I             9.4187480615       10.8815167844       16.6415718899
I             7.0624106624       14.9573457096        1.8857500887
I             7.1475139395       15.0063175412        9.2678692004
I             7.0644623110       14.9585177543       16.6433283249

     Writing config-only to output data dir ./PbI2.save/
     NEW-OLD atomic charge density approx. for the potential

     Check: negative core charge=   -0.000001

[...]

     Self-consistent Calculation

[...]

     Threshold (ethr) on eigenvalues was too large:
     Diagonalizing with lowered threshold

     Davidson diagonalization with overlap

[...]

     ethr =  3.42E-13,  avg # of iterations = 16.0

     Non-local corr. energy    =      68.48530573 Ry

     total energy              =  -96571.02763101 Ry
     estimated scf accuracy    <          1.5E-09 Ry

     iteration # 13     ecut=    70.00 Ry     beta= 0.70
     Davidson diagonalization with overlap

     c_bands:  1 eigenvalues not converged

     max_seconds     =   80000.00
     Calculation stopped in k-point loop, point #     1
     Calculation stopped in scf loop at iteration #    12

     Writing config to output data dir ./PbI2.save/
     Message from routine punch:
     wavefunctions written to file

     General routines

     Parallel routines

     PAW routines

   This run was terminated on:  14:55:24  16Mar2024

   JOB DONE.