     Program PWSCF v.7.1 starts on 16Mar2024 at 21:33:47

     Reading input from espresso.pwi
Warning: card &CELL ignored
Warning: card    CELL_DYNAMICS    = 'BFGS' ignored
Warning: card / ignored

     Current dimensions of program PWSCF are:
     Max number of different atomic species (ntypx) = 10
     Max number of k-points (npk) =  40000
     Max angular momentum in pseudopotentials (lmaxx) =  4
     file Pb.pbe-dn-kjpaw_psl.1.0.0.UPF: wavefunction(s)  6S 6P 5D renormalized
     file I.pbe-dn-kjpaw_psl.1.0.0.UPF: wavefunction(s)  5S 5P renormalized

     IMPORTANT: XC functional enforced from input :
     Exchange-correlation= BEEF-VDW
                           (   1   4  43  14   2   0   0)
     Any further DFT definition will be discarded
     Please, verify this is what you really want

     R & G space division:  proc/nbgrp/npool/nimage =     256
     wavefunctions fft division:  task group distribution
                                  #TG    x Z-proc =       8     32
     Subspace diagonalization in iterative solution of the eigenvalue problem:
     a serial algorithm will be used

     Using Pencil Decomposition

     bravais-lattice index     =            4
     lattice parameter (alat)  =      35.6120  a.u.
     unit-cell volume          =   45937.3577 (a.u.)^3
     number of atoms/cell      =          143
     number of atomic types    =            2
     number of electrons       =      2286.00
     number of Kohn-Sham states=         1372
     kinetic-energy cutoff     =      70.0000  Ry
     charge density cutoff     =     350.0000  Ry
     scf convergence threshold =      1.0E-07
     mixing beta               =       0.7000
     number of iterations used =            8  plain     mixing
     energy convergence thresh.=      1.0E-04
     force convergence thresh. =      1.0E-03
     Exchange-correlation= BEEF-VDW
                           (   1   4  43  14   2   0   0)
     nstep                     =           50

     celldm(1)=  35.612033  celldm(2)=   0.000000  celldm(3)=   1.174479
     celldm(4)=   0.000000  celldm(5)=   0.000000  celldm(6)=   0.000000

     crystal axes: (cart. coord. in units of alat)
               a(1) = (   1.000000   0.000000   0.000000 )
               a(2) = (  -0.500000   0.866025   0.000000 )
               a(3) = (   0.000000   0.000000   1.174479 )

     reciprocal axes: (cart. coord. in units 2 pi/alat)
               b(1) = (  1.000000  0.577350 -0.000000 )
               b(2) = (  0.000000  1.154701  0.000000 )
               b(3) = (  0.000000 -0.000000  0.851442 )

     PseudoPot. # 1 for Pb read from file:
     //group///packages/espresso/pseudo/psl_1.0.0/pslibrary.1.0.0/pbe/PSEUDOPOTENTIALS/Pb.pbe-dn-kjpaw_psl.1.0.0.UPF
     MD5 check sum: 39ab5b8a6bbd56b7735ad9f188aac93a
     Pseudo is Projector augmented-wave + core cor, Zval = 14.0
     Generated using 'atomic' code by A. Dal Corso  v.7.1
     Shape of augmentation charge: PSQ
     Using radial grid of 1281 points,  6 beta functions with:
                l(1) =   0
                l(2) =   0
                l(3) =   1
                l(4) =   1
                l(5) =   2
                l(6) =   2
     Q(r) pseudized with 0 coefficients

     PseudoPot. # 2 for I  read from file:
     //group///packages/espresso/pseudo/psl_1.0.0/pslibrary.1.0.0/pbe/PSEUDOPOTENTIALS/I.pbe-dn-kjpaw_psl.1.0.0.UPF
     MD5 check sum: bfa8781bc1224d19af3f3980e3fab11e
     Pseudo is Projector augmented-wave + core cor, Zval = 17.0
     Generated using 'atomic' code by A. Dal Corso  v.7.1
     Shape of augmentation charge: PSQ
     Using radial grid of 1247 points,  6 beta functions with:
                l(1) =   0
                l(2) =   0
                l(3) =   1
                l(4) =   1
                l(5) =   2
                l(6) =   2
     Q(r) pseudized with 0 coefficients

     atomic species   valence    mass     pseudopotential
        Pb            14.00   207.20000     Pb( 1.00)
        I             17.00   126.90447     I ( 1.00)

     No symmetry found

                                    s                        frac. trans.

      isym =  1     identity

 cryst.   s( 1) = (     1          0          0      )
                  (     0          1          0      )
                  (     0          0          1      )

 cart.    s( 1) = (  1.0000000  0.0000000  0.0000000 )
                  (  0.0000000  1.0000000  0.0000000 )
                  (  0.0000000  0.0000000  1.0000000 )

     point group C_1 (1)
     there are  1 classes
     the character table:

       E
A      1.00

     the symmetry operations in each class and the name of the first element:

     E        1
          identity

   Cartesian axes

     site n.     atom                  positions (alat units)
         1           Pb  tau(   1) = (   0.1250136   0.2164827   1.1744753  )
         2           Pb  tau(   2) = (   0.1250034   0.2164918   0.3914896  )
         3           Pb  tau(   3) = (   0.1250085   0.2164873   0.7829825  )
         4           Pb  tau(   4) = (   0.0000128   0.4329881   1.1744712  )
         5           Pb  tau(   5) = (   0.0000026   0.4329971   0.3914855  )
         6           Pb  tau(   6) = (   0.0000077   0.4329926   0.7829784  )
         7           Pb  tau(   7) = (  -0.1249881   0.6494934   1.1744671  )
         8           Pb  tau(   8) = (  -0.1249983   0.6495025   0.3914814  )
         9           Pb  tau(   9) = (  -0.1249932   0.6494980   0.7829742  )
        10           Pb  tau(  10) = (  -0.2499889   0.8659988   1.1744630  )
        11           Pb  tau(  11) = (  -0.2499991   0.8660078   0.3914773  )
        12           Pb  tau(  12) = (  -0.2499940   0.8660033   0.7829701  )
        13           Pb  tau(  13) = (   0.3750136   0.2164818   1.1744786  )
        14           Pb  tau(  14) = (   0.3750034   0.2164908   0.3914929  )
        15           Pb  tau(  15) = (   0.3750085   0.2164863   0.7829857  )
        16           Pb  tau(  16) = (   0.2500128   0.4329871   1.1744745  )
        17           Pb  tau(  17) = (   0.2500026   0.4329962   0.3914888  )
        18           Pb  tau(  18) = (   0.2500077   0.4329916   0.7829816  )
        19           Pb  tau(  19) = (   0.1250119   0.6494925   1.1744703  )
        20           Pb  tau(  20) = (   0.1250017   0.6495015   0.3914847  )
        21           Pb  tau(  21) = (   0.1250068   0.6494970   0.7829775  )
        22           Pb  tau(  22) = (   0.0000111   0.8659978   1.1744662  )
        23           Pb  tau(  23) = (   0.0000009   0.8660069   0.3914805  )
        24           Pb  tau(  24) = (   0.0000060   0.8660024   0.7829734  )
        25           Pb  tau(  25) = (   0.6250136   0.2164808   1.1744818  )
        26           Pb  tau(  26) = (   0.6250034   0.2164898   0.3914962  )
        27           Pb  tau(  27) = (   0.6250085   0.2164853   0.7829890  )
        28           Pb  tau(  28) = (   0.5000128   0.4329862   1.1744777  )
        29           Pb  tau(  29) = (   0.5000026   0.4329952   0.3914920  )
        30           Pb  tau(  30) = (   0.5000077   0.4329907   0.7829849  )
        31           Pb  tau(  31) = (   0.3750119   0.6494915   1.1744736  )
        32           Pb  tau(  32) = (   0.3750017   0.6495006   0.3914879  )
        33           Pb  tau(  33) = (   0.3750068   0.6494960   0.7829808  )
        34           Pb  tau(  34) = (   0.2500111   0.8659969   1.1744695  )
        35           Pb  tau(  35) = (   0.2500009   0.8660059   0.3914838  )
        36           Pb  tau(  36) = (   0.2500060   0.8660014   0.7829766  )
        37           Pb  tau(  37) = (   0.8750136   0.2164798   1.1744851  )
        38           Pb  tau(  38) = (   0.8750034   0.2164889   0.3914994  )
        39           Pb  tau(  39) = (   0.8750085   0.2164844   0.7829923  )
        40           Pb  tau(  40) = (   0.7500128   0.4329852   1.1744810  )
        41           Pb  tau(  41) = (   0.7500026   0.4329942   0.3914953  )
        42           Pb  tau(  42) = (   0.7500077   0.4329897   0.7829881  )
        43           Pb  tau(  43) = (   0.6250119   0.6494906   1.1744769  )
        44           Pb  tau(  44) = (   0.6250017   0.6494996   0.3914912  )
        45           Pb  tau(  45) = (   0.6250068   0.6494951   0.7829840  )
        46           Pb  tau(  46) = (   0.5000111   0.8659959   1.1744727  )
        47           Pb  tau(  47) = (   0.5000009   0.8660050   0.3914870  )
        48           Pb  tau(  48) = (   0.5000060   0.8660004   0.7829799  )
        49           I   tau(  49) = (   0.1250105   0.0721505   0.6824253  )
        50           I   tau(  50) = (   0.1250156   0.0721459   1.0739182  )
        51           I   tau(  51) = (   0.0000045   0.2886603   0.2909283  )
        52           I   tau(  52) = (   0.0000096   0.2886558   0.6824212  )
        53           I   tau(  53) = (   0.0000147   0.2886513   1.0739140  )
        54           I   tau(  54) = (  -0.1249963   0.5051657   0.2909242  )
        55           I   tau(  55) = (  -0.1249912   0.5051612   0.6824171  )
        56           I   tau(  56) = (  -0.1249861   0.5051566   1.0739099  )
        57           I   tau(  57) = (  -0.2499971   0.7216710   0.2909201  )
        58           I   tau(  58) = (  -0.2499920   0.7216665   0.6824129  )
        59           I   tau(  59) = (  -0.2499869   0.7216620   1.0739058  )
        60           I   tau(  60) = (   0.3750054   0.0721540   0.2909357  )
[...]
       129           I   tau( 129) = (   0.1249958   0.7938439   0.1005496  )
       130           I   tau( 130) = (   0.1250009   0.7938394   0.4920425  )
       131           I   tau( 131) = (   0.1250060   0.7938348   0.8835353  )
       132           I   tau( 132) = (   0.7499983   0.1443268   0.1005653  )
       133           I   tau( 133) = (   0.7500034   0.1443223   0.4920581  )
       134           I   tau( 134) = (   0.7500085   0.1443178   0.8835509  )
       135           I   tau( 135) = (   0.6249975   0.3608322   0.1005611  )
       136           I   tau( 136) = (   0.6250026   0.3608277   0.4920540  )
       137           I   tau( 137) = (   0.6250077   0.3608232   0.8835468  )
       138           I   tau( 138) = (   0.4999966   0.5773376   0.1005570  )
       139           I   tau( 139) = (   0.5000017   0.5773330   0.4920499  )
       140           I   tau( 140) = (   0.5000068   0.5773285   0.8835427  )
       141           I   tau( 141) = (   0.3749958   0.7938429   0.1005529  )
       142           I   tau( 142) = (   0.3750009   0.7938384   0.4920457  )
       143           I   tau( 143) = (   0.3750060   0.7938339   0.8835386  )

   Crystallographic axes

     site n.     atom                  positions (cryst. coord.)
         1           Pb  tau(   1) = (  0.2500000  0.2499727  0.9999973  )
         2           Pb  tau(   2) = (  0.2499950  0.2499832  0.3333306  )
         3           Pb  tau(   3) = (  0.2499975  0.2499780  0.6666639  )
         4           Pb  tau(   4) = (  0.2499986  0.4999716  0.9999938  )
         5           Pb  tau(   5) = (  0.2499936  0.4999820  0.3333271  )
         6           Pb  tau(   6) = (  0.2499961  0.4999768  0.6666604  )
[...]
     atom   44 type  1   force =     0.00000000    0.00000000    0.00000000
     atom   45 type  1   force =     0.00000000    0.00000000    0.00000000
     atom   46 type  1   force =     0.00000000    0.00000000    0.00000000
     atom   47 type  1   force =     0.00000000    0.00000000    0.00000000
     atom   48 type  1   force =     0.00000000    0.00000000    0.00000000
     atom   49 type  2   force =     0.00000000    0.00000000    0.00000000
     atom   50 type  2   force =     0.00000000    0.00000000    0.00000000
     atom   51 type  2   force =     0.00000000    0.00000000    0.00000000
     atom   52 type  2   force =     0.00000000    0.00000000    0.00000000
     atom   53 type  2   force =     0.00000000    0.00000000    0.00000000
     atom   54 type  2   force =     0.00000000    0.00000000    0.00000000
     atom   55 type  2   force =     0.00000000    0.00000000    0.00000000
     atom   56 type  2   force =     0.00000000    0.00000000    0.00000000
     atom   57 type  2   force =     0.00000000    0.00000000    0.00000000
     atom   58 type  2   force =     0.00000000    0.00000000    0.00000000
     atom   59 type  2   force =     0.00000000    0.00000000    0.00000000
     atom   60 type  2   force =     0.00000000    0.00000000    0.00000000
[...]
     atom  129 type  2   force =     0.00000000    0.00000000    0.00000000
     atom  130 type  2   force =     0.00000000    0.00000000    0.00000000
     atom  131 type  2   force =     0.00000000    0.00000000    0.00000000
     atom  132 type  2   force =     0.00000000    0.00000000    0.00000000
     atom  133 type  2   force =     0.00000000    0.00000000    0.00000000
     atom  134 type  2   force =     0.00000000    0.00000000    0.00000000
     atom  135 type  2   force =     0.00000000    0.00000000    0.00000000
     atom  136 type  2   force =     0.00000000    0.00000000    0.00000000
     atom  137 type  2   force =     0.00000000    0.00000000    0.00000000
     atom  138 type  2   force =     0.00000000    0.00000000    0.00000000
     atom  139 type  2   force =     0.00000000    0.00000000    0.00000000
     atom  140 type  2   force =     0.00000000    0.00000000    0.00000000
     atom  141 type  2   force =     0.00000000    0.00000000    0.00000000
     atom  142 type  2   force =     0.00000000    0.00000000    0.00000000
     atom  143 type  2   force =     0.00000000    0.00000000    0.00000000
     The SCF correction term to forces
     atom    1 type  1   force =     0.00000000   -0.00000553    0.00001428
     atom    2 type  1   force =    -0.00000001   -0.00000095   -0.00002286
     atom    3 type  1   force =    -0.00000001   -0.00000278   -0.00000058
     atom    4 type  1   force =    -0.00000250   -0.00001081    0.00002420
     atom    5 type  1   force =    -0.00000532   -0.00000513   -0.00001860
     atom    6 type  1   force =     0.00000550   -0.00000302   -0.00000236
     atom    7 type  1   force =    -0.00001056    0.00000323    0.00002423
     atom    8 type  1   force =    -0.00000708   -0.00000199   -0.00001854
     atom    9 type  1   force =     0.00000013    0.00000624   -0.00000242
     atom   10 type  1   force =    -0.00000479    0.00000277    0.00001428
     atom   11 type  1   force =    -0.00000090    0.00000050   -0.00002297
     atom   12 type  1   force =    -0.00000239    0.00000138   -0.00000053
     atom   13 type  1   force =    -0.00000542   -0.00000311    0.00002548
     atom   14 type  1   force =     0.00000778    0.00000452   -0.00002199
     atom   15 type  1   force =    -0.00000748   -0.00000434   -0.00000455
     atom   16 type  1   force =     0.00000250   -0.00001077    0.00002425
     atom   17 type  1   force =     0.00000528   -0.00000518   -0.00001857
     atom   18 type  1   force =    -0.00000549   -0.00000302   -0.00000236
     atom   19 type  1   force =     0.00000001    0.00000000    0.00002452
     atom   20 type  1   force =    -0.00000000    0.00000001   -0.00001499
     atom   21 type  1   force =     0.00000002    0.00000002    0.00000140
     atom   22 type  1   force =    -0.00000811    0.00000758    0.00002423
     atom   23 type  1   force =    -0.00000177    0.00000711   -0.00001850
     atom   24 type  1   force =    -0.00000534   -0.00000324   -0.00000239
     atom   25 type  1   force =    -0.00000003   -0.00000086    0.00003004
     atom   26 type  1   force =     0.00000003    0.00000379   -0.00002569
     atom   27 type  1   force =     0.00000001   -0.00000275   -0.00000459
     atom   28 type  1   force =    -0.00000074    0.00000044    0.00003007
     atom   29 type  1   force =     0.00000327   -0.00000189   -0.00002572
     atom   30 type  1   force =    -0.00000235    0.00000137   -0.00000457
     atom   31 type  1   force =     0.00001056    0.00000322    0.00002428
     atom   32 type  1   force =     0.00000709   -0.00000205   -0.00001862
     atom   33 type  1   force =    -0.00000015    0.00000629   -0.00000241
     atom   34 type  1   force =     0.00000816    0.00000757    0.00002421
     atom   35 type  1   force =     0.00000174    0.00000717   -0.00001857
     atom   36 type  1   force =     0.00000536   -0.00000326   -0.00000240
     atom   37 type  1   force =     0.00000543   -0.00000315    0.00002542
     atom   38 type  1   force =    -0.00000779    0.00000450   -0.00002202
     atom   39 type  1   force =     0.00000749   -0.00000435   -0.00000453
     atom   40 type  1   force =     0.00000074    0.00000043    0.00003005
     atom   41 type  1   force =    -0.00000327   -0.00000190   -0.00002572
     atom   42 type  1   force =     0.00000236    0.00000139   -0.00000456
     atom   43 type  1   force =    -0.00000003    0.00000625    0.00002546
     atom   44 type  1   force =     0.00000000   -0.00000896   -0.00002205
     atom   45 type  1   force =    -0.00000000    0.00000864   -0.00000455
     atom   46 type  1   force =     0.00000487    0.00000279    0.00001424
     atom   47 type  1   force =     0.00000090    0.00000054   -0.00002291
     atom   48 type  1   force =     0.00000236    0.00000139   -0.00000055
     atom   49 type  2   force =    -0.00000002   -0.00000000    0.00000883
     atom   50 type  2   force =    -0.00000010   -0.00000009    0.00001975
     atom   51 type  2   force =    -0.00000468   -0.00000073   -0.00001617
     atom   52 type  2   force =     0.00000292   -0.00000344    0.00000099
     atom   53 type  2   force =     0.00000377   -0.00001065    0.00002225
     atom   54 type  2   force =    -0.00000838   -0.00000487   -0.00001964
     atom   55 type  2   force =     0.00000229    0.00000133   -0.00000686
     atom   56 type  2   force =    -0.00000274   -0.00000159    0.00001935
     atom   57 type  2   force =    -0.00000296   -0.00000362   -0.00001612
     atom   58 type  2   force =    -0.00000157    0.00000421    0.00000098
     atom   59 type  2   force =    -0.00000732    0.00000856    0.00002224
     atom   60 type  2   force =     0.00000161    0.00000444   -0.00001626
[...]
     atom  129 type  2   force =    -0.00000002    0.00000850    0.00002255
     atom  130 type  2   force =     0.00000004    0.00000895   -0.00000808
     atom  131 type  2   force =     0.00000005   -0.00000377   -0.00000464
     atom  132 type  2   force =     0.00000249    0.00000567    0.00002022
     atom  133 type  2   force =     0.00000370    0.00000425   -0.00001495
     atom  134 type  2   force =     0.00000495   -0.00000669   -0.00000010
     atom  135 type  2   force =     0.00000001    0.00000001    0.00002831
     atom  136 type  2   force =     0.00000000   -0.00000001   -0.00001864
     atom  137 type  2   force =    -0.00000002    0.00000002    0.00000083
     atom  138 type  2   force =     0.00000619   -0.00000067    0.00002023
     atom  139 type  2   force =     0.00000552    0.00000109   -0.00001489
     atom  140 type  2   force =    -0.00000335    0.00000761   -0.00000004
     atom  141 type  2   force =     0.00000533    0.00000304    0.00001205
     atom  142 type  2   force =     0.00000708    0.00000408   -0.00001417
     atom  143 type  2   force =     0.00000457    0.00000271   -0.00000435

     Total force =     0.004650     Total SCF correction =     0.000210

     Computing stress (Cartesian axis) and pressure

     Non-local corr. energy    =      68.48529769 Ry

          total   stress  (Ry/bohr**3)                   (kbar)     P=       -0.90
  -0.00000627   0.00000000  -0.00000000           -0.92        0.00       -0.00
   0.00000000  -0.00000627   0.00000000            0.00       -0.92        0.00
  -0.00000000   0.00000000  -0.00000579           -0.00        0.00       -0.85

     kinetic stress (kbar)  14902.36      0.00     -0.00
                                0.00  14902.36      0.00
                               -0.00      0.00  14913.21

     local   stress (kbar)  -7716.29     -0.00      0.00
                               -0.00  -7716.29     -0.02
                                0.00     -0.02   1413.19

     nonloc. stress (kbar)  -1089.87      0.00     -0.00
                                0.00  -1089.87      0.00
                               -0.00      0.00  -1096.08

     hartree stress (kbar)  12061.55      0.00     -0.00
                                0.00  12061.54      0.01
                               -0.00      0.01   7946.77

     exc-cor stress (kbar)   6890.76      0.00     -0.00
                                0.00   6890.76      0.00
                               -0.00      0.00   6889.59

     corecor stress (kbar) -11219.99     -0.00     -0.00
                               -0.00 -11219.99      0.00
                               -0.00      0.00 -11219.89

     ewald   stress (kbar) -13912.04      0.00     -0.00
                                0.00 -13912.04      0.01
                               -0.00      0.01 -18931.60

     hubbard stress (kbar)      0.00      0.00      0.00
                                0.00      0.00      0.00
                                0.00      0.00      0.00

     DFT-D   stress (kbar)      0.00      0.00      0.00
                                0.00      0.00      0.00
                                0.00      0.00      0.00

     XDM     stress (kbar)      0.00      0.00      0.00
                                0.00      0.00      0.00
                                0.00      0.00      0.00

     dft-nl  stress (kbar)     82.60     -0.00      0.00
                               -0.00     82.60     -0.00
                                0.00     -0.00     83.95

     TS-vdW  stress (kbar)      0.00      0.00      0.00
                                0.00      0.00      0.00
                                0.00      0.00      0.00

     MDB     stress (kbar)      0.00      0.00      0.00
                                0.00      0.00      0.00
                                0.00      0.00      0.00

     3D-RISM stress (kbar)      0.00      0.00      0.00
                                0.00      0.00      0.00
                                0.00      0.00      0.00

     Energy error            =      5.2E-05 Ry
     Gradient error          =      9.9E-04 Ry/Bohr

     bfgs converged in  25 scf cycles and  24 bfgs steps
     (criteria: energy <  1.0E-04 Ry, force <  1.0E-03 Ry/Bohr)

     End of BFGS Geometry Optimization

     Final energy             =  -96571.0276825256 Ry

     File ./PbI2.bfgs deleted, as requested
Begin final coordinates

ATOMIC_POSITIONS (angstrom)
Pb            2.3557969734        4.0752631862       22.1460698174
Pb            2.3558157793        4.2586174190        7.4225193852
Pb            2.3557589471        4.0776644570       14.7653681748
Pb            0.0013369062        8.1617878441       22.1293073543
Pb           -0.0407113405        8.1802470931        7.3456833872
Pb           -0.0001343675        8.1579319688       14.7552618724
Pb           -2.3531703747       12.2399197541       22.1292715336
Pb           -2.3580913081       12.1940746638        7.3456690421
Pb           -2.3572150831       12.2405478735       14.7552690604
Pb           -4.7149519399       16.3220930282       22.1459901597
Pb           -4.5559453029       16.2302466061        7.4225766179
Pb           -4.7128909973       16.3209385602       14.7653611471
Pb            7.0624951517        4.0770703763       22.1519082565
Pb            7.0905087023        4.0931965115        7.3910459240
Pb            7.0698072862        4.0812819118       14.7625845009
Pb            4.7101870340        8.1617811655       22.1293504776
Pb            4.7522557491        8.1802564978        7.3457715877
Pb            4.7116437091        8.1579203385       14.7553201753
Pb            2.3557509869       12.2398765108       22.1274785068
Pb            2.3557396876       12.2398120332        7.3494413202
Pb            2.3557595974       12.2398210111       14.7256017838
Pb            0.0012434624       16.3179076005       22.1293188178
Pb            0.0383781101       16.3449737322        7.3458073775
Pb           -0.0013420569       16.3210370897       14.7552919798
Pb           11.7783001338        4.0752068374       22.1388419792
Pb           11.7782790886        4.1042029055        7.3836018964
Pb           11.7782983630        4.0815569529       14.7599890648
Pb            9.4187694020        8.1619963209       22.1388217982
Pb            9.4438699541        8.1474707814        7.3836248643
Pb            9.4242909532        8.1588291219       14.7600048301
Pb            7.0646879158       12.2399055550       22.1293369791
Pb            7.0696295202       12.1940568115        7.3457494481
Pb            7.0687515588       12.2405450512       14.7553041649
Pb            4.7102556951       16.3179026428       22.1293400071
Pb            4.6731554782       16.3449830665        7.3458043076
Pb            4.7128519715       16.3210533630       14.7552667819
Pb           16.4941511995        4.0770419560       22.1519517844
Pb           16.4661085123        4.0931929396        7.3909896120
Pb           16.4867899750        4.0813006358       14.7625138904
Pb           14.1378304524        8.1619941465       22.1387852449
Pb           14.1126888109        8.1474721206        7.3835265232
Pb           14.1323279516        8.1588416299       14.7599578523
Pb           11.7783016705       12.2449923400       22.1517424938
Pb           11.7783045873       12.2126748996        7.3909348844
Pb           11.7783174210       12.2366438139       14.7625362168
Pb            9.4265087373       16.3220725839       22.1460218961
Pb            9.2676330056       16.2302825075        7.4224712105
Pb            9.4244276487       16.3209482911       14.7653436227
I             2.3557562715        1.3597246799       12.8705027529
I             2.3557403554        1.3597194870       20.2619078012
I            -0.0055583572        5.4475785422        5.4810379853
I            -0.0024835414        5.4365705931       12.8700883299
I            -0.0013133807        5.4304433226       20.2646735268
I            -2.3525798704        9.5214355942        5.4775023224
I            -2.3561453123        9.5195417292       12.8677409854
I            -2.3567258928        9.5191991008       20.2506330827
I            -4.7072043012       13.5910549452        5.4810143320
I            -4.7152519299       13.5993399747       12.8701014438
I            -4.7199357738       13.6033494010       20.2645618152
I             7.0766894410        1.3606744695        5.4810829933
[...]
I             2.3557127318       14.9576116533        1.8846736709
I             2.3557359593       14.9741178237        9.2369317614
I             2.3557421128       14.9425486818       16.6276358063
I            14.1295896816        2.7174536252        1.8954590543
I            14.1307621139        2.7207247942        9.2545561556
I            14.1330812262        2.7153253435       16.6417037482
I            11.7782830720        6.7998433450        1.8887516087
I            11.7782992080        6.7997780492        9.2832787281
I            11.7783108829        6.7998038258       16.6464436570
I             9.4185072777       10.8773329651        1.8953805221
I             9.4219576012       10.8766853520        9.2545554237
I             9.4184404914       10.8813611622       16.6417213015
I             7.0621445939       14.9571939847        1.8856301247
I             7.1417970692       15.0030107131        9.2714639089
I             7.0642392176       14.9583914381       16.6433194534
End final coordinates

     Writing all to output data dir ./PbI2.save/

     General routines

     Parallel routines

     PAW routines

   This run was terminated on:  23:49:30  16Mar2024

   JOB DONE.