     Program PWSCF v.7.1 starts on 12Feb2024 at  8:17:42

     Reading input from espresso.pwi
Warning: card &CELL ignored
Warning: card    CELL_DYNAMICS    = 'BFGS' ignored
Warning: card / ignored

     Current dimensions of program PWSCF are:
     Max number of different atomic species (ntypx) = 10
     Max number of k-points (npk) =  40000
     Max angular momentum in pseudopotentials (lmaxx) =  4
     file Pb.pbe-dn-kjpaw_psl.1.0.0.UPF: wavefunction(s)  6S 6P 5D renormalized
     file I.pbe-dn-kjpaw_psl.1.0.0.UPF: wavefunction(s)  5S 5P renormalized

     IMPORTANT: XC functional enforced from input :
     Exchange-correlation= BEEF-VDW
                           (   1   4  43  14   2   0   0)
     Any further DFT definition will be discarded
     Please, verify this is what you really want

     R & G space division:  proc/nbgrp/npool/nimage =     128
     Subspace diagonalization in iterative solution of the eigenvalue problem:
     a serial algorithm will be used

     Using Slab Decomposition

     bravais-lattice index     =            4
     lattice parameter (alat)  =      35.6073  a.u.
     unit-cell volume          =   30614.2220 (a.u.)^3
     number of atoms/cell      =           96
     number of atomic types    =            2
     number of electrons       =      1536.00
     number of Kohn-Sham states=          922
     kinetic-energy cutoff     =      70.0000  Ry
     charge density cutoff     =     350.0000  Ry
     scf convergence threshold =      1.0E-07
     mixing beta               =       0.7000
     number of iterations used =            8  plain     mixing
     energy convergence thresh.=      1.0E-04
     force convergence thresh. =      1.0E-03
     Exchange-correlation= BEEF-VDW
                           (   1   4  43  14   2   0   0)
     nstep                     =           50

     celldm(1)=  35.607290  celldm(2)=   0.000000  celldm(3)=   0.783025
     celldm(4)=   0.000000  celldm(5)=   0.000000  celldm(6)=   0.000000

     crystal axes: (cart. coord. in units of alat)
               a(1) = (   1.000000   0.000000   0.000000 )
               a(2) = (  -0.500000   0.866025   0.000000 )
               a(3) = (   0.000000   0.000000   0.783025 )

     reciprocal axes: (cart. coord. in units 2 pi/alat)
               b(1) = (  1.000000  0.577350 -0.000000 )
               b(2) = (  0.000000  1.154701  0.000000 )
               b(3) = (  0.000000 -0.000000  1.277098 )

     PseudoPot. # 1 for Pb read from file:
     /trace/group/acmegroup/atimmins/packages/espresso/pseudo/psl_1.0.0/pslibrary.1.0.0/pbe/PSEUDOPOTENTIALS/Pb.pbe-dn-kjpaw_psl.1.0.0.UPF
     MD5 check sum: 39ab5b8a6bbd56b7735ad9f188aac93a
     Pseudo is Projector augmented-wave + core cor, Zval = 14.0
     Generated using 'atomic' code by A. Dal Corso  v.7.1
     Shape of augmentation charge: PSQ
     Using radial grid of 1281 points,  6 beta functions with:
                l(1) =   0
                l(2) =   0
                l(3) =   1
                l(4) =   1
                l(5) =   2
                l(6) =   2
     Q(r) pseudized with 0 coefficients

     PseudoPot. # 2 for I  read from file:
     /trace/group/acmegroup/atimmins/packages/espresso/pseudo/psl_1.0.0/pslibrary.1.0.0/pbe/PSEUDOPOTENTIALS/I.pbe-dn-kjpaw_psl.1.0.0.UPF
     MD5 check sum: bfa8781bc1224d19af3f3980e3fab11e
     Pseudo is Projector augmented-wave + core cor, Zval = 17.0
     Generated using 'atomic' code by A. Dal Corso  v.7.1
     Shape of augmentation charge: PSQ
     Using radial grid of 1247 points,  6 beta functions with:
                l(1) =   0
                l(2) =   0
                l(3) =   1
                l(4) =   1
                l(5) =   2
                l(6) =   2
     Q(r) pseudized with 0 coefficients

     atomic species   valence    mass     pseudopotential
        Pb            14.00   207.20000     Pb( 1.00)
        I             17.00   126.90447     I ( 1.00)

     No symmetry found

                                    s                        frac. trans.

      isym =  1     identity

 cryst.   s( 1) = (     1          0          0      )
                  (     0          1          0      )
                  (     0          0          1      )

 cart.    s( 1) = (  1.0000000  0.0000000  0.0000000 )
                  (  0.0000000  1.0000000  0.0000000 )
                  (  0.0000000  0.0000000  1.0000000 )

     point group C_1 (1)
     there are  1 classes
     the character table:

       E
A      1.00

     the symmetry operations in each class and the name of the first element:

     E        1
          identity

   Cartesian axes

     site n.     atom                  positions (alat units)
         1           Pb  tau(   1) = (   0.1250086   0.2164870   0.7830203  )
         2           Pb  tau(   2) = (   0.1250034   0.2164916   0.3915076  )
         3           Pb  tau(   3) = (   0.0000077   0.4329922   0.7830161  )
         4           Pb  tau(   4) = (   0.0000025   0.4329968   0.3915034  )
         5           Pb  tau(   5) = (  -0.1249932   0.6494975   0.7830119  )
         6           Pb  tau(   6) = (  -0.1249984   0.6495021   0.3914992  )
         7           Pb  tau(   7) = (  -0.2499941   0.8660028   0.7830077  )
         8           Pb  tau(   8) = (  -0.2499993   0.8660074   0.3914950  )
         9           Pb  tau(   9) = (   0.3750086   0.2164859   0.7830237  )
        10           Pb  tau(  10) = (   0.3750034   0.2164905   0.3915110  )
        11           Pb  tau(  11) = (   0.2500077   0.4329912   0.7830194  )
        12           Pb  tau(  12) = (   0.2500025   0.4329958   0.3915068  )
        13           Pb  tau(  13) = (   0.1250068   0.6494965   0.7830152  )
        14           Pb  tau(  14) = (   0.1250016   0.6495011   0.3915026  )
        15           Pb  tau(  15) = (   0.0000059   0.8660017   0.7830110  )
        16           Pb  tau(  16) = (   0.0000007   0.8660063   0.3914983  )
        17           Pb  tau(  17) = (   0.6250086   0.2164849   0.7830270  )
        18           Pb  tau(  18) = (   0.6250034   0.2164895   0.3915143  )
        19           Pb  tau(  19) = (   0.5000077   0.4329901   0.7830228  )
        20           Pb  tau(  20) = (   0.5000025   0.4329947   0.3915101  )
        21           Pb  tau(  21) = (   0.3750068   0.6494954   0.7830186  )
        22           Pb  tau(  22) = (   0.3750016   0.6495000   0.3915059  )
        23           Pb  tau(  23) = (   0.2500059   0.8660007   0.7830144  )
        24           Pb  tau(  24) = (   0.2500007   0.8660053   0.3915017  )
        25           Pb  tau(  25) = (   0.8750086   0.2164838   0.7830303  )
        26           Pb  tau(  26) = (   0.8750034   0.2164884   0.3915177  )
        27           Pb  tau(  27) = (   0.7500077   0.4329891   0.7830261  )
        28           Pb  tau(  28) = (   0.7500025   0.4329937   0.3915135  )
        29           Pb  tau(  29) = (   0.6250068   0.6494944   0.7830219  )
        30           Pb  tau(  30) = (   0.6250016   0.6494990   0.3915092  )
        31           Pb  tau(  31) = (   0.5000059   0.8659996   0.7830177  )
        32           Pb  tau(  32) = (   0.5000007   0.8660042   0.3915050  )
        33           I   tau(  33) = (   0.1250056   0.0721546   0.2909163  )
        34           I   tau(  34) = (   0.1250108   0.0721500   0.6824290  )
        35           I   tau(  35) = (   0.0000047   0.2886599   0.2909121  )
        36           I   tau(  36) = (   0.0000099   0.2886553   0.6824248  )
        37           I   tau(  37) = (  -0.1249962   0.5051652   0.2909079  )
        38           I   tau(  38) = (  -0.1249910   0.5051606   0.6824206  )
        39           I   tau(  39) = (  -0.2499972   0.7216704   0.2909037  )
        40           I   tau(  40) = (  -0.2499919   0.7216658   0.6824164  )
        41           I   tau(  41) = (   0.3750056   0.0721536   0.2909197  )
        42           I   tau(  42) = (   0.3750108   0.0721490   0.6824324  )
        43           I   tau(  43) = (   0.2500047   0.2886589   0.2909155  )
        44           I   tau(  44) = (   0.2500099   0.2886543   0.6824282  )
        45           I   tau(  45) = (   0.1250038   0.5051641   0.2909113  )
        46           I   tau(  46) = (   0.1250090   0.5051595   0.6824240  )
        47           I   tau(  47) = (   0.0000028   0.7216694   0.2909071  )
        48           I   tau(  48) = (   0.0000081   0.7216648   0.6824197  )
        49           I   tau(  49) = (   0.6250056   0.0721525   0.2909230  )
        50           I   tau(  50) = (   0.6250108   0.0721479   0.6824357  )
        51           I   tau(  51) = (   0.5000047   0.2886578   0.2909188  )
        52           I   tau(  52) = (   0.5000099   0.2886532   0.6824315  )
        53           I   tau(  53) = (   0.3750038   0.5051631   0.2909146  )
        54           I   tau(  54) = (   0.3750090   0.5051585   0.6824273  )
        55           I   tau(  55) = (   0.2500028   0.7216683   0.2909104  )
        56           I   tau(  56) = (   0.2500081   0.7216637   0.6824231  )
        57           I   tau(  57) = (   0.8750056   0.0721515   0.2909264  )
        58           I   tau(  58) = (   0.8750108   0.0721469   0.6824391  )
        59           I   tau(  59) = (   0.7500047   0.2886567   0.2909222  )
        60           I   tau(  60) = (   0.7500099   0.2886521   0.6824348  )
[...]
        82           I   tau(  82) = (   0.5000034   0.1443230   0.4921126  )
        83           I   tau(  83) = (   0.3749973   0.3608329   0.1005958  )
        84           I   tau(  84) = (   0.3750025   0.3608283   0.4921084  )
        85           I   tau(  85) = (   0.2499964   0.5773382   0.1005915  )
        86           I   tau(  86) = (   0.2500016   0.5773336   0.4921042  )
        87           I   tau(  87) = (   0.1249955   0.7938434   0.1005873  )
        88           I   tau(  88) = (   0.1250007   0.7938388   0.4921000  )
        89           I   tau(  89) = (   0.7499982   0.1443266   0.1006033  )
        90           I   tau(  90) = (   0.7500034   0.1443220   0.4921160  )
        91           I   tau(  91) = (   0.6249973   0.3608319   0.1005991  )
        92           I   tau(  92) = (   0.6250025   0.3608273   0.4921118  )
        93           I   tau(  93) = (   0.4999964   0.5773371   0.1005949  )
        94           I   tau(  94) = (   0.5000016   0.5773325   0.4921076  )
        95           I   tau(  95) = (   0.3749955   0.7938424   0.1005907  )
        96           I   tau(  96) = (   0.3750007   0.7938378   0.4921034  )

   Crystallographic axes

     site n.     atom                  positions (cryst. coord.)
         1           Pb  tau(   1) = (  0.2499975  0.2499776  0.9999935  )
         2           Pb  tau(   2) = (  0.2499949  0.2499829  0.4999935  )
         3           Pb  tau(   3) = (  0.2499959  0.4999764  0.9999882  )
         4           Pb  tau(   4) = (  0.2499933  0.4999817  0.4999882  )
         5           Pb  tau(   5) = (  0.2499944  0.7499751  0.9999828  )
         6           Pb  tau(   6) = (  0.2499918  0.7499804  0.4999828  )
         7           Pb  tau(   7) = (  0.2499928  0.9999739  0.9999774  )
[...]
     atom   45 type  2   force =     0.00000000    0.00000000    0.00000000
     atom   46 type  2   force =     0.00000000    0.00000000    0.00000000
     atom   47 type  2   force =     0.00000000    0.00000000    0.00000000
     atom   48 type  2   force =     0.00000000    0.00000000    0.00000000
     atom   49 type  2   force =     0.00000000    0.00000000    0.00000000
     atom   50 type  2   force =     0.00000000    0.00000000    0.00000000
     atom   51 type  2   force =     0.00000000    0.00000000    0.00000000
     atom   52 type  2   force =     0.00000000    0.00000000    0.00000000
     atom   53 type  2   force =     0.00000000    0.00000000    0.00000000
     atom   54 type  2   force =     0.00000000    0.00000000    0.00000000
     atom   55 type  2   force =     0.00000000    0.00000000    0.00000000
     atom   56 type  2   force =     0.00000000    0.00000000    0.00000000
     atom   57 type  2   force =     0.00000000    0.00000000    0.00000000
     atom   58 type  2   force =     0.00000000    0.00000000    0.00000000
     atom   59 type  2   force =     0.00000000    0.00000000    0.00000000
     atom   60 type  2   force =     0.00000000    0.00000000    0.00000000
[...]
     atom   82 type  2   force =     0.00000000    0.00000000    0.00000000
     atom   83 type  2   force =     0.00000000    0.00000000    0.00000000
     atom   84 type  2   force =     0.00000000    0.00000000    0.00000000
     atom   85 type  2   force =     0.00000000    0.00000000    0.00000000
     atom   86 type  2   force =     0.00000000    0.00000000    0.00000000
     atom   87 type  2   force =     0.00000000    0.00000000    0.00000000
     atom   88 type  2   force =     0.00000000    0.00000000    0.00000000
     atom   89 type  2   force =     0.00000000    0.00000000    0.00000000
     atom   90 type  2   force =     0.00000000    0.00000000    0.00000000
     atom   91 type  2   force =     0.00000000    0.00000000    0.00000000
     atom   92 type  2   force =     0.00000000    0.00000000    0.00000000
     atom   93 type  2   force =     0.00000000    0.00000000    0.00000000
     atom   94 type  2   force =     0.00000000    0.00000000    0.00000000
     atom   95 type  2   force =     0.00000000    0.00000000    0.00000000
     atom   96 type  2   force =     0.00000000    0.00000000    0.00000000
     The SCF correction term to forces
     atom    1 type  1   force =    -0.00001410   -0.00000140   -0.00001020
     atom    2 type  1   force =    -0.00001187    0.00000640    0.00000934
     atom    3 type  1   force =    -0.00000971   -0.00000332   -0.00000677
     atom    4 type  1   force =    -0.00000773    0.00000494    0.00000899
     atom    5 type  1   force =     0.00000262   -0.00000727   -0.00001069
     atom    6 type  1   force =     0.00000675   -0.00000570    0.00000994
     atom    7 type  1   force =    -0.00000255   -0.00000635   -0.00001394
     atom    8 type  1   force =     0.00000227   -0.00000613    0.00000715
     atom    9 type  1   force =     0.00000862   -0.00000084   -0.00000426
     atom   10 type  1   force =     0.00000917    0.00000271    0.00000217
     atom   11 type  1   force =    -0.00000272    0.00000509   -0.00000449
     atom   12 type  1   force =    -0.00000306    0.00001149    0.00000605
     atom   13 type  1   force =     0.00000138    0.00000566   -0.00000924
     atom   14 type  1   force =    -0.00000054    0.00000604    0.00001185
     atom   15 type  1   force =     0.00001238   -0.00000315   -0.00001253
     atom   16 type  1   force =     0.00001425   -0.00000396    0.00000373
     atom   17 type  1   force =     0.00001668   -0.00000137    0.00000380
     atom   18 type  1   force =     0.00001271   -0.00000227   -0.00000703
     atom   19 type  1   force =     0.00001191   -0.00000004    0.00000583
     atom   20 type  1   force =     0.00000805    0.00000117   -0.00000521
     atom   21 type  1   force =    -0.00000003    0.00000970   -0.00000085
     atom   22 type  1   force =    -0.00000709    0.00000612    0.00000168
     atom   23 type  1   force =     0.00000369    0.00000508   -0.00000470
     atom   24 type  1   force =    -0.00000369    0.00000392   -0.00000078
     atom   25 type  1   force =    -0.00000637   -0.00000155    0.00000236
     atom   26 type  1   force =    -0.00001178    0.00000021    0.00000231
     atom   27 type  1   force =     0.00000562   -0.00000989    0.00000428
     atom   28 type  1   force =     0.00000151   -0.00000718   -0.00000159
     atom   29 type  1   force =     0.00000065   -0.00000354    0.00000080
     atom   30 type  1   force =    -0.00000129   -0.00000635    0.00000365
     atom   31 type  1   force =    -0.00001096    0.00000180   -0.00000615
     atom   32 type  1   force =    -0.00001639   -0.00000017    0.00000496
     atom   33 type  2   force =    -0.00001039   -0.00000288    0.00002212
     atom   34 type  2   force =    -0.00000955   -0.00000173    0.00001217
     atom   35 type  2   force =    -0.00001588    0.00000191    0.00002427
     atom   36 type  2   force =    -0.00000814   -0.00000070    0.00001314
     atom   37 type  2   force =    -0.00000502   -0.00000763    0.00002678
     atom   38 type  2   force =     0.00000300   -0.00000170    0.00000894
     atom   39 type  2   force =     0.00000052   -0.00000999    0.00002679
     atom   40 type  2   force =     0.00000332   -0.00000077    0.00000992
     atom   41 type  2   force =     0.00001452   -0.00000074    0.00002751
     atom   42 type  2   force =     0.00000444   -0.00000903    0.00000709
     atom   43 type  2   force =     0.00000348    0.00000578    0.00002829
     atom   44 type  2   force =    -0.00000897   -0.00000123    0.00000964
     atom   45 type  2   force =    -0.00000317    0.00000713    0.00003256
     atom   46 type  2   force =    -0.00000958    0.00000642    0.00000220
     atom   47 type  2   force =     0.00000817    0.00000120    0.00003441
     atom   48 type  2   force =     0.00000323   -0.00000063    0.00000137
     atom   49 type  2   force =     0.00001158    0.00000329    0.00002292
     atom   50 type  2   force =     0.00000876   -0.00000649    0.00001033
     atom   51 type  2   force =     0.00001625    0.00000089    0.00001968
     atom   52 type  2   force =     0.00000806   -0.00000490    0.00001732
     atom   53 type  2   force =     0.00000547    0.00000602    0.00002539
     atom   54 type  2   force =    -0.00000376    0.00000927    0.00001249
     atom   55 type  2   force =     0.00000007    0.00000834    0.00002932
     atom   56 type  2   force =    -0.00000353    0.00000929    0.00000781
     atom   57 type  2   force =    -0.00001518    0.00000241    0.00001973
     atom   58 type  2   force =    -0.00000393    0.00000062    0.00001490
     atom   59 type  2   force =    -0.00000376   -0.00000327    0.00001655
     atom   60 type  2   force =     0.00000807   -0.00000432    0.00001935
[...]
     atom   82 type  2   force =     0.00000978   -0.00000978   -0.00001373
     atom   83 type  2   force =     0.00001193    0.00000267   -0.00001995
     atom   84 type  2   force =    -0.00000084    0.00000235   -0.00001796
     atom   85 type  2   force =     0.00000340    0.00000882   -0.00002148
     atom   86 type  2   force =    -0.00000967    0.00001002   -0.00001410
     atom   87 type  2   force =     0.00001029    0.00000817   -0.00002360
     atom   88 type  2   force =     0.00000246   -0.00000282   -0.00001098
     atom   89 type  2   force =     0.00000291    0.00000433   -0.00002042
     atom   90 type  2   force =     0.00000255   -0.00000452   -0.00001472
     atom   91 type  2   force =     0.00001150   -0.00000432   -0.00001593
     atom   92 type  2   force =     0.00001059   -0.00000268   -0.00002174
     atom   93 type  2   force =     0.00000497   -0.00000017   -0.00002023
     atom   94 type  2   force =    -0.00000068    0.00000473   -0.00001709
     atom   95 type  2   force =    -0.00000386    0.00000742   -0.00002479
     atom   96 type  2   force =    -0.00000891    0.00000388   -0.00001007

     Total force =     0.000132     Total SCF correction =     0.000190
     SCF correction compared to forces is large: reduce conv_thr to get better values

     Computing stress (Cartesian axis) and pressure

     Non-local corr. energy    =      46.02377573 Ry

          total   stress  (Ry/bohr**3)                   (kbar)     P=        1.61
   0.00001027  -0.00000000   0.00000000            1.51       -0.00        0.00
  -0.00000000   0.00001027  -0.00000001           -0.00        1.51       -0.00
   0.00000000  -0.00000001   0.00001224            0.00       -0.00        1.80

     kinetic stress (kbar)  14996.53      0.00      0.00
                                0.00  14996.53     -0.00
                                0.00     -0.00  15007.83

     local   stress (kbar)  -7545.63      0.06     -0.05
                                0.06  -7545.50      0.06
                               -0.05      0.06   1594.39

     nonloc. stress (kbar)  -1072.68     -0.00      0.00
                               -0.00  -1072.68     -0.00
                                0.00     -0.00  -1078.67

     hartree stress (kbar)  12056.23     -0.02      0.02
                               -0.02  12056.18     -0.02
                                0.02     -0.02   7938.08

     exc-cor stress (kbar)   6948.90     -0.00      0.00
                               -0.00   6948.90     -0.00
                                0.00     -0.00   6947.79

     corecor stress (kbar) -11313.98      0.00     -0.00
                                0.00 -11313.98      0.00
                               -0.00      0.00 -11313.98

     ewald   stress (kbar) -14151.17     -0.04      0.03
                               -0.04 -14151.26     -0.04
                                0.03     -0.04 -19178.30

     hubbard stress (kbar)      0.00      0.00      0.00
                                0.00      0.00      0.00
                                0.00      0.00      0.00

     DFT-D   stress (kbar)      0.00      0.00      0.00
                                0.00      0.00      0.00
                                0.00      0.00      0.00

     XDM     stress (kbar)      0.00      0.00      0.00
                                0.00      0.00      0.00
                                0.00      0.00      0.00

     dft-nl  stress (kbar)     83.31      0.00     -0.00
                                0.00     83.31      0.00
                               -0.00      0.00     84.67

     TS-vdW  stress (kbar)      0.00      0.00      0.00
                                0.00      0.00      0.00
                                0.00      0.00      0.00

     MDB     stress (kbar)      0.00      0.00      0.00
                                0.00      0.00      0.00
                                0.00      0.00      0.00

     3D-RISM stress (kbar)      0.00      0.00      0.00
                                0.00      0.00      0.00
                                0.00      0.00      0.00

     Energy error            =      4.7E-06 Ry
     Gradient error          =      2.1E-05 Ry/Bohr

     bfgs converged in   8 scf cycles and   7 bfgs steps
     (criteria: energy <  1.0E-04 Ry, force <  1.0E-03 Ry/Bohr)

     End of BFGS Geometry Optimization

     Final energy             =  -64756.2523446639 Ry

     File ./PbI2.bfgs deleted, as requested
Begin final coordinates

ATOMIC_POSITIONS (angstrom)
Pb            2.3554541906        4.0791701637       14.7541848659
Pb            2.3553633744        4.0792528646        7.3771123863
Pb            0.0001237144        8.1587280769       14.7540208570
Pb            0.0000994041        8.1588249781        7.3769934925
Pb           -2.3551986982       12.2382346572       14.7539824683
Pb           -2.3552531028       12.2382645904        7.3769288133
Pb           -4.7106295279       16.3176873229       14.7540042366
Pb           -4.7106487387       16.3176674956        7.3769899391
Pb            7.0660899751        4.0791407231       14.7542859047
Pb            7.0661606833        4.0792325130        7.3771961295
Pb            4.7107078722        8.1586771274       14.7541555325
Pb            4.7106426206        8.1587578809        7.3770574842
Pb            2.3553612922       12.2381794208       14.7540951360
Pb            2.3552908961       12.2382248006        7.3770059776
Pb            0.0001272076       16.3176945111       14.7541485193
Pb            0.0001535910       16.3177828766        7.3770509056
Pb           11.7768287068        4.0790674634       14.7543179463
Pb           11.7766985382        4.0790853288        7.3772324266
Pb            9.4214065361        8.1586760483       14.7542186204
Pb            9.4213423888        8.1587256693        7.3770766633
Pb            7.0661247448       12.2382063462       14.7541417939
Pb            7.0660575111       12.2382281220        7.3770649348
Pb            4.7107271333       16.3178043393       14.7541909151
Pb            4.7105834647       16.3178423029        7.3770817886
Pb           16.4873018735        4.0790907838       14.7542870937
Pb           16.4872584291        4.0791451122        7.3772132838
Pb           14.1320624055        8.1586243821       14.7541704171
Pb           14.1319960698        8.1587127219        7.3770589996
Pb           11.7766809678       12.2382701887       14.7541337630
Pb           11.7766367711       12.2382524330        7.3769961374
Pb            9.4214282645       16.3176473792       14.7541657595
Pb            9.4213191395       16.3176983915        7.3770512075
I             2.3553373310        1.3594625087        5.4924969002
I             2.3553039588        1.3594287291       12.8696509235
I             0.0000904774        5.4391693896        5.4926251449
I             0.0000877903        5.4390459336       12.8697267768
I            -2.3551393539        9.5186576928        5.4925402694
I            -2.3552177382        9.5185700698       12.8695259984
I            -4.7107010687       13.5981488731        5.4924136937
I            -4.7107268695       13.5981452861       12.8694770331
I             7.0660989042        1.3595324124        5.4925487706
I             7.0661131090        1.3595363519       12.8695922506
I             4.7107245594        5.4391570864        5.4926472635
I             4.7107512498        5.4391402417       12.8696713045
I             2.3553375644        9.5185796057        5.4925041637
I             2.3553828097        9.5185168787       12.8695101271
I             0.0000503701       13.5981288216        5.4924492751
I             0.0000761611       13.5981147683       12.8694371333
I            11.7767392804        1.3596656612        5.4926574507
I            11.7766740412        1.3596150056       12.8695937783
I             9.4214107745        5.4390460917        5.4927320593
I             9.4214290722        5.4390163889       12.8697786457
I             7.0659771270        9.5185871130        5.4926542948
I             7.0660533476        9.5185099271       12.8696117491
I             4.7106856636       13.5981205093        5.4925560625
I             4.7107327164       13.5981302859       12.8696010077
I            16.4872163336        1.3595684976        5.4927431381
I            16.4873315941        1.3595555238       12.8696784806
I            14.1318851108        5.4388899606        5.4929039755
I            14.1319905264        5.4389411902       12.8697420483
[...]
I             9.4215262770        2.7193344318        9.2615892143
I             7.0659524422        6.7989342799        1.8844013497
I             7.0659919997        6.7990038968        9.2615141589
I             4.7105896508       10.8783612751        1.8843378059
I             4.7106304804       10.8783988292        9.2613999382
I             2.3553187362       14.9580178021        1.8843457595
I             2.3553146023       14.9580702400        9.2613980981
I            14.1319323547        2.7193178296        1.8845143193
I            14.1318413126        2.7193634206        9.2615649987
I            11.7766197914        6.7988653090        1.8844079857
I            11.7766845925        6.7988764998        9.2615129492
I             9.4213660672       10.8785532388        1.8843796074
I             9.4213542700       10.8784761159        9.2615183602
I             7.0661443050       14.9579935094        1.8843518070
I             7.0660698180       14.9580143826        9.2614358939
End final coordinates

     Writing all to output data dir ./PbI2.save/

     General routines

     Parallel routines

     PAW routines

   This run was terminated on:  12:12:22  12Feb2024

   JOB DONE.