     Program PWSCF v.7.1 starts on  3Mar2024 at  8: 6:20

     Reading input from espresso.pwi
Warning: card &CELL ignored
Warning: card    CELL_DYNAMICS    = 'BFGS' ignored
Warning: card / ignored

     Current dimensions of program PWSCF are:
     Max number of different atomic species (ntypx) = 10
     Max number of k-points (npk) =  40000
     Max angular momentum in pseudopotentials (lmaxx) =  4
     file Pb.pbe-dn-kjpaw_psl.1.0.0.UPF: wavefunction(s)  6S 6P 5D renormalized
     file I.pbe-dn-kjpaw_psl.1.0.0.UPF: wavefunction(s)  5S 5P renormalized

     IMPORTANT: XC functional enforced from input :
     Exchange-correlation= BEEF-VDW
                           (   1   4  43  14   2   0   0)
     Any further DFT definition will be discarded
     Please, verify this is what you really want

     R & G space division:  proc/nbgrp/npool/nimage =     128
     Subspace diagonalization in iterative solution of the eigenvalue problem:
     a serial algorithm will be used

     Using Slab Decomposition

     bravais-lattice index     =            4
     lattice parameter (alat)  =      35.6073  a.u.
     unit-cell volume          =   30614.2220 (a.u.)^3
     number of atoms/cell      =           96
     number of atomic types    =            2
     number of electrons       =      1533.00
     number of Kohn-Sham states=          920
     kinetic-energy cutoff     =      70.0000  Ry
     charge density cutoff     =     350.0000  Ry
     scf convergence threshold =      1.0E-07
     mixing beta               =       0.7000
     number of iterations used =            8  plain     mixing
     Exchange-correlation= BEEF-VDW
                           (   1   4  43  14   2   0   0)

     celldm(1)=  35.607290  celldm(2)=   0.000000  celldm(3)=   0.783025
     celldm(4)=   0.000000  celldm(5)=   0.000000  celldm(6)=   0.000000

     crystal axes: (cart. coord. in units of alat)
               a(1) = (   1.000000   0.000000   0.000000 )
               a(2) = (  -0.500000   0.866025   0.000000 )
               a(3) = (   0.000000   0.000000   0.783025 )

     reciprocal axes: (cart. coord. in units 2 pi/alat)
               b(1) = (  1.000000  0.577350 -0.000000 )
               b(2) = (  0.000000  1.154701  0.000000 )
               b(3) = (  0.000000 -0.000000  1.277098 )

     PseudoPot. # 1 for Pb read from file:
     /trace/group/acmegroup/atimmins/packages/espresso/pseudo/psl_1.0.0/pslibrary.1.0.0/pbe/PSEUDOPOTENTIALS/Pb.pbe-dn-kjpaw_psl.1.0.0.UPF
     MD5 check sum: 39ab5b8a6bbd56b7735ad9f188aac93a
     Pseudo is Projector augmented-wave + core cor, Zval = 14.0
     Generated using 'atomic' code by A. Dal Corso  v.7.1
     Shape of augmentation charge: PSQ
     Using radial grid of 1281 points,  6 beta functions with:
                l(1) =   0
                l(2) =   0
                l(3) =   1
                l(4) =   1
                l(5) =   2
                l(6) =   2
     Q(r) pseudized with 0 coefficients

     PseudoPot. # 2 for I  read from file:
     /trace/group/acmegroup/atimmins/packages/espresso/pseudo/psl_1.0.0/pslibrary.1.0.0/pbe/PSEUDOPOTENTIALS/I.pbe-dn-kjpaw_psl.1.0.0.UPF
     MD5 check sum: bfa8781bc1224d19af3f3980e3fab11e
     Pseudo is Projector augmented-wave + core cor, Zval = 17.0
     Generated using 'atomic' code by A. Dal Corso  v.7.1
     Shape of augmentation charge: PSQ
     Using radial grid of 1247 points,  6 beta functions with:
                l(1) =   0
                l(2) =   0
                l(3) =   1
                l(4) =   1
                l(5) =   2
                l(6) =   2
     Q(r) pseudized with 0 coefficients

     atomic species   valence    mass     pseudopotential
        Pb            14.00   207.20000     Pb( 1.00)
        I             17.00   126.90447     I ( 1.00)

     No symmetry found

                                    s                        frac. trans.

      isym =  1     identity

 cryst.   s( 1) = (     1          0          0      )
                  (     0          1          0      )
                  (     0          0          1      )

 cart.    s( 1) = (  1.0000000  0.0000000  0.0000000 )
                  (  0.0000000  1.0000000  0.0000000 )
                  (  0.0000000  0.0000000  1.0000000 )

     point group C_1 (1)
     there are  1 classes
     the character table:

       E
A      1.00

     the symmetry operations in each class and the name of the first element:

     E        1
          identity

   Cartesian axes

     site n.     atom                  positions (alat units)
         1           Pb  tau(   1) = (   0.1250086   0.2164870   0.7830203  )
         2           Pb  tau(   2) = (   0.1250034   0.2164916   0.3915076  )
         3           Pb  tau(   3) = (   0.0000077   0.4329922   0.7830161  )
         4           Pb  tau(   4) = (   0.0000025   0.4329968   0.3915034  )
         5           Pb  tau(   5) = (  -0.1249932   0.6494975   0.7830119  )
         6           Pb  tau(   6) = (  -0.1249984   0.6495021   0.3914992  )
         7           Pb  tau(   7) = (  -0.2499941   0.8660028   0.7830077  )
         8           Pb  tau(   8) = (  -0.2499993   0.8660074   0.3914950  )
         9           Pb  tau(   9) = (   0.3750086   0.2164859   0.7830237  )
        10           Pb  tau(  10) = (   0.3750034   0.2164905   0.3915110  )
        11           Pb  tau(  11) = (   0.2500077   0.4329912   0.7830194  )
        12           Pb  tau(  12) = (   0.2500025   0.4329958   0.3915068  )
        13           Pb  tau(  13) = (   0.1250068   0.6494965   0.7830152  )
        14           Pb  tau(  14) = (   0.1250016   0.6495011   0.3915026  )
        15           Pb  tau(  15) = (   0.0000059   0.8660017   0.7830110  )
        16           Pb  tau(  16) = (   0.0000007   0.8660063   0.3914983  )
        17           Pb  tau(  17) = (   0.6250086   0.2164849   0.7830270  )
        18           Pb  tau(  18) = (   0.6250034   0.2164895   0.3915143  )
        19           Pb  tau(  19) = (   0.5000077   0.4329901   0.7830228  )
        20           Pb  tau(  20) = (   0.5000025   0.4329947   0.3915101  )
        21           Pb  tau(  21) = (   0.3750068   0.6494954   0.7830186  )
        22           Pb  tau(  22) = (   0.3750016   0.6495000   0.3915059  )
        23           Pb  tau(  23) = (   0.2500059   0.8660007   0.7830144  )
        24           Pb  tau(  24) = (   0.2500007   0.8660053   0.3915017  )
        25           Pb  tau(  25) = (   0.8750086   0.2164838   0.7830303  )
        26           Pb  tau(  26) = (   0.8750034   0.2164884   0.3915177  )
        27           Pb  tau(  27) = (   0.7500077   0.4329891   0.7830261  )
        28           Pb  tau(  28) = (   0.7500025   0.4329937   0.3915135  )
        29           Pb  tau(  29) = (   0.6250068   0.6494944   0.7830219  )
        30           Pb  tau(  30) = (   0.6250016   0.6494990   0.3915092  )
        31           Pb  tau(  31) = (   0.5000059   0.8659996   0.7830177  )
        32           Pb  tau(  32) = (   0.5000007   0.8660042   0.3915050  )
        33           I   tau(  33) = (   0.1250108   0.0721500   0.6824290  )
        34           I   tau(  34) = (   0.0000047   0.2886599   0.2909121  )
        35           I   tau(  35) = (   0.0000099   0.2886553   0.6824248  )
        36           I   tau(  36) = (  -0.1249962   0.5051652   0.2909079  )
        37           I   tau(  37) = (  -0.1249910   0.5051606   0.6824206  )
        38           I   tau(  38) = (  -0.2499972   0.7216704   0.2909037  )
        39           I   tau(  39) = (  -0.2499919   0.7216658   0.6824164  )
        40           I   tau(  40) = (   0.3750056   0.0721536   0.2909197  )
        41           I   tau(  41) = (   0.3750108   0.0721490   0.6824324  )
        42           I   tau(  42) = (   0.2500047   0.2886589   0.2909155  )
        43           I   tau(  43) = (   0.2500099   0.2886543   0.6824282  )
        44           I   tau(  44) = (   0.1250038   0.5051641   0.2909113  )
        45           I   tau(  45) = (   0.1250090   0.5051595   0.6824240  )
        46           I   tau(  46) = (   0.0000028   0.7216694   0.2909071  )
        47           I   tau(  47) = (   0.0000081   0.7216648   0.6824197  )
        48           I   tau(  48) = (   0.6250056   0.0721525   0.2909230  )
        49           I   tau(  49) = (   0.6250108   0.0721479   0.6824357  )
        50           I   tau(  50) = (   0.5000047   0.2886578   0.2909188  )
        51           I   tau(  51) = (   0.5000099   0.2886532   0.6824315  )
        52           I   tau(  52) = (   0.3750038   0.5051631   0.2909146  )
        53           I   tau(  53) = (   0.3750090   0.5051585   0.6824273  )
        54           I   tau(  54) = (   0.2500028   0.7216683   0.2909104  )
        55           I   tau(  55) = (   0.2500081   0.7216637   0.6824231  )
        56           I   tau(  56) = (   0.8750056   0.0721515   0.2909264  )
        57           I   tau(  57) = (   0.8750108   0.0721469   0.6824391  )
        58           I   tau(  58) = (   0.7500047   0.2886567   0.2909222  )
        59           I   tau(  59) = (   0.7500099   0.2886521   0.6824348  )
        60           I   tau(  60) = (   0.6250038   0.5051620   0.2909180  )
[...]
        82           I   tau(  82) = (   0.3749973   0.3608329   0.1005958  )
        83           I   tau(  83) = (   0.3750025   0.3608283   0.4921084  )
        84           I   tau(  84) = (   0.2499964   0.5773382   0.1005915  )
        85           I   tau(  85) = (   0.2500016   0.5773336   0.4921042  )
        86           I   tau(  86) = (   0.1249955   0.7938434   0.1005873  )
        87           I   tau(  87) = (   0.1250007   0.7938388   0.4921000  )
        88           I   tau(  88) = (   0.7499982   0.1443266   0.1006033  )
        89           I   tau(  89) = (   0.7500034   0.1443220   0.4921160  )
        90           I   tau(  90) = (   0.6249973   0.3608319   0.1005991  )
        91           I   tau(  91) = (   0.6250025   0.3608273   0.4921118  )
        92           I   tau(  92) = (   0.4999964   0.5773371   0.1005949  )
        93           I   tau(  93) = (   0.5000016   0.5773325   0.4921076  )
        94           I   tau(  94) = (   0.3749955   0.7938424   0.1005907  )
        95           I   tau(  95) = (   0.3750007   0.7938378   0.4921034  )
        96           Pb  tau(  96) = (   0.1250056   0.0721546   0.2909163  )

   Crystallographic axes

     site n.     atom                  positions (cryst. coord.)
         1           Pb  tau(   1) = (  0.2499975  0.2499776  0.9999935  )
         2           Pb  tau(   2) = (  0.2499949  0.2499829  0.4999935  )
         3           Pb  tau(   3) = (  0.2499959  0.4999764  0.9999882  )
         4           Pb  tau(   4) = (  0.2499933  0.4999817  0.4999882  )
         5           Pb  tau(   5) = (  0.2499944  0.7499751  0.9999828  )
         6           Pb  tau(   6) = (  0.2499918  0.7499804  0.4999828  )
         7           Pb  tau(   7) = (  0.2499928  0.9999739  0.9999774  )
         8           Pb  tau(   8) = (  0.2499903  0.9999792  0.4999774  )
         9           Pb  tau(   9) = (  0.4999968  0.2499764  0.9999978  )
[...]
     atom   26 type  1   force =     0.00000000    0.00000000    0.00000000
     atom   27 type  1   force =     0.00000000    0.00000000    0.00000000
     atom   28 type  1   force =     0.00000000    0.00000000    0.00000000
     atom   29 type  1   force =     0.00000000    0.00000000    0.00000000
     atom   30 type  1   force =     0.00000000    0.00000000    0.00000000
     atom   31 type  1   force =     0.00000000    0.00000000    0.00000000
     atom   32 type  1   force =     0.00000000    0.00000000    0.00000000
     atom   33 type  2   force =     0.00000000    0.00000000    0.00000000
     atom   34 type  2   force =     0.00000000    0.00000000    0.00000000
     atom   35 type  2   force =     0.00000000    0.00000000    0.00000000
     atom   36 type  2   force =     0.00000000    0.00000000    0.00000000
     atom   37 type  2   force =     0.00000000    0.00000000    0.00000000
     atom   38 type  2   force =     0.00000000    0.00000000    0.00000000
     atom   39 type  2   force =     0.00000000    0.00000000    0.00000000
     atom   40 type  2   force =     0.00000000    0.00000000    0.00000000
     atom   41 type  2   force =     0.00000000    0.00000000    0.00000000
     atom   42 type  2   force =     0.00000000    0.00000000    0.00000000
     atom   43 type  2   force =     0.00000000    0.00000000    0.00000000
     atom   44 type  2   force =     0.00000000    0.00000000    0.00000000
     atom   45 type  2   force =     0.00000000    0.00000000    0.00000000
     atom   46 type  2   force =     0.00000000    0.00000000    0.00000000
     atom   47 type  2   force =     0.00000000    0.00000000    0.00000000
     atom   48 type  2   force =     0.00000000    0.00000000    0.00000000
     atom   49 type  2   force =     0.00000000    0.00000000    0.00000000
     atom   50 type  2   force =     0.00000000    0.00000000    0.00000000
     atom   51 type  2   force =     0.00000000    0.00000000    0.00000000
     atom   52 type  2   force =     0.00000000    0.00000000    0.00000000
     atom   53 type  2   force =     0.00000000    0.00000000    0.00000000
     atom   54 type  2   force =     0.00000000    0.00000000    0.00000000
     atom   55 type  2   force =     0.00000000    0.00000000    0.00000000
     atom   56 type  2   force =     0.00000000    0.00000000    0.00000000
     atom   57 type  2   force =     0.00000000    0.00000000    0.00000000
     atom   58 type  2   force =     0.00000000    0.00000000    0.00000000
     atom   59 type  2   force =     0.00000000    0.00000000    0.00000000
     atom   60 type  2   force =     0.00000000    0.00000000    0.00000000
[...]
     atom   82 type  2   force =     0.00000000    0.00000000    0.00000000
     atom   83 type  2   force =     0.00000000    0.00000000    0.00000000
     atom   84 type  2   force =     0.00000000    0.00000000    0.00000000
     atom   85 type  2   force =     0.00000000    0.00000000    0.00000000
     atom   86 type  2   force =     0.00000000    0.00000000    0.00000000
     atom   87 type  2   force =     0.00000000    0.00000000    0.00000000
     atom   88 type  2   force =     0.00000000    0.00000000    0.00000000
     atom   89 type  2   force =     0.00000000    0.00000000    0.00000000
     atom   90 type  2   force =     0.00000000    0.00000000    0.00000000
     atom   91 type  2   force =     0.00000000    0.00000000    0.00000000
     atom   92 type  2   force =     0.00000000    0.00000000    0.00000000
     atom   93 type  2   force =     0.00000000    0.00000000    0.00000000
     atom   94 type  2   force =     0.00000000    0.00000000    0.00000000
     atom   95 type  2   force =     0.00000000    0.00000000    0.00000000
     atom   96 type  1   force =     0.00000000    0.00000000    0.00000000
     The SCF correction term to forces
     atom    1 type  1   force =    -0.00001966    0.00004510   -0.00006926
     atom    2 type  1   force =    -0.00007112    0.00007365    0.00005180
     atom    3 type  1   force =     0.00001707    0.00000472    0.00002773
     atom    4 type  1   force =     0.00002680   -0.00001014   -0.00004568
     atom    5 type  1   force =     0.00002711   -0.00002865    0.00003358
     atom    6 type  1   force =     0.00003934   -0.00005392   -0.00005768
     atom    7 type  1   force =    -0.00000134   -0.00000944   -0.00006304
     atom    8 type  1   force =    -0.00004811   -0.00000598    0.00005151
     atom    9 type  1   force =     0.00003652    0.00005247   -0.00000925
     atom   10 type  1   force =     0.00002773    0.00007111   -0.00000721
     atom   11 type  1   force =    -0.00000087    0.00003793    0.00002976
     atom   12 type  1   force =    -0.00001155    0.00003858   -0.00004316
     atom   13 type  1   force =     0.00003961   -0.00000454    0.00007649
     atom   14 type  1   force =     0.00005506   -0.00000615   -0.00008954
     atom   15 type  1   force =     0.00005319   -0.00001143    0.00003518
     atom   16 type  1   force =     0.00008610   -0.00001268   -0.00005690
     atom   17 type  1   force =     0.00002248    0.00003180    0.00001905
     atom   18 type  1   force =     0.00003648    0.00002772   -0.00002856
     atom   19 type  1   force =     0.00001521    0.00000235    0.00001929
     atom   20 type  1   force =     0.00001126    0.00001180   -0.00002627
     atom   21 type  1   force =    -0.00002201    0.00000922    0.00002665
     atom   22 type  1   force =    -0.00001453    0.00004548   -0.00003629
     atom   23 type  1   force =     0.00001903   -0.00002379    0.00002522
     atom   24 type  1   force =     0.00006202   -0.00002997   -0.00003808
     atom   25 type  1   force =    -0.00003870    0.00000230   -0.00002335
     atom   26 type  1   force =    -0.00000331   -0.00003440    0.00000501
     atom   27 type  1   force =    -0.00003147   -0.00003309    0.00001812
     atom   28 type  1   force =    -0.00002626   -0.00003949   -0.00002984
     atom   29 type  1   force =    -0.00004501   -0.00004798   -0.00001563
     atom   30 type  1   force =    -0.00007948   -0.00003001   -0.00000215
     atom   31 type  1   force =    -0.00006917   -0.00002750   -0.00007319
     atom   32 type  1   force =    -0.00014861   -0.00003743    0.00005253
     atom   33 type  2   force =    -0.00007130    0.00000723   -0.00005526
     atom   34 type  2   force =    -0.00002804    0.00004676    0.00006205
     atom   35 type  2   force =    -0.00001164   -0.00001269   -0.00002185
     atom   36 type  2   force =     0.00003366   -0.00002849   -0.00001865
     atom   37 type  2   force =    -0.00000791   -0.00004514    0.00003655
     atom   38 type  2   force =    -0.00000005   -0.00012482   -0.00000408
     atom   39 type  2   force =    -0.00004137   -0.00002505    0.00000551
     atom   40 type  2   force =     0.00012313    0.00003392   -0.00001677
     atom   41 type  2   force =     0.00001288    0.00002759    0.00001095
     atom   42 type  2   force =    -0.00001462    0.00011506    0.00003144
     atom   43 type  2   force =    -0.00001513    0.00003908   -0.00000829
     atom   44 type  2   force =     0.00002822    0.00004902   -0.00001237
     atom   45 type  2   force =     0.00002847   -0.00000870    0.00004163
     atom   46 type  2   force =     0.00011601   -0.00005442   -0.00003663
     atom   47 type  2   force =     0.00004912   -0.00001628    0.00005483
     atom   48 type  2   force =     0.00007089   -0.00002995   -0.00001448
     atom   49 type  2   force =     0.00005929    0.00001636    0.00003409
     atom   50 type  2   force =     0.00004411    0.00004949   -0.00000019
     atom   51 type  2   force =     0.00003801    0.00004461    0.00003703
     atom   52 type  2   force =    -0.00002819    0.00005179   -0.00000589
     atom   53 type  2   force =     0.00001115    0.00002224    0.00002902
     atom   54 type  2   force =     0.00001148   -0.00001320    0.00000334
     atom   55 type  2   force =     0.00005010    0.00000866    0.00003398
     atom   56 type  2   force =    -0.00003697   -0.00006851    0.00009360
     atom   57 type  2   force =    -0.00000176   -0.00002497   -0.00003429
     atom   58 type  2   force =    -0.00000823   -0.00001037    0.00001455
     atom   59 type  2   force =    -0.00001243   -0.00000650    0.00002922
     atom   60 type  2   force =    -0.00003418   -0.00003729    0.00000609
[...]
     atom   82 type  2   force =     0.00002689    0.00006868    0.00000260
     atom   83 type  2   force =     0.00000266    0.00003973   -0.00002812
     atom   84 type  2   force =    -0.00000798    0.00003363    0.00004650
     atom   85 type  2   force =     0.00002516    0.00002968   -0.00007865
     atom   86 type  2   force =     0.00006017   -0.00004305    0.00004857
     atom   87 type  2   force =     0.00009351   -0.00001692   -0.00007270
     atom   88 type  2   force =    -0.00001780   -0.00000894    0.00001039
     atom   89 type  2   force =     0.00006301   -0.00001811   -0.00004020
     atom   90 type  2   force =    -0.00000113    0.00000049   -0.00001588
     atom   91 type  2   force =     0.00000357    0.00000077   -0.00003460
     atom   92 type  2   force =    -0.00004869   -0.00002772    0.00000523
     atom   93 type  2   force =    -0.00003209    0.00003267   -0.00003715
     atom   94 type  2   force =    -0.00007344   -0.00004538    0.00001757
     atom   95 type  2   force =     0.00004635    0.00003092   -0.00008672
     atom   96 type  1   force =    -0.00011594    0.00001336    0.00007203

     Total force =     0.003973     Total SCF correction =     0.000778
     SCF correction compared to forces is large: reduce conv_thr to get better values

     Computing stress (Cartesian axis) and pressure

[...]

          total   stress  (Ry/bohr**3)                   (kbar)     P=        1.04
   0.00000540  -0.00000000   0.00000000            0.79       -0.00        0.00
  -0.00000000   0.00000540  -0.00000000           -0.00        0.79       -0.00
   0.00000000  -0.00000000   0.00001044            0.00       -0.00        1.54

     kinetic stress (kbar)  15069.25     -0.00      0.00
                               -0.00  15069.26      0.00
                                0.00      0.00  15081.61

     local   stress (kbar)  -7331.84      0.08     -0.08
                                0.08  -7331.67      0.05
                               -0.08      0.05   1367.46

     nonloc. stress (kbar)  -1181.51     -0.00      0.00
                               -0.00  -1181.51      0.00
                                0.00      0.00  -1185.50

     hartree stress (kbar)  11903.19     -0.03      0.03
                               -0.03  11903.13     -0.02
                                0.03     -0.02   7977.67

     exc-cor stress (kbar)   6912.51     -0.00      0.00
                               -0.00   6912.51     -0.00
                                0.00     -0.00   6911.63

     corecor stress (kbar) -11262.27      0.00     -0.00
                                0.00 -11262.27     -0.00
                               -0.00     -0.00 -11262.29

     ewald   stress (kbar) -14191.32     -0.05      0.05
                               -0.05 -14191.43     -0.04
                                0.05     -0.04 -18973.05

     hubbard stress (kbar)      0.00      0.00      0.00
                                0.00      0.00      0.00
                                0.00      0.00      0.00

     DFT-D   stress (kbar)      0.00      0.00      0.00
                                0.00      0.00      0.00
                                0.00      0.00      0.00

     XDM     stress (kbar)      0.00      0.00      0.00
                                0.00      0.00      0.00
                                0.00      0.00      0.00

     dft-nl  stress (kbar)     82.77      0.00     -0.00
                                0.00     82.77      0.00
                               -0.00      0.00     84.01

     TS-vdW  stress (kbar)      0.00      0.00      0.00
                                0.00      0.00      0.00
                                0.00      0.00      0.00

     MDB     stress (kbar)      0.00      0.00      0.00
                                0.00      0.00      0.00
                                0.00      0.00      0.00

     3D-RISM stress (kbar)      0.00      0.00      0.00
                                0.00      0.00      0.00
                                0.00      0.00      0.00

[...]

     Non-local corr. energy    =      45.71066867 Ry

 BEEFens 2000 ensemble energies
             -0.385111980279269E+02
             -0.387420142325689E+03
             -0.176295053868074E+03
              0.135361530272376E+03
             -0.296205260649109E+03
             -0.362599203016644E+03
              0.186153352823851E+03
              0.685019742854820E+00
              0.313592191457416E+03
             -0.198267872607544E+02
              0.160651277960059E+03
              0.163319913902335E+02
             -0.123563431788095E+02
             -0.100463897846500E+02
              0.200058916243962E+03
             -0.150840216367046E+03
             -0.295936181192912E+03
             -0.954870716986891E+02
              0.855021821484470E+02
             -0.190942339751700E+01
              0.436322913597478E+03
              0.364143996944380E+03
             -0.224297231676729E+03
              0.775275950735947E+02
             -0.467363360371223E+03
              0.383597758416889E+03
              0.131238728101688E+03
              0.346370811368358E+03
              0.233418384596514E+03
             -0.108388799214081E+03
              0.854727652973477E+02
             -0.152592742682941E+03
              0.637456281549611E+02
              0.232252946499656E+03
              0.250059712628140E+03
             -0.108530607499476E+03
              0.551305702726517E+03
             -0.221987843267920E+03
             -0.147693362646660E+03
              0.220482575989479E+03
              0.972298005503567E+02
              0.167680770031116E+03
             -0.323704333110471E+03
             -0.210477568199976E+02
              0.310555879189901E+03
              0.405919742709125E+03
             -0.412187298101319E+03
              0.263820211656619E+02
              0.142907654869272E+03
              0.922999799450704E+02
              0.161094331663400E+03
              0.353864963341562E+03
             -0.229911675626474E+03
             -0.223169691843067E+03
             -0.310704987429738E+03
             -0.450070009615954E+02
             -0.264991590608293E+03
              0.342121565335119E+02
             -0.382174936325296E+02
             -0.210326240616788E+03
[...]
              0.262624622797297E+03
              0.168142615060744E+03
              0.171467141386478E+03
             -0.317370858892285E+03
             -0.327720086677616E+03
             -0.739068378779679E+02
             -0.292927841692595E+03
              0.465117886981981E+03
              0.391718542705519E+03
              0.184781984056862E+03
              0.509317778508886E+03
             -0.254432066298429E+03
             -0.109683124899609E+03
             -0.158093894222043E+03
              0.440699654136094E+03

 BEEF-vdW xc energy contributions
            1 :    -3983.343141473908
            2 :     3649.814081571500
            3 :    -3081.181161842800
            4 :     2429.202070678691
            5 :    -1836.803879418361
            6 :     1391.841162813369
            7 :    -1112.635645009278
            8 :     961.3743279778364
            9 :    -872.7678781248469
           10 :     785.4540131555977
           11 :    -665.3195262405288
           12 :     512.7798930984777
           13 :    -352.9795390801610
           14 :     216.5567340209091
           15 :    -122.5161671767037
           16 :     71.10221130576701
           17 :    -47.35888503024944
           18 :     30.91929443518347
           19 :    -6.343286950866059
           20 :    -30.50692229690139
           21 :     72.43546323216560
           22 :    -106.7449572169126
           23 :     123.4884309017061
           24 :    -121.4136080409789
           25 :     108.4564627622931
           26 :    -97.04493195146006
           27 :     97.28758181781359
           28 :    -111.8004638055863
           29 :     134.6594244303915
           30 :    -154.7833135650171
           31 :    -343.5182130653830
           32 :    -247.2216872440595

     Writing all to output data dir ./PbI2.save/

     General routines

     Parallel routines

     PAW routines

   This run was terminated on:   8:13:12   3Mar2024

   JOB DONE.