     Program PWSCF v.7.2 starts on 19Feb2024 at 16:22:46

     Reading input from espresso.pwi
Warning: card &CELL ignored
Warning: card    CELL_DYNAMICS    = 'BFGS' ignored
Warning: card / ignored

     Current dimensions of program PWSCF are:
     Max number of different atomic species (ntypx) = 10
     Max number of k-points (npk) =  40000
     Max angular momentum in pseudopotentials (lmaxx) =  4
     file C.pbe-n-kjpaw_psl.1.0.0.UPF: wavefunction(s)  2S 2P renormalized

     IMPORTANT: XC functional enforced from input :
     Exchange-correlation= BEEF-VDW
                           (   1   4  43  14   2   0   0)
     Any further DFT definition will be discarded
     Please, verify this is what you really want

     K-points division:     npool     =       4
     R & G space division:  proc/nbgrp/npool/nimage =      32
     Subspace diagonalization in iterative solution of the eigenvalue problem:
     a serial algorithm will be used

     Using Slab Decomposition

     bravais-lattice index     =            1
     lattice parameter (alat)  =      13.5013  a.u.
     unit-cell volume          =    2461.1121 (a.u.)^3
     number of atoms/cell      =           63
     number of atomic types    =            1
     number of electrons       =       254.00
     number of Kohn-Sham states=          152
     kinetic-energy cutoff     =      70.0000  Ry
     charge density cutoff     =     350.0000  Ry
     scf convergence threshold =      1.0E-07
     mixing beta               =       0.7000
     number of iterations used =            8  plain     mixing
     Exchange-correlation= BEEF-VDW
                           (   1   4  43  14   2   0   0)

     celldm(1)=  13.501348  celldm(2)=   0.000000  celldm(3)=   0.000000
     celldm(4)=   0.000000  celldm(5)=   0.000000  celldm(6)=   0.000000

     crystal axes: (cart. coord. in units of alat)
               a(1) = (   1.000000   0.000000   0.000000 )
               a(2) = (   0.000000   1.000000   0.000000 )
               a(3) = (   0.000000   0.000000   1.000000 )

     reciprocal axes: (cart. coord. in units 2 pi/alat)
               b(1) = (  1.000000  0.000000  0.000000 )
               b(2) = (  0.000000  1.000000  0.000000 )
               b(3) = (  0.000000  0.000000  1.000000 )

     PseudoPot. # 1 for C  read from file:
     /trace/group/acmegroup/atimmins/packages/espresso/pseudo/psl_1.0.0/pslibrary.1.0.0/pbe/PSEUDOPOTENTIALS/C.pbe-n-kjpaw_psl.1.0.0.UPF
     MD5 check sum: 5459cf7f2c8c37df2f7cde8914797f4d
     Pseudo is Projector augmented-wave + core cor, Zval =  4.0
     Generated using 'atomic' code by A. Dal Corso  v.7.1
     Shape of augmentation charge: PSQ
     Using radial grid of 1073 points,  4 beta functions with:
                l(1) =   0
                l(2) =   0
                l(3) =   1
                l(4) =   1
     Q(r) pseudized with 0 coefficients

     atomic species   valence    mass     pseudopotential
        C              4.00    12.01100     C ( 1.00)

      6 Sym. Ops. (no inversion) found ( 4 have fractional translation)

                                    s                        frac. trans.

      isym =  1     identity

 cryst.   s( 1) = (     1          0          0      )
                  (     0          1          0      )
                  (     0          0          1      )

 cart.    s( 1) = (  1.0000000  0.0000000  0.0000000 )
                  (  0.0000000  1.0000000  0.0000000 )
                  (  0.0000000  0.0000000  1.0000000 )

      isym =  2     120 deg rotation - cart. axis [1,-1,1]

 cryst.   s( 2) = (     0          0          1      )    f =( -0.5000000 )
                  (    -1          0          0      )       ( -0.5000000 )
                  (     0         -1          0      )       (  0.0000000 )

 cart.    s( 2) = (  0.0000000 -1.0000000  0.0000000 )    f =( -0.5000000 )
                  (  0.0000000  0.0000000 -1.0000000 )       ( -0.5000000 )
                  (  1.0000000  0.0000000  0.0000000 )       (  0.0000000 )

      isym =  3     120 deg rotation - cart. axis [-1,1,-1]

[...]

      isym =  4     inv. 180 deg rotation - cart. axis [1,1,0]

[...]

 cryst.   s( 5) = (     0          0          1      )
                  (     0          1          0      )
                  (     1          0          0      )

 cart.    s( 5) = (  0.0000000  0.0000000  1.0000000 )
                  (  0.0000000  1.0000000  0.0000000 )
                  (  1.0000000  0.0000000  0.0000000 )

      isym =  6     inv. 180 deg rotation - cart. axis [0,1,1]

 cryst.   s( 6) = (     1          0          0      )    f =(  0.0000000 )
                  (     0          0         -1      )       ( -0.5000000 )
                  (     0         -1          0      )       ( -0.5000000 )

 cart.    s( 6) = (  1.0000000  0.0000000  0.0000000 )    f =(  0.0000000 )
                  (  0.0000000  0.0000000 -1.0000000 )       ( -0.5000000 )
                  (  0.0000000 -1.0000000  0.0000000 )       ( -0.5000000 )

     point group C_3v (3m)
     there are  3 classes
     the character table:

       E     2C3   3s_v
A_1    1.00  1.00  1.00
A_2    1.00  1.00 -1.00
E      2.00 -1.00  0.00

     the symmetry operations in each class and the name of the first element:

     E        1
          identity
     2C3      2    3
          120 deg rotation - cart. axis [1,-1,1]
     3s_v     4    5    6
          inv. 180 deg rotation - cart. axis [1,1,0]

   Cartesian axes

     site n.     atom                  positions (alat units)
         1           C   tau(   1) = (   0.1250031   0.3749969   0.6250031  )
         2           C   tau(   2) = (   0.1250031   0.8749969   0.1250031  )
         3           C   tau(   3) = (   0.1250031   0.8749969   0.6250031  )
         4           C   tau(   4) = (   0.6250031   0.3749969   0.1250031  )
         5           C   tau(   5) = (   0.6250031   0.3749969   0.6250031  )
         6           C   tau(   6) = (   0.6250031   0.8749969   0.1250031  )
         7           C   tau(   7) = (   0.6250031   0.8749969   0.6250031  )
         8           C   tau(   8) = (   0.0000000   0.0000000   0.2500000  )
         9           C   tau(   9) = (   0.0000000   0.0000000   0.7500000  )
        10           C   tau(  10) = (   0.0000000   0.5000000   0.2500000  )
        11           C   tau(  11) = (   0.0000000   0.5000000   0.7500000  )
        12           C   tau(  12) = (   0.5000000   0.0000000   0.2500000  )
        13           C   tau(  13) = (   0.5000000   0.0000000   0.7500000  )
        14           C   tau(  14) = (   0.5000000   0.5000000   0.2500000  )
        15           C   tau(  15) = (   0.5000000   0.5000000   0.7500000  )
        16           C   tau(  16) = (   0.1250031   0.1250031   0.3749969  )
        17           C   tau(  17) = (   0.1250031   0.1250031   0.8749969  )
        18           C   tau(  18) = (   0.1250031   0.6250031   0.3749969  )
        19           C   tau(  19) = (   0.1250031   0.6250031   0.8749969  )
        20           C   tau(  20) = (   0.6250031   0.1250031   0.3749969  )
        21           C   tau(  21) = (   0.6250031   0.1250031   0.8749969  )
        22           C   tau(  22) = (   0.6250031   0.6250031   0.3749969  )
        23           C   tau(  23) = (   0.6250031   0.6250031   0.8749969  )
        24           C   tau(  24) = (   0.0000000   0.2500000   0.0000000  )
        25           C   tau(  25) = (   0.0000000   0.2500000   0.5000000  )
        26           C   tau(  26) = (   0.0000000   0.7500000   0.0000000  )
        27           C   tau(  27) = (   0.0000000   0.7500000   0.5000000  )
        28           C   tau(  28) = (   0.5000000   0.2500000   0.0000000  )
        29           C   tau(  29) = (   0.5000000   0.2500000   0.5000000  )
        30           C   tau(  30) = (   0.5000000   0.7500000   0.0000000  )
        31           C   tau(  31) = (   0.5000000   0.7500000   0.5000000  )
        32           C   tau(  32) = (   0.3749969   0.3749969   0.3749969  )
        33           C   tau(  33) = (   0.3749969   0.3749969   0.8749969  )
        34           C   tau(  34) = (   0.3749969   0.8749969   0.3749969  )
        35           C   tau(  35) = (   0.3749969   0.8749969   0.8749969  )
        36           C   tau(  36) = (   0.8749969   0.3749969   0.3749969  )
        37           C   tau(  37) = (   0.8749969   0.3749969   0.8749969  )
        38           C   tau(  38) = (   0.8749969   0.8749969   0.3749969  )
        39           C   tau(  39) = (   0.8749969   0.8749969   0.8749969  )
        40           C   tau(  40) = (   0.2500000   0.0000000   0.0000000  )
        41           C   tau(  41) = (   0.2500000   0.0000000   0.5000000  )
        42           C   tau(  42) = (   0.2500000   0.5000000   0.0000000  )
        43           C   tau(  43) = (   0.2500000   0.5000000   0.5000000  )
        44           C   tau(  44) = (   0.7500000   0.0000000   0.0000000  )
        45           C   tau(  45) = (   0.7500000   0.0000000   0.5000000  )
        46           C   tau(  46) = (   0.7500000   0.5000000   0.0000000  )
        47           C   tau(  47) = (   0.7500000   0.5000000   0.5000000  )
        48           C   tau(  48) = (   0.3749969   0.1250031   0.1250031  )
        49           C   tau(  49) = (   0.3749969   0.1250031   0.6250031  )
        50           C   tau(  50) = (   0.3749969   0.6250031   0.1250031  )
        51           C   tau(  51) = (   0.3749969   0.6250031   0.6250031  )
        52           C   tau(  52) = (   0.8749969   0.1250031   0.1250031  )
        53           C   tau(  53) = (   0.8749969   0.1250031   0.6250031  )
        54           C   tau(  54) = (   0.8749969   0.6250031   0.1250031  )
        55           C   tau(  55) = (   0.8749969   0.6250031   0.6250031  )
        56           C   tau(  56) = (   0.2500000   0.2500000   0.2500000  )
        57           C   tau(  57) = (   0.2500000   0.2500000   0.7500000  )
        58           C   tau(  58) = (   0.2500000   0.7500000   0.2500000  )
        59           C   tau(  59) = (   0.2500000   0.7500000   0.7500000  )
        60           C   tau(  60) = (   0.7500000   0.2500000   0.2500000  )
        61           C   tau(  61) = (   0.7500000   0.2500000   0.7500000  )
        62           C   tau(  62) = (   0.7500000   0.7500000   0.2500000  )
        63           C   tau(  63) = (   0.7500000   0.7500000   0.7500000  )

   Crystallographic axes

     site n.     atom                  positions (cryst. coord.)
         1           C   tau(   1) = (  0.1250031  0.3749969  0.6250031  )
         2           C   tau(   2) = (  0.1250031  0.8749969  0.1250031  )
         3           C   tau(   3) = (  0.1250031  0.8749969  0.6250031  )
         4           C   tau(   4) = (  0.6250031  0.3749969  0.1250031  )
         5           C   tau(   5) = (  0.6250031  0.3749969  0.6250031  )
         6           C   tau(   6) = (  0.6250031  0.8749969  0.1250031  )
         7           C   tau(   7) = (  0.6250031  0.8749969  0.6250031  )
         8           C   tau(   8) = (  0.0000000  0.0000000  0.2500000  )
[...]
     atom    2 type  1   force =     0.00000000    0.00000000    0.00000000
     atom    3 type  1   force =     0.00000000    0.00000000    0.00000000
     atom    4 type  1   force =     0.00000000    0.00000000    0.00000000
     atom    5 type  1   force =     0.00000000    0.00000000    0.00000000
     atom    6 type  1   force =     0.00000000    0.00000000    0.00000000
     atom    7 type  1   force =     0.00000000    0.00000000    0.00000000
     atom    8 type  1   force =     0.00000000    0.00000000    0.00000000
     atom    9 type  1   force =     0.00000000    0.00000000    0.00000000
     atom   10 type  1   force =     0.00000000    0.00000000    0.00000000
     atom   11 type  1   force =     0.00000000    0.00000000    0.00000000
     atom   12 type  1   force =     0.00000000    0.00000000    0.00000000
     atom   13 type  1   force =     0.00000000    0.00000000    0.00000000
     atom   14 type  1   force =     0.00000000    0.00000000    0.00000000
     atom   15 type  1   force =     0.00000000    0.00000000    0.00000000
     atom   16 type  1   force =     0.00000000    0.00000000    0.00000000
     atom   17 type  1   force =     0.00000000    0.00000000    0.00000000
     atom   18 type  1   force =     0.00000000    0.00000000    0.00000000
     atom   19 type  1   force =     0.00000000    0.00000000    0.00000000
     atom   20 type  1   force =     0.00000000    0.00000000    0.00000000
     atom   21 type  1   force =     0.00000000    0.00000000    0.00000000
     atom   22 type  1   force =     0.00000000    0.00000000    0.00000000
     atom   23 type  1   force =     0.00000000    0.00000000    0.00000000
     atom   24 type  1   force =     0.00000000    0.00000000    0.00000000
     atom   25 type  1   force =     0.00000000    0.00000000    0.00000000
     atom   26 type  1   force =     0.00000000    0.00000000    0.00000000
     atom   27 type  1   force =     0.00000000    0.00000000    0.00000000
     atom   28 type  1   force =     0.00000000    0.00000000    0.00000000
     atom   29 type  1   force =     0.00000000    0.00000000    0.00000000
     atom   30 type  1   force =     0.00000000    0.00000000    0.00000000
     atom   31 type  1   force =     0.00000000    0.00000000    0.00000000
     atom   32 type  1   force =     0.00000000    0.00000000    0.00000000
     atom   33 type  1   force =     0.00000000    0.00000000    0.00000000
     atom   34 type  1   force =     0.00000000    0.00000000    0.00000000
     atom   35 type  1   force =     0.00000000    0.00000000    0.00000000
     atom   36 type  1   force =     0.00000000    0.00000000    0.00000000
     atom   37 type  1   force =     0.00000000    0.00000000    0.00000000
     atom   38 type  1   force =     0.00000000    0.00000000    0.00000000
     atom   39 type  1   force =     0.00000000    0.00000000    0.00000000
     atom   40 type  1   force =     0.00000000    0.00000000    0.00000000
     atom   41 type  1   force =     0.00000000    0.00000000    0.00000000
     atom   42 type  1   force =     0.00000000    0.00000000    0.00000000
     atom   43 type  1   force =     0.00000000    0.00000000    0.00000000
     atom   44 type  1   force =     0.00000000    0.00000000    0.00000000
     atom   45 type  1   force =     0.00000000    0.00000000    0.00000000
     atom   46 type  1   force =     0.00000000    0.00000000    0.00000000
     atom   47 type  1   force =     0.00000000    0.00000000    0.00000000
     atom   48 type  1   force =     0.00000000    0.00000000    0.00000000
     atom   49 type  1   force =     0.00000000    0.00000000    0.00000000
     atom   50 type  1   force =     0.00000000    0.00000000    0.00000000
     atom   51 type  1   force =     0.00000000    0.00000000    0.00000000
     atom   52 type  1   force =     0.00000000    0.00000000    0.00000000
     atom   53 type  1   force =     0.00000000    0.00000000    0.00000000
     atom   54 type  1   force =     0.00000000    0.00000000    0.00000000
     atom   55 type  1   force =     0.00000000    0.00000000    0.00000000
     atom   56 type  1   force =     0.00000000    0.00000000    0.00000000
     atom   57 type  1   force =     0.00000000    0.00000000    0.00000000
     atom   58 type  1   force =     0.00000000    0.00000000    0.00000000
     atom   59 type  1   force =     0.00000000    0.00000000    0.00000000
     atom   60 type  1   force =     0.00000000    0.00000000    0.00000000
     atom   61 type  1   force =     0.00000000    0.00000000    0.00000000
     atom   62 type  1   force =     0.00000000    0.00000000    0.00000000
     atom   63 type  1   force =     0.00000000    0.00000000    0.00000000
     The SCF correction term to forces
     atom    1 type  1   force =    -0.00004657    0.00004657    0.00003976
     atom    2 type  1   force =    -0.00004657   -0.00003976   -0.00004657
     atom    3 type  1   force =    -0.00005209   -0.00004838    0.00004838
     atom    4 type  1   force =     0.00003976    0.00004657   -0.00004657
     atom    5 type  1   force =     0.00004838    0.00005209    0.00004838
     atom    6 type  1   force =     0.00004838   -0.00004838   -0.00005209
     atom    7 type  1   force =     0.00005202   -0.00005202    0.00005202
     atom    8 type  1   force =    -0.00000838   -0.00002886   -0.00003977
     atom    9 type  1   force =    -0.00004456   -0.00004313    0.00003983
     atom   10 type  1   force =    -0.00002710    0.00002710   -0.00003660
     atom   11 type  1   force =    -0.00004368    0.00004368    0.00003640
     atom   12 type  1   force =     0.00000880   -0.00000880   -0.00001620
     atom   13 type  1   force =     0.00004348   -0.00004348    0.00001733
     atom   14 type  1   force =     0.00002886    0.00000838   -0.00003977
     atom   15 type  1   force =     0.00004313    0.00004456    0.00003983
     atom   16 type  1   force =    -0.00000057    0.00001785   -0.00001785
     atom   17 type  1   force =    -0.00005650    0.00000146    0.00000742
     atom   18 type  1   force =    -0.00005650   -0.00000742   -0.00000146
     atom   19 type  1   force =    -0.00006141    0.00000230   -0.00000230
     atom   20 type  1   force =     0.00000902    0.00000154   -0.00000154
     atom   21 type  1   force =     0.00005898   -0.00000404   -0.00000073
     atom   22 type  1   force =     0.00005898    0.00000073    0.00000404
     atom   23 type  1   force =     0.00006154    0.00000428   -0.00000428
     atom   24 type  1   force =    -0.00002710    0.00003660   -0.00002710
     atom   25 type  1   force =    -0.00000838    0.00003977    0.00002886
     atom   26 type  1   force =    -0.00004368   -0.00003640   -0.00004368
     atom   27 type  1   force =    -0.00004456   -0.00003983    0.00004313
     atom   28 type  1   force =     0.00002886    0.00003977   -0.00000838
     atom   29 type  1   force =     0.00000880    0.00001620    0.00000880
     atom   30 type  1   force =     0.00004313   -0.00003983   -0.00004456
     atom   31 type  1   force =     0.00004348   -0.00001733    0.00004348
     atom   32 type  1   force =    -0.00001785    0.00000057   -0.00001785
     atom   33 type  1   force =    -0.00000146    0.00005650    0.00000742
     atom   34 type  1   force =    -0.00000154   -0.00000902   -0.00000154
     atom   35 type  1   force =     0.00000404   -0.00005898   -0.00000073
     atom   36 type  1   force =     0.00000742    0.00005650   -0.00000146
     atom   37 type  1   force =    -0.00000230    0.00006141   -0.00000230
     atom   38 type  1   force =    -0.00000073   -0.00005898    0.00000404
     atom   39 type  1   force =    -0.00000428   -0.00006154   -0.00000428
     atom   40 type  1   force =    -0.00003977   -0.00002886   -0.00000838
     atom   41 type  1   force =    -0.00001620   -0.00000880    0.00000880
     atom   42 type  1   force =    -0.00003660    0.00002710   -0.00002710
     atom   43 type  1   force =    -0.00003977    0.00000838    0.00002886
     atom   44 type  1   force =     0.00003983   -0.00004313   -0.00004456
     atom   45 type  1   force =     0.00001733   -0.00004348    0.00004348
     atom   46 type  1   force =     0.00003640    0.00004368   -0.00004368
     atom   47 type  1   force =     0.00003983    0.00004456    0.00004313
     atom   48 type  1   force =    -0.00001785    0.00001785   -0.00000057
     atom   49 type  1   force =    -0.00000154    0.00000154    0.00000902
     atom   50 type  1   force =    -0.00000146   -0.00000742   -0.00005650
     atom   51 type  1   force =     0.00000404    0.00000073    0.00005898
     atom   52 type  1   force =     0.00000742    0.00000146   -0.00005650
     atom   53 type  1   force =    -0.00000073   -0.00000404    0.00005898
     atom   54 type  1   force =    -0.00000230    0.00000230   -0.00006141
     atom   55 type  1   force =    -0.00000428    0.00000428    0.00006154
     atom   56 type  1   force =    -0.00002115    0.00002115   -0.00002115
     atom   57 type  1   force =    -0.00003848    0.00003848    0.00001707
     atom   58 type  1   force =    -0.00003848   -0.00001707   -0.00003848
     atom   59 type  1   force =    -0.00003805   -0.00003965    0.00003965
     atom   60 type  1   force =     0.00001707    0.00003848   -0.00003848
     atom   61 type  1   force =     0.00003965    0.00003805    0.00003965
     atom   62 type  1   force =     0.00003965   -0.00003965   -0.00003805
     atom   63 type  1   force =     0.00003811   -0.00003811    0.00003811

     Total force =     0.002484     Total SCF correction =     0.000477
     SCF correction compared to forces is large: reduce conv_thr to get better values

     Computing stress (Cartesian axis) and pressure

[...]

          total   stress  (Ry/bohr**3)                   (kbar)     P=      163.82
   0.00111360  -0.00000010   0.00000010          163.82       -0.01        0.01
  -0.00000010   0.00111360  -0.00000010           -0.01      163.82       -0.01
   0.00000010  -0.00000010   0.00111360            0.01       -0.01      163.82

     kinetic stress (kbar)  18857.82      0.02     -0.02
                                0.02  18857.82      0.02
                               -0.02      0.02  18857.82

     local   stress (kbar)  -3775.72      0.12     -0.12
                                0.12  -3775.72      0.12
                               -0.12      0.12  -3775.72

     nonloc. stress (kbar)   4283.39      0.00     -0.00
                                0.00   4283.39      0.00
                               -0.00      0.00   4283.39

     hartree stress (kbar)   1373.90     -0.05      0.05
                               -0.05   1373.90     -0.05
                                0.05     -0.05   1373.90

     exc-cor stress (kbar)   -439.77      0.02     -0.02
                                0.02   -439.77      0.02
                               -0.02      0.02   -439.77

     corecor stress (kbar)  -4369.06     -0.02      0.02
                               -0.02  -4369.06     -0.02
                                0.02     -0.02  -4369.06

     ewald   stress (kbar) -15791.69     -0.11      0.11
                               -0.11 -15791.69     -0.11
                                0.11     -0.11 -15791.69

     hubbard stress (kbar)      0.00      0.00      0.00
                                0.00      0.00      0.00
                                0.00      0.00      0.00

     DFT-D   stress (kbar)      0.00      0.00      0.00
                                0.00      0.00      0.00
                                0.00      0.00      0.00

     XDM     stress (kbar)      0.00      0.00      0.00
                                0.00      0.00      0.00
                                0.00      0.00      0.00

     dft-nl  stress (kbar)     24.94      0.00     -0.00
                                0.00     24.94      0.00
                               -0.00      0.00     24.94

     TS-vdW  stress (kbar)      0.00      0.00      0.00
                                0.00      0.00      0.00
                                0.00      0.00      0.00

     MDB     stress (kbar)      0.00      0.00      0.00
                                0.00      0.00      0.00
                                0.00      0.00      0.00

     3D-RISM stress (kbar)      0.00      0.00      0.00
                                0.00      0.00      0.00
                                0.00      0.00      0.00

[...]

     Non-local corr. energy    =       2.16645201 Ry

 BEEFens 2000 ensemble energies
             -0.225336105602614E+02
             -0.150053791706515E+01
             -0.509891849479412E+01
              0.154744120643423E+02
             -0.680632218057827E+01
             -0.581660248605785E+01
             -0.156612269062740E+02
             -0.337644860979519E+02
             -0.125967917740378E+02
             -0.130884091351025E+02
             -0.134493535747621E+02
              0.186363819287435E+01
              0.198613015695515E+01
             -0.166288761356519E+01
              0.149065749603835E+01
              0.166090341463573E+02
             -0.671942221143102E+01
             -0.439146317462072E+01
              0.850526961125166E+01
             -0.384791705081021E+02
              0.201092187425718E+02
             -0.699046900742201E+01
             -0.205422534765098E+01
             -0.271756452429993E+01
             -0.262093985116394E-01
             -0.208498336026602E+01
              0.302422046331788E+02
             -0.806488796582882E+01
             -0.317500681519957E+01
             -0.201812648610071E+02
              0.245038321315316E+02
             -0.230810876727517E+01
             -0.146568734205258E+02
              0.703073460296621E+01
             -0.789809712050939E+00
              0.999961635275537E+01
              0.821792252931786E+00
              0.504962661075865E-01
              0.128623842459983E+02
             -0.350635540822502E+02
              0.185749596715689E+02
              0.449278431372653E+01
             -0.355376747192653E+01
             -0.113603000611276E+02
              0.402911903136223E+01
             -0.582947551976679E+01
              0.175609532910281E+02
              0.122047199385291E+02
             -0.676098787068062E+01
             -0.115996613791471E+02
             -0.112253442355764E+02
             -0.124916960778319E+02
              0.665523794092205E+01
             -0.186214254301190E+02
              0.541016050788585E+01
              0.214540089427999E+02
              0.262123137199214E+02
              0.106217890064566E+02
              0.560136799385400E+01
              0.109741161491322E+02
[...]
             -0.263298685122493E+02
              0.702073751554053E+00
              0.362861189889817E+00
             -0.393618096833859E+01
              0.174179307997149E+01
             -0.226041076737432E+02
             -0.383142573387735E+01
              0.402128738975974E+01
              0.429175680811397E+01
              0.176387147247169E+02
             -0.152965556396963E+02
              0.184962156805480E+02
             -0.136892440432981E+02
              0.913482130198607E+01
              0.151549621374383E+02

 BEEF-vdW xc energy contributions
            1 :    -259.4921451299778
            2 :     229.0981380089549
            3 :    -176.6268668059416
            4 :     115.5970969177107
            5 :    -59.86166392776374
            6 :     19.05875792550682
            7 :     3.805932729037579
            8 :    -11.90362196054423
            9 :     11.83635555189773
           10 :    -10.11897193987102
           11 :     10.54092703947066
           12 :    -13.40561799229806
           13 :     16.60585973440436
           14 :    -17.62504683179986
           15 :     15.26396931285001
           16 :    -10.25139732585865
           17 :     4.629083546101697
           18 :   -0.4743693962324187
           19 :    -1.211129566505235
           20 :    0.8445991755680780
           21 :    0.2405473664878173
           22 :   -0.7290880662804966
           23 :    8.9399400786646765E-002
           24 :     1.248497791351042
           25 :    -2.321073636203892
           26 :     2.326099088703018
           27 :    -1.131021776375519
           28 :   -0.6898944500658217
           29 :     2.256713664241090
           30 :    -2.929102380282359
           31 :    -33.96133154143280
           32 :    -24.67194188763932

     Writing all to output data dir ./diamond.save/

     General routines

     Parallel routines

     PAW routines

   This run was terminated on:  16:23: 0  19Feb2024

   JOB DONE.