     Program PWSCF v.7.2 starts on 30Sep2023 at  7:19:31

     Reading input from espresso.pwi
Warning: card &CELL ignored
Warning: card    CELL_DYNAMICS    = 'BFGS' ignored
Warning: card / ignored

     Current dimensions of program PWSCF are:
     Max number of different atomic species (ntypx) = 10
     Max number of k-points (npk) =  40000
     Max angular momentum in pseudopotentials (lmaxx) =  4
     file C.pbe-n-kjpaw_psl.1.0.0.UPF: wavefunction(s)  2S 2P renormalized

     IMPORTANT: XC functional enforced from input :
     Exchange-correlation= BEEF-VDW
                           (   1   4  43  14   2   0   0)
     Any further DFT definition will be discarded
     Please, verify this is what you really want

     K-points division:     npool     =       4
     R & G space division:  proc/nbgrp/npool/nimage =      32
     Subspace diagonalization in iterative solution of the eigenvalue problem:
     one sub-group per band group will be used

     Using Slab Decomposition

     bravais-lattice index     =            1
     lattice parameter (alat)  =      13.5013  a.u.
     unit-cell volume          =    2461.1121 (a.u.)^3
     number of atoms/cell      =           63
     number of atomic types    =            1
     number of electrons       =       254.00
     number of Kohn-Sham states=          152
     kinetic-energy cutoff     =      70.0000  Ry
     charge density cutoff     =     350.0000  Ry
     scf convergence threshold =      1.0E-08
     mixing beta               =       0.7000
     number of iterations used =            8  plain     mixing
     energy convergence thresh.=      1.0E-04
     force convergence thresh. =      1.0E-03
     Exchange-correlation= BEEF-VDW
                           (   1   4  43  14   2   0   0)
     nstep                     =           50

     celldm(1)=  13.501348  celldm(2)=   0.000000  celldm(3)=   0.000000
     celldm(4)=   0.000000  celldm(5)=   0.000000  celldm(6)=   0.000000

     crystal axes: (cart. coord. in units of alat)
               a(1) = (   1.000000   0.000000   0.000000 )
               a(2) = (   0.000000   1.000000   0.000000 )
               a(3) = (   0.000000   0.000000   1.000000 )

     reciprocal axes: (cart. coord. in units 2 pi/alat)
               b(1) = (  1.000000  0.000000  0.000000 )
               b(2) = (  0.000000  1.000000  0.000000 )
               b(3) = (  0.000000  0.000000  1.000000 )

     PseudoPot. # 1 for C  read from file:
     /trace/group/acmegroup/atimmins/packages/espresso/pseudo/psl_1.0.0/pslibrary.1.0.0/pbe/PSEUDOPOTENTIALS/C.pbe-n-kjpaw_psl.1.0.0.UPF
     MD5 check sum: 5459cf7f2c8c37df2f7cde8914797f4d
     Pseudo is Projector augmented-wave + core cor, Zval =  4.0
     Generated using 'atomic' code by A. Dal Corso  v.7.1
     Shape of augmentation charge: PSQ
     Using radial grid of 1073 points,  4 beta functions with:
                l(1) =   0
                l(2) =   0
                l(3) =   1
                l(4) =   1
     Q(r) pseudized with 0 coefficients

     atomic species   valence    mass     pseudopotential
        C              4.00    12.01100     C ( 1.00)

      6 Sym. Ops. (no inversion) found ( 4 have fractional translation)

                                    s                        frac. trans.

      isym =  1     identity

 cryst.   s( 1) = (     1          0          0      )
                  (     0          1          0      )
                  (     0          0          1      )

 cart.    s( 1) = (  1.0000000  0.0000000  0.0000000 )
                  (  0.0000000  1.0000000  0.0000000 )
                  (  0.0000000  0.0000000  1.0000000 )

      isym =  2     120 deg rotation - cart. axis [1,-1,1]

 cryst.   s( 2) = (     0          0          1      )    f =( -0.5000000 )
                  (    -1          0          0      )       ( -0.5000000 )
                  (     0         -1          0      )       (  0.0000000 )

 cart.    s( 2) = (  0.0000000 -1.0000000  0.0000000 )    f =( -0.5000000 )
                  (  0.0000000  0.0000000 -1.0000000 )       ( -0.5000000 )
                  (  1.0000000  0.0000000  0.0000000 )       (  0.0000000 )

      isym =  3     120 deg rotation - cart. axis [-1,1,-1]

[...]

      isym =  4     inv. 180 deg rotation - cart. axis [1,1,0]

[...]

 cryst.   s( 5) = (     0          0          1      )
                  (     0          1          0      )
                  (     1          0          0      )

 cart.    s( 5) = (  0.0000000  0.0000000  1.0000000 )
                  (  0.0000000  1.0000000  0.0000000 )
                  (  1.0000000  0.0000000  0.0000000 )

      isym =  6     inv. 180 deg rotation - cart. axis [0,1,1]

 cryst.   s( 6) = (     1          0          0      )    f =(  0.0000000 )
                  (     0          0         -1      )       ( -0.5000000 )
                  (     0         -1          0      )       ( -0.5000000 )

 cart.    s( 6) = (  1.0000000  0.0000000  0.0000000 )    f =(  0.0000000 )
                  (  0.0000000  0.0000000 -1.0000000 )       ( -0.5000000 )
                  (  0.0000000 -1.0000000  0.0000000 )       ( -0.5000000 )

     point group C_3v (3m)
     there are  3 classes
     the character table:

       E     2C3   3s_v
A_1    1.00  1.00  1.00
A_2    1.00  1.00 -1.00
E      2.00 -1.00  0.00

     the symmetry operations in each class and the name of the first element:

     E        1
          identity
     2C3      2    3
          120 deg rotation - cart. axis [1,-1,1]
     3s_v     4    5    6
          inv. 180 deg rotation - cart. axis [1,1,0]

   Cartesian axes

     site n.     atom                  positions (alat units)
         1           C   tau(   1) = (   0.1250031   0.3749969   0.6250031  )
         2           C   tau(   2) = (   0.1250031   0.8749969   0.1250031  )
         3           C   tau(   3) = (   0.1250031   0.8749969   0.6250031  )
         4           C   tau(   4) = (   0.6250031   0.3749969   0.1250031  )
         5           C   tau(   5) = (   0.6250031   0.3749969   0.6250031  )
         6           C   tau(   6) = (   0.6250031   0.8749969   0.1250031  )
         7           C   tau(   7) = (   0.6250031   0.8749969   0.6250031  )
         8           C   tau(   8) = (   0.0000000   0.0000000   0.2500000  )
         9           C   tau(   9) = (   0.0000000   0.0000000   0.7500000  )
        10           C   tau(  10) = (   0.0000000   0.5000000   0.2500000  )
        11           C   tau(  11) = (   0.0000000   0.5000000   0.7500000  )
        12           C   tau(  12) = (   0.5000000   0.0000000   0.2500000  )
        13           C   tau(  13) = (   0.5000000   0.0000000   0.7500000  )
        14           C   tau(  14) = (   0.5000000   0.5000000   0.2500000  )
        15           C   tau(  15) = (   0.5000000   0.5000000   0.7500000  )
        16           C   tau(  16) = (   0.1250031   0.1250031   0.3749969  )
        17           C   tau(  17) = (   0.1250031   0.1250031   0.8749969  )
        18           C   tau(  18) = (   0.1250031   0.6250031   0.3749969  )
        19           C   tau(  19) = (   0.1250031   0.6250031   0.8749969  )
        20           C   tau(  20) = (   0.6250031   0.1250031   0.3749969  )
        21           C   tau(  21) = (   0.6250031   0.1250031   0.8749969  )
        22           C   tau(  22) = (   0.6250031   0.6250031   0.3749969  )
        23           C   tau(  23) = (   0.6250031   0.6250031   0.8749969  )
        24           C   tau(  24) = (   0.0000000   0.2500000   0.0000000  )
        25           C   tau(  25) = (   0.0000000   0.2500000   0.5000000  )
        26           C   tau(  26) = (   0.0000000   0.7500000   0.0000000  )
        27           C   tau(  27) = (   0.0000000   0.7500000   0.5000000  )
        28           C   tau(  28) = (   0.5000000   0.2500000   0.0000000  )
        29           C   tau(  29) = (   0.5000000   0.2500000   0.5000000  )
        30           C   tau(  30) = (   0.5000000   0.7500000   0.0000000  )
        31           C   tau(  31) = (   0.5000000   0.7500000   0.5000000  )
        32           C   tau(  32) = (   0.3749969   0.3749969   0.3749969  )
        33           C   tau(  33) = (   0.3749969   0.3749969   0.8749969  )
        34           C   tau(  34) = (   0.3749969   0.8749969   0.3749969  )
        35           C   tau(  35) = (   0.3749969   0.8749969   0.8749969  )
        36           C   tau(  36) = (   0.8749969   0.3749969   0.3749969  )
        37           C   tau(  37) = (   0.8749969   0.3749969   0.8749969  )
        38           C   tau(  38) = (   0.8749969   0.8749969   0.3749969  )
        39           C   tau(  39) = (   0.8749969   0.8749969   0.8749969  )
        40           C   tau(  40) = (   0.2500000   0.0000000   0.0000000  )
        41           C   tau(  41) = (   0.2500000   0.0000000   0.5000000  )
        42           C   tau(  42) = (   0.2500000   0.5000000   0.0000000  )
        43           C   tau(  43) = (   0.2500000   0.5000000   0.5000000  )
        44           C   tau(  44) = (   0.7500000   0.0000000   0.0000000  )
        45           C   tau(  45) = (   0.7500000   0.0000000   0.5000000  )
        46           C   tau(  46) = (   0.7500000   0.5000000   0.0000000  )
        47           C   tau(  47) = (   0.7500000   0.5000000   0.5000000  )
        48           C   tau(  48) = (   0.3749969   0.1250031   0.1250031  )
        49           C   tau(  49) = (   0.3749969   0.1250031   0.6250031  )
        50           C   tau(  50) = (   0.3749969   0.6250031   0.1250031  )
        51           C   tau(  51) = (   0.3749969   0.6250031   0.6250031  )
        52           C   tau(  52) = (   0.8749969   0.1250031   0.1250031  )
        53           C   tau(  53) = (   0.8749969   0.1250031   0.6250031  )
        54           C   tau(  54) = (   0.8749969   0.6250031   0.1250031  )
        55           C   tau(  55) = (   0.8749969   0.6250031   0.6250031  )
        56           C   tau(  56) = (   0.2500000   0.2500000   0.2500000  )
        57           C   tau(  57) = (   0.2500000   0.2500000   0.7500000  )
        58           C   tau(  58) = (   0.2500000   0.7500000   0.2500000  )
        59           C   tau(  59) = (   0.2500000   0.7500000   0.7500000  )
        60           C   tau(  60) = (   0.7500000   0.2500000   0.2500000  )
        61           C   tau(  61) = (   0.7500000   0.2500000   0.7500000  )
        62           C   tau(  62) = (   0.7500000   0.7500000   0.2500000  )
        63           C   tau(  63) = (   0.7500000   0.7500000   0.7500000  )

   Crystallographic axes

     site n.     atom                  positions (cryst. coord.)
         1           C   tau(   1) = (  0.1250031  0.3749969  0.6250031  )
         2           C   tau(   2) = (  0.1250031  0.8749969  0.1250031  )
         3           C   tau(   3) = (  0.1250031  0.8749969  0.6250031  )
         4           C   tau(   4) = (  0.6250031  0.3749969  0.1250031  )
         5           C   tau(   5) = (  0.6250031  0.3749969  0.6250031  )
         6           C   tau(   6) = (  0.6250031  0.8749969  0.1250031  )
[...]
     atom    9 type  1   force =     0.00000000    0.00000000    0.00000000
     atom   10 type  1   force =     0.00000000    0.00000000    0.00000000
     atom   11 type  1   force =     0.00000000    0.00000000    0.00000000
     atom   12 type  1   force =     0.00000000    0.00000000    0.00000000
     atom   13 type  1   force =     0.00000000    0.00000000    0.00000000
     atom   14 type  1   force =     0.00000000    0.00000000    0.00000000
     atom   15 type  1   force =     0.00000000    0.00000000    0.00000000
     atom   16 type  1   force =     0.00000000    0.00000000    0.00000000
     atom   17 type  1   force =     0.00000000    0.00000000    0.00000000
     atom   18 type  1   force =     0.00000000    0.00000000    0.00000000
     atom   19 type  1   force =     0.00000000    0.00000000    0.00000000
     atom   20 type  1   force =     0.00000000    0.00000000    0.00000000
     atom   21 type  1   force =     0.00000000    0.00000000    0.00000000
     atom   22 type  1   force =     0.00000000    0.00000000    0.00000000
     atom   23 type  1   force =     0.00000000    0.00000000    0.00000000
     atom   24 type  1   force =     0.00000000    0.00000000    0.00000000
     atom   25 type  1   force =     0.00000000    0.00000000    0.00000000
     atom   26 type  1   force =     0.00000000    0.00000000    0.00000000
     atom   27 type  1   force =     0.00000000    0.00000000    0.00000000
     atom   28 type  1   force =     0.00000000    0.00000000    0.00000000
     atom   29 type  1   force =     0.00000000    0.00000000    0.00000000
     atom   30 type  1   force =     0.00000000    0.00000000    0.00000000
     atom   31 type  1   force =     0.00000000    0.00000000    0.00000000
     atom   32 type  1   force =     0.00000000    0.00000000    0.00000000
     atom   33 type  1   force =     0.00000000    0.00000000    0.00000000
     atom   34 type  1   force =     0.00000000    0.00000000    0.00000000
     atom   35 type  1   force =     0.00000000    0.00000000    0.00000000
     atom   36 type  1   force =     0.00000000    0.00000000    0.00000000
     atom   37 type  1   force =     0.00000000    0.00000000    0.00000000
     atom   38 type  1   force =     0.00000000    0.00000000    0.00000000
     atom   39 type  1   force =     0.00000000    0.00000000    0.00000000
     atom   40 type  1   force =     0.00000000    0.00000000    0.00000000
     atom   41 type  1   force =     0.00000000    0.00000000    0.00000000
     atom   42 type  1   force =     0.00000000    0.00000000    0.00000000
     atom   43 type  1   force =     0.00000000    0.00000000    0.00000000
     atom   44 type  1   force =     0.00000000    0.00000000    0.00000000
     atom   45 type  1   force =     0.00000000    0.00000000    0.00000000
     atom   46 type  1   force =     0.00000000    0.00000000    0.00000000
     atom   47 type  1   force =     0.00000000    0.00000000    0.00000000
     atom   48 type  1   force =     0.00000000    0.00000000    0.00000000
     atom   49 type  1   force =     0.00000000    0.00000000    0.00000000
     atom   50 type  1   force =     0.00000000    0.00000000    0.00000000
     atom   51 type  1   force =     0.00000000    0.00000000    0.00000000
     atom   52 type  1   force =     0.00000000    0.00000000    0.00000000
     atom   53 type  1   force =     0.00000000    0.00000000    0.00000000
     atom   54 type  1   force =     0.00000000    0.00000000    0.00000000
     atom   55 type  1   force =     0.00000000    0.00000000    0.00000000
     atom   56 type  1   force =     0.00000000    0.00000000    0.00000000
     atom   57 type  1   force =     0.00000000    0.00000000    0.00000000
     atom   58 type  1   force =     0.00000000    0.00000000    0.00000000
     atom   59 type  1   force =     0.00000000    0.00000000    0.00000000
     atom   60 type  1   force =     0.00000000    0.00000000    0.00000000
     atom   61 type  1   force =     0.00000000    0.00000000    0.00000000
     atom   62 type  1   force =     0.00000000    0.00000000    0.00000000
     atom   63 type  1   force =     0.00000000    0.00000000    0.00000000
     The SCF correction term to forces
     atom    1 type  1   force =    -0.00000219    0.00000219    0.00000249
     atom    2 type  1   force =    -0.00000219   -0.00000249   -0.00000219
     atom    3 type  1   force =    -0.00000215   -0.00000215    0.00000215
     atom    4 type  1   force =     0.00000249    0.00000219   -0.00000219
     atom    5 type  1   force =     0.00000215    0.00000215    0.00000215
     atom    6 type  1   force =     0.00000215   -0.00000215   -0.00000215
     atom    7 type  1   force =     0.00000212   -0.00000212    0.00000212
     atom    8 type  1   force =     0.00000006   -0.00000279   -0.00000228
     atom    9 type  1   force =    -0.00000238   -0.00000131    0.00000252
     atom   10 type  1   force =    -0.00000298    0.00000298   -0.00000140
     atom   11 type  1   force =    -0.00000150    0.00000150    0.00000159
     atom   12 type  1   force =    -0.00000021    0.00000021    0.00000023
     atom   13 type  1   force =     0.00000284   -0.00000284   -0.00000072
     atom   14 type  1   force =     0.00000279   -0.00000006   -0.00000228
     atom   15 type  1   force =     0.00000131    0.00000238    0.00000252
     atom   16 type  1   force =     0.00000161   -0.00000014    0.00000014
     atom   17 type  1   force =    -0.00000449    0.00000009   -0.00000024
     atom   18 type  1   force =    -0.00000449    0.00000024   -0.00000009
     atom   19 type  1   force =    -0.00000169   -0.00000010    0.00000010
     atom   20 type  1   force =    -0.00000107   -0.00000006    0.00000006
     atom   21 type  1   force =     0.00000384   -0.00000001   -0.00000004
     atom   22 type  1   force =     0.00000384    0.00000004    0.00000001
     atom   23 type  1   force =     0.00000234    0.00000002   -0.00000002
     atom   24 type  1   force =    -0.00000298    0.00000140   -0.00000298
     atom   25 type  1   force =     0.00000006    0.00000228    0.00000279
     atom   26 type  1   force =    -0.00000150   -0.00000159   -0.00000150
     atom   27 type  1   force =    -0.00000238   -0.00000252    0.00000131
     atom   28 type  1   force =     0.00000279    0.00000228    0.00000006
     atom   29 type  1   force =    -0.00000021   -0.00000023   -0.00000021
     atom   30 type  1   force =     0.00000131   -0.00000252   -0.00000238
     atom   31 type  1   force =     0.00000284    0.00000072    0.00000284
     atom   32 type  1   force =     0.00000014   -0.00000161    0.00000014
     atom   33 type  1   force =    -0.00000009    0.00000449   -0.00000024
     atom   34 type  1   force =     0.00000006    0.00000107    0.00000006
     atom   35 type  1   force =     0.00000001   -0.00000384   -0.00000004
     atom   36 type  1   force =    -0.00000024    0.00000449   -0.00000009
     atom   37 type  1   force =     0.00000010    0.00000169    0.00000010
     atom   38 type  1   force =    -0.00000004   -0.00000384    0.00000001
     atom   39 type  1   force =    -0.00000002   -0.00000234   -0.00000002
     atom   40 type  1   force =    -0.00000228   -0.00000279    0.00000006
     atom   41 type  1   force =     0.00000023    0.00000021   -0.00000021
     atom   42 type  1   force =    -0.00000140    0.00000298   -0.00000298
     atom   43 type  1   force =    -0.00000228   -0.00000006    0.00000279
     atom   44 type  1   force =     0.00000252   -0.00000131   -0.00000238
     atom   45 type  1   force =    -0.00000072   -0.00000284    0.00000284
     atom   46 type  1   force =     0.00000159    0.00000150   -0.00000150
     atom   47 type  1   force =     0.00000252    0.00000238    0.00000131
     atom   48 type  1   force =     0.00000014   -0.00000014    0.00000161
     atom   49 type  1   force =     0.00000006   -0.00000006   -0.00000107
     atom   50 type  1   force =    -0.00000009    0.00000024   -0.00000449
     atom   51 type  1   force =     0.00000001    0.00000004    0.00000384
     atom   52 type  1   force =    -0.00000024    0.00000009   -0.00000449
     atom   53 type  1   force =    -0.00000004   -0.00000001    0.00000384
     atom   54 type  1   force =     0.00000010   -0.00000010   -0.00000169
     atom   55 type  1   force =    -0.00000002    0.00000002    0.00000234
     atom   56 type  1   force =     0.00000072   -0.00000072    0.00000072
     atom   57 type  1   force =    -0.00000243    0.00000243   -0.00000054
     atom   58 type  1   force =    -0.00000243    0.00000054   -0.00000243
     atom   59 type  1   force =    -0.00000155   -0.00000271    0.00000271
     atom   60 type  1   force =    -0.00000054    0.00000243   -0.00000243
     atom   61 type  1   force =     0.00000271    0.00000155    0.00000271
     atom   62 type  1   force =     0.00000271   -0.00000271   -0.00000155
     atom   63 type  1   force =     0.00000105   -0.00000105    0.00000105

     Total force =     0.002485     Total SCF correction =     0.000027

     Computing stress (Cartesian axis) and pressure

     Non-local corr. energy    =       2.16645205 Ry

          total   stress  (Ry/bohr**3)                   (kbar)     P=      163.82
   0.00111360  -0.00000010   0.00000010          163.82       -0.01        0.01
  -0.00000010   0.00111360  -0.00000010           -0.01      163.82       -0.01
   0.00000010  -0.00000010   0.00111360            0.01       -0.01      163.82

     kinetic stress (kbar)  18857.82      0.02     -0.02
                                0.02  18857.82      0.02
                               -0.02      0.02  18857.82

     local   stress (kbar)  -3775.72      0.12     -0.12
                                0.12  -3775.72      0.12
                               -0.12      0.12  -3775.72

     nonloc. stress (kbar)   4283.39      0.00     -0.00
                                0.00   4283.39      0.00
                               -0.00      0.00   4283.39

     hartree stress (kbar)   1373.90     -0.05      0.05
                               -0.05   1373.90     -0.05
                                0.05     -0.05   1373.90

     exc-cor stress (kbar)   -439.77      0.02     -0.02
                                0.02   -439.77      0.02
                               -0.02      0.02   -439.77

     corecor stress (kbar)  -4369.06     -0.02      0.02
                               -0.02  -4369.06     -0.02
                                0.02     -0.02  -4369.06

     ewald   stress (kbar) -15791.69     -0.11      0.11
                               -0.11 -15791.69     -0.11
                                0.11     -0.11 -15791.69

     hubbard stress (kbar)      0.00      0.00      0.00
                                0.00      0.00      0.00
                                0.00      0.00      0.00

     DFT-D   stress (kbar)      0.00      0.00      0.00
                                0.00      0.00      0.00
                                0.00      0.00      0.00

     XDM     stress (kbar)      0.00      0.00      0.00
                                0.00      0.00      0.00
                                0.00      0.00      0.00

     dft-nl  stress (kbar)     24.94      0.00     -0.00
                                0.00     24.94      0.00
                               -0.00      0.00     24.94

     TS-vdW  stress (kbar)      0.00      0.00      0.00
                                0.00      0.00      0.00
                                0.00      0.00      0.00

     MDB     stress (kbar)      0.00      0.00      0.00
                                0.00      0.00      0.00
                                0.00      0.00      0.00

     3D-RISM stress (kbar)      0.00      0.00      0.00
                                0.00      0.00      0.00
                                0.00      0.00      0.00

     Energy error            =      2.8E-05 Ry
     Gradient error          =      4.0E-04 Ry/Bohr

     bfgs converged in   6 scf cycles and   5 bfgs steps
     (criteria: energy <  1.0E-04 Ry, force <  1.0E-03 Ry/Bohr)

     End of BFGS Geometry Optimization

     Final energy             =   -1193.9071941301 Ry

     File ./diamond.bfgs deleted, as requested
Begin final coordinates

ATOMIC_POSITIONS (angstrom)
C             0.8931044257        2.6791983927        4.4653950477
C             0.8931044257        6.2515134083        0.8931044257
C             0.8930347005        6.2515187630        4.4653896930
C             4.4653950477        2.6791983927        0.8931044257
C             4.4653896930        2.6792681179        4.4653896930
C             4.4653896930        6.2515187630        0.8930347005
C             4.4654046321        6.2515038239        4.4654046321
C             0.0053157337        0.0089554201        1.7809398847
C             0.0051952338       -0.0060299230        5.3524939691
C            -0.0593324050        3.6316352238        1.8455535678
C             0.0053159505        3.5669868683        5.3673294245
C             3.5783577418       -0.0060549230        1.7809104340
C             3.5691662750        0.0031365438        5.3615140386
C             3.5633473987        3.5669870851        1.7809398847
C             3.5783327418        3.5671075850        5.3524939691
C             0.9084952583        0.9063375662        2.6659652522
C             0.8776795420        0.9065384998        6.2649555844
C             0.8776795420        4.4519528716        2.6657643186
C             0.9085748106        4.4520283012        6.2648801548
C             4.4690652025        0.8971034704        2.6751993480
C             4.4617430030        0.8971690152        6.2554341696
C             4.4617430030        4.4614742864        2.6751338032
C             4.4691099820        4.4614101781        6.2554982779
C            -0.0593324050        1.7267492506       -0.0593324050
C             0.0053157337        1.7913629337        3.5633473987
C             0.0053159505        5.3495790315        0.0053159505
C             0.0051952338        5.3644144869        3.5783327418
C             3.5633473987        1.7913629337        0.0053157337
C             3.5783577418        1.7913923844        3.5783577418
C             3.5783327418        5.3644144869        0.0051952338
C             3.5691662750        5.3553944174        3.5691662750
C             2.6659652522        2.6638075601        2.6659652522
C             2.6657643186        2.6946232764        6.2649555844
C             2.6751993480        6.2478432535        2.6751993480
C             2.6751338032        6.2551654530        6.2554341696
C             6.2649555844        2.6946232764        2.6657643186
C             6.2648801548        2.6637280078        6.2648801548
C             6.2554341696        6.2551654530        2.6751338032
C             6.2554982779        6.2477984740        6.2554982779
C             1.7809398847        0.0089554201        0.0053157337
C             1.7809104340       -0.0060549230        3.5783577418
C             1.8455535678        3.6316352238       -0.0593324050
C             1.7809398847        3.5669870851        3.5633473987
C             5.3524939691       -0.0060299230        0.0051952338
C             5.3615140386        0.0031365438        3.5691662750
C             5.3673294245        3.5669868683        0.0053159505
C             5.3524939691        3.5671075850        3.5783327418
C             2.6659652522        0.9063375662        0.9084952583
C             2.6751993480        0.8971034704        4.4690652025
C             2.6657643186        4.4519528716        0.8776795420
C             2.6751338032        4.4614742864        4.4617430030
C             6.2649555844        0.9065384998        0.8776795420
C             6.2554341696        0.8971690152        4.4617430030
C             6.2648801548        4.4520283012        0.9085748106
C             6.2554982779        4.4614101781        4.4691099820
C             1.8456243765        1.7266784419        1.8456243765
C             1.7807327928        1.7915700256        5.3675566304
C             1.7807327928        5.3493518256        1.7807327928
C             1.7808014445        5.3645853734        5.3523230826
C             5.3675566304        1.7915700256        1.7807327928
C             5.3523230826        1.7915013739        5.3523230826
C             5.3523230826        5.3645853734        1.7808014445
C             5.3616186933        5.3552897627        5.3616186933
End final coordinates

     Writing all to output data dir ./diamond.save/

     General routines

     Parallel routines

     PAW routines

   This run was terminated on:   7:22: 6  30Sep2023

   JOB DONE.