     Program PWSCF v.7.1 starts on 12Feb2024 at  9:20:33

     Reading input from espresso.pwi
Warning: card &CELL ignored
Warning: card    CELL_DYNAMICS    = 'BFGS' ignored
Warning: card / ignored

     Current dimensions of program PWSCF are:
     Max number of different atomic species (ntypx) = 10
     Max number of k-points (npk) =  40000
     Max angular momentum in pseudopotentials (lmaxx) =  4
     file Ga.pbe-dn-kjpaw_psl.1.0.0.UPF: wavefunction(s)  4S renormalized
     file N.pbe-n-kjpaw_psl.1.0.0.UPF: wavefunction(s)  2S renormalized

     IMPORTANT: XC functional enforced from input :
     Exchange-correlation= BEEF-VDW
                           (   1   4  43  14   2   0   0)
     Any further DFT definition will be discarded
     Please, verify this is what you really want

     K-points division:     npool     =       4
     R & G space division:  proc/nbgrp/npool/nimage =      64
     Subspace diagonalization in iterative solution of the eigenvalue problem:
     a serial algorithm will be used

     Using Slab Decomposition

     bravais-lattice index     =            4
     lattice parameter (alat)  =      30.6565  a.u.
     unit-cell volume          =   24400.9461 (a.u.)^3
     number of atoms/cell      =          299
     number of atomic types    =            2
     number of electrons       =      2687.00
     number of Kohn-Sham states=         1613
     kinetic-energy cutoff     =      70.0000  Ry
     charge density cutoff     =     350.0000  Ry
     scf convergence threshold =      1.0E-07
     mixing beta               =       0.7000
     number of iterations used =            8  plain     mixing
     energy convergence thresh.=      1.0E-04
     force convergence thresh. =      1.0E-03
     Exchange-correlation= BEEF-VDW
                           (   1   4  43  14   2   0   0)
     nstep                     =           50

     celldm(1)=  30.656540  celldm(2)=   0.000000  celldm(3)=   0.977927
     celldm(4)=   0.000000  celldm(5)=   0.000000  celldm(6)=   0.000000

     crystal axes: (cart. coord. in units of alat)
               a(1) = (   1.000000   0.000000   0.000000 )
               a(2) = (  -0.500000   0.866025   0.000000 )
               a(3) = (   0.000000   0.000000   0.977927 )

     reciprocal axes: (cart. coord. in units 2 pi/alat)
               b(1) = (  1.000000  0.577350 -0.000000 )
               b(2) = (  0.000000  1.154701  0.000000 )
               b(3) = (  0.000000 -0.000000  1.022571 )

     PseudoPot. # 1 for Ga read from file:
     //group///packages/espresso/pseudo/psl_1.0.0/pslibrary.1.0.0/pbe/PSEUDOPOTENTIALS/Ga.pbe-dn-kjpaw_psl.1.0.0.UPF
     MD5 check sum: cd2a01e492f15b435d17032472d8505c
     Pseudo is Projector augmented-wave + core cor, Zval = 13.0
     Generated using 'atomic' code by A. Dal Corso  v.7.1
     Shape of augmentation charge: PSQ
     Using radial grid of 1205 points,  6 beta functions with:
                l(1) =   0
                l(2) =   0
                l(3) =   1
                l(4) =   1
                l(5) =   2
                l(6) =   2
     Q(r) pseudized with 0 coefficients

     PseudoPot. # 2 for N  read from file:
     //group///packages/espresso/pseudo/psl_1.0.0/pslibrary.1.0.0/pbe/PSEUDOPOTENTIALS/N.pbe-n-kjpaw_psl.1.0.0.UPF
     MD5 check sum: f77f775694dac7e2c3fe1c82443d1a16
     Pseudo is Projector augmented-wave + core cor, Zval =  5.0
     Generated using 'atomic' code by A. Dal Corso  v.7.1
     Shape of augmentation charge: PSQ
     Using radial grid of 1085 points,  4 beta functions with:
                l(1) =   0
                l(2) =   0
                l(3) =   1
                l(4) =   1
     Q(r) pseudized with 0 coefficients

     atomic species   valence    mass     pseudopotential
        Ga            13.00    69.72300     Ga( 1.00)
        N              5.00    14.00700     N ( 1.00)

      2 Sym. Ops. (no inversion) found

                                    s                        frac. trans.

      isym =  1     identity

 cryst.   s( 1) = (     1          0          0      )
                  (     0          1          0      )
                  (     0          0          1      )

 cart.    s( 1) = (  1.0000000  0.0000000  0.0000000 )
                  (  0.0000000  1.0000000  0.0000000 )
                  (  0.0000000  0.0000000  1.0000000 )

      isym =  2     inv. 180 deg rotation - cryst. axis [0,1,0]

 cryst.   s( 2) = (     1          1          0      )
                  (     0         -1          0      )
                  (     0          0          1      )

 cart.    s( 2) = (  0.5000000  0.8660254  0.0000000 )
                  (  0.8660254 -0.5000000  0.0000000 )
                  (  0.0000000  0.0000000  1.0000000 )

     point group C_s (m)
     there are  2 classes
     the character table:

       E     s
A'     1.00  1.00
A''    1.00 -1.00

     the symmetry operations in each class and the name of the first element:

     E        1
          identity
     s        2
          inv. 180 deg rotation - cryst. axis [0,1,0]

   Cartesian axes

     site n.     atom                  positions (alat units)
         1           Ga  tau(   1) = (   0.1000001   0.0577350   0.4886906  )
         2           Ga  tau(   2) = (   0.1000001   0.0577350   0.8146665  )
         3           Ga  tau(   3) = (   0.0000001   0.2309401   0.1627148  )
         4           Ga  tau(   4) = (   0.0000001   0.2309401   0.4886906  )
         5           Ga  tau(   5) = (   0.0000001   0.2309401   0.8146665  )
         6           Ga  tau(   6) = (  -0.0999999   0.4041451   0.1627148  )
         7           Ga  tau(   7) = (  -0.0999999   0.4041451   0.4886906  )
         8           Ga  tau(   8) = (  -0.0999999   0.4041451   0.8146665  )
         9           Ga  tau(   9) = (  -0.1999999   0.5773502   0.1627148  )
        10           Ga  tau(  10) = (  -0.1999999   0.5773502   0.4886906  )
        11           Ga  tau(  11) = (  -0.1999999   0.5773502   0.8146665  )
        12           Ga  tau(  12) = (  -0.2999999   0.7505553   0.1627148  )
        13           Ga  tau(  13) = (  -0.2999999   0.7505553   0.4886906  )
        14           Ga  tau(  14) = (  -0.2999999   0.7505553   0.8146665  )
        15           Ga  tau(  15) = (   0.3000001   0.0577350   0.1627148  )
        16           Ga  tau(  16) = (   0.3000001   0.0577350   0.4886906  )
        17           Ga  tau(  17) = (   0.3000001   0.0577350   0.8146665  )
        18           Ga  tau(  18) = (   0.2000001   0.2309401   0.1627148  )
        19           Ga  tau(  19) = (   0.2000001   0.2309401   0.4886906  )
        20           Ga  tau(  20) = (   0.2000001   0.2309401   0.8146665  )
        21           Ga  tau(  21) = (   0.1000001   0.4041451   0.1627148  )
        22           Ga  tau(  22) = (   0.1000001   0.4041451   0.4886906  )
        23           Ga  tau(  23) = (   0.1000001   0.4041451   0.8146665  )
        24           Ga  tau(  24) = (   0.0000001   0.5773502   0.1627148  )
        25           Ga  tau(  25) = (   0.0000001   0.5773502   0.4886906  )
        26           Ga  tau(  26) = (   0.0000001   0.5773502   0.8146665  )
        27           Ga  tau(  27) = (  -0.0999999   0.7505553   0.1627148  )
        28           Ga  tau(  28) = (  -0.0999999   0.7505553   0.4886906  )
        29           Ga  tau(  29) = (  -0.0999999   0.7505553   0.8146665  )
        30           Ga  tau(  30) = (   0.5000001   0.0577350   0.1627148  )
        31           Ga  tau(  31) = (   0.5000001   0.0577350   0.4886906  )
        32           Ga  tau(  32) = (   0.5000001   0.0577350   0.8146665  )
        33           Ga  tau(  33) = (   0.4000001   0.2309401   0.1627148  )
        34           Ga  tau(  34) = (   0.4000001   0.2309401   0.4886906  )
        35           Ga  tau(  35) = (   0.4000001   0.2309401   0.8146665  )
        36           Ga  tau(  36) = (   0.3000001   0.4041451   0.1627148  )
        37           Ga  tau(  37) = (   0.3000001   0.4041451   0.4886906  )
        38           Ga  tau(  38) = (   0.3000001   0.4041451   0.8146665  )
        39           Ga  tau(  39) = (   0.2000001   0.5773502   0.1627148  )
        40           Ga  tau(  40) = (   0.2000001   0.5773502   0.4886906  )
        41           Ga  tau(  41) = (   0.2000001   0.5773502   0.8146665  )
        42           Ga  tau(  42) = (   0.1000001   0.7505553   0.1627148  )
        43           Ga  tau(  43) = (   0.1000001   0.7505553   0.4886906  )
        44           Ga  tau(  44) = (   0.1000001   0.7505553   0.8146665  )
        45           Ga  tau(  45) = (   0.7000001   0.0577350   0.1627148  )
        46           Ga  tau(  46) = (   0.7000001   0.0577350   0.4886906  )
        47           Ga  tau(  47) = (   0.7000001   0.0577350   0.8146665  )
        48           Ga  tau(  48) = (   0.6000001   0.2309401   0.1627148  )
        49           Ga  tau(  49) = (   0.6000001   0.2309401   0.4886906  )
        50           Ga  tau(  50) = (   0.6000001   0.2309401   0.8146665  )
        51           Ga  tau(  51) = (   0.5000001   0.4041451   0.1627148  )
        52           Ga  tau(  52) = (   0.5000001   0.4041451   0.4886906  )
        53           Ga  tau(  53) = (   0.5000001   0.4041451   0.8146665  )
        54           Ga  tau(  54) = (   0.4000001   0.5773502   0.1627148  )
        55           Ga  tau(  55) = (   0.4000001   0.5773502   0.4886906  )
        56           Ga  tau(  56) = (   0.4000001   0.5773502   0.8146665  )
        57           Ga  tau(  57) = (   0.3000001   0.7505553   0.1627148  )
        58           Ga  tau(  58) = (   0.3000001   0.7505553   0.4886906  )
        59           Ga  tau(  59) = (   0.3000001   0.7505553   0.8146665  )
        60           Ga  tau(  60) = (   0.9000001   0.0577350   0.1627148  )
[...]
       285           N   tau( 285) = (   0.7999999   0.1154701   0.1225140  )
       286           N   tau( 286) = (   0.7999999   0.1154701   0.4484898  )
       287           N   tau( 287) = (   0.7999999   0.1154701   0.7744656  )
       288           N   tau( 288) = (   0.6999999   0.2886752   0.1225140  )
       289           N   tau( 289) = (   0.6999999   0.2886752   0.4484898  )
       290           N   tau( 290) = (   0.6999999   0.2886752   0.7744656  )
       291           N   tau( 291) = (   0.5999999   0.4618803   0.1225140  )
       292           N   tau( 292) = (   0.5999999   0.4618803   0.4484898  )
       293           N   tau( 293) = (   0.5999999   0.4618803   0.7744656  )
       294           N   tau( 294) = (   0.4999999   0.6350854   0.1225140  )
       295           N   tau( 295) = (   0.4999999   0.6350854   0.4484898  )
       296           N   tau( 296) = (   0.4999999   0.6350854   0.7744656  )
       297           N   tau( 297) = (   0.3999999   0.8082905   0.1225140  )
       298           N   tau( 298) = (   0.3999999   0.8082905   0.4484898  )
       299           N   tau( 299) = (   0.3999999   0.8082905   0.7744656  )

   Crystallographic axes

     site n.     atom                  positions (cryst. coord.)
         1           Ga  tau(   1) = (  0.1333334  0.0666666  0.4997208  )
[...]
     atom   44 type  1   force =     0.00000000    0.00000000    0.00000000
     atom   45 type  1   force =     0.00000000    0.00000000    0.00000000
     atom   46 type  1   force =     0.00000000    0.00000000    0.00000000
     atom   47 type  1   force =     0.00000000    0.00000000    0.00000000
     atom   48 type  1   force =     0.00000000    0.00000000    0.00000000
     atom   49 type  1   force =     0.00000000    0.00000000    0.00000000
     atom   50 type  1   force =     0.00000000    0.00000000    0.00000000
     atom   51 type  1   force =     0.00000000    0.00000000    0.00000000
     atom   52 type  1   force =     0.00000000    0.00000000    0.00000000
     atom   53 type  1   force =     0.00000000    0.00000000    0.00000000
     atom   54 type  1   force =     0.00000000    0.00000000    0.00000000
     atom   55 type  1   force =     0.00000000    0.00000000    0.00000000
     atom   56 type  1   force =     0.00000000    0.00000000    0.00000000
     atom   57 type  1   force =     0.00000000    0.00000000    0.00000000
     atom   58 type  1   force =     0.00000000    0.00000000    0.00000000
     atom   59 type  1   force =     0.00000000    0.00000000    0.00000000
     atom   60 type  1   force =     0.00000000    0.00000000    0.00000000
[...]
     atom  285 type  2   force =     0.00000000    0.00000000    0.00000000
     atom  286 type  2   force =     0.00000000    0.00000000    0.00000000
     atom  287 type  2   force =     0.00000000    0.00000000    0.00000000
     atom  288 type  2   force =     0.00000000    0.00000000    0.00000000
     atom  289 type  2   force =     0.00000000    0.00000000    0.00000000
     atom  290 type  2   force =     0.00000000    0.00000000    0.00000000
     atom  291 type  2   force =     0.00000000    0.00000000    0.00000000
     atom  292 type  2   force =     0.00000000    0.00000000    0.00000000
     atom  293 type  2   force =     0.00000000    0.00000000    0.00000000
     atom  294 type  2   force =     0.00000000    0.00000000    0.00000000
     atom  295 type  2   force =     0.00000000    0.00000000    0.00000000
     atom  296 type  2   force =     0.00000000    0.00000000    0.00000000
     atom  297 type  2   force =     0.00000000    0.00000000    0.00000000
     atom  298 type  2   force =     0.00000000    0.00000000    0.00000000
     atom  299 type  2   force =     0.00000000    0.00000000    0.00000000
     The SCF correction term to forces
     atom    1 type  1   force =     0.00000031    0.00000018   -0.00000080
     atom    2 type  1   force =     0.00000506    0.00000292   -0.00000391
     atom    3 type  1   force =     0.00001631    0.00000250    0.00000177
     atom    4 type  1   force =     0.00000441   -0.00000308   -0.00000235
     atom    5 type  1   force =     0.00000615   -0.00000190    0.00000258
     atom    6 type  1   force =     0.00000180   -0.00000026    0.00000046
     atom    7 type  1   force =     0.00000203   -0.00000139   -0.00000287
     atom    8 type  1   force =     0.00000191    0.00000027    0.00000014
     atom    9 type  1   force =     0.00000068    0.00000169    0.00000046
     atom   10 type  1   force =    -0.00000019    0.00000245   -0.00000287
     atom   11 type  1   force =     0.00000118    0.00000152    0.00000014
     atom   12 type  1   force =     0.00001032    0.00001288    0.00000177
     atom   13 type  1   force =    -0.00000046    0.00000536   -0.00000235
     atom   14 type  1   force =     0.00000143    0.00000627    0.00000258
     atom   15 type  1   force =    -0.00003207    0.00002597   -0.00001814
     atom   16 type  1   force =    -0.00000554   -0.00000215   -0.00000413
     atom   17 type  1   force =    -0.00000618    0.00000055    0.00000902
     atom   18 type  1   force =     0.00000646   -0.00004076   -0.00001814
     atom   19 type  1   force =    -0.00000463   -0.00000372   -0.00000413
     atom   20 type  1   force =    -0.00000261   -0.00000563    0.00000902
     atom   21 type  1   force =     0.00000107   -0.00000638    0.00000014
     atom   22 type  1   force =    -0.00000119   -0.00000377   -0.00000359
     atom   23 type  1   force =    -0.00000085   -0.00000433    0.00000125
     atom   24 type  1   force =    -0.00000209   -0.00000120    0.00000176
     atom   25 type  1   force =    -0.00000124   -0.00000072   -0.00000469
     atom   26 type  1   force =    -0.00000094   -0.00000054    0.00000310
     atom   27 type  1   force =    -0.00000499    0.00000412    0.00000014
     atom   28 type  1   force =    -0.00000386    0.00000086   -0.00000359
     atom   29 type  1   force =    -0.00000417    0.00000143    0.00000125
     atom   30 type  1   force =    -0.00001343    0.00000373   -0.00000044
     atom   31 type  1   force =    -0.00000422   -0.00000079   -0.00000330
     atom   32 type  1   force =    -0.00000539   -0.00000055    0.00000166
     atom   33 type  1   force =    -0.00001634   -0.00000944   -0.00000272
     atom   34 type  1   force =    -0.00000307   -0.00000177   -0.00000394
     atom   35 type  1   force =    -0.00000544   -0.00000314    0.00000329
     atom   36 type  1   force =    -0.00000349   -0.00001349   -0.00000044
     atom   37 type  1   force =    -0.00000279   -0.00000326   -0.00000330
     atom   38 type  1   force =    -0.00000317   -0.00000439    0.00000166
     atom   39 type  1   force =    -0.00000390   -0.00000349    0.00000268
     atom   40 type  1   force =    -0.00000197   -0.00000122   -0.00000395
     atom   41 type  1   force =    -0.00000386   -0.00000175    0.00000237
     atom   42 type  1   force =    -0.00000497   -0.00000163    0.00000268
     atom   43 type  1   force =    -0.00000204   -0.00000110   -0.00000395
     atom   44 type  1   force =    -0.00000344   -0.00000246    0.00000237
     atom   45 type  1   force =    -0.00000319    0.00000104    0.00000296
     atom   46 type  1   force =     0.00000216    0.00000044   -0.00000175
     atom   47 type  1   force =    -0.00000044    0.00000060   -0.00000173
     atom   48 type  1   force =    -0.00000441    0.00000099    0.00000277
     atom   49 type  1   force =    -0.00000003    0.00000049   -0.00000453
     atom   50 type  1   force =    -0.00000111    0.00000069    0.00000195
     atom   51 type  1   force =    -0.00000135   -0.00000431    0.00000277
     atom   52 type  1   force =     0.00000040   -0.00000027   -0.00000453
     atom   53 type  1   force =     0.00000004   -0.00000131    0.00000195
     atom   54 type  1   force =    -0.00000069   -0.00000328    0.00000296
     atom   55 type  1   force =     0.00000146    0.00000165   -0.00000175
     atom   56 type  1   force =     0.00000030   -0.00000069   -0.00000173
     atom   57 type  1   force =    -0.00000204   -0.00000118    0.00000291
     atom   58 type  1   force =     0.00000263    0.00000152   -0.00000136
     atom   59 type  1   force =     0.00000110    0.00000063   -0.00000236
     atom   60 type  1   force =     0.00000568   -0.00000153    0.00000515
[...]
     atom  285 type  2   force =     0.00000037    0.00000141    0.00000069
     atom  286 type  2   force =     0.00000115    0.00000053    0.00000013
     atom  287 type  2   force =     0.00000198    0.00000041   -0.00000089
     atom  288 type  2   force =    -0.00000001    0.00000149    0.00000152
     atom  289 type  2   force =     0.00000066    0.00000045   -0.00000172
     atom  290 type  2   force =     0.00000050    0.00000074    0.00000072
     atom  291 type  2   force =     0.00000128   -0.00000076    0.00000152
     atom  292 type  2   force =     0.00000072    0.00000035   -0.00000172
     atom  293 type  2   force =     0.00000089    0.00000006    0.00000072
     atom  294 type  2   force =     0.00000140   -0.00000038    0.00000069
     atom  295 type  2   force =     0.00000103    0.00000073    0.00000013
     atom  296 type  2   force =     0.00000134    0.00000151   -0.00000089
     atom  297 type  2   force =     0.00000217    0.00000125    0.00000055
     atom  298 type  2   force =     0.00000177    0.00000102    0.00000059
     atom  299 type  2   force =     0.00000245    0.00000141   -0.00000160

     Total force =     0.004532     Total SCF correction =     0.000121

     Computing stress (Cartesian axis) and pressure

     Non-local corr. energy    =      81.30792596 Ry

          total   stress  (Ry/bohr**3)                   (kbar)     P=        2.03
   0.00000935  -0.00000003   0.00000000            1.37       -0.00        0.00
  -0.00000003   0.00000938   0.00000000           -0.00        1.38        0.00
   0.00000000   0.00000000   0.00002260            0.00        0.00        3.32

     kinetic stress (kbar)  18373.52     -0.01      0.00
                               -0.01  18373.53      0.00
                                0.00      0.00  18371.70

     local   stress (kbar)   5097.95      0.77     -0.10
                                0.77   5096.89     -0.06
                               -0.10     -0.06   3432.10

     nonloc. stress (kbar)     61.58      0.01     -0.00
                                0.01     61.57     -0.00
                               -0.00     -0.00     71.54

     hartree stress (kbar)  19611.55     -0.31      0.03
                               -0.31  19611.91      0.02
                                0.03      0.02  20370.81

     exc-cor stress (kbar)   5177.24     -0.00      0.00
                               -0.00   5177.24      0.00
                                0.00      0.00   5177.61

     corecor stress (kbar) -14020.36      0.00     -0.00
                                0.00 -14020.36     -0.00
                               -0.00     -0.00 -14019.86

     ewald   stress (kbar) -34461.30     -0.45      0.07
                               -0.45 -34460.55      0.04
                                0.07      0.04 -33560.88

     hubbard stress (kbar)      0.00      0.00      0.00
                                0.00      0.00      0.00
                                0.00      0.00      0.00

     DFT-D   stress (kbar)      0.00      0.00      0.00
                                0.00      0.00      0.00
                                0.00      0.00      0.00

     XDM     stress (kbar)      0.00      0.00      0.00
                                0.00      0.00      0.00
                                0.00      0.00      0.00

     dft-nl  stress (kbar)    161.17      0.00     -0.00
                                0.00    161.17     -0.00
                               -0.00     -0.00    160.29

     TS-vdW  stress (kbar)      0.00      0.00      0.00
                                0.00      0.00      0.00
                                0.00      0.00      0.00

     MDB     stress (kbar)      0.00      0.00      0.00
                                0.00      0.00      0.00
                                0.00      0.00      0.00

     3D-RISM stress (kbar)      0.00      0.00      0.00
                                0.00      0.00      0.00
                                0.00      0.00      0.00

     Energy error            =      5.1E-05 Ry
     Gradient error          =      8.8E-04 Ry/Bohr

     bfgs converged in  12 scf cycles and  11 bfgs steps
     (criteria: energy <  1.0E-04 Ry, force <  1.0E-03 Ry/Bohr)

     End of BFGS Geometry Optimization

     Final energy             =  -46559.6905552902 Ry

     File ./GaN.bfgs deleted, as requested
Begin final coordinates

ATOMIC_POSITIONS (angstrom)
Ga            1.6219230125        0.9364162169        7.9000184037
Ga            1.6217443946        0.9363130918       13.2120301089
Ga            0.0161040417        3.7384688162        2.6504410659
Ga           -0.0017607451        3.7492828123        7.9251036783
Ga            0.0020273530        3.7452825433       13.2131968678
Ga           -1.6190621516        6.5624291233        2.6442504255
Ga           -1.6227979315        6.5562805993        7.9276727632
Ga           -1.6216919401        6.5547070305       13.2176507863
Ga           -3.2376705134        9.3659410437        2.6442504255
Ga           -3.2448631814        9.3657800253        7.9276727632
Ga           -3.2456729362        9.3675246264       13.2176507863
Ga           -4.8657087819       12.1940166600        2.6504410659
Ga           -4.8652759800       12.1731383027        7.9251036783
Ga           -4.8668462655       12.1784190264       13.2131968678
Ga            4.8507829993        0.9249809520        2.6501793601
Ga            4.8705273043        0.9365618766        7.9248031005
Ga            4.8648339369        0.9349567502       13.2130533521
Ga            3.2264497760        3.7384086233        2.6501793601
Ga            3.2463513033        3.7497172307        7.9248031005
Ga            3.2421145394        3.7455891931       13.2130533521
Ga            1.6224978716        6.5581564834        2.6417090322
Ga            1.6225517992        6.5569974901        7.9284492525
Ga            1.6224954011        6.5552015868       13.2158280774
Ga            0.0017154294        9.3671934429        2.6404609874
Ga            0.0002163505        9.3663279492        7.9283534430
Ga           -0.0002425337        9.3660630124       13.2158433649
Ga           -1.6205907166       12.1753506917        2.6417090322
Ga           -1.6215674705       12.1759768910        7.9284492525
Ga           -1.6231509674       12.1768260005       13.2158280774
Ga            8.1150542887        0.9303468779        2.6441168468
Ga            8.1117008100        0.9367922249        7.9275256757
Ga            8.1098549253        0.9366618081       13.2174969924
Ga            6.4830166234        3.7429699219        2.6382380414
Ga            6.4892817423        3.7465870899        7.9266867858
Ga            6.4874724805        3.7455425122       13.2185114093
Ga            4.8632324489        6.5626675220        2.6441168468
Ga            4.8671375438        6.5565406507        7.9275256757
Ga            4.8661016571        6.5550072761       13.2174969924
Ga            3.2432352316        9.3669909436        2.6406142270
Ga            3.2447528158        9.3662662092        7.9285144711
Ga            3.2451855485        9.3660057431       13.2159769334
Ga            1.6222999610       12.1745331882        2.6406142270
Ga            1.6224311147       12.1762098219        7.9285144711
Ga            1.6224219109       12.1767148125       13.2159769334
Ga           11.3514437819        0.9298067347        2.6442712497
Ga           11.3553534176        0.9364668970        7.9276091998
Ga           11.3573175199        0.9362818558       13.2173900143
Ga            9.7333122578        3.7459028186        2.6403054277
Ga            9.7333275203        3.7468940089        7.9276834486
Ga            9.7333188852        3.7464310913       13.2163307387
Ga            8.1107044036        6.5563420628        2.6403054277
Ga            8.1115704308        6.5558596853        7.9276834486
Ga            8.1111652149        6.5560836659       13.2163307387
Ga            6.4809594177        9.3657331112        2.6442712497
Ga            6.4886821053        9.3657888739        7.9276091998
Ga            6.4895039061        9.3675823570       13.2173900143
Ga            4.8644840899       12.1747142381        2.6419178173
Ga            4.8660369235       12.1756107670        7.9286902951
Ga            4.8676407126       12.1765367151       13.2159193069
Ga           14.6154643256        0.9255252255        2.6501217438
[...]
N            12.9637009508        1.8699604543        1.9895606167
N            12.9751185460        1.8737772231        7.2745510703
N            12.9790107373        1.8732439109       12.5629030336
N            11.3573614073        4.6823052412        1.9878188659
N            11.3558709244        4.6832086340        7.2748401902
N            11.3569098694        4.6826072673       12.5643621329
N             9.7336736708        7.4946148967        1.9878188659
N             9.7337107904        7.4928724043        7.2748401902
N             9.7337094641        7.4940728404       12.5643621329
N             8.1012814129       10.2919181419        1.9895606167
N             8.1102956293       10.2998976849        7.2745510703
N             8.1117798630       10.3035350776       12.5629030336
N             6.4801298815       13.1075119207        1.9872997126
N             6.4875637608       13.1118038729        7.2783757856
N             6.4887420745       13.1124841726       12.5585989097
End final coordinates

     Writing all to output data dir ./GaN.save/

     General routines

     Parallel routines

     PAW routines

   This run was terminated on:  10:16:18  13Feb2024

   JOB DONE.