     Program PWSCF v.7.1 starts on  7Feb2024 at 20: 8:31

     Reading input from espresso.pwi
Warning: card &CELL ignored
Warning: card    CELL_DYNAMICS    = 'BFGS' ignored
Warning: card / ignored

     Current dimensions of program PWSCF are:
     Max number of different atomic species (ntypx) = 10
     Max number of k-points (npk) =  40000
     Max angular momentum in pseudopotentials (lmaxx) =  4
     file Ga.pbe-dn-kjpaw_psl.1.0.0.UPF: wavefunction(s)  4S renormalized
     file N.pbe-n-kjpaw_psl.1.0.0.UPF: wavefunction(s)  2S renormalized

     IMPORTANT: XC functional enforced from input :
     Exchange-correlation= BEEF-VDW
                           (   1   4  43  14   2   0   0)
     Any further DFT definition will be discarded
     Please, verify this is what you really want

     K-points division:     npool     =       4
     R & G space division:  proc/nbgrp/npool/nimage =      64
     Subspace diagonalization in iterative solution of the eigenvalue problem:
     a serial algorithm will be used

     Using Slab Decomposition

     bravais-lattice index     =            4
     lattice parameter (alat)  =      30.6565  a.u.
     unit-cell volume          =   24400.9461 (a.u.)^3
     number of atoms/cell      =          299
     number of atomic types    =            2
     number of electrons       =      2687.00
     number of Kohn-Sham states=         1613
     kinetic-energy cutoff     =      70.0000  Ry
     charge density cutoff     =     350.0000  Ry
     scf convergence threshold =      1.0E-09
     mixing beta               =       0.7000
     number of iterations used =            8  plain     mixing
     energy convergence thresh.=      1.0E-04
     force convergence thresh. =      1.0E-03
     Exchange-correlation= BEEF-VDW
                           (   1   4  43  14   2   0   0)
     nstep                     =           50

     celldm(1)=  30.656540  celldm(2)=   0.000000  celldm(3)=   0.977927
     celldm(4)=   0.000000  celldm(5)=   0.000000  celldm(6)=   0.000000

     crystal axes: (cart. coord. in units of alat)
               a(1) = (   1.000000   0.000000   0.000000 )
               a(2) = (  -0.500000   0.866025   0.000000 )
               a(3) = (   0.000000   0.000000   0.977927 )

     reciprocal axes: (cart. coord. in units 2 pi/alat)
               b(1) = (  1.000000  0.577350 -0.000000 )
               b(2) = (  0.000000  1.154701  0.000000 )
               b(3) = (  0.000000 -0.000000  1.022571 )

     PseudoPot. # 1 for Ga read from file:
     /trace/group/acmegroup/atimmins/packages/espresso/pseudo/psl_1.0.0/pslibrary.1.0.0/pbe/PSEUDOPOTENTIALS/Ga.pbe-dn-kjpaw_psl.1.0.0.UPF
     MD5 check sum: cd2a01e492f15b435d17032472d8505c
     Pseudo is Projector augmented-wave + core cor, Zval = 13.0
     Generated using 'atomic' code by A. Dal Corso  v.7.1
     Shape of augmentation charge: PSQ
     Using radial grid of 1205 points,  6 beta functions with:
                l(1) =   0
                l(2) =   0
                l(3) =   1
                l(4) =   1
                l(5) =   2
                l(6) =   2
     Q(r) pseudized with 0 coefficients

     PseudoPot. # 2 for N  read from file:
     /trace/group/acmegroup/atimmins/packages/espresso/pseudo/psl_1.0.0/pslibrary.1.0.0/pbe/PSEUDOPOTENTIALS/N.pbe-n-kjpaw_psl.1.0.0.UPF
     MD5 check sum: f77f775694dac7e2c3fe1c82443d1a16
     Pseudo is Projector augmented-wave + core cor, Zval =  5.0
     Generated using 'atomic' code by A. Dal Corso  v.7.1
     Shape of augmentation charge: PSQ
     Using radial grid of 1085 points,  4 beta functions with:
                l(1) =   0
                l(2) =   0
                l(3) =   1
                l(4) =   1
     Q(r) pseudized with 0 coefficients

     atomic species   valence    mass     pseudopotential
        Ga            13.00    69.72300     Ga( 1.00)
        N              5.00    14.00700     N ( 1.00)

      2 Sym. Ops. (no inversion) found

                                    s                        frac. trans.

      isym =  1     identity

 cryst.   s( 1) = (     1          0          0      )
                  (     0          1          0      )
                  (     0          0          1      )

 cart.    s( 1) = (  1.0000000  0.0000000  0.0000000 )
                  (  0.0000000  1.0000000  0.0000000 )
                  (  0.0000000  0.0000000  1.0000000 )

      isym =  2     inv. 180 deg rotation - cryst. axis [0,1,0]

 cryst.   s( 2) = (     1          1          0      )
                  (     0         -1          0      )
                  (     0          0          1      )

 cart.    s( 2) = (  0.5000000  0.8660254  0.0000000 )
                  (  0.8660254 -0.5000000  0.0000000 )
                  (  0.0000000  0.0000000  1.0000000 )

     point group C_s (m)
     there are  2 classes
     the character table:

       E     s
A'     1.00  1.00
A''    1.00 -1.00

     the symmetry operations in each class and the name of the first element:

     E        1
          identity
     s        2
          inv. 180 deg rotation - cryst. axis [0,1,0]

   Cartesian axes

     site n.     atom                  positions (alat units)
         1           Ga  tau(   1) = (   0.1000001   0.0577350   0.4886906  )
         2           Ga  tau(   2) = (   0.1000001   0.0577350   0.8146665  )
         3           Ga  tau(   3) = (   0.0000001   0.2309401   0.1627148  )
         4           Ga  tau(   4) = (   0.0000001   0.2309401   0.4886906  )
         5           Ga  tau(   5) = (   0.0000001   0.2309401   0.8146665  )
         6           Ga  tau(   6) = (  -0.0999999   0.4041451   0.1627148  )
         7           Ga  tau(   7) = (  -0.0999999   0.4041451   0.4886906  )
         8           Ga  tau(   8) = (  -0.0999999   0.4041451   0.8146665  )
         9           Ga  tau(   9) = (  -0.1999999   0.5773502   0.1627148  )
        10           Ga  tau(  10) = (  -0.1999999   0.5773502   0.4886906  )
        11           Ga  tau(  11) = (  -0.1999999   0.5773502   0.8146665  )
        12           Ga  tau(  12) = (  -0.2999999   0.7505553   0.1627148  )
        13           Ga  tau(  13) = (  -0.2999999   0.7505553   0.4886906  )
        14           Ga  tau(  14) = (  -0.2999999   0.7505553   0.8146665  )
        15           Ga  tau(  15) = (   0.3000001   0.0577350   0.1627148  )
        16           Ga  tau(  16) = (   0.3000001   0.0577350   0.4886906  )
        17           Ga  tau(  17) = (   0.3000001   0.0577350   0.8146665  )
        18           Ga  tau(  18) = (   0.2000001   0.2309401   0.1627148  )
        19           Ga  tau(  19) = (   0.2000001   0.2309401   0.4886906  )
        20           Ga  tau(  20) = (   0.2000001   0.2309401   0.8146665  )
        21           Ga  tau(  21) = (   0.1000001   0.4041451   0.1627148  )
        22           Ga  tau(  22) = (   0.1000001   0.4041451   0.4886906  )
        23           Ga  tau(  23) = (   0.1000001   0.4041451   0.8146665  )
        24           Ga  tau(  24) = (   0.0000001   0.5773502   0.1627148  )
        25           Ga  tau(  25) = (   0.0000001   0.5773502   0.4886906  )
        26           Ga  tau(  26) = (   0.0000001   0.5773502   0.8146665  )
        27           Ga  tau(  27) = (  -0.0999999   0.7505553   0.1627148  )
        28           Ga  tau(  28) = (  -0.0999999   0.7505553   0.4886906  )
        29           Ga  tau(  29) = (  -0.0999999   0.7505553   0.8146665  )
        30           Ga  tau(  30) = (   0.5000001   0.0577350   0.1627148  )
        31           Ga  tau(  31) = (   0.5000001   0.0577350   0.4886906  )
        32           Ga  tau(  32) = (   0.5000001   0.0577350   0.8146665  )
        33           Ga  tau(  33) = (   0.4000001   0.2309401   0.1627148  )
        34           Ga  tau(  34) = (   0.4000001   0.2309401   0.4886906  )
        35           Ga  tau(  35) = (   0.4000001   0.2309401   0.8146665  )
        36           Ga  tau(  36) = (   0.3000001   0.4041451   0.1627148  )
        37           Ga  tau(  37) = (   0.3000001   0.4041451   0.4886906  )
        38           Ga  tau(  38) = (   0.3000001   0.4041451   0.8146665  )
        39           Ga  tau(  39) = (   0.2000001   0.5773502   0.1627148  )
        40           Ga  tau(  40) = (   0.2000001   0.5773502   0.4886906  )
        41           Ga  tau(  41) = (   0.2000001   0.5773502   0.8146665  )
        42           Ga  tau(  42) = (   0.1000001   0.7505553   0.1627148  )
        43           Ga  tau(  43) = (   0.1000001   0.7505553   0.4886906  )
        44           Ga  tau(  44) = (   0.1000001   0.7505553   0.8146665  )
        45           Ga  tau(  45) = (   0.7000001   0.0577350   0.1627148  )
        46           Ga  tau(  46) = (   0.7000001   0.0577350   0.4886906  )
        47           Ga  tau(  47) = (   0.7000001   0.0577350   0.8146665  )
        48           Ga  tau(  48) = (   0.6000001   0.2309401   0.1627148  )
        49           Ga  tau(  49) = (   0.6000001   0.2309401   0.4886906  )
        50           Ga  tau(  50) = (   0.6000001   0.2309401   0.8146665  )
        51           Ga  tau(  51) = (   0.5000001   0.4041451   0.1627148  )
        52           Ga  tau(  52) = (   0.5000001   0.4041451   0.4886906  )
        53           Ga  tau(  53) = (   0.5000001   0.4041451   0.8146665  )
        54           Ga  tau(  54) = (   0.4000001   0.5773502   0.1627148  )
        55           Ga  tau(  55) = (   0.4000001   0.5773502   0.4886906  )
        56           Ga  tau(  56) = (   0.4000001   0.5773502   0.8146665  )
        57           Ga  tau(  57) = (   0.3000001   0.7505553   0.1627148  )
        58           Ga  tau(  58) = (   0.3000001   0.7505553   0.4886906  )
        59           Ga  tau(  59) = (   0.3000001   0.7505553   0.8146665  )
        60           Ga  tau(  60) = (   0.9000001   0.0577350   0.1627148  )
[...]
       285           N   tau( 285) = (   0.7999999   0.1154701   0.1225140  )
       286           N   tau( 286) = (   0.7999999   0.1154701   0.4484898  )
       287           N   tau( 287) = (   0.7999999   0.1154701   0.7744656  )
       288           N   tau( 288) = (   0.6999999   0.2886752   0.1225140  )
       289           N   tau( 289) = (   0.6999999   0.2886752   0.4484898  )
       290           N   tau( 290) = (   0.6999999   0.2886752   0.7744656  )
       291           N   tau( 291) = (   0.5999999   0.4618803   0.1225140  )
       292           N   tau( 292) = (   0.5999999   0.4618803   0.4484898  )
       293           N   tau( 293) = (   0.5999999   0.4618803   0.7744656  )
       294           N   tau( 294) = (   0.4999999   0.6350854   0.1225140  )
       295           N   tau( 295) = (   0.4999999   0.6350854   0.4484898  )
       296           N   tau( 296) = (   0.4999999   0.6350854   0.7744656  )
       297           N   tau( 297) = (   0.3999999   0.8082905   0.1225140  )
       298           N   tau( 298) = (   0.3999999   0.8082905   0.4484898  )
       299           N   tau( 299) = (   0.3999999   0.8082905   0.7744656  )

   Crystallographic axes

     site n.     atom                  positions (cryst. coord.)
[...]
     atom   58 type  1   force =     0.00000000    0.00000000    0.00000000
     atom   59 type  1   force =     0.00000000    0.00000000    0.00000000
     atom   60 type  1   force =     0.00000000    0.00000000    0.00000000
[...]
     atom  285 type  2   force =     0.00000000    0.00000000    0.00000000
     atom  286 type  2   force =     0.00000000    0.00000000    0.00000000
     atom  287 type  2   force =     0.00000000    0.00000000    0.00000000
     atom  288 type  2   force =     0.00000000    0.00000000    0.00000000
     atom  289 type  2   force =     0.00000000    0.00000000    0.00000000
     atom  290 type  2   force =     0.00000000    0.00000000    0.00000000
     atom  291 type  2   force =     0.00000000    0.00000000    0.00000000
     atom  292 type  2   force =     0.00000000    0.00000000    0.00000000
     atom  293 type  2   force =     0.00000000    0.00000000    0.00000000
     atom  294 type  2   force =     0.00000000    0.00000000    0.00000000
     atom  295 type  2   force =     0.00000000    0.00000000    0.00000000
     atom  296 type  2   force =     0.00000000    0.00000000    0.00000000
     atom  297 type  2   force =     0.00000000    0.00000000    0.00000000
     atom  298 type  2   force =     0.00000000    0.00000000    0.00000000
     atom  299 type  2   force =     0.00000000    0.00000000    0.00000000
     The SCF correction term to forces
     atom    1 type  1   force =     0.00000656    0.00000379    0.00000450
     atom    2 type  1   force =     0.00000380    0.00000219   -0.00000126
     atom    3 type  1   force =     0.00000625    0.00000263   -0.00000097
     atom    4 type  1   force =     0.00000333    0.00000252   -0.00000161
     atom    5 type  1   force =     0.00000384   -0.00000100    0.00000642
     atom    6 type  1   force =     0.00000334   -0.00000154   -0.00000024
     atom    7 type  1   force =    -0.00000064    0.00000212   -0.00000233
     atom    8 type  1   force =     0.00000190    0.00000064    0.00000064
     atom    9 type  1   force =     0.00000034    0.00000366   -0.00000024
     atom   10 type  1   force =     0.00000152   -0.00000161   -0.00000233
     atom   11 type  1   force =     0.00000151    0.00000133    0.00000064
     atom   12 type  1   force =     0.00000540    0.00000409   -0.00000097
     atom   13 type  1   force =     0.00000384    0.00000163   -0.00000161
     atom   14 type  1   force =     0.00000106    0.00000383    0.00000642
     atom   15 type  1   force =     0.00000363   -0.00000596    0.00000237
     atom   16 type  1   force =     0.00000026    0.00000343   -0.00000255
     atom   17 type  1   force =    -0.00000212    0.00000199    0.00000507
     atom   18 type  1   force =    -0.00000335    0.00000612    0.00000237
     atom   19 type  1   force =     0.00000310   -0.00000149   -0.00000255
     atom   20 type  1   force =     0.00000066   -0.00000283    0.00000507
     atom   21 type  1   force =     0.00000039   -0.00000037    0.00000070
     atom   22 type  1   force =     0.00000150    0.00000031   -0.00000375
     atom   23 type  1   force =     0.00000065   -0.00000263    0.00000230
     atom   24 type  1   force =     0.00000069    0.00000040    0.00000202
     atom   25 type  1   force =    -0.00000081   -0.00000047   -0.00000521
     atom   26 type  1   force =    -0.00000114   -0.00000066    0.00000281
     atom   27 type  1   force =    -0.00000013    0.00000052    0.00000070
     atom   28 type  1   force =     0.00000102    0.00000114   -0.00000375
     atom   29 type  1   force =    -0.00000196    0.00000188    0.00000230
     atom   30 type  1   force =    -0.00000533    0.00000002    0.00000068
     atom   31 type  1   force =    -0.00000151    0.00000208   -0.00000268
     atom   32 type  1   force =    -0.00000370    0.00000037   -0.00000022
     atom   33 type  1   force =    -0.00000070   -0.00000040    0.00000180
     atom   34 type  1   force =     0.00000096    0.00000056   -0.00000099
     atom   35 type  1   force =    -0.00000266   -0.00000154   -0.00000171
     atom   36 type  1   force =    -0.00000265   -0.00000463    0.00000068
     atom   37 type  1   force =     0.00000105   -0.00000235   -0.00000268
     atom   38 type  1   force =    -0.00000153   -0.00000339   -0.00000022
     atom   39 type  1   force =    -0.00000333   -0.00000181    0.00000263
     atom   40 type  1   force =    -0.00000110   -0.00000291   -0.00000522
     atom   41 type  1   force =    -0.00000142   -0.00000307    0.00000270
     atom   42 type  1   force =    -0.00000323   -0.00000198    0.00000263
     atom   43 type  1   force =    -0.00000307    0.00000050   -0.00000522
     atom   44 type  1   force =    -0.00000337    0.00000031    0.00000270
     atom   45 type  1   force =    -0.00000094   -0.00000020    0.00000115
     atom   46 type  1   force =    -0.00000565    0.00000201   -0.00000247
     atom   47 type  1   force =    -0.00000268    0.00000075    0.00000034
     atom   48 type  1   force =    -0.00000325   -0.00000021    0.00000373
     atom   49 type  1   force =    -0.00000329    0.00000097   -0.00000221
     atom   50 type  1   force =    -0.00000294   -0.00000032   -0.00000056
     atom   51 type  1   force =    -0.00000180   -0.00000271    0.00000373
     atom   52 type  1   force =    -0.00000080   -0.00000334   -0.00000221
     atom   53 type  1   force =    -0.00000175   -0.00000238   -0.00000056
     atom   54 type  1   force =    -0.00000064   -0.00000071    0.00000115
     atom   55 type  1   force =    -0.00000109   -0.00000590   -0.00000247
     atom   56 type  1   force =    -0.00000069   -0.00000270    0.00000034
     atom   57 type  1   force =    -0.00000245   -0.00000141    0.00000129
     atom   58 type  1   force =    -0.00000361   -0.00000208   -0.00000375
     atom   59 type  1   force =    -0.00000052   -0.00000030    0.00000286
     atom   60 type  1   force =     0.00000391   -0.00000266    0.00000002
[...]
     atom  285 type  2   force =     0.00000025    0.00000052    0.00000039
     atom  286 type  2   force =    -0.00000224    0.00000121   -0.00000113
     atom  287 type  2   force =     0.00000046    0.00000090    0.00000082
     atom  288 type  2   force =    -0.00000062    0.00000072    0.00000111
     atom  289 type  2   force =    -0.00000147    0.00000088   -0.00000054
     atom  290 type  2   force =    -0.00000050    0.00000055   -0.00000004
     atom  291 type  2   force =     0.00000032   -0.00000090    0.00000111
     atom  292 type  2   force =     0.00000003   -0.00000171   -0.00000054
     atom  293 type  2   force =     0.00000023   -0.00000071   -0.00000004
     atom  294 type  2   force =     0.00000057   -0.00000004    0.00000039
     atom  295 type  2   force =    -0.00000008   -0.00000254   -0.00000113
     atom  296 type  2   force =     0.00000101   -0.00000006    0.00000082
     atom  297 type  2   force =    -0.00000032   -0.00000019   -0.00000003
     atom  298 type  2   force =    -0.00000123   -0.00000071   -0.00000196
     atom  299 type  2   force =     0.00000152    0.00000088    0.00000158

     Total force =     0.008402     Total SCF correction =     0.000060

     Computing stress (Cartesian axis) and pressure

[...]

          total   stress  (Ry/bohr**3)                   (kbar)     P=        1.99
   0.00000910  -0.00000001  -0.00000000            1.34       -0.00       -0.00
  -0.00000001   0.00000911  -0.00000000           -0.00        1.34       -0.00
  -0.00000000  -0.00000000   0.00002230           -0.00       -0.00        3.28

     kinetic stress (kbar)  18373.33     -0.00     -0.00
                               -0.00  18373.33     -0.00
                               -0.00     -0.00  18371.46

     local   stress (kbar)   5100.15      0.67     -0.07
                                0.67   5099.20     -0.04
                               -0.07     -0.04   3436.95

     nonloc. stress (kbar)     61.76      0.01     -0.00
                                0.01     61.75     -0.00
                               -0.00     -0.00     71.77

     hartree stress (kbar)  19610.34     -0.28      0.02
                               -0.28  19610.66      0.01
                                0.02      0.01  20368.54

     exc-cor stress (kbar)   5177.25     -0.00      0.00
                               -0.00   5177.25      0.00
                                0.00      0.00   5177.62

     corecor stress (kbar) -14020.36      0.00     -0.00
                                0.00 -14020.36     -0.00
                               -0.00     -0.00 -14019.86

     ewald   stress (kbar) -34462.33     -0.39      0.05
                               -0.39 -34461.65      0.03
                                0.05      0.03 -33563.49

     hubbard stress (kbar)      0.00      0.00      0.00
                                0.00      0.00      0.00
                                0.00      0.00      0.00

     DFT-D   stress (kbar)      0.00      0.00      0.00
                                0.00      0.00      0.00
                                0.00      0.00      0.00

     XDM     stress (kbar)      0.00      0.00      0.00
                                0.00      0.00      0.00
                                0.00      0.00      0.00

     dft-nl  stress (kbar)    161.17      0.00     -0.00
                                0.00    161.17     -0.00
                               -0.00     -0.00    160.29

     TS-vdW  stress (kbar)      0.00      0.00      0.00
                                0.00      0.00      0.00
                                0.00      0.00      0.00

     MDB     stress (kbar)      0.00      0.00      0.00
                                0.00      0.00      0.00
                                0.00      0.00      0.00

     3D-RISM stress (kbar)      0.00      0.00      0.00
                                0.00      0.00      0.00
                                0.00      0.00      0.00

     Energy error            =      1.6E-04 Ry
     Gradient error          =      1.4E-03 Ry/Bohr

     number of scf cycles    =  10
     number of bfgs steps    =   9

     energy             old  =  -46559.6902331204 Ry
     energy             new  =  -46559.6903948812 Ry

     CASE: energy            _new < energy            _old

     new trust radius        =       0.0056017057 bohr
     new conv_thr            =            1.4E-11 Ry

ATOMIC_POSITIONS (angstrom)
Ga            1.6219074703        0.9364072436        7.9003269853
Ga            1.6217622185        0.9363233825       13.2116884792
Ga            0.0164576333        3.7384236372        2.6505011482
Ga           -0.0015105312        3.7487957144        7.9246279588
Ga            0.0020601955        3.7452268172       13.2144556034
Ga           -1.6187783668        6.5616060051        2.6440298617
Ga           -1.6226595460        6.5561357077        7.9275326774
Ga           -1.6216488383        6.5546563070       13.2174810096
Ga           -3.2382414623        9.3665983676        2.6440298617
Ga           -3.2449194684        9.3659723165        7.9275326774
Ga           -3.2456953131        9.3675873154       13.2174810096
Ga           -4.8655711123       12.1943454688        2.6505011482
Ga           -4.8655727122       12.1735985433        7.9246279588
Ga           -4.8668781045       12.1784753319       13.2144556034
Ga            4.8506640282        0.9247796369        2.6502141388
Ga            4.8699201255        0.9365635083        7.9242828459
Ga            4.8647547792        0.9349605840       13.2143287846
Ga            3.2262159464        3.7384062489        2.6502141388
Ga            3.2460491270        3.7491905826        7.9242828459
Ga            3.2420782808        3.7455187236       13.2143287846
Ga            1.6224848344        6.5575898079        2.6415875973
Ga            1.6225403430        6.5567674906        7.9282021784
Ga            1.6224859826        6.5551028249       13.2159413207
Ga            0.0014267410        9.3670267685        2.6404490152
Ga            0.0002219689        9.3663311931        7.9281306013
Ga           -0.0001703896        9.3661046648       13.2158036104
Ga           -1.6210879905       12.1756227389        2.6415875973
Ga           -1.6217723840       12.1760819694        7.9282021784
Ga           -1.6232412069       12.1768672247       13.2159413207
Ga            8.1142907158        0.9305606310        2.6438862775
Ga            8.1115034626        0.9367344942        7.9273854005
Ga            8.1097723679        0.9366392153       13.2173286599
Ga            6.4822162855        3.7425078465        2.6382580791
Ga            6.4890963666        3.7464800632        7.9266511076
Ga            6.4875959382        3.7456137905       13.2180294738
Ga            4.8630357780        6.5618993719        2.6438862775
Ga            4.8669888738        6.5563986082        7.9273854005
Ga            4.8660408125        6.5549470757       13.2173286599
Ga            3.2435265922        9.3668407549        2.6406212067
Ga            3.2447266208        9.3662728128        7.9283109998
Ga            3.2451036034        9.3660474094       13.2159628896
Ga            1.6223155740       12.1748606083        2.6406212067
Ga            1.6224237361       12.1761838345        7.9283109998
Ga            1.6224170223       12.1766230128       13.2159628896
Ga           11.3523454402        0.9300201913        2.6440264066
Ga           11.3555535996        0.9364152684        7.9274543924
Ga           11.3573844071        0.9362711991       13.2172202159
Ga            9.7333168356        3.7456635925        2.6405144116
Ga            9.7333305892        3.7468137183        7.9277074596
Ga            9.7333221681        3.7463918239       13.2161844763
Ga            8.1104995167        6.5564656403        2.6405144116
Ga            8.1115024316        6.5559024883        7.9277074596
Ga            8.1111328498        6.5561061427       13.2161844763
Ga            6.4815951057        9.3664072419        2.6440264066
Ga            6.4887374846        9.3659880510        7.9274543924
Ga            6.4895281207        9.3676456114       13.2172202159
Ga            4.8649473385       12.1749816948        2.6418039710
Ga            4.8662296611       12.1757220441        7.9284526572
Ga            4.8677214292       12.1765833169       13.2160586804
Ga           14.6154696773        0.9252297852        2.6502153638
[...]
N            12.9653243016        1.8695386991        1.9897714212
N            12.9755937562        1.8736862677        7.2743982008
N            12.9793322145        1.8730385347       12.5631935484
N            11.3580352392        4.6819181530        1.9878656330
N            11.3558676993        4.6832056656        7.2751003412
N            11.3567015196        4.6827230115       12.5641416494
N             9.7336753585        7.4953919964        1.9878656330
N             9.7337066071        7.4928710955        7.2751003412
N             9.7337055265        7.4938345320       12.5641416494
N             8.1017278376       10.2935348825        1.9897714212
N             8.1104544647       10.3003547068        7.2743982008
N             8.1117627406       10.3039161731       12.5631935484
N             6.4799814685       13.1074262344        1.9869078920
N             6.4878578589       13.1119736705        7.2780138282
N             6.4890625443       13.1126691959       12.5593950975

     Writing config-only to output data dir ./GaN.save/
     NEW-OLD atomic charge density approx. for the potential

     Check: negative core charge=   -0.000003

[...]

     Calculation restarted from scf iteration #    19

     Self-consistent Calculation

[...]

     c_bands:  4 eigenvalues not converged
     c_bands:  3 eigenvalues not converged
     ethr =  1.00E-13,  avg # of iterations =100.0

[...]

     ethr =  1.00E-13,  avg # of iterations = 16.7

[...]

     c_bands:  4 eigenvalues not converged
     c_bands:  5 eigenvalues not converged
     ethr =  1.00E-13,  avg # of iterations =100.0

[...]

     iteration # 34     ecut=    70.00 Ry     beta= 0.70
     Davidson diagonalization with overlap

     c_bands:  2 eigenvalues not converged
     c_bands:  3 eigenvalues not converged
     ethr =  1.00E-13,  avg # of iterations = 60.0

     Non-local corr. energy    =      81.30788717 Ry

     total energy              =  -46559.69048873 Ry
     estimated scf accuracy    <       0.00012643 Ry

     max_seconds     =  154800.00
     Calculation stopped in scf loop at iteration #    34

     Writing config to output data dir ./GaN.save/

     General routines

     Parallel routines

     PAW routines

   This run was terminated on:  15:53:17   9Feb2024

   JOB DONE.