     Program PWSCF v.7.1 starts on 20Feb2024 at  7:45:41

     Reading input from espresso.pwi
Warning: card &CELL ignored
Warning: card    CELL_DYNAMICS    = 'BFGS' ignored
Warning: card / ignored

     Current dimensions of program PWSCF are:
     Max number of different atomic species (ntypx) = 10
     Max number of k-points (npk) =  40000
     Max angular momentum in pseudopotentials (lmaxx) =  4
     file Ga.pbe-dn-kjpaw_psl.1.0.0.UPF: wavefunction(s)  4S renormalized
     file N.pbe-n-kjpaw_psl.1.0.0.UPF: wavefunction(s)  2S renormalized

     IMPORTANT: XC functional enforced from input :
     Exchange-correlation= BEEF-VDW
                           (   1   4  43  14   2   0   0)
     Any further DFT definition will be discarded
     Please, verify this is what you really want

     K-points division:     npool     =       4
     R & G space division:  proc/nbgrp/npool/nimage =      64
     Subspace diagonalization in iterative solution of the eigenvalue problem:
     a serial algorithm will be used

     Using Slab Decomposition

     bravais-lattice index     =            4
     lattice parameter (alat)  =      30.6565  a.u.
     unit-cell volume          =   24400.9461 (a.u.)^3
     number of atoms/cell      =          299
     number of atomic types    =            2
     number of electrons       =      2687.00
     number of Kohn-Sham states=         1613
     kinetic-energy cutoff     =      70.0000  Ry
     charge density cutoff     =     350.0000  Ry
     scf convergence threshold =      1.0E-07
     mixing beta               =       0.7000
     number of iterations used =            8  plain     mixing
     Exchange-correlation= BEEF-VDW
                           (   1   4  43  14   2   0   0)

     celldm(1)=  30.656540  celldm(2)=   0.000000  celldm(3)=   0.977927
     celldm(4)=   0.000000  celldm(5)=   0.000000  celldm(6)=   0.000000

     crystal axes: (cart. coord. in units of alat)
               a(1) = (   1.000000   0.000000   0.000000 )
               a(2) = (  -0.500000   0.866025   0.000000 )
               a(3) = (   0.000000   0.000000   0.977927 )

     reciprocal axes: (cart. coord. in units 2 pi/alat)
               b(1) = (  1.000000  0.577350 -0.000000 )
               b(2) = (  0.000000  1.154701  0.000000 )
               b(3) = (  0.000000 -0.000000  1.022571 )

     PseudoPot. # 1 for Ga read from file:
     //group///packages/espresso/pseudo/psl_1.0.0/pslibrary.1.0.0/pbe/PSEUDOPOTENTIALS/Ga.pbe-dn-kjpaw_psl.1.0.0.UPF
     MD5 check sum: cd2a01e492f15b435d17032472d8505c
     Pseudo is Projector augmented-wave + core cor, Zval = 13.0
     Generated using 'atomic' code by A. Dal Corso  v.7.1
     Shape of augmentation charge: PSQ
     Using radial grid of 1205 points,  6 beta functions with:
                l(1) =   0
                l(2) =   0
                l(3) =   1
                l(4) =   1
                l(5) =   2
                l(6) =   2
     Q(r) pseudized with 0 coefficients

     PseudoPot. # 2 for N  read from file:
     //group///packages/espresso/pseudo/psl_1.0.0/pslibrary.1.0.0/pbe/PSEUDOPOTENTIALS/N.pbe-n-kjpaw_psl.1.0.0.UPF
     MD5 check sum: f77f775694dac7e2c3fe1c82443d1a16
     Pseudo is Projector augmented-wave + core cor, Zval =  5.0
     Generated using 'atomic' code by A. Dal Corso  v.7.1
     Shape of augmentation charge: PSQ
     Using radial grid of 1085 points,  4 beta functions with:
                l(1) =   0
                l(2) =   0
                l(3) =   1
                l(4) =   1
     Q(r) pseudized with 0 coefficients

     atomic species   valence    mass     pseudopotential
        Ga            13.00    69.72300     Ga( 1.00)
        N              5.00    14.00700     N ( 1.00)

      2 Sym. Ops. (no inversion) found

                                    s                        frac. trans.

      isym =  1     identity

 cryst.   s( 1) = (     1          0          0      )
                  (     0          1          0      )
                  (     0          0          1      )

 cart.    s( 1) = (  1.0000000  0.0000000  0.0000000 )
                  (  0.0000000  1.0000000  0.0000000 )
                  (  0.0000000  0.0000000  1.0000000 )

      isym =  2     inv. 180 deg rotation - cryst. axis [0,1,0]

 cryst.   s( 2) = (     1          1          0      )
                  (     0         -1          0      )
                  (     0          0          1      )

 cart.    s( 2) = (  0.5000000  0.8660254  0.0000000 )
                  (  0.8660254 -0.5000000  0.0000000 )
                  (  0.0000000  0.0000000  1.0000000 )

     point group C_s (m)
     there are  2 classes
     the character table:

       E     s
A'     1.00  1.00
A''    1.00 -1.00

     the symmetry operations in each class and the name of the first element:

     E        1
          identity
     s        2
          inv. 180 deg rotation - cryst. axis [0,1,0]

   Cartesian axes

     site n.     atom                  positions (alat units)
         1           Ga  tau(   1) = (   0.1000001   0.0577350   0.4886906  )
         2           Ga  tau(   2) = (   0.1000001   0.0577350   0.8146665  )
         3           Ga  tau(   3) = (   0.0000001   0.2309401   0.1627148  )
         4           Ga  tau(   4) = (   0.0000001   0.2309401   0.4886906  )
         5           Ga  tau(   5) = (   0.0000001   0.2309401   0.8146665  )
         6           Ga  tau(   6) = (  -0.0999999   0.4041451   0.1627148  )
         7           Ga  tau(   7) = (  -0.0999999   0.4041451   0.4886906  )
         8           Ga  tau(   8) = (  -0.0999999   0.4041451   0.8146665  )
         9           Ga  tau(   9) = (  -0.1999999   0.5773502   0.1627148  )
        10           Ga  tau(  10) = (  -0.1999999   0.5773502   0.4886906  )
        11           Ga  tau(  11) = (  -0.1999999   0.5773502   0.8146665  )
        12           Ga  tau(  12) = (  -0.2999999   0.7505553   0.1627148  )
        13           Ga  tau(  13) = (  -0.2999999   0.7505553   0.4886906  )
        14           Ga  tau(  14) = (  -0.2999999   0.7505553   0.8146665  )
        15           Ga  tau(  15) = (   0.3000001   0.0577350   0.1627148  )
        16           Ga  tau(  16) = (   0.3000001   0.0577350   0.4886906  )
        17           Ga  tau(  17) = (   0.3000001   0.0577350   0.8146665  )
        18           Ga  tau(  18) = (   0.2000001   0.2309401   0.1627148  )
        19           Ga  tau(  19) = (   0.2000001   0.2309401   0.4886906  )
        20           Ga  tau(  20) = (   0.2000001   0.2309401   0.8146665  )
        21           Ga  tau(  21) = (   0.1000001   0.4041451   0.1627148  )
        22           Ga  tau(  22) = (   0.1000001   0.4041451   0.4886906  )
        23           Ga  tau(  23) = (   0.1000001   0.4041451   0.8146665  )
        24           Ga  tau(  24) = (   0.0000001   0.5773502   0.1627148  )
        25           Ga  tau(  25) = (   0.0000001   0.5773502   0.4886906  )
        26           Ga  tau(  26) = (   0.0000001   0.5773502   0.8146665  )
        27           Ga  tau(  27) = (  -0.0999999   0.7505553   0.1627148  )
        28           Ga  tau(  28) = (  -0.0999999   0.7505553   0.4886906  )
        29           Ga  tau(  29) = (  -0.0999999   0.7505553   0.8146665  )
        30           Ga  tau(  30) = (   0.5000001   0.0577350   0.1627148  )
        31           Ga  tau(  31) = (   0.5000001   0.0577350   0.4886906  )
        32           Ga  tau(  32) = (   0.5000001   0.0577350   0.8146665  )
        33           Ga  tau(  33) = (   0.4000001   0.2309401   0.1627148  )
        34           Ga  tau(  34) = (   0.4000001   0.2309401   0.4886906  )
        35           Ga  tau(  35) = (   0.4000001   0.2309401   0.8146665  )
        36           Ga  tau(  36) = (   0.3000001   0.4041451   0.1627148  )
        37           Ga  tau(  37) = (   0.3000001   0.4041451   0.4886906  )
        38           Ga  tau(  38) = (   0.3000001   0.4041451   0.8146665  )
        39           Ga  tau(  39) = (   0.2000001   0.5773502   0.1627148  )
        40           Ga  tau(  40) = (   0.2000001   0.5773502   0.4886906  )
        41           Ga  tau(  41) = (   0.2000001   0.5773502   0.8146665  )
        42           Ga  tau(  42) = (   0.1000001   0.7505553   0.1627148  )
        43           Ga  tau(  43) = (   0.1000001   0.7505553   0.4886906  )
        44           Ga  tau(  44) = (   0.1000001   0.7505553   0.8146665  )
        45           Ga  tau(  45) = (   0.7000001   0.0577350   0.1627148  )
        46           Ga  tau(  46) = (   0.7000001   0.0577350   0.4886906  )
        47           Ga  tau(  47) = (   0.7000001   0.0577350   0.8146665  )
        48           Ga  tau(  48) = (   0.6000001   0.2309401   0.1627148  )
        49           Ga  tau(  49) = (   0.6000001   0.2309401   0.4886906  )
        50           Ga  tau(  50) = (   0.6000001   0.2309401   0.8146665  )
        51           Ga  tau(  51) = (   0.5000001   0.4041451   0.1627148  )
        52           Ga  tau(  52) = (   0.5000001   0.4041451   0.4886906  )
        53           Ga  tau(  53) = (   0.5000001   0.4041451   0.8146665  )
        54           Ga  tau(  54) = (   0.4000001   0.5773502   0.1627148  )
        55           Ga  tau(  55) = (   0.4000001   0.5773502   0.4886906  )
        56           Ga  tau(  56) = (   0.4000001   0.5773502   0.8146665  )
        57           Ga  tau(  57) = (   0.3000001   0.7505553   0.1627148  )
        58           Ga  tau(  58) = (   0.3000001   0.7505553   0.4886906  )
        59           Ga  tau(  59) = (   0.3000001   0.7505553   0.8146665  )
        60           Ga  tau(  60) = (   0.9000001   0.0577350   0.1627148  )
[...]
       285           N   tau( 285) = (   0.7999999   0.1154701   0.1225140  )
       286           N   tau( 286) = (   0.7999999   0.1154701   0.4484898  )
       287           N   tau( 287) = (   0.7999999   0.1154701   0.7744656  )
       288           N   tau( 288) = (   0.6999999   0.2886752   0.1225140  )
       289           N   tau( 289) = (   0.6999999   0.2886752   0.4484898  )
       290           N   tau( 290) = (   0.6999999   0.2886752   0.7744656  )
       291           N   tau( 291) = (   0.5999999   0.4618803   0.1225140  )
       292           N   tau( 292) = (   0.5999999   0.4618803   0.4484898  )
       293           N   tau( 293) = (   0.5999999   0.4618803   0.7744656  )
       294           N   tau( 294) = (   0.4999999   0.6350854   0.1225140  )
       295           N   tau( 295) = (   0.4999999   0.6350854   0.4484898  )
       296           N   tau( 296) = (   0.4999999   0.6350854   0.7744656  )
       297           N   tau( 297) = (   0.3999999   0.8082905   0.1225140  )
       298           N   tau( 298) = (   0.3999999   0.8082905   0.4484898  )
       299           N   tau( 299) = (   0.3999999   0.8082905   0.7744656  )

   Crystallographic axes

     site n.     atom                  positions (cryst. coord.)
         1           Ga  tau(   1) = (  0.1333334  0.0666666  0.4997208  )
         2           Ga  tau(   2) = (  0.1333334  0.0666666  0.8330541  )
         3           Ga  tau(   3) = (  0.1333334  0.2666666  0.1663874  )
[...]
     atom   26 type  1   force =     0.00000000    0.00000000    0.00000000
     atom   27 type  1   force =     0.00000000    0.00000000    0.00000000
     atom   28 type  1   force =     0.00000000    0.00000000    0.00000000
     atom   29 type  1   force =     0.00000000    0.00000000    0.00000000
     atom   30 type  1   force =     0.00000000    0.00000000    0.00000000
     atom   31 type  1   force =     0.00000000    0.00000000    0.00000000
     atom   32 type  1   force =     0.00000000    0.00000000    0.00000000
     atom   33 type  1   force =     0.00000000    0.00000000    0.00000000
     atom   34 type  1   force =     0.00000000    0.00000000    0.00000000
     atom   35 type  1   force =     0.00000000    0.00000000    0.00000000
     atom   36 type  1   force =     0.00000000    0.00000000    0.00000000
     atom   37 type  1   force =     0.00000000    0.00000000    0.00000000
     atom   38 type  1   force =     0.00000000    0.00000000    0.00000000
     atom   39 type  1   force =     0.00000000    0.00000000    0.00000000
     atom   40 type  1   force =     0.00000000    0.00000000    0.00000000
     atom   41 type  1   force =     0.00000000    0.00000000    0.00000000
     atom   42 type  1   force =     0.00000000    0.00000000    0.00000000
     atom   43 type  1   force =     0.00000000    0.00000000    0.00000000
     atom   44 type  1   force =     0.00000000    0.00000000    0.00000000
     atom   45 type  1   force =     0.00000000    0.00000000    0.00000000
     atom   46 type  1   force =     0.00000000    0.00000000    0.00000000
     atom   47 type  1   force =     0.00000000    0.00000000    0.00000000
     atom   48 type  1   force =     0.00000000    0.00000000    0.00000000
     atom   49 type  1   force =     0.00000000    0.00000000    0.00000000
     atom   50 type  1   force =     0.00000000    0.00000000    0.00000000
     atom   51 type  1   force =     0.00000000    0.00000000    0.00000000
     atom   52 type  1   force =     0.00000000    0.00000000    0.00000000
     atom   53 type  1   force =     0.00000000    0.00000000    0.00000000
     atom   54 type  1   force =     0.00000000    0.00000000    0.00000000
     atom   55 type  1   force =     0.00000000    0.00000000    0.00000000
     atom   56 type  1   force =     0.00000000    0.00000000    0.00000000
     atom   57 type  1   force =     0.00000000    0.00000000    0.00000000
     atom   58 type  1   force =     0.00000000    0.00000000    0.00000000
     atom   59 type  1   force =     0.00000000    0.00000000    0.00000000
     atom   60 type  1   force =     0.00000000    0.00000000    0.00000000
[...]
     atom  285 type  2   force =     0.00000000    0.00000000    0.00000000
     atom  286 type  2   force =     0.00000000    0.00000000    0.00000000
     atom  287 type  2   force =     0.00000000    0.00000000    0.00000000
     atom  288 type  2   force =     0.00000000    0.00000000    0.00000000
     atom  289 type  2   force =     0.00000000    0.00000000    0.00000000
     atom  290 type  2   force =     0.00000000    0.00000000    0.00000000
     atom  291 type  2   force =     0.00000000    0.00000000    0.00000000
     atom  292 type  2   force =     0.00000000    0.00000000    0.00000000
     atom  293 type  2   force =     0.00000000    0.00000000    0.00000000
     atom  294 type  2   force =     0.00000000    0.00000000    0.00000000
     atom  295 type  2   force =     0.00000000    0.00000000    0.00000000
     atom  296 type  2   force =     0.00000000    0.00000000    0.00000000
     atom  297 type  2   force =     0.00000000    0.00000000    0.00000000
     atom  298 type  2   force =     0.00000000    0.00000000    0.00000000
     atom  299 type  2   force =     0.00000000    0.00000000    0.00000000
     The SCF correction term to forces
     atom    1 type  1   force =     0.00000225    0.00000130    0.00027435
     atom    2 type  1   force =     0.00000794    0.00000458    0.00007296
     atom    3 type  1   force =    -0.00005199    0.00003682   -0.00015036
     atom    4 type  1   force =    -0.00004759    0.00012882    0.00006919
     atom    5 type  1   force =     0.00000070    0.00000434    0.00004826
     atom    6 type  1   force =    -0.00001976   -0.00000210   -0.00004218
     atom    7 type  1   force =    -0.00001530    0.00002595    0.00000789
     atom    8 type  1   force =    -0.00000328    0.00000204    0.00002480
     atom    9 type  1   force =    -0.00001170   -0.00001606   -0.00004218
     atom   10 type  1   force =     0.00001482   -0.00002623    0.00000789
     atom   11 type  1   force =     0.00000012   -0.00000386    0.00002480
     atom   12 type  1   force =     0.00000590   -0.00006343   -0.00015036
     atom   13 type  1   force =     0.00008776   -0.00010563    0.00006919
     atom   14 type  1   force =     0.00000411   -0.00000156    0.00004826
     atom   15 type  1   force =     0.00001282    0.00007856   -0.00017553
     atom   16 type  1   force =     0.00013165   -0.00002263    0.00006859
     atom   17 type  1   force =    -0.00000243    0.00000311    0.00005572
     atom   18 type  1   force =     0.00007445   -0.00002818   -0.00017553
     atom   19 type  1   force =     0.00004622    0.00012533    0.00006859
     atom   20 type  1   force =     0.00000147   -0.00000366    0.00005572
     atom   21 type  1   force =    -0.00000464    0.00000864   -0.00004193
     atom   22 type  1   force =    -0.00000422    0.00004481    0.00001502
     atom   23 type  1   force =    -0.00000496   -0.00000277    0.00002470
     atom   24 type  1   force =    -0.00001219   -0.00000704   -0.00002174
     atom   25 type  1   force =    -0.00000101   -0.00000058    0.00000488
     atom   26 type  1   force =    -0.00000902   -0.00000521    0.00001473
     atom   27 type  1   force =     0.00000516   -0.00000834   -0.00004193
     atom   28 type  1   force =     0.00003670   -0.00002606    0.00001502
     atom   29 type  1   force =    -0.00000488   -0.00000291    0.00002470
     atom   30 type  1   force =    -0.00001360    0.00001999   -0.00004029
     atom   31 type  1   force =     0.00002503    0.00000031    0.00000988
     atom   32 type  1   force =    -0.00000688    0.00000286    0.00002271
     atom   33 type  1   force =    -0.00001330   -0.00000768   -0.00005785
     atom   34 type  1   force =     0.00004389    0.00002534    0.00001518
     atom   35 type  1   force =    -0.00000384   -0.00000222    0.00002943
     atom   36 type  1   force =     0.00001051   -0.00002177   -0.00004029
     atom   37 type  1   force =     0.00001278    0.00002152    0.00000988
     atom   38 type  1   force =    -0.00000097   -0.00000739    0.00002271
     atom   39 type  1   force =    -0.00000714   -0.00000940   -0.00001942
     atom   40 type  1   force =    -0.00000829   -0.00000114    0.00000686
     atom   41 type  1   force =    -0.00000524   -0.00000652    0.00001158
     atom   42 type  1   force =    -0.00001171   -0.00000149   -0.00001942
     atom   43 type  1   force =    -0.00000513   -0.00000661    0.00000686
     atom   44 type  1   force =    -0.00000826   -0.00000128    0.00001158
     atom   45 type  1   force =    -0.00001302    0.00001951   -0.00003381
     atom   46 type  1   force =    -0.00002944    0.00000352    0.00001149
     atom   47 type  1   force =    -0.00000357    0.00000679    0.00001783
     atom   48 type  1   force =    -0.00000280    0.00000613   -0.00002526
     atom   49 type  1   force =     0.00000059    0.00000838    0.00000498
     atom   50 type  1   force =    -0.00000028    0.00000444    0.00001627
     atom   51 type  1   force =     0.00000391   -0.00000549   -0.00002526
     atom   52 type  1   force =     0.00000755   -0.00000368    0.00000498
     atom   53 type  1   force =     0.00000370   -0.00000246    0.00001627
     atom   54 type  1   force =     0.00001039   -0.00002103   -0.00003381
     atom   55 type  1   force =    -0.00001167   -0.00002726    0.00001149
     atom   56 type  1   force =     0.00000409   -0.00000649    0.00001783
     atom   57 type  1   force =    -0.00001834   -0.00001059   -0.00003628
     atom   58 type  1   force =    -0.00004058   -0.00002343    0.00001873
     atom   59 type  1   force =    -0.00000249   -0.00000144    0.00001735
     atom   60 type  1   force =    -0.00004663    0.00004704   -0.00014318
[...]
     atom  285 type  2   force =     0.00000038    0.00000860   -0.00001610
     atom  286 type  2   force =    -0.00002956    0.00000766    0.00000539
     atom  287 type  2   force =    -0.00000174    0.00000396    0.00001161
     atom  288 type  2   force =     0.00000317    0.00000454   -0.00000661
     atom  289 type  2   force =    -0.00000452    0.00000565   -0.00000015
     atom  290 type  2   force =     0.00000103    0.00000300    0.00000768
     atom  291 type  2   force =     0.00000552    0.00000048   -0.00000661
     atom  292 type  2   force =     0.00000264   -0.00000674   -0.00000015
     atom  293 type  2   force =     0.00000312   -0.00000061    0.00000768
     atom  294 type  2   force =     0.00000764   -0.00000397   -0.00001610
     atom  295 type  2   force =    -0.00000815   -0.00002943    0.00000539
     atom  296 type  2   force =     0.00000256   -0.00000349    0.00001161
     atom  297 type  2   force =    -0.00000302   -0.00000175   -0.00002894
     atom  298 type  2   force =    -0.00003932   -0.00002270    0.00001556
     atom  299 type  2   force =    -0.00000051   -0.00000029    0.00001478

     Total force =     0.004674     Total SCF correction =     0.001288
     SCF correction compared to forces is large: reduce conv_thr to get better values

     Computing stress (Cartesian axis) and pressure

[...]

          total   stress  (Ry/bohr**3)                   (kbar)     P=        2.03
   0.00000935  -0.00000003   0.00000000            1.38       -0.00        0.00
  -0.00000003   0.00000938   0.00000000           -0.00        1.38        0.00
   0.00000000   0.00000000   0.00002262            0.00        0.00        3.33

     kinetic stress (kbar)  18373.50     -0.01      0.00
                               -0.01  18373.51      0.00
                                0.00      0.00  18371.69

     local   stress (kbar)   5097.95      0.77     -0.10
                                0.77   5096.88     -0.06
                               -0.10     -0.06   3432.11

     nonloc. stress (kbar)     61.60      0.01     -0.00
                                0.01     61.59     -0.00
                               -0.00     -0.00     71.56

     hartree stress (kbar)  19611.54     -0.31      0.03
                               -0.31  19611.91      0.02
                                0.03      0.02  20370.80

     exc-cor stress (kbar)   5177.24     -0.00      0.00
                               -0.00   5177.24      0.00
                                0.00      0.00   5177.61

     corecor stress (kbar) -14020.36      0.00     -0.00
                                0.00 -14020.36     -0.00
                               -0.00     -0.00 -14019.86

     ewald   stress (kbar) -34461.30     -0.45      0.07
                               -0.45 -34460.55      0.04
                                0.07      0.04 -33560.88

     hubbard stress (kbar)      0.00      0.00      0.00
                                0.00      0.00      0.00
                                0.00      0.00      0.00

     DFT-D   stress (kbar)      0.00      0.00      0.00
                                0.00      0.00      0.00
                                0.00      0.00      0.00

     XDM     stress (kbar)      0.00      0.00      0.00
                                0.00      0.00      0.00
                                0.00      0.00      0.00

     dft-nl  stress (kbar)    161.17      0.00     -0.00
                                0.00    161.17     -0.00
                               -0.00     -0.00    160.29

     TS-vdW  stress (kbar)      0.00      0.00      0.00
                                0.00      0.00      0.00
                                0.00      0.00      0.00

     MDB     stress (kbar)      0.00      0.00      0.00
                                0.00      0.00      0.00
                                0.00      0.00      0.00

     3D-RISM stress (kbar)      0.00      0.00      0.00
                                0.00      0.00      0.00
                                0.00      0.00      0.00

[...]

     Non-local corr. energy    =      81.30790533 Ry

 BEEFens 2000 ensemble energies
             -0.658078791363337E+02
             -0.592159594881526E+03
             -0.254652123820488E+03
              0.208421789867868E+03
             -0.425694044521039E+03
             -0.547570124989542E+03
              0.281435761071785E+03
             -0.297226446730483E+02
              0.468994263952195E+03
             -0.202502290136999E+02
              0.230056952562026E+03
              0.952018667618768E+01
              0.949061959686856E+01
             -0.201555814992589E+02
              0.306960099805867E+03
             -0.223548037766948E+03
             -0.460762841600400E+03
             -0.150556759141148E+03
              0.112469088412986E+03
             -0.100845632421469E+02
              0.672369143553882E+03
              0.572286167541452E+03
             -0.327501924349157E+03
              0.118675475045384E+03
             -0.718262151674602E+03
              0.575920446400373E+03
              0.188119535574755E+03
              0.559975227399302E+03
              0.367901250040378E+03
             -0.179138583912251E+03
              0.135566228294906E+03
             -0.264643840105952E+03
              0.739447017989578E+02
              0.359904930255628E+03
              0.381753337858528E+03
             -0.137838983474694E+03
              0.847927850149901E+03
             -0.321801116532206E+03
             -0.231666135676795E+03
              0.339823226002548E+03
              0.151942979604857E+03
              0.254398275289776E+03
             -0.484794612946617E+03
             -0.136010798989355E+02
              0.475949073175681E+03
              0.618193851954527E+03
             -0.615359159767608E+03
              0.438276580068950E+02
              0.232022122756957E+03
              0.112888561845220E+03
              0.257354179223894E+03
              0.545073013373406E+03
             -0.329528767524404E+03
             -0.361241164015636E+03
             -0.469664598978038E+03
             -0.727416321975752E+02
             -0.428385222364878E+03
              0.419038590611935E+02
             -0.793466064125278E+02
             -0.333914055724404E+03
[...]
              0.416768126331847E+03
              0.230141334721006E+03
              0.292510950744975E+03
             -0.472674499238085E+03
             -0.452395021177028E+03
             -0.114517512389857E+03
             -0.443496180815002E+03
              0.710120417056157E+03
              0.608610307507656E+03
              0.290823284411140E+03
              0.787482867006786E+03
             -0.409858266769445E+03
             -0.167046798838729E+03
             -0.232335898640764E+03
              0.651341821024248E+03

 BEEF-vdW xc energy contributions
            1 :    -5969.517772814334
            2 :     5376.490559313450
            3 :    -4383.036260304867
            4 :     3280.044401050942
            5 :    -2323.394936179107
            6 :     1636.636350683670
            7 :    -1197.259816447724
            8 :     899.9814906416341
            9 :    -646.0471368413546
           10 :     400.5030524253052
           11 :    -190.0195278772208
           12 :     57.39796041756836
           13 :    -14.58924439771545
           14 :     28.98307724923870
           15 :    -47.51106298062587
           16 :     34.41088369868703
           17 :     8.220839287732815
           18 :    -50.73173935382692
           19 :     65.40866933795223
           20 :    -50.12542546531949
           21 :     28.45182103502884
           22 :    -28.72424249980668
           23 :     60.73960708683353
           24 :    -108.7758573520587
           25 :     145.0906537801293
           26 :    -151.6074848844437
           27 :     132.1773465673959
           28 :    -106.7718770077618
           29 :     93.92470902645346
           30 :    -96.40549182030099
           31 :    -511.6808922220653
           32 :    -350.5737410712381

     Writing all to output data dir ./GaN.save/

     General routines

     Parallel routines

     PAW routines

   This run was terminated on:  14: 3: 4  20Feb2024

   JOB DONE.