     Program PWSCF v.7.1 starts on  4Feb2024 at 10: 9:22

     Reading input from espresso.pwi
Warning: card &CELL ignored
Warning: card    CELL_DYNAMICS    = 'BFGS' ignored
Warning: card / ignored

     Current dimensions of program PWSCF are:
     Max number of different atomic species (ntypx) = 10
     Max number of k-points (npk) =  40000
     Max angular momentum in pseudopotentials (lmaxx) =  4
     file Ga.pbe-dn-kjpaw_psl.1.0.0.UPF: wavefunction(s)  4S renormalized
     file N.pbe-n-kjpaw_psl.1.0.0.UPF: wavefunction(s)  2S renormalized

     IMPORTANT: XC functional enforced from input :
     Exchange-correlation= BEEF-VDW
                           (   1   4  43  14   2   0   0)
     Any further DFT definition will be discarded
     Please, verify this is what you really want

     K-points division:     npool     =       4
     R & G space division:  proc/nbgrp/npool/nimage =      64
     Subspace diagonalization in iterative solution of the eigenvalue problem:
     a serial algorithm will be used

     Using Slab Decomposition

     bravais-lattice index     =            4
     lattice parameter (alat)  =      30.6565  a.u.
     unit-cell volume          =   24400.9461 (a.u.)^3
     number of atoms/cell      =          299
     number of atomic types    =            2
     number of electrons       =      2687.00
     number of Kohn-Sham states=         1613
     kinetic-energy cutoff     =      70.0000  Ry
     charge density cutoff     =     350.0000  Ry
     scf convergence threshold =      1.0E-09
     mixing beta               =       0.7000
     number of iterations used =            8  plain     mixing
     energy convergence thresh.=      1.0E-04
     force convergence thresh. =      1.0E-03
     Exchange-correlation= BEEF-VDW
                           (   1   4  43  14   2   0   0)
     nstep                     =           50

     celldm(1)=  30.656540  celldm(2)=   0.000000  celldm(3)=   0.977927
     celldm(4)=   0.000000  celldm(5)=   0.000000  celldm(6)=   0.000000

     crystal axes: (cart. coord. in units of alat)
               a(1) = (   1.000000   0.000000   0.000000 )
               a(2) = (  -0.500000   0.866025   0.000000 )
               a(3) = (   0.000000   0.000000   0.977927 )

     reciprocal axes: (cart. coord. in units 2 pi/alat)
               b(1) = (  1.000000  0.577350 -0.000000 )
               b(2) = (  0.000000  1.154701  0.000000 )
               b(3) = (  0.000000 -0.000000  1.022571 )

     PseudoPot. # 1 for Ga read from file:
     /trace/group/acmegroup/atimmins/packages/espresso/pseudo/psl_1.0.0/pslibrary.1.0.0/pbe/PSEUDOPOTENTIALS/Ga.pbe-dn-kjpaw_psl.1.0.0.UPF
     MD5 check sum: cd2a01e492f15b435d17032472d8505c
     Pseudo is Projector augmented-wave + core cor, Zval = 13.0
     Generated using 'atomic' code by A. Dal Corso  v.7.1
     Shape of augmentation charge: PSQ
     Using radial grid of 1205 points,  6 beta functions with:
                l(1) =   0
                l(2) =   0
                l(3) =   1
                l(4) =   1
                l(5) =   2
                l(6) =   2
     Q(r) pseudized with 0 coefficients

     PseudoPot. # 2 for N  read from file:
     /trace/group/acmegroup/atimmins/packages/espresso/pseudo/psl_1.0.0/pslibrary.1.0.0/pbe/PSEUDOPOTENTIALS/N.pbe-n-kjpaw_psl.1.0.0.UPF
     MD5 check sum: f77f775694dac7e2c3fe1c82443d1a16
     Pseudo is Projector augmented-wave + core cor, Zval =  5.0
     Generated using 'atomic' code by A. Dal Corso  v.7.1
     Shape of augmentation charge: PSQ
     Using radial grid of 1085 points,  4 beta functions with:
                l(1) =   0
                l(2) =   0
                l(3) =   1
                l(4) =   1
     Q(r) pseudized with 0 coefficients

     atomic species   valence    mass     pseudopotential
        Ga            13.00    69.72300     Ga( 1.00)
        N              5.00    14.00700     N ( 1.00)

      2 Sym. Ops. (no inversion) found

                                    s                        frac. trans.

      isym =  1     identity

 cryst.   s( 1) = (     1          0          0      )
                  (     0          1          0      )
                  (     0          0          1      )

 cart.    s( 1) = (  1.0000000  0.0000000  0.0000000 )
                  (  0.0000000  1.0000000  0.0000000 )
                  (  0.0000000  0.0000000  1.0000000 )

      isym =  2     inv. 180 deg rotation - cryst. axis [0,1,0]

 cryst.   s( 2) = (     1          1          0      )
                  (     0         -1          0      )
                  (     0          0          1      )

 cart.    s( 2) = (  0.5000000  0.8660254  0.0000000 )
                  (  0.8660254 -0.5000000  0.0000000 )
                  (  0.0000000  0.0000000  1.0000000 )

     point group C_s (m)
     there are  2 classes
     the character table:

       E     s
A'     1.00  1.00
A''    1.00 -1.00

     the symmetry operations in each class and the name of the first element:

     E        1
          identity
     s        2
          inv. 180 deg rotation - cryst. axis [0,1,0]

   Cartesian axes

     site n.     atom                  positions (alat units)
         1           Ga  tau(   1) = (   0.1000001   0.0577350   0.4886906  )
         2           Ga  tau(   2) = (   0.1000001   0.0577350   0.8146665  )
         3           Ga  tau(   3) = (   0.0000001   0.2309401   0.1627148  )
         4           Ga  tau(   4) = (   0.0000001   0.2309401   0.4886906  )
         5           Ga  tau(   5) = (   0.0000001   0.2309401   0.8146665  )
         6           Ga  tau(   6) = (  -0.0999999   0.4041451   0.1627148  )
         7           Ga  tau(   7) = (  -0.0999999   0.4041451   0.4886906  )
         8           Ga  tau(   8) = (  -0.0999999   0.4041451   0.8146665  )
         9           Ga  tau(   9) = (  -0.1999999   0.5773502   0.1627148  )
        10           Ga  tau(  10) = (  -0.1999999   0.5773502   0.4886906  )
        11           Ga  tau(  11) = (  -0.1999999   0.5773502   0.8146665  )
        12           Ga  tau(  12) = (  -0.2999999   0.7505553   0.1627148  )
        13           Ga  tau(  13) = (  -0.2999999   0.7505553   0.4886906  )
        14           Ga  tau(  14) = (  -0.2999999   0.7505553   0.8146665  )
        15           Ga  tau(  15) = (   0.3000001   0.0577350   0.1627148  )
        16           Ga  tau(  16) = (   0.3000001   0.0577350   0.4886906  )
        17           Ga  tau(  17) = (   0.3000001   0.0577350   0.8146665  )
        18           Ga  tau(  18) = (   0.2000001   0.2309401   0.1627148  )
        19           Ga  tau(  19) = (   0.2000001   0.2309401   0.4886906  )
        20           Ga  tau(  20) = (   0.2000001   0.2309401   0.8146665  )
        21           Ga  tau(  21) = (   0.1000001   0.4041451   0.1627148  )
        22           Ga  tau(  22) = (   0.1000001   0.4041451   0.4886906  )
        23           Ga  tau(  23) = (   0.1000001   0.4041451   0.8146665  )
        24           Ga  tau(  24) = (   0.0000001   0.5773502   0.1627148  )
        25           Ga  tau(  25) = (   0.0000001   0.5773502   0.4886906  )
        26           Ga  tau(  26) = (   0.0000001   0.5773502   0.8146665  )
        27           Ga  tau(  27) = (  -0.0999999   0.7505553   0.1627148  )
        28           Ga  tau(  28) = (  -0.0999999   0.7505553   0.4886906  )
        29           Ga  tau(  29) = (  -0.0999999   0.7505553   0.8146665  )
        30           Ga  tau(  30) = (   0.5000001   0.0577350   0.1627148  )
        31           Ga  tau(  31) = (   0.5000001   0.0577350   0.4886906  )
        32           Ga  tau(  32) = (   0.5000001   0.0577350   0.8146665  )
        33           Ga  tau(  33) = (   0.4000001   0.2309401   0.1627148  )
        34           Ga  tau(  34) = (   0.4000001   0.2309401   0.4886906  )
        35           Ga  tau(  35) = (   0.4000001   0.2309401   0.8146665  )
        36           Ga  tau(  36) = (   0.3000001   0.4041451   0.1627148  )
        37           Ga  tau(  37) = (   0.3000001   0.4041451   0.4886906  )
        38           Ga  tau(  38) = (   0.3000001   0.4041451   0.8146665  )
        39           Ga  tau(  39) = (   0.2000001   0.5773502   0.1627148  )
        40           Ga  tau(  40) = (   0.2000001   0.5773502   0.4886906  )
        41           Ga  tau(  41) = (   0.2000001   0.5773502   0.8146665  )
        42           Ga  tau(  42) = (   0.1000001   0.7505553   0.1627148  )
        43           Ga  tau(  43) = (   0.1000001   0.7505553   0.4886906  )
        44           Ga  tau(  44) = (   0.1000001   0.7505553   0.8146665  )
        45           Ga  tau(  45) = (   0.7000001   0.0577350   0.1627148  )
        46           Ga  tau(  46) = (   0.7000001   0.0577350   0.4886906  )
        47           Ga  tau(  47) = (   0.7000001   0.0577350   0.8146665  )
        48           Ga  tau(  48) = (   0.6000001   0.2309401   0.1627148  )
        49           Ga  tau(  49) = (   0.6000001   0.2309401   0.4886906  )
        50           Ga  tau(  50) = (   0.6000001   0.2309401   0.8146665  )
        51           Ga  tau(  51) = (   0.5000001   0.4041451   0.1627148  )
        52           Ga  tau(  52) = (   0.5000001   0.4041451   0.4886906  )
        53           Ga  tau(  53) = (   0.5000001   0.4041451   0.8146665  )
        54           Ga  tau(  54) = (   0.4000001   0.5773502   0.1627148  )
        55           Ga  tau(  55) = (   0.4000001   0.5773502   0.4886906  )
        56           Ga  tau(  56) = (   0.4000001   0.5773502   0.8146665  )
        57           Ga  tau(  57) = (   0.3000001   0.7505553   0.1627148  )
        58           Ga  tau(  58) = (   0.3000001   0.7505553   0.4886906  )
        59           Ga  tau(  59) = (   0.3000001   0.7505553   0.8146665  )
        60           Ga  tau(  60) = (   0.9000001   0.0577350   0.1627148  )
[...]
       285           N   tau( 285) = (   0.7999999   0.1154701   0.1225140  )
       286           N   tau( 286) = (   0.7999999   0.1154701   0.4484898  )
       287           N   tau( 287) = (   0.7999999   0.1154701   0.7744656  )
       288           N   tau( 288) = (   0.6999999   0.2886752   0.1225140  )
       289           N   tau( 289) = (   0.6999999   0.2886752   0.4484898  )
       290           N   tau( 290) = (   0.6999999   0.2886752   0.7744656  )
       291           N   tau( 291) = (   0.5999999   0.4618803   0.1225140  )
       292           N   tau( 292) = (   0.5999999   0.4618803   0.4484898  )
       293           N   tau( 293) = (   0.5999999   0.4618803   0.7744656  )
       294           N   tau( 294) = (   0.4999999   0.6350854   0.1225140  )
       295           N   tau( 295) = (   0.4999999   0.6350854   0.4484898  )
       296           N   tau( 296) = (   0.4999999   0.6350854   0.7744656  )
       297           N   tau( 297) = (   0.3999999   0.8082905   0.1225140  )
       298           N   tau( 298) = (   0.3999999   0.8082905   0.4484898  )
       299           N   tau( 299) = (   0.3999999   0.8082905   0.7744656  )

   Crystallographic axes

     site n.     atom                  positions (cryst. coord.)
[...]
     atom   54 type  1   force =     0.00000000    0.00000000    0.00000000
     atom   55 type  1   force =     0.00000000    0.00000000    0.00000000
     atom   56 type  1   force =     0.00000000    0.00000000    0.00000000
     atom   57 type  1   force =     0.00000000    0.00000000    0.00000000
     atom   58 type  1   force =     0.00000000    0.00000000    0.00000000
     atom   59 type  1   force =     0.00000000    0.00000000    0.00000000
     atom   60 type  1   force =     0.00000000    0.00000000    0.00000000
[...]
     atom  285 type  2   force =     0.00000000    0.00000000    0.00000000
     atom  286 type  2   force =     0.00000000    0.00000000    0.00000000
     atom  287 type  2   force =     0.00000000    0.00000000    0.00000000
     atom  288 type  2   force =     0.00000000    0.00000000    0.00000000
     atom  289 type  2   force =     0.00000000    0.00000000    0.00000000
     atom  290 type  2   force =     0.00000000    0.00000000    0.00000000
     atom  291 type  2   force =     0.00000000    0.00000000    0.00000000
     atom  292 type  2   force =     0.00000000    0.00000000    0.00000000
     atom  293 type  2   force =     0.00000000    0.00000000    0.00000000
     atom  294 type  2   force =     0.00000000    0.00000000    0.00000000
     atom  295 type  2   force =     0.00000000    0.00000000    0.00000000
     atom  296 type  2   force =     0.00000000    0.00000000    0.00000000
     atom  297 type  2   force =     0.00000000    0.00000000    0.00000000
     atom  298 type  2   force =     0.00000000    0.00000000    0.00000000
     atom  299 type  2   force =     0.00000000    0.00000000    0.00000000
     The SCF correction term to forces
     atom    1 type  1   force =     0.00000008    0.00000005    0.00000685
     atom    2 type  1   force =     0.00000019    0.00000011   -0.00000173
     atom    3 type  1   force =     0.00000083   -0.00000527   -0.00000444
     atom    4 type  1   force =    -0.00000007    0.00000040    0.00000378
     atom    5 type  1   force =     0.00000130   -0.00000171   -0.00000081
     atom    6 type  1   force =     0.00000041    0.00000027   -0.00000039
     atom    7 type  1   force =     0.00000028    0.00000004    0.00000150
     atom    8 type  1   force =     0.00000125   -0.00000067   -0.00000099
     atom    9 type  1   force =     0.00000044    0.00000023   -0.00000039
     atom   10 type  1   force =     0.00000018    0.00000022    0.00000150
     atom   11 type  1   force =     0.00000004    0.00000142   -0.00000099
     atom   12 type  1   force =    -0.00000415    0.00000336   -0.00000444
     atom   13 type  1   force =     0.00000031   -0.00000026    0.00000378
     atom   14 type  1   force =    -0.00000083    0.00000198   -0.00000081
     atom   15 type  1   force =    -0.00000589    0.00000318   -0.00000501
     atom   16 type  1   force =     0.00000037   -0.00000003    0.00000375
     atom   17 type  1   force =    -0.00000223   -0.00000009   -0.00000059
     atom   18 type  1   force =    -0.00000019   -0.00000669   -0.00000501
     atom   19 type  1   force =     0.00000015    0.00000033    0.00000375
     atom   20 type  1   force =    -0.00000119   -0.00000188   -0.00000059
     atom   21 type  1   force =    -0.00000007    0.00000078   -0.00000093
     atom   22 type  1   force =    -0.00000002   -0.00000012    0.00000209
     atom   23 type  1   force =    -0.00000006   -0.00000131   -0.00000127
     atom   24 type  1   force =     0.00000057    0.00000033   -0.00000045
     atom   25 type  1   force =    -0.00000018   -0.00000010    0.00000099
     atom   26 type  1   force =    -0.00000000   -0.00000000   -0.00000053
     atom   27 type  1   force =     0.00000064   -0.00000045   -0.00000093
     atom   28 type  1   force =    -0.00000012    0.00000004    0.00000209
     atom   29 type  1   force =    -0.00000116    0.00000060   -0.00000127
     atom   30 type  1   force =    -0.00000046   -0.00000043   -0.00000033
     atom   31 type  1   force =    -0.00000025   -0.00000020    0.00000150
     atom   32 type  1   force =    -0.00000147   -0.00000070   -0.00000106
     atom   33 type  1   force =    -0.00000139   -0.00000080   -0.00000068
     atom   34 type  1   force =    -0.00000053   -0.00000031    0.00000165
     atom   35 type  1   force =    -0.00000229   -0.00000132   -0.00000110
     atom   36 type  1   force =    -0.00000060   -0.00000018   -0.00000033
     atom   37 type  1   force =    -0.00000030   -0.00000011    0.00000150
     atom   38 type  1   force =    -0.00000134   -0.00000092   -0.00000106
     atom   39 type  1   force =    -0.00000095    0.00000028   -0.00000038
     atom   40 type  1   force =     0.00000002   -0.00000014    0.00000103
     atom   41 type  1   force =    -0.00000026   -0.00000004   -0.00000058
     atom   42 type  1   force =    -0.00000023   -0.00000096   -0.00000038
     atom   43 type  1   force =    -0.00000011    0.00000009    0.00000103
     atom   44 type  1   force =    -0.00000017   -0.00000020   -0.00000058
     atom   45 type  1   force =    -0.00000013   -0.00000044   -0.00000021
     atom   46 type  1   force =     0.00000007   -0.00000017    0.00000155
     atom   47 type  1   force =     0.00000121   -0.00000064   -0.00000114
     atom   48 type  1   force =    -0.00000006    0.00000034    0.00000059
     atom   49 type  1   force =    -0.00000005   -0.00000022    0.00000041
     atom   50 type  1   force =    -0.00000002   -0.00000075   -0.00000070
     atom   51 type  1   force =     0.00000026   -0.00000022    0.00000059
     atom   52 type  1   force =    -0.00000021    0.00000007    0.00000041
     atom   53 type  1   force =    -0.00000066    0.00000036   -0.00000070
     atom   54 type  1   force =    -0.00000044    0.00000011   -0.00000021
     atom   55 type  1   force =    -0.00000011    0.00000015    0.00000155
     atom   56 type  1   force =     0.00000004    0.00000137   -0.00000114
     atom   57 type  1   force =    -0.00000086   -0.00000049   -0.00000087
     atom   58 type  1   force =     0.00000006    0.00000004    0.00000215
     atom   59 type  1   force =     0.00000103    0.00000060   -0.00000139
     atom   60 type  1   force =     0.00000510    0.00000240   -0.00000429
[...]
     atom  285 type  2   force =     0.00000090   -0.00000002   -0.00000048
     atom  286 type  2   force =    -0.00000000    0.00000009    0.00000093
     atom  287 type  2   force =     0.00000094   -0.00000025   -0.00000040
     atom  288 type  2   force =    -0.00000002    0.00000014    0.00000001
     atom  289 type  2   force =     0.00000001    0.00000004    0.00000025
     atom  290 type  2   force =     0.00000049   -0.00000021   -0.00000037
     atom  291 type  2   force =     0.00000011   -0.00000009    0.00000001
     atom  292 type  2   force =     0.00000004   -0.00000001    0.00000025
     atom  293 type  2   force =     0.00000006    0.00000053   -0.00000037
     atom  294 type  2   force =     0.00000043    0.00000079   -0.00000048
     atom  295 type  2   force =     0.00000008   -0.00000005    0.00000093
     atom  296 type  2   force =     0.00000025    0.00000094   -0.00000040
     atom  297 type  2   force =     0.00000122    0.00000070   -0.00000086
     atom  298 type  2   force =    -0.00000013   -0.00000008    0.00000135
     atom  299 type  2   force =     0.00000081    0.00000047   -0.00000035

     Total force =     0.027886     Total SCF correction =     0.000034

     Computing stress (Cartesian axis) and pressure

[...]

          total   stress  (Ry/bohr**3)                   (kbar)     P=        1.49
   0.00000525  -0.00000004   0.00000003            0.77       -0.01        0.00
  -0.00000004   0.00000530   0.00000002           -0.01        0.78        0.00
   0.00000003   0.00000002   0.00001980            0.00        0.00        2.91

     kinetic stress (kbar)  18370.14     -0.01      0.00
                               -0.01  18370.15      0.00
                                0.00      0.00  18368.69

     local   stress (kbar)   5131.84      0.92     -0.35
                                0.92   5130.61     -0.20
                               -0.35     -0.20   3460.72

     nonloc. stress (kbar)     64.79      0.02     -0.01
                                0.02     64.77     -0.00
                               -0.01     -0.00     74.51

     hartree stress (kbar)  19594.64     -0.36      0.12
                               -0.36  19595.06      0.07
                                0.12      0.07  20355.34

     exc-cor stress (kbar)   5177.39     -0.00      0.00
                               -0.00   5177.40      0.00
                                0.00      0.00   5177.79

     corecor stress (kbar) -14020.37      0.00     -0.00
                                0.00 -14020.37     -0.00
                               -0.00     -0.00 -14019.88

     ewald   stress (kbar) -34478.86     -0.55      0.23
                               -0.55 -34477.99      0.14
                                0.23      0.14 -33574.53

     hubbard stress (kbar)      0.00      0.00      0.00
                                0.00      0.00      0.00
                                0.00      0.00      0.00

     DFT-D   stress (kbar)      0.00      0.00      0.00
                                0.00      0.00      0.00
                                0.00      0.00      0.00

     XDM     stress (kbar)      0.00      0.00      0.00
                                0.00      0.00      0.00
                                0.00      0.00      0.00

     dft-nl  stress (kbar)    161.16      0.00     -0.00
                                0.00    161.16     -0.00
                               -0.00     -0.00    160.28

     TS-vdW  stress (kbar)      0.00      0.00      0.00
                                0.00      0.00      0.00
                                0.00      0.00      0.00

     MDB     stress (kbar)      0.00      0.00      0.00
                                0.00      0.00      0.00
                                0.00      0.00      0.00

     3D-RISM stress (kbar)      0.00      0.00      0.00
                                0.00      0.00      0.00
                                0.00      0.00      0.00

     Energy error            =      1.9E-03 Ry
     Gradient error          =      7.6E-03 Ry/Bohr

     number of scf cycles    =   6
     number of bfgs steps    =   5

     energy             old  =  -46559.6857854681 Ry
     energy             new  =  -46559.6877193306 Ry

     CASE: energy            _new < energy            _old

     new trust radius        =       0.0618528900 bohr
     new conv_thr            =            7.6E-11 Ry

ATOMIC_POSITIONS (angstrom)
Ga            1.6218403091        0.9363684681        7.9077508066
Ga            1.6218069419        0.9363492035       13.2067845385
Ga            0.0255951598        3.7272030718        2.6503286186
Ga           -0.0005463560        3.7449825181        7.9229530138
Ga            0.0018356731        3.7441734717       13.2194460618
Ga           -1.6171700733        6.5552035349        2.6427610309
Ga           -1.6225854854        6.5561995937        7.9276201739
Ga           -1.6218630915        6.5554230201       13.2165349141
Ga           -3.2429820174        9.3711924257        2.6427610309
Ga           -3.2448271113        9.3660045119        7.9276201739
Ga           -3.2451384468        9.3670184102       13.2165349141
Ga           -4.8707196437       12.2078690815        2.6503286186
Ga           -4.8683929495       12.1763401416        7.9229530138
Ga           -4.8679025897       12.1788075626       13.2194460618
Ga            4.8371864046        0.9228974778        2.6500583674
Ga            4.8660554285        0.9374640862        7.9224352724
Ga            4.8640239934        0.9356929754       13.2191714726
Ga            3.2178471370        3.7276753640        2.6500583674
Ga            3.2448967019        3.7453933678        7.9224352724
Ga            3.2423471574        3.7445196489       13.2191714726
Ga            1.6224664107        6.5561501095        2.6420684815
Ga            1.6225145245        6.5564547513        7.9276785424
Ga            1.6225023301        6.5550397685       13.2162587518
Ga            0.0011172482        9.3668480828        2.6402260911
Ga           -0.0000461079        9.3661764188        7.9275738402
Ga            0.0000108128        9.3662092820       13.2159355165
Ga           -1.6223440178       12.1763266327        2.6420684815
Ga           -1.6220561333       12.1762159795        7.9276785424
Ga           -1.6232876417       12.1769129103       13.2162587518
Ga            8.1080769557        0.9323963095        2.6425728377
Ga            8.1115416407        0.9365625882        7.9274768097
Ga            8.1105222939        0.9363324345       13.2163720805
Ga            6.4814750657        3.7420799031        2.6382454723
Ga            6.4890565045        3.7464570488        7.9273241980
Ga            6.4888700166        3.7463493800       13.2163953360
Ga            4.8615186422        6.5556002586        2.6425728377
Ga            4.8668590879        6.5565176244        7.9274768097
Ga            4.8661500955        6.5557499211       13.2163720805
Ga            3.2438330869        9.3667694934        2.6405171817
Ga            3.2449635813        9.3661180974        7.9278601442
Ga            3.2449164605        9.3661477900       13.2162173354
Ga            1.6224071072       12.1751616712        2.6405171817
Ga            1.6224082288       12.1764664061        7.9278601442
Ga            1.6224103830       12.1764107520       13.2162173354
Ga           11.3588915372        0.9318601011        2.6426267348
Ga           11.3555178196        0.9362339313        7.9274536283
Ga           11.3565418752        0.9359693752       13.2163122406
Ga            9.7332830912        3.7455539492        2.6411639096
Ga            9.7332793765        3.7467788792        7.9278862679
Ga            9.7332742300        3.7466485440       13.2162347466
Ga            8.1103876906        6.5564912384        2.6411639096
Ga            8.1114466538        6.5558755564        7.9278862679
Ga            8.1113312069        6.5559362670       13.2162347466
Ga            6.4864615628        9.3711563733        2.6426267348
Ga            6.4885625521        9.3660477331        7.9274536283
Ga            6.4888454676        9.3670668693       13.2163122406
Ga            4.8664643365       12.1758575340        2.6422919473
Ga            4.8664899280       12.1758723093        7.9279659394
Ga            4.8677303502       12.1765884674       13.2164671436
Ga           14.6289016387        0.9225423827        2.6500557098
[...]
N            12.9757408762        1.8682192624        1.9909106785
N            12.9761739662        1.8732807252        7.2749084495
N            12.9790599438        1.8730418791       12.5639685425
N            11.3564843472        4.6828285436        1.9873895973
N            11.3557354581        4.6832754104        7.2756617868
N            11.3557772600        4.6832530676       12.5635918127
N             9.7336883338        7.4935936892        1.9873895973
N             9.7337008873        7.4927216988        7.2756617868
N             9.7337024389        7.4927690717       12.5635918127
N             8.1057934592       10.3032156190        1.9909106785
N             8.1103933596       10.3010599546        7.2749084495
N             8.1116295016       10.3036787076       12.5639685425
N             6.4846008528       13.1100932372        1.9885133074
N             6.4873161654       13.1116609236        7.2753270282
N             6.4891781853       13.1127359613       12.5611085585

     Writing config-only to output data dir ./GaN.save/
     NEW-OLD atomic charge density approx. for the potential

     Check: negative core charge=   -0.000003

[...]

     Self-consistent Calculation

[...]

     ethr =  1.00E-06,  avg # of iterations = 14.2

[...]

     c_bands:  1 eigenvalues not converged
     ethr =  1.60E-06,  avg # of iterations = 10.5

     Non-local corr. energy    =      81.30460541 Ry

     total energy              =  -46559.66712974 Ry
     estimated scf accuracy    <       0.05170900 Ry

     iteration #  3     ecut=    70.00 Ry     beta= 0.70
     Davidson diagonalization with overlap

     max_seconds     =  154800.00
     Calculation stopped in k-point loop, point #     1
     Calculation stopped in scf loop at iteration #     2

     Writing config to output data dir ./GaN.save/

     General routines

     Parallel routines

     PAW routines

   This run was terminated on:   5:18:33   6Feb2024

   JOB DONE.