     Program PWSCF v.7.1 starts on  6Feb2024 at 10:12: 3

     Reading input from espresso.pwi
Warning: card &CELL ignored
Warning: card    CELL_DYNAMICS    = 'BFGS' ignored
Warning: card / ignored

     Current dimensions of program PWSCF are:
     Max number of different atomic species (ntypx) = 10
     Max number of k-points (npk) =  40000
     Max angular momentum in pseudopotentials (lmaxx) =  4
     file Ga.pbe-dn-kjpaw_psl.1.0.0.UPF: wavefunction(s)  4S renormalized
     file N.pbe-n-kjpaw_psl.1.0.0.UPF: wavefunction(s)  2S renormalized

     IMPORTANT: XC functional enforced from input :
     Exchange-correlation= BEEF-VDW
                           (   1   4  43  14   2   0   0)
     Any further DFT definition will be discarded
     Please, verify this is what you really want

     K-points division:     npool     =       4
     R & G space division:  proc/nbgrp/npool/nimage =      64
     Subspace diagonalization in iterative solution of the eigenvalue problem:
     a serial algorithm will be used

     Using Slab Decomposition

     bravais-lattice index     =            4
     lattice parameter (alat)  =      30.6565  a.u.
     unit-cell volume          =   24400.9461 (a.u.)^3
     number of atoms/cell      =          299
     number of atomic types    =            2
     number of electrons       =      2687.00
     number of Kohn-Sham states=         1613
     kinetic-energy cutoff     =      70.0000  Ry
     charge density cutoff     =     350.0000  Ry
     scf convergence threshold =      1.0E-09
     mixing beta               =       0.7000
     number of iterations used =            8  plain     mixing
     energy convergence thresh.=      1.0E-04
     force convergence thresh. =      1.0E-03
     Exchange-correlation= BEEF-VDW
                           (   1   4  43  14   2   0   0)
     nstep                     =           50

     celldm(1)=  30.656540  celldm(2)=   0.000000  celldm(3)=   0.977927
     celldm(4)=   0.000000  celldm(5)=   0.000000  celldm(6)=   0.000000

     crystal axes: (cart. coord. in units of alat)
               a(1) = (   1.000000   0.000000   0.000000 )
               a(2) = (  -0.500000   0.866025   0.000000 )
               a(3) = (   0.000000   0.000000   0.977927 )

     reciprocal axes: (cart. coord. in units 2 pi/alat)
               b(1) = (  1.000000  0.577350 -0.000000 )
               b(2) = (  0.000000  1.154701  0.000000 )
               b(3) = (  0.000000 -0.000000  1.022571 )

     PseudoPot. # 1 for Ga read from file:
     /trace/group/acmegroup/atimmins/packages/espresso/pseudo/psl_1.0.0/pslibrary.1.0.0/pbe/PSEUDOPOTENTIALS/Ga.pbe-dn-kjpaw_psl.1.0.0.UPF
     MD5 check sum: cd2a01e492f15b435d17032472d8505c
     Pseudo is Projector augmented-wave + core cor, Zval = 13.0
     Generated using 'atomic' code by A. Dal Corso  v.7.1
     Shape of augmentation charge: PSQ
     Using radial grid of 1205 points,  6 beta functions with:
                l(1) =   0
                l(2) =   0
                l(3) =   1
                l(4) =   1
                l(5) =   2
                l(6) =   2
     Q(r) pseudized with 0 coefficients

     PseudoPot. # 2 for N  read from file:
     /trace/group/acmegroup/atimmins/packages/espresso/pseudo/psl_1.0.0/pslibrary.1.0.0/pbe/PSEUDOPOTENTIALS/N.pbe-n-kjpaw_psl.1.0.0.UPF
     MD5 check sum: f77f775694dac7e2c3fe1c82443d1a16
     Pseudo is Projector augmented-wave + core cor, Zval =  5.0
     Generated using 'atomic' code by A. Dal Corso  v.7.1
     Shape of augmentation charge: PSQ
     Using radial grid of 1085 points,  4 beta functions with:
                l(1) =   0
                l(2) =   0
                l(3) =   1
                l(4) =   1
     Q(r) pseudized with 0 coefficients

     atomic species   valence    mass     pseudopotential
        Ga            13.00    69.72300     Ga( 1.00)
        N              5.00    14.00700     N ( 1.00)

      2 Sym. Ops. (no inversion) found

                                    s                        frac. trans.

      isym =  1     identity

 cryst.   s( 1) = (     1          0          0      )
                  (     0          1          0      )
                  (     0          0          1      )

 cart.    s( 1) = (  1.0000000  0.0000000  0.0000000 )
                  (  0.0000000  1.0000000  0.0000000 )
                  (  0.0000000  0.0000000  1.0000000 )

      isym =  2     inv. 180 deg rotation - cryst. axis [0,1,0]

 cryst.   s( 2) = (     1          1          0      )
                  (     0         -1          0      )
                  (     0          0          1      )

 cart.    s( 2) = (  0.5000000  0.8660254  0.0000000 )
                  (  0.8660254 -0.5000000  0.0000000 )
                  (  0.0000000  0.0000000  1.0000000 )

     point group C_s (m)
     there are  2 classes
     the character table:

       E     s
A'     1.00  1.00
A''    1.00 -1.00

     the symmetry operations in each class and the name of the first element:

     E        1
          identity
     s        2
          inv. 180 deg rotation - cryst. axis [0,1,0]

   Cartesian axes

     site n.     atom                  positions (alat units)
         1           Ga  tau(   1) = (   0.1000001   0.0577350   0.4886906  )
         2           Ga  tau(   2) = (   0.1000001   0.0577350   0.8146665  )
         3           Ga  tau(   3) = (   0.0000001   0.2309401   0.1627148  )
         4           Ga  tau(   4) = (   0.0000001   0.2309401   0.4886906  )
         5           Ga  tau(   5) = (   0.0000001   0.2309401   0.8146665  )
         6           Ga  tau(   6) = (  -0.0999999   0.4041451   0.1627148  )
         7           Ga  tau(   7) = (  -0.0999999   0.4041451   0.4886906  )
         8           Ga  tau(   8) = (  -0.0999999   0.4041451   0.8146665  )
         9           Ga  tau(   9) = (  -0.1999999   0.5773502   0.1627148  )
        10           Ga  tau(  10) = (  -0.1999999   0.5773502   0.4886906  )
        11           Ga  tau(  11) = (  -0.1999999   0.5773502   0.8146665  )
        12           Ga  tau(  12) = (  -0.2999999   0.7505553   0.1627148  )
        13           Ga  tau(  13) = (  -0.2999999   0.7505553   0.4886906  )
        14           Ga  tau(  14) = (  -0.2999999   0.7505553   0.8146665  )
        15           Ga  tau(  15) = (   0.3000001   0.0577350   0.1627148  )
        16           Ga  tau(  16) = (   0.3000001   0.0577350   0.4886906  )
        17           Ga  tau(  17) = (   0.3000001   0.0577350   0.8146665  )
        18           Ga  tau(  18) = (   0.2000001   0.2309401   0.1627148  )
        19           Ga  tau(  19) = (   0.2000001   0.2309401   0.4886906  )
        20           Ga  tau(  20) = (   0.2000001   0.2309401   0.8146665  )
        21           Ga  tau(  21) = (   0.1000001   0.4041451   0.1627148  )
        22           Ga  tau(  22) = (   0.1000001   0.4041451   0.4886906  )
        23           Ga  tau(  23) = (   0.1000001   0.4041451   0.8146665  )
        24           Ga  tau(  24) = (   0.0000001   0.5773502   0.1627148  )
        25           Ga  tau(  25) = (   0.0000001   0.5773502   0.4886906  )
        26           Ga  tau(  26) = (   0.0000001   0.5773502   0.8146665  )
        27           Ga  tau(  27) = (  -0.0999999   0.7505553   0.1627148  )
        28           Ga  tau(  28) = (  -0.0999999   0.7505553   0.4886906  )
        29           Ga  tau(  29) = (  -0.0999999   0.7505553   0.8146665  )
        30           Ga  tau(  30) = (   0.5000001   0.0577350   0.1627148  )
        31           Ga  tau(  31) = (   0.5000001   0.0577350   0.4886906  )
        32           Ga  tau(  32) = (   0.5000001   0.0577350   0.8146665  )
        33           Ga  tau(  33) = (   0.4000001   0.2309401   0.1627148  )
        34           Ga  tau(  34) = (   0.4000001   0.2309401   0.4886906  )
        35           Ga  tau(  35) = (   0.4000001   0.2309401   0.8146665  )
        36           Ga  tau(  36) = (   0.3000001   0.4041451   0.1627148  )
        37           Ga  tau(  37) = (   0.3000001   0.4041451   0.4886906  )
        38           Ga  tau(  38) = (   0.3000001   0.4041451   0.8146665  )
        39           Ga  tau(  39) = (   0.2000001   0.5773502   0.1627148  )
        40           Ga  tau(  40) = (   0.2000001   0.5773502   0.4886906  )
        41           Ga  tau(  41) = (   0.2000001   0.5773502   0.8146665  )
        42           Ga  tau(  42) = (   0.1000001   0.7505553   0.1627148  )
        43           Ga  tau(  43) = (   0.1000001   0.7505553   0.4886906  )
        44           Ga  tau(  44) = (   0.1000001   0.7505553   0.8146665  )
        45           Ga  tau(  45) = (   0.7000001   0.0577350   0.1627148  )
        46           Ga  tau(  46) = (   0.7000001   0.0577350   0.4886906  )
        47           Ga  tau(  47) = (   0.7000001   0.0577350   0.8146665  )
        48           Ga  tau(  48) = (   0.6000001   0.2309401   0.1627148  )
        49           Ga  tau(  49) = (   0.6000001   0.2309401   0.4886906  )
        50           Ga  tau(  50) = (   0.6000001   0.2309401   0.8146665  )
        51           Ga  tau(  51) = (   0.5000001   0.4041451   0.1627148  )
        52           Ga  tau(  52) = (   0.5000001   0.4041451   0.4886906  )
        53           Ga  tau(  53) = (   0.5000001   0.4041451   0.8146665  )
        54           Ga  tau(  54) = (   0.4000001   0.5773502   0.1627148  )
        55           Ga  tau(  55) = (   0.4000001   0.5773502   0.4886906  )
        56           Ga  tau(  56) = (   0.4000001   0.5773502   0.8146665  )
        57           Ga  tau(  57) = (   0.3000001   0.7505553   0.1627148  )
        58           Ga  tau(  58) = (   0.3000001   0.7505553   0.4886906  )
        59           Ga  tau(  59) = (   0.3000001   0.7505553   0.8146665  )
        60           Ga  tau(  60) = (   0.9000001   0.0577350   0.1627148  )
[...]
       285           N   tau( 285) = (   0.7999999   0.1154701   0.1225140  )
       286           N   tau( 286) = (   0.7999999   0.1154701   0.4484898  )
       287           N   tau( 287) = (   0.7999999   0.1154701   0.7744656  )
       288           N   tau( 288) = (   0.6999999   0.2886752   0.1225140  )
       289           N   tau( 289) = (   0.6999999   0.2886752   0.4484898  )
       290           N   tau( 290) = (   0.6999999   0.2886752   0.7744656  )
       291           N   tau( 291) = (   0.5999999   0.4618803   0.1225140  )
       292           N   tau( 292) = (   0.5999999   0.4618803   0.4484898  )
       293           N   tau( 293) = (   0.5999999   0.4618803   0.7744656  )
       294           N   tau( 294) = (   0.4999999   0.6350854   0.1225140  )
       295           N   tau( 295) = (   0.4999999   0.6350854   0.4484898  )
       296           N   tau( 296) = (   0.4999999   0.6350854   0.7744656  )
       297           N   tau( 297) = (   0.3999999   0.8082905   0.1225140  )
       298           N   tau( 298) = (   0.3999999   0.8082905   0.4484898  )
       299           N   tau( 299) = (   0.3999999   0.8082905   0.7744656  )

   Crystallographic axes

     site n.     atom                  positions (cryst. coord.)
[...]
     atom   53 type  1   force =     0.00000000    0.00000000    0.00000000
     atom   54 type  1   force =     0.00000000    0.00000000    0.00000000
     atom   55 type  1   force =     0.00000000    0.00000000    0.00000000
     atom   56 type  1   force =     0.00000000    0.00000000    0.00000000
     atom   57 type  1   force =     0.00000000    0.00000000    0.00000000
     atom   58 type  1   force =     0.00000000    0.00000000    0.00000000
     atom   59 type  1   force =     0.00000000    0.00000000    0.00000000
     atom   60 type  1   force =     0.00000000    0.00000000    0.00000000
[...]
     atom  285 type  2   force =     0.00000000    0.00000000    0.00000000
     atom  286 type  2   force =     0.00000000    0.00000000    0.00000000
     atom  287 type  2   force =     0.00000000    0.00000000    0.00000000
     atom  288 type  2   force =     0.00000000    0.00000000    0.00000000
     atom  289 type  2   force =     0.00000000    0.00000000    0.00000000
     atom  290 type  2   force =     0.00000000    0.00000000    0.00000000
     atom  291 type  2   force =     0.00000000    0.00000000    0.00000000
     atom  292 type  2   force =     0.00000000    0.00000000    0.00000000
     atom  293 type  2   force =     0.00000000    0.00000000    0.00000000
     atom  294 type  2   force =     0.00000000    0.00000000    0.00000000
     atom  295 type  2   force =     0.00000000    0.00000000    0.00000000
     atom  296 type  2   force =     0.00000000    0.00000000    0.00000000
     atom  297 type  2   force =     0.00000000    0.00000000    0.00000000
     atom  298 type  2   force =     0.00000000    0.00000000    0.00000000
     atom  299 type  2   force =     0.00000000    0.00000000    0.00000000
     The SCF correction term to forces
     atom    1 type  1   force =    -0.00000003   -0.00000002   -0.00000267
     atom    2 type  1   force =    -0.00000000   -0.00000000    0.00000087
     atom    3 type  1   force =    -0.00000058    0.00000031    0.00000005
     atom    4 type  1   force =     0.00000004    0.00000002   -0.00000108
     atom    5 type  1   force =    -0.00000041    0.00000048    0.00000069
     atom    6 type  1   force =    -0.00000045   -0.00000019   -0.00000037
     atom    7 type  1   force =    -0.00000028    0.00000003   -0.00000061
     atom    8 type  1   force =    -0.00000048    0.00000001    0.00000086
     atom    9 type  1   force =    -0.00000039   -0.00000030   -0.00000037
     atom   10 type  1   force =    -0.00000011   -0.00000026   -0.00000061
     atom   11 type  1   force =    -0.00000023   -0.00000042    0.00000086
     atom   12 type  1   force =    -0.00000003   -0.00000066    0.00000005
     atom   13 type  1   force =     0.00000004    0.00000003   -0.00000108
     atom   14 type  1   force =     0.00000021   -0.00000059    0.00000069
     atom   15 type  1   force =     0.00000044    0.00000070   -0.00000011
     atom   16 type  1   force =     0.00000005   -0.00000004   -0.00000111
     atom   17 type  1   force =     0.00000069    0.00000012    0.00000072
     atom   18 type  1   force =     0.00000082    0.00000003   -0.00000011
     atom   19 type  1   force =    -0.00000001    0.00000006   -0.00000111
     atom   20 type  1   force =     0.00000045    0.00000053    0.00000072
     atom   21 type  1   force =     0.00000009   -0.00000039   -0.00000023
     atom   22 type  1   force =     0.00000005    0.00000018   -0.00000057
     atom   23 type  1   force =     0.00000007    0.00000021    0.00000072
     atom   24 type  1   force =    -0.00000021   -0.00000012   -0.00000031
     atom   25 type  1   force =     0.00000004    0.00000002   -0.00000044
     atom   26 type  1   force =    -0.00000002   -0.00000001    0.00000070
     atom   27 type  1   force =    -0.00000029    0.00000027   -0.00000023
     atom   28 type  1   force =     0.00000017   -0.00000005   -0.00000057
     atom   29 type  1   force =     0.00000022   -0.00000005    0.00000072
     atom   30 type  1   force =     0.00000003    0.00000055   -0.00000043
     atom   31 type  1   force =     0.00000018    0.00000022   -0.00000061
     atom   32 type  1   force =     0.00000026    0.00000041    0.00000088
     atom   33 type  1   force =     0.00000007    0.00000004   -0.00000063
     atom   34 type  1   force =     0.00000029    0.00000017   -0.00000072
     atom   35 type  1   force =     0.00000063    0.00000037    0.00000089
     atom   36 type  1   force =     0.00000049   -0.00000025   -0.00000043
     atom   37 type  1   force =     0.00000028    0.00000005   -0.00000061
     atom   38 type  1   force =     0.00000049    0.00000002    0.00000088
     atom   39 type  1   force =     0.00000030   -0.00000014   -0.00000032
     atom   40 type  1   force =     0.00000002    0.00000002   -0.00000043
     atom   41 type  1   force =     0.00000010   -0.00000003    0.00000070
     atom   42 type  1   force =     0.00000003    0.00000033   -0.00000032
     atom   43 type  1   force =     0.00000003    0.00000001   -0.00000043
     atom   44 type  1   force =     0.00000003    0.00000010    0.00000070
     atom   45 type  1   force =    -0.00000006    0.00000048   -0.00000041
     atom   46 type  1   force =    -0.00000017    0.00000020   -0.00000059
     atom   47 type  1   force =    -0.00000026    0.00000039    0.00000086
     atom   48 type  1   force =    -0.00000006    0.00000041   -0.00000069
     atom   49 type  1   force =    -0.00000001    0.00000030   -0.00000054
     atom   50 type  1   force =    -0.00000002    0.00000040    0.00000088
     atom   51 type  1   force =     0.00000032   -0.00000026   -0.00000069
     atom   52 type  1   force =     0.00000026   -0.00000016   -0.00000054
     atom   53 type  1   force =     0.00000034   -0.00000022    0.00000088
     atom   54 type  1   force =     0.00000038   -0.00000029   -0.00000041
     atom   55 type  1   force =     0.00000009   -0.00000025   -0.00000059
     atom   56 type  1   force =     0.00000020   -0.00000042    0.00000086
     atom   57 type  1   force =     0.00000029    0.00000017   -0.00000024
     atom   58 type  1   force =    -0.00000014   -0.00000008   -0.00000055
     atom   59 type  1   force =    -0.00000019   -0.00000011    0.00000070
     atom   60 type  1   force =    -0.00000068    0.00000040    0.00000007
[...]
     atom  285 type  2   force =    -0.00000008    0.00000010   -0.00000005
     atom  286 type  2   force =    -0.00000002    0.00000005   -0.00000032
     atom  287 type  2   force =    -0.00000030    0.00000011    0.00000037
     atom  288 type  2   force =    -0.00000022    0.00000010   -0.00000020
     atom  289 type  2   force =    -0.00000015    0.00000008   -0.00000024
     atom  290 type  2   force =    -0.00000019    0.00000009    0.00000040
     atom  291 type  2   force =    -0.00000002   -0.00000024   -0.00000020
     atom  292 type  2   force =    -0.00000001   -0.00000017   -0.00000024
     atom  293 type  2   force =    -0.00000001   -0.00000021    0.00000040
     atom  294 type  2   force =     0.00000005   -0.00000012   -0.00000005
     atom  295 type  2   force =     0.00000003   -0.00000004   -0.00000032
     atom  296 type  2   force =    -0.00000005   -0.00000032    0.00000037
     atom  297 type  2   force =     0.00000001    0.00000001    0.00000007
     atom  298 type  2   force =     0.00000017    0.00000010   -0.00000042
     atom  299 type  2   force =    -0.00000023   -0.00000014    0.00000032

     Total force =     0.010820     Total SCF correction =     0.000012

     Computing stress (Cartesian axis) and pressure

[...]

          total   stress  (Ry/bohr**3)                   (kbar)     P=        1.96
   0.00000889   0.00000000  -0.00000000            1.31        0.00       -0.00
   0.00000000   0.00000889  -0.00000000            0.00        1.31       -0.00
  -0.00000000  -0.00000000   0.00002218           -0.00       -0.00        3.26

     kinetic stress (kbar)  18373.19     -0.00     -0.00
                               -0.00  18373.19     -0.00
                               -0.00     -0.00  18371.32

     local   stress (kbar)   5103.14      0.63     -0.06
                                0.63   5102.24     -0.03
                               -0.06     -0.03   3439.51

     nonloc. stress (kbar)     61.89      0.01     -0.00
                                0.01     61.88     -0.00
                               -0.00     -0.00     71.89

     hartree stress (kbar)  19608.87     -0.26      0.02
                               -0.26  19609.18      0.01
                                0.02      0.01  20367.18

     exc-cor stress (kbar)   5177.26     -0.00      0.00
                               -0.00   5177.26      0.00
                                0.00      0.00   5177.63

     corecor stress (kbar) -14020.36      0.00     -0.00
                                0.00 -14020.36     -0.00
                               -0.00     -0.00 -14019.86

     ewald   stress (kbar) -34463.87     -0.36      0.04
                               -0.36 -34463.23      0.02
                                0.04      0.02 -33564.71

     hubbard stress (kbar)      0.00      0.00      0.00
                                0.00      0.00      0.00
                                0.00      0.00      0.00

     DFT-D   stress (kbar)      0.00      0.00      0.00
                                0.00      0.00      0.00
                                0.00      0.00      0.00

     XDM     stress (kbar)      0.00      0.00      0.00
                                0.00      0.00      0.00
                                0.00      0.00      0.00

     dft-nl  stress (kbar)    161.17      0.00     -0.00
                                0.00    161.17     -0.00
                               -0.00     -0.00    160.29

     TS-vdW  stress (kbar)      0.00      0.00      0.00
                                0.00      0.00      0.00
                                0.00      0.00      0.00

     MDB     stress (kbar)      0.00      0.00      0.00
                                0.00      0.00      0.00
                                0.00      0.00      0.00

     3D-RISM stress (kbar)      0.00      0.00      0.00
                                0.00      0.00      0.00
                                0.00      0.00      0.00

     Energy error            =      4.4E-04 Ry
     Gradient error          =      2.2E-03 Ry/Bohr

     number of scf cycles    =   9
     number of bfgs steps    =   8

     energy             old  =  -46559.6897893815 Ry
     energy             new  =  -46559.6902331204 Ry

     CASE: energy            _new < energy            _old

     new trust radius        =       0.0054857874 bohr
     new conv_thr            =            2.2E-11 Ry

ATOMIC_POSITIONS (angstrom)
Ga            1.6218949509        0.9364000156        7.9009603917
Ga            1.6217823735        0.9363350190       13.2106873254
Ga            0.0174749815        3.7380261590        2.6507268598
Ga           -0.0012539674        3.7478988909        7.9239945969
Ga            0.0020527269        3.7450464419       13.2161126521
Ga           -1.6183480850        6.5601201840        2.6436576020
Ga           -1.6225695387        6.5561026035        7.9274842101
Ga           -1.6216635818        6.5547148016       13.2171890322
Ga           -3.2393130803        9.3677139131        2.6436576020
Ga           -3.2449031339        9.3660668173        7.9274842101
Ga           -3.2456520271        9.3675452998       13.2171890322
Ga           -4.8654066644       12.1954252573        2.6507268598
Ga           -4.8662211022       12.1742691458        7.9239945969
Ga           -4.8670380484       12.1785590516       13.2161126521
Ga            4.8500093332        0.9241699703        2.6504252005
Ga            4.8689638660        0.9367607831        7.9235802515
Ga            4.8646019593        0.9350624260       13.2159654794
Ga            3.2253606121        3.7381440997        2.6504252005
Ga            3.2457418422        3.7482638002        7.9235802515
Ga            3.2420900685        3.7453354567       13.2159654794
Ga            1.6224737652        6.5569286739        2.6415510835
Ga            1.6225329655        6.5566578451        7.9280027462
Ga            1.6224841090        6.5550394985       13.2160141237
Ga            0.0012290514        9.3669126324        2.6403985130
Ga            0.0002099471        9.3663242523        7.9279203614
Ga           -0.0000753791        9.3661595191       13.2157708237
Ga           -1.6216660840       12.1759437196        2.6415510835
Ga           -1.6218710284       12.1761304030        7.9280027462
Ga           -1.6232969860       12.1768972653       13.2160141237
Ga            8.1128853186        0.9309789435        2.6434946562
Ga            8.1114297133        0.9366602142        7.9273338348
Ga            8.1098189671        0.9366066863       13.2170304207
Ga            6.4813919499        3.7420319162        2.6381352698
Ga            6.4890140907        3.7464325612        7.9267152281
Ga            6.4878814829        3.7457786498       13.2173585381
Ga            4.8626953487        6.5604731060        2.6434946562
Ga            4.8668876708        6.5563718795        7.9273338348
Ga            4.8660359411        6.5550036963       13.2170304207
Ga            3.2437410454        9.3667573188        2.6406113106
Ga            3.2447224462        9.3662678095        7.9281373039
Ga            3.2450049254        9.3661015094       13.2159756954
Ga            1.6223505429       12.1750880483        2.6406113106
Ga            1.6224173158       12.1761827209        7.9281373039
Ga            1.6224145353       12.1765105051       13.2159756954
Ga           11.3539226680        0.9304433786        2.6436078131
Ga           11.3556337931        0.9363481222        7.9273761158
Ga           11.3573232353        0.9362495543       13.2169281800
Ga            9.7333266139        3.7454013614        2.6407271314
Ga            9.7333337274        3.7467969738        7.9277827380
Ga            9.7333265841        3.7464185883       13.2160647190
Ga            8.1102773071        6.5566052241        2.6407271314
Ga            8.1114894996        6.5559135784        7.9277827380
Ga            8.1111582364        6.5560965849       13.2160647190
Ga            6.4827502105        9.3675615676        2.6436078131
Ga            6.4887194310        9.3660910736        7.9273761158
Ga            6.4894787898        9.3676034575       13.2169281800
Ga            4.8655330627       12.1753198628        2.6417800313
Ga            4.8663252363       12.1757772245        7.9282707085
Ga            4.8677772348       12.1766155362       13.2161720818
Ga           14.6160415256        0.9244916891        2.6504515235
[...]
N            12.9680844248        1.8687686267        1.9902880508
N            12.9760234078        1.8735516481        7.2743273099
N            12.9795909924        1.8728657166       12.5635531625
N            11.3584264787        4.6816947318        1.9878462056
N            11.3558336880        4.6832212828        7.2753611005
N            11.3564176013        4.6828838634       12.5639209071
N             9.7336774897        7.4958425303        1.9878462056
N             9.7337031264        7.4928338322        7.2753611005
N             9.7337028693        7.4935082257       12.5639209071
N             8.1024409969       10.2963102555        1.9902880508
N             8.1105527065       10.3007941057        7.2743273099
N             8.1117424647       10.3042266904       12.5635531625
N             6.4804993975       13.1077252609        1.9867126281
N             6.4880124008       13.1120628953        7.2773748006
N             6.4893283928       13.1128226836       12.5602232403

     Writing config-only to output data dir ./GaN.save/
     NEW-OLD atomic charge density approx. for the potential

     Check: negative core charge=   -0.000003

[...]

     Self-consistent Calculation

[...]

     c_bands:  1 eigenvalues not converged
     ethr =  1.84E-08,  avg # of iterations = 15.8

[...]

     iteration # 18     ecut=    70.00 Ry     beta= 0.70
     Davidson diagonalization with overlap

     ethr =  1.27E-13,  avg # of iterations = 18.0

     Non-local corr. energy    =      81.30784759 Ry

     total energy              =  -46559.69039488 Ry
     estimated scf accuracy    <          1.3E-09 Ry

     max_seconds     =  154800.00
     Calculation stopped in scf loop at iteration #    18

     Writing config to output data dir ./GaN.save/

     General routines

     Parallel routines

     PAW routines

   This run was terminated on:   5:13:20   8Feb2024

   JOB DONE.