     Program PWSCF v.7.1 starts on 29Sep2023 at 10: 7:41

     Reading input from espresso.pwi
Warning: card &CELL ignored
Warning: card    CELL_DYNAMICS    = 'BFGS' ignored
Warning: card / ignored

     Current dimensions of program PWSCF are:
     Max number of different atomic species (ntypx) = 10
     Max number of k-points (npk) =  40000
     Max angular momentum in pseudopotentials (lmaxx) =  4
     file C.pbe-n-kjpaw_psl.1.0.0.UPF: wavefunction(s)  2S 2P renormalized

     IMPORTANT: XC functional enforced from input :
     Exchange-correlation= BEEF-VDW
                           (   1   4  43  14   2   0   0)
     Any further DFT definition will be discarded
     Please, verify this is what you really want

     K-points division:     npool     =       4
     R & G space division:  proc/nbgrp/npool/nimage =      64
     Subspace diagonalization in iterative solution of the eigenvalue problem:
     a serial algorithm will be used

     Using Slab Decomposition

     bravais-lattice index     =            1
     lattice parameter (alat)  =      20.2520  a.u.
     unit-cell volume          =    8306.2556 (a.u.)^3
     number of atoms/cell      =          215
     number of atomic types    =            1
     number of electrons       =       859.00
     number of Kohn-Sham states=          516
     kinetic-energy cutoff     =      70.0000  Ry
     charge density cutoff     =     350.0000  Ry
     scf convergence threshold =      1.0E-08
     mixing beta               =       0.7000
     number of iterations used =            8  plain     mixing
     energy convergence thresh.=      1.0E-04
     force convergence thresh. =      1.0E-03
     Exchange-correlation= BEEF-VDW
                           (   1   4  43  14   2   0   0)
     nstep                     =           50

     celldm(1)=  20.252024  celldm(2)=   0.000000  celldm(3)=   0.000000
     celldm(4)=   0.000000  celldm(5)=   0.000000  celldm(6)=   0.000000

     crystal axes: (cart. coord. in units of alat)
               a(1) = (   1.000000   0.000000   0.000000 )
               a(2) = (   0.000000   1.000000   0.000000 )
               a(3) = (   0.000000   0.000000   1.000000 )

     reciprocal axes: (cart. coord. in units 2 pi/alat)
               b(1) = (  1.000000  0.000000  0.000000 )
               b(2) = (  0.000000  1.000000  0.000000 )
               b(3) = (  0.000000  0.000000  1.000000 )

     PseudoPot. # 1 for C  read from file:
     //group///packages/espresso/pseudo/psl_1.0.0/pslibrary.1.0.0/pbe/PSEUDOPOTENTIALS/C.pbe-n-kjpaw_psl.1.0.0.UPF
     MD5 check sum: 5459cf7f2c8c37df2f7cde8914797f4d
     Pseudo is Projector augmented-wave + core cor, Zval =  4.0
     Generated using 'atomic' code by A. Dal Corso  v.7.1
     Shape of augmentation charge: PSQ
     Using radial grid of 1073 points,  4 beta functions with:
                l(1) =   0
                l(2) =   0
                l(3) =   1
                l(4) =   1
     Q(r) pseudized with 0 coefficients

     atomic species   valence    mass     pseudopotential
        C              4.00    12.01100     C ( 1.00)

      6 Sym. Ops. (no inversion) found ( 4 have fractional translation)

                                    s                        frac. trans.

      isym =  1     identity

 cryst.   s( 1) = (     1          0          0      )
                  (     0          1          0      )
                  (     0          0          1      )

 cart.    s( 1) = (  1.0000000  0.0000000  0.0000000 )
                  (  0.0000000  1.0000000  0.0000000 )
                  (  0.0000000  0.0000000  1.0000000 )

      isym =  2     120 deg rotation - cart. axis [1,-1,1]

 cryst.   s( 2) = (     0          0          1      )    f =( -0.3333333 )
                  (    -1          0          0      )       ( -0.3333333 )
                  (     0         -1          0      )       (  0.0000000 )

 cart.    s( 2) = (  0.0000000 -1.0000000  0.0000000 )    f =( -0.3333333 )
                  (  0.0000000  0.0000000 -1.0000000 )       ( -0.3333333 )
                  (  1.0000000  0.0000000  0.0000000 )       (  0.0000000 )

      isym =  3     120 deg rotation - cart. axis [-1,1,-1]

[...]

      isym =  4     inv. 180 deg rotation - cart. axis [1,1,0]

[...]

 cryst.   s( 5) = (     0          0          1      )
                  (     0          1          0      )
                  (     1          0          0      )

 cart.    s( 5) = (  0.0000000  0.0000000  1.0000000 )
                  (  0.0000000  1.0000000  0.0000000 )
                  (  1.0000000  0.0000000  0.0000000 )

      isym =  6     inv. 180 deg rotation - cart. axis [0,1,1]

 cryst.   s( 6) = (     1          0          0      )    f =(  0.0000000 )
                  (     0          0         -1      )       ( -0.3333333 )
                  (     0         -1          0      )       ( -0.3333333 )

 cart.    s( 6) = (  1.0000000  0.0000000  0.0000000 )    f =(  0.0000000 )
                  (  0.0000000  0.0000000 -1.0000000 )       ( -0.3333333 )
                  (  0.0000000 -1.0000000  0.0000000 )       ( -0.3333333 )

     point group C_3v (3m)
     there are  3 classes
     the character table:

       E     2C3   3s_v
A_1    1.00  1.00  1.00
A_2    1.00  1.00 -1.00
E      2.00 -1.00  0.00

     the symmetry operations in each class and the name of the first element:

     E        1
          identity
     2C3      2    3
          120 deg rotation - cart. axis [1,-1,1]
     3s_v     4    5    6
          inv. 180 deg rotation - cart. axis [1,1,0]

   Cartesian axes

     site n.     atom                  positions (alat units)
         1           C   tau(   1) = (   0.0833353   0.2499980   0.4166687  )
         2           C   tau(   2) = (   0.0833353   0.2499980   0.7500020  )
         3           C   tau(   3) = (   0.0833353   0.5833313   0.0833353  )
         4           C   tau(   4) = (   0.0833353   0.5833313   0.4166687  )
         5           C   tau(   5) = (   0.0833353   0.5833313   0.7500020  )
         6           C   tau(   6) = (   0.0833353   0.9166647   0.0833353  )
         7           C   tau(   7) = (   0.0833353   0.9166647   0.4166687  )
         8           C   tau(   8) = (   0.0833353   0.9166647   0.7500020  )
         9           C   tau(   9) = (   0.4166687   0.2499980   0.0833353  )
        10           C   tau(  10) = (   0.4166687   0.2499980   0.4166687  )
        11           C   tau(  11) = (   0.4166687   0.2499980   0.7500020  )
        12           C   tau(  12) = (   0.4166687   0.5833313   0.0833353  )
        13           C   tau(  13) = (   0.4166687   0.5833313   0.4166687  )
        14           C   tau(  14) = (   0.4166687   0.5833313   0.7500020  )
        15           C   tau(  15) = (   0.4166687   0.9166647   0.0833353  )
        16           C   tau(  16) = (   0.4166687   0.9166647   0.4166687  )
        17           C   tau(  17) = (   0.4166687   0.9166647   0.7500020  )
        18           C   tau(  18) = (   0.7500020   0.2499980   0.0833353  )
        19           C   tau(  19) = (   0.7500020   0.2499980   0.4166687  )
        20           C   tau(  20) = (   0.7500020   0.2499980   0.7500020  )
        21           C   tau(  21) = (   0.7500020   0.5833313   0.0833353  )
        22           C   tau(  22) = (   0.7500020   0.5833313   0.4166687  )
        23           C   tau(  23) = (   0.7500020   0.5833313   0.7500020  )
        24           C   tau(  24) = (   0.7500020   0.9166647   0.0833353  )
        25           C   tau(  25) = (   0.7500020   0.9166647   0.4166687  )
        26           C   tau(  26) = (   0.7500020   0.9166647   0.7500020  )
        27           C   tau(  27) = (   0.0000000   0.0000000   0.1666667  )
        28           C   tau(  28) = (   0.0000000   0.0000000   0.5000000  )
        29           C   tau(  29) = (   0.0000000   0.0000000   0.8333333  )
        30           C   tau(  30) = (   0.0000000   0.3333333   0.1666667  )
        31           C   tau(  31) = (   0.0000000   0.3333333   0.5000000  )
        32           C   tau(  32) = (   0.0000000   0.3333333   0.8333333  )
        33           C   tau(  33) = (   0.0000000   0.6666667   0.1666667  )
        34           C   tau(  34) = (   0.0000000   0.6666667   0.5000000  )
        35           C   tau(  35) = (   0.0000000   0.6666667   0.8333333  )
        36           C   tau(  36) = (   0.3333333   0.0000000   0.1666667  )
        37           C   tau(  37) = (   0.3333333   0.0000000   0.5000000  )
        38           C   tau(  38) = (   0.3333333   0.0000000   0.8333333  )
        39           C   tau(  39) = (   0.3333333   0.3333333   0.1666667  )
        40           C   tau(  40) = (   0.3333333   0.3333333   0.5000000  )
        41           C   tau(  41) = (   0.3333333   0.3333333   0.8333333  )
        42           C   tau(  42) = (   0.3333333   0.6666667   0.1666667  )
        43           C   tau(  43) = (   0.3333333   0.6666667   0.5000000  )
        44           C   tau(  44) = (   0.3333333   0.6666667   0.8333333  )
        45           C   tau(  45) = (   0.6666667   0.0000000   0.1666667  )
        46           C   tau(  46) = (   0.6666667   0.0000000   0.5000000  )
        47           C   tau(  47) = (   0.6666667   0.0000000   0.8333333  )
        48           C   tau(  48) = (   0.6666667   0.3333333   0.1666667  )
        49           C   tau(  49) = (   0.6666667   0.3333333   0.5000000  )
        50           C   tau(  50) = (   0.6666667   0.3333333   0.8333333  )
        51           C   tau(  51) = (   0.6666667   0.6666667   0.1666667  )
        52           C   tau(  52) = (   0.6666667   0.6666667   0.5000000  )
        53           C   tau(  53) = (   0.6666667   0.6666667   0.8333333  )
        54           C   tau(  54) = (   0.0833353   0.0833353   0.2499980  )
        55           C   tau(  55) = (   0.0833353   0.0833353   0.5833313  )
        56           C   tau(  56) = (   0.0833353   0.0833353   0.9166647  )
        57           C   tau(  57) = (   0.0833353   0.4166687   0.2499980  )
        58           C   tau(  58) = (   0.0833353   0.4166687   0.5833313  )
        59           C   tau(  59) = (   0.0833353   0.4166687   0.9166647  )
        60           C   tau(  60) = (   0.0833353   0.7500020   0.2499980  )
[...]
       201           C   tau( 201) = (   0.5000000   0.5000000   0.1666667  )
       202           C   tau( 202) = (   0.5000000   0.5000000   0.5000000  )
       203           C   tau( 203) = (   0.5000000   0.5000000   0.8333333  )
       204           C   tau( 204) = (   0.5000000   0.8333333   0.1666667  )
       205           C   tau( 205) = (   0.5000000   0.8333333   0.5000000  )
       206           C   tau( 206) = (   0.5000000   0.8333333   0.8333333  )
       207           C   tau( 207) = (   0.8333333   0.1666667   0.1666667  )
       208           C   tau( 208) = (   0.8333333   0.1666667   0.5000000  )
       209           C   tau( 209) = (   0.8333333   0.1666667   0.8333333  )
       210           C   tau( 210) = (   0.8333333   0.5000000   0.1666667  )
       211           C   tau( 211) = (   0.8333333   0.5000000   0.5000000  )
[...]
     atom   44 type  1   force =     0.00000000    0.00000000    0.00000000
     atom   45 type  1   force =     0.00000000    0.00000000    0.00000000
     atom   46 type  1   force =     0.00000000    0.00000000    0.00000000
     atom   47 type  1   force =     0.00000000    0.00000000    0.00000000
     atom   48 type  1   force =     0.00000000    0.00000000    0.00000000
     atom   49 type  1   force =     0.00000000    0.00000000    0.00000000
     atom   50 type  1   force =     0.00000000    0.00000000    0.00000000
     atom   51 type  1   force =     0.00000000    0.00000000    0.00000000
     atom   52 type  1   force =     0.00000000    0.00000000    0.00000000
     atom   53 type  1   force =     0.00000000    0.00000000    0.00000000
     atom   54 type  1   force =     0.00000000    0.00000000    0.00000000
     atom   55 type  1   force =     0.00000000    0.00000000    0.00000000
     atom   56 type  1   force =     0.00000000    0.00000000    0.00000000
     atom   57 type  1   force =     0.00000000    0.00000000    0.00000000
     atom   58 type  1   force =     0.00000000    0.00000000    0.00000000
     atom   59 type  1   force =     0.00000000    0.00000000    0.00000000
     atom   60 type  1   force =     0.00000000    0.00000000    0.00000000
[...]
     atom  201 type  1   force =     0.00000000    0.00000000    0.00000000
     atom  202 type  1   force =     0.00000000    0.00000000    0.00000000
     atom  203 type  1   force =     0.00000000    0.00000000    0.00000000
     atom  204 type  1   force =     0.00000000    0.00000000    0.00000000
     atom  205 type  1   force =     0.00000000    0.00000000    0.00000000
     atom  206 type  1   force =     0.00000000    0.00000000    0.00000000
     atom  207 type  1   force =     0.00000000    0.00000000    0.00000000
     atom  208 type  1   force =     0.00000000    0.00000000    0.00000000
     atom  209 type  1   force =     0.00000000    0.00000000    0.00000000
     atom  210 type  1   force =     0.00000000    0.00000000    0.00000000
     atom  211 type  1   force =     0.00000000    0.00000000    0.00000000
     atom  212 type  1   force =     0.00000000    0.00000000    0.00000000
     atom  213 type  1   force =     0.00000000    0.00000000    0.00000000
     atom  214 type  1   force =     0.00000000    0.00000000    0.00000000
     atom  215 type  1   force =     0.00000000    0.00000000    0.00000000
     The SCF correction term to forces
     atom    1 type  1   force =    -0.00000011    0.00000011   -0.00000011
     atom    2 type  1   force =    -0.00000005    0.00000005    0.00000032
     atom    3 type  1   force =    -0.00000005   -0.00000032   -0.00000005
     atom    4 type  1   force =    -0.00000003   -0.00000033   -0.00000025
     atom    5 type  1   force =    -0.00000014   -0.00000032    0.00000032
     atom    6 type  1   force =    -0.00000011    0.00000011   -0.00000011
     atom    7 type  1   force =    -0.00000012    0.00000022   -0.00000022
     atom    8 type  1   force =    -0.00000003    0.00000025    0.00000033
     atom    9 type  1   force =    -0.00000011    0.00000011   -0.00000011
     atom   10 type  1   force =    -0.00000022    0.00000012   -0.00000022
     atom   11 type  1   force =    -0.00000025    0.00000003    0.00000033
     atom   12 type  1   force =    -0.00000025   -0.00000033   -0.00000003
     atom   13 type  1   force =     0.00000160    0.00000154    0.00000160
     atom   14 type  1   force =     0.00000144    0.00000135   -0.00000135
     atom   15 type  1   force =    -0.00000022    0.00000022   -0.00000012
     atom   16 type  1   force =     0.00000142   -0.00000142    0.00000142
     atom   17 type  1   force =     0.00000160   -0.00000160   -0.00000154
     atom   18 type  1   force =     0.00000032    0.00000005   -0.00000005
     atom   19 type  1   force =     0.00000033    0.00000003   -0.00000025
     atom   20 type  1   force =     0.00000032    0.00000014    0.00000032
     atom   21 type  1   force =     0.00000032   -0.00000032   -0.00000014
     atom   22 type  1   force =    -0.00000135    0.00000135    0.00000144
     atom   23 type  1   force =    -0.00000152    0.00000152   -0.00000152
     atom   24 type  1   force =     0.00000033    0.00000025   -0.00000003
     atom   25 type  1   force =    -0.00000154   -0.00000160    0.00000160
     atom   26 type  1   force =    -0.00000135   -0.00000144   -0.00000135
     atom   27 type  1   force =    -0.00000008    0.00000103   -0.00000021
     atom   28 type  1   force =    -0.00000128    0.00000039    0.00000017
     atom   29 type  1   force =    -0.00000056    0.00000013    0.00000013
     atom   30 type  1   force =     0.00000111   -0.00000111   -0.00000135
     atom   31 type  1   force =    -0.00000015    0.00000015    0.00000037
     atom   32 type  1   force =     0.00000009   -0.00000009    0.00000118
     atom   33 type  1   force =    -0.00000011    0.00000024    0.00000003
     atom   34 type  1   force =    -0.00000225   -0.00000042   -0.00000032
     atom   35 type  1   force =    -0.00000127   -0.00000000    0.00000037
     atom   36 type  1   force =     0.00000003   -0.00000003    0.00000050
     atom   37 type  1   force =     0.00000181   -0.00000181    0.00000033
     atom   38 type  1   force =     0.00000080   -0.00000080   -0.00000080
     atom   39 type  1   force =    -0.00000103    0.00000008   -0.00000021
     atom   40 type  1   force =    -0.00000039    0.00000128    0.00000017
     atom   41 type  1   force =    -0.00000013    0.00000056    0.00000013
     atom   42 type  1   force =    -0.00000041    0.00000004    0.00000115
     atom   43 type  1   force =     0.00000343    0.00000062    0.00000068
     atom   44 type  1   force =     0.00000178    0.00000024   -0.00000176
     atom   45 type  1   force =    -0.00000004    0.00000041    0.00000115
     atom   46 type  1   force =    -0.00000062   -0.00000343    0.00000068
     atom   47 type  1   force =    -0.00000024   -0.00000178   -0.00000176
     atom   48 type  1   force =    -0.00000024    0.00000011    0.00000003
     atom   49 type  1   force =     0.00000042    0.00000225   -0.00000032
     atom   50 type  1   force =     0.00000000    0.00000127    0.00000037
     atom   51 type  1   force =     0.00000044   -0.00000044    0.00000210
     atom   52 type  1   force =    -0.00000123    0.00000123    0.00000135
     atom   53 type  1   force =    -0.00000058    0.00000058   -0.00000343
     atom   54 type  1   force =    -0.00000038    0.00000127   -0.00000127
     atom   55 type  1   force =    -0.00000006    0.00000040    0.00000007
     atom   56 type  1   force =    -0.00000007    0.00000147    0.00000129
     atom   57 type  1   force =    -0.00000007   -0.00000129   -0.00000147
     atom   58 type  1   force =    -0.00000006   -0.00000033    0.00000005
     atom   59 type  1   force =    -0.00000014   -0.00000140    0.00000140
     atom   60 type  1   force =    -0.00000006   -0.00000007   -0.00000040
[...]
     atom  201 type  1   force =     0.00000013   -0.00000040    0.00000115
     atom  202 type  1   force =     0.00000071    0.00000340    0.00000071
     atom  203 type  1   force =     0.00000033    0.00000177   -0.00000177
     atom  204 type  1   force =    -0.00000032    0.00000032    0.00000216
     atom  205 type  1   force =     0.00000130   -0.00000130    0.00000130
     atom  206 type  1   force =     0.00000071   -0.00000071   -0.00000340
     atom  207 type  1   force =     0.00000110    0.00000023   -0.00000023
     atom  208 type  1   force =     0.00000040   -0.00000115    0.00000013
     atom  209 type  1   force =     0.00000014   -0.00000042    0.00000014
     atom  210 type  1   force =     0.00000014   -0.00000014    0.00000042
     atom  211 type  1   force =    -0.00000177    0.00000177    0.00000033
     atom  212 type  1   force =    -0.00000079    0.00000079   -0.00000079
     atom  213 type  1   force =     0.00000040   -0.00000013    0.00000115
     atom  214 type  1   force =    -0.00000340   -0.00000071    0.00000071
     atom  215 type  1   force =    -0.00000177   -0.00000033   -0.00000177

     Total force =     0.004115     Total SCF correction =     0.000028

     Computing stress (Cartesian axis) and pressure

     Non-local corr. energy    =       7.36102720 Ry

          total   stress  (Ry/bohr**3)                   (kbar)     P=      -21.22
  -0.00014428   0.00000008  -0.00000008          -21.22        0.01       -0.01
   0.00000008  -0.00014428   0.00000008            0.01      -21.22        0.01
  -0.00000008   0.00000008  -0.00014428           -0.01        0.01      -21.22

     kinetic stress (kbar)  18869.93      0.01     -0.01
                                0.01  18869.93      0.01
                               -0.01      0.01  18869.93

     local   stress (kbar)  -3595.44      0.14     -0.14
                                0.14  -3595.44      0.14
                               -0.14      0.14  -3595.44

     nonloc. stress (kbar)   4309.72     -0.00      0.00
                               -0.00   4309.72     -0.00
                                0.00     -0.00   4309.72

     hartree stress (kbar)   1309.80     -0.05      0.05
                               -0.05   1309.80     -0.05
                                0.05     -0.05   1309.80

     exc-cor stress (kbar)   -404.42     -0.00      0.00
                               -0.00   -404.42     -0.00
                                0.00     -0.00   -404.42

     corecor stress (kbar)  -4413.80      0.01     -0.01
                                0.01  -4413.80      0.01
                               -0.01      0.01  -4413.80

     ewald   stress (kbar) -16121.78     -0.10      0.10
                               -0.10 -16121.78     -0.10
                                0.10     -0.10 -16121.78

     hubbard stress (kbar)      0.00      0.00      0.00
                                0.00      0.00      0.00
                                0.00      0.00      0.00

     DFT-D   stress (kbar)      0.00      0.00      0.00
                                0.00      0.00      0.00
                                0.00      0.00      0.00

     XDM     stress (kbar)      0.00      0.00      0.00
                                0.00      0.00      0.00
                                0.00      0.00      0.00

     dft-nl  stress (kbar)     24.76      0.00     -0.00
                                0.00     24.76      0.00
                               -0.00      0.00     24.76

     TS-vdW  stress (kbar)      0.00      0.00      0.00
                                0.00      0.00      0.00
                                0.00      0.00      0.00

     MDB     stress (kbar)      0.00      0.00      0.00
                                0.00      0.00      0.00
                                0.00      0.00      0.00

     3D-RISM stress (kbar)      0.00      0.00      0.00
                                0.00      0.00      0.00
                                0.00      0.00      0.00

     Energy error            =      5.7E-05 Ry
     Gradient error          =      3.6E-04 Ry/Bohr

     bfgs converged in   7 scf cycles and   6 bfgs steps
     (criteria: energy <  1.0E-04 Ry, force <  1.0E-03 Ry/Bohr)

     End of BFGS Geometry Optimization

     Final energy             =   -4083.9922153518 Ry

     File ./diamond.bfgs deleted, as requested
Begin final coordinates

ATOMIC_POSITIONS (angstrom)
C             0.8931329158        2.6791702372        4.4642533856
C             0.8930902376        2.6792129154        8.0389095198
C             0.8930902376        6.2503030867        0.8930902376
C             0.8948347331        6.2525690939        4.4664679789
C             0.8913871433        6.2525933168        8.0366192897
C             0.8931329158        9.8249592209        0.8931329158
C             0.8913208383        9.8227039823        4.4665086242
C             0.8948347331        9.8227446276        8.0366435126
C             4.4642533856        2.6791702372        0.8931329158
C             4.4665086242        2.6809823147        4.4665086242
C             4.4664679789        2.6774684199        8.0366435126
C             4.4664679789        6.2525690939        0.8948347331
C             4.4647531067        6.2508553089        4.4647531067
C             4.4653457606        6.2514408642        8.0377717423
C             4.4665086242        9.8227039823        0.8913208383
C             4.4653195055        9.8238931010        4.4653195055
C             4.4647531067        9.8244594998        8.0383572976
C             8.0389095198        2.6792129154        0.8930902376
C             8.0366435126        2.6774684199        4.4664679789
C             8.0366192897        2.6809160097        8.0366192897
C             8.0366192897        6.2525933168        0.8913871433
C             8.0377717423        6.2514408642        4.4653457606
C             8.0383760056        6.2508366009        8.0383760056
C             8.0366435126        9.8227446276        0.8948347331
C             8.0383572976        9.8244594998        4.4647531067
C             8.0377717423        9.8238668459        8.0377717423
C             0.0043020892        0.0010617568        1.7819423337
C             0.0003102498        0.0010089011        5.3577362207
C            -0.0078354967       -0.0091622215        8.9217679485
C            -0.0779224889        3.6502256401        1.8642785366
C             0.0001545496        3.5721486016        5.3593018463
C             0.0043535403        3.5679496109        8.9318819760
C             0.0001420090        7.1454243990        1.7860161752
C            -0.0011439920        7.1456061798        5.3594363342
C             0.0003380472        7.1438485917        8.9317523684
C             3.5814021796       -0.0090990284        1.7938275539
C             3.5737186944       -0.0014155432        5.3609761000
C             3.5704472932        0.0018558580        8.9325649922
C             3.5712413944        3.5680010620        1.7819423337
C             3.5712942501        3.5719929014        5.3577362207
C             3.5814653727        3.5801386479        8.9217679485
C             3.5712705808        7.1438516314        1.7858096932
C             3.5725471223        7.1441496342        5.3579745690
C             3.5737691708        7.1472091784        8.9293266385
C             7.1453609732        0.0010325704        1.7858096932
C             7.1450629704       -0.0002439711        5.3579745690
C             7.1420034262       -0.0014660196        8.9293266385
C             7.1437882056        3.5721611422        1.7860161752
C             7.1436064248        3.5734471432        5.3594363342
C             7.1453640129        3.5719651040        8.9317523684
C             7.1435877442        7.1456248604        1.7872600810
C             7.1442443659        7.1449682387        5.3587904875
C             7.1450744901        7.1441381145        8.9305030512
C             0.8917077876        0.9050585029        2.6672446501
C             0.8930990588        0.8933867831        6.2515080292
C             0.8944176965        0.9050704986        9.8359237744
C             0.8944176965        4.4532888321        2.6672326544
C             0.8931106974        4.4651458753        6.2515012498
C             0.8920393400        4.4534406995        9.8357719070
C             0.8930990588        8.0377045773        2.6789163699
[...]
C             5.3576905898        5.3574390648        1.7857994718
C             5.3579722339        5.3587226687        5.3579722339
C             5.3610903815        5.3599316432        8.9292809633
C             5.3594594395        8.9297531670        1.7872891244
C             5.3587906919        8.9304219146        5.3587906919
C             5.3579722339        8.9312403726        8.9304899378
C             8.9319573652        1.7905223566        1.7817807964
C             8.9317735417        1.7865036812        5.3576905898
C             8.9214674409        1.7781567351        8.9214674409
C             8.9214674409        5.3677451656        1.7941464179
C             8.9292809633        5.3599316432        5.3610903815
C             8.9326614995        5.3565511070        8.9326614995
C             8.9317735417        8.9315220167        1.7857994718
C             8.9304899378        8.9312403726        5.3579722339
C             8.9292809633        8.9281222250        8.9292809633
End final coordinates

     Writing all to output data dir ./diamond.save/

     General routines

     Parallel routines

     PAW routines

   This run was terminated on:  11:27:23  29Sep2023

   JOB DONE.