     Program PWSCF v.7.1 starts on 30Sep2023 at 16:54:40

     Reading input from espresso.pwi
Warning: card &CELL ignored
Warning: card    CELL_DYNAMICS    = 'BFGS' ignored
Warning: card / ignored

     Current dimensions of program PWSCF are:
     Max number of different atomic species (ntypx) = 10
     Max number of k-points (npk) =  40000
     Max angular momentum in pseudopotentials (lmaxx) =  4
     file C.pbe-n-kjpaw_psl.1.0.0.UPF: wavefunction(s)  2S 2P renormalized

     IMPORTANT: XC functional enforced from input :
     Exchange-correlation= BEEF-VDW
                           (   1   4  43  14   2   0   0)
     Any further DFT definition will be discarded
     Please, verify this is what you really want

     R & G space division:  proc/nbgrp/npool/nimage =     256
     wavefunctions fft division:  task group distribution
                                  #TG    x Z-proc =       8     32
     Subspace diagonalization in iterative solution of the eigenvalue problem:
     a serial algorithm will be used

     Using Pencil Decomposition

     bravais-lattice index     =            1
     lattice parameter (alat)  =      27.0027  a.u.
     unit-cell volume          =   19688.9026 (a.u.)^3
     number of atoms/cell      =          511
     number of atomic types    =            1
     number of electrons       =      2046.00
     number of Kohn-Sham states=         1228
     kinetic-energy cutoff     =      70.0000  Ry
     charge density cutoff     =     350.0000  Ry
     scf convergence threshold =      1.0E-08
     mixing beta               =       0.7000
     number of iterations used =            8  plain     mixing
     energy convergence thresh.=      1.0E-04
     force convergence thresh. =      1.0E-03
     Exchange-correlation= BEEF-VDW
                           (   1   4  43  14   2   0   0)
     nstep                     =           50

     celldm(1)=  27.002699  celldm(2)=   0.000000  celldm(3)=   0.000000
     celldm(4)=   0.000000  celldm(5)=   0.000000  celldm(6)=   0.000000

     crystal axes: (cart. coord. in units of alat)
               a(1) = (   1.000000   0.000000   0.000000 )
               a(2) = (   0.000000   1.000000   0.000000 )
               a(3) = (   0.000000   0.000000   1.000000 )

     reciprocal axes: (cart. coord. in units 2 pi/alat)
               b(1) = (  1.000000  0.000000  0.000000 )
               b(2) = (  0.000000  1.000000  0.000000 )
               b(3) = (  0.000000  0.000000  1.000000 )

     PseudoPot. # 1 for C  read from file:
     /trace/group/acmegroup/atimmins/packages/espresso/pseudo/psl_1.0.0/pslibrary.1.0.0/pbe/PSEUDOPOTENTIALS/C.pbe-n-kjpaw_psl.1.0.0.UPF
     MD5 check sum: 5459cf7f2c8c37df2f7cde8914797f4d
     Pseudo is Projector augmented-wave + core cor, Zval =  4.0
     Generated using 'atomic' code by A. Dal Corso  v.7.1
     Shape of augmentation charge: PSQ
     Using radial grid of 1073 points,  4 beta functions with:
                l(1) =   0
                l(2) =   0
                l(3) =   1
                l(4) =   1
     Q(r) pseudized with 0 coefficients

     atomic species   valence    mass     pseudopotential
        C              4.00    12.01100     C ( 1.00)

      6 Sym. Ops. (no inversion) found ( 4 have fractional translation)

                                    s                        frac. trans.

      isym =  1     identity

 cryst.   s( 1) = (     1          0          0      )
                  (     0          1          0      )
                  (     0          0          1      )

 cart.    s( 1) = (  1.0000000  0.0000000  0.0000000 )
                  (  0.0000000  1.0000000  0.0000000 )
                  (  0.0000000  0.0000000  1.0000000 )

      isym =  2     120 deg rotation - cart. axis [1,-1,1]

 cryst.   s( 2) = (     0          0          1      )    f =( -0.2500000 )
                  (    -1          0          0      )       ( -0.2500000 )
                  (     0         -1          0      )       (  0.0000000 )

 cart.    s( 2) = (  0.0000000 -1.0000000  0.0000000 )    f =( -0.2500000 )
                  (  0.0000000  0.0000000 -1.0000000 )       ( -0.2500000 )
                  (  1.0000000  0.0000000  0.0000000 )       (  0.0000000 )

      isym =  3     120 deg rotation - cart. axis [-1,1,-1]

[...]

      isym =  4     inv. 180 deg rotation - cart. axis [1,1,0]

[...]

 cryst.   s( 5) = (     0          0          1      )
                  (     0          1          0      )
                  (     1          0          0      )

 cart.    s( 5) = (  0.0000000  0.0000000  1.0000000 )
                  (  0.0000000  1.0000000  0.0000000 )
                  (  1.0000000  0.0000000  0.0000000 )

      isym =  6     inv. 180 deg rotation - cart. axis [0,1,1]

 cryst.   s( 6) = (     1          0          0      )    f =(  0.0000000 )
                  (     0          0         -1      )       ( -0.2500000 )
                  (     0         -1          0      )       ( -0.2500000 )

 cart.    s( 6) = (  1.0000000  0.0000000  0.0000000 )    f =(  0.0000000 )
                  (  0.0000000  0.0000000 -1.0000000 )       ( -0.2500000 )
                  (  0.0000000 -1.0000000  0.0000000 )       ( -0.2500000 )

     point group C_3v (3m)
     there are  3 classes
     the character table:

       E     2C3   3s_v
A_1    1.00  1.00  1.00
A_2    1.00  1.00 -1.00
E      2.00 -1.00  0.00

     the symmetry operations in each class and the name of the first element:

     E        1
          identity
     2C3      2    3
          120 deg rotation - cart. axis [1,-1,1]
     3s_v     4    5    6
          inv. 180 deg rotation - cart. axis [1,1,0]

   Cartesian axes

     site n.     atom                  positions (alat units)
         1           C   tau(   1) = (   0.0625015   0.1874985   0.3125015  )
         2           C   tau(   2) = (   0.0625015   0.1874985   0.5625015  )
         3           C   tau(   3) = (   0.0625015   0.1874985   0.8125015  )
         4           C   tau(   4) = (   0.0625015   0.4374985   0.0625015  )
         5           C   tau(   5) = (   0.0625015   0.4374985   0.3125015  )
         6           C   tau(   6) = (   0.0625015   0.4374985   0.5625015  )
         7           C   tau(   7) = (   0.0625015   0.4374985   0.8125015  )
         8           C   tau(   8) = (   0.0625015   0.6874985   0.0625015  )
         9           C   tau(   9) = (   0.0625015   0.6874985   0.3125015  )
        10           C   tau(  10) = (   0.0625015   0.6874985   0.5625015  )
        11           C   tau(  11) = (   0.0625015   0.6874985   0.8125015  )
        12           C   tau(  12) = (   0.0625015   0.9374985   0.0625015  )
        13           C   tau(  13) = (   0.0625015   0.9374985   0.3125015  )
        14           C   tau(  14) = (   0.0625015   0.9374985   0.5625015  )
        15           C   tau(  15) = (   0.0625015   0.9374985   0.8125015  )
        16           C   tau(  16) = (   0.3125015   0.1874985   0.0625015  )
        17           C   tau(  17) = (   0.3125015   0.1874985   0.3125015  )
        18           C   tau(  18) = (   0.3125015   0.1874985   0.5625015  )
        19           C   tau(  19) = (   0.3125015   0.1874985   0.8125015  )
        20           C   tau(  20) = (   0.3125015   0.4374985   0.0625015  )
        21           C   tau(  21) = (   0.3125015   0.4374985   0.3125015  )
        22           C   tau(  22) = (   0.3125015   0.4374985   0.5625015  )
        23           C   tau(  23) = (   0.3125015   0.4374985   0.8125015  )
        24           C   tau(  24) = (   0.3125015   0.6874985   0.0625015  )
        25           C   tau(  25) = (   0.3125015   0.6874985   0.3125015  )
        26           C   tau(  26) = (   0.3125015   0.6874985   0.5625015  )
        27           C   tau(  27) = (   0.3125015   0.6874985   0.8125015  )
        28           C   tau(  28) = (   0.3125015   0.9374985   0.0625015  )
        29           C   tau(  29) = (   0.3125015   0.9374985   0.3125015  )
        30           C   tau(  30) = (   0.3125015   0.9374985   0.5625015  )
        31           C   tau(  31) = (   0.3125015   0.9374985   0.8125015  )
        32           C   tau(  32) = (   0.5625015   0.1874985   0.0625015  )
        33           C   tau(  33) = (   0.5625015   0.1874985   0.3125015  )
        34           C   tau(  34) = (   0.5625015   0.1874985   0.5625015  )
        35           C   tau(  35) = (   0.5625015   0.1874985   0.8125015  )
        36           C   tau(  36) = (   0.5625015   0.4374985   0.0625015  )
        37           C   tau(  37) = (   0.5625015   0.4374985   0.3125015  )
        38           C   tau(  38) = (   0.5625015   0.4374985   0.5625015  )
        39           C   tau(  39) = (   0.5625015   0.4374985   0.8125015  )
        40           C   tau(  40) = (   0.5625015   0.6874985   0.0625015  )
        41           C   tau(  41) = (   0.5625015   0.6874985   0.3125015  )
        42           C   tau(  42) = (   0.5625015   0.6874985   0.5625015  )
        43           C   tau(  43) = (   0.5625015   0.6874985   0.8125015  )
        44           C   tau(  44) = (   0.5625015   0.9374985   0.0625015  )
        45           C   tau(  45) = (   0.5625015   0.9374985   0.3125015  )
        46           C   tau(  46) = (   0.5625015   0.9374985   0.5625015  )
        47           C   tau(  47) = (   0.5625015   0.9374985   0.8125015  )
        48           C   tau(  48) = (   0.8125015   0.1874985   0.0625015  )
        49           C   tau(  49) = (   0.8125015   0.1874985   0.3125015  )
        50           C   tau(  50) = (   0.8125015   0.1874985   0.5625015  )
        51           C   tau(  51) = (   0.8125015   0.1874985   0.8125015  )
        52           C   tau(  52) = (   0.8125015   0.4374985   0.0625015  )
        53           C   tau(  53) = (   0.8125015   0.4374985   0.3125015  )
        54           C   tau(  54) = (   0.8125015   0.4374985   0.5625015  )
        55           C   tau(  55) = (   0.8125015   0.4374985   0.8125015  )
        56           C   tau(  56) = (   0.8125015   0.6874985   0.0625015  )
        57           C   tau(  57) = (   0.8125015   0.6874985   0.3125015  )
        58           C   tau(  58) = (   0.8125015   0.6874985   0.5625015  )
        59           C   tau(  59) = (   0.8125015   0.6874985   0.8125015  )
        60           C   tau(  60) = (   0.8125015   0.9374985   0.0625015  )
[...]
       497           C   tau( 497) = (   0.8750000   0.1250000   0.3750000  )
       498           C   tau( 498) = (   0.8750000   0.1250000   0.6250000  )
       499           C   tau( 499) = (   0.8750000   0.1250000   0.8750000  )
       500           C   tau( 500) = (   0.8750000   0.3750000   0.1250000  )
       501           C   tau( 501) = (   0.8750000   0.3750000   0.3750000  )
       502           C   tau( 502) = (   0.8750000   0.3750000   0.6250000  )
       503           C   tau( 503) = (   0.8750000   0.3750000   0.8750000  )
       504           C   tau( 504) = (   0.8750000   0.6250000   0.1250000  )
       505           C   tau( 505) = (   0.8750000   0.6250000   0.3750000  )
[...]
     atom   44 type  1   force =     0.00000000    0.00000000    0.00000000
     atom   45 type  1   force =     0.00000000    0.00000000    0.00000000
     atom   46 type  1   force =     0.00000000    0.00000000    0.00000000
     atom   47 type  1   force =     0.00000000    0.00000000    0.00000000
     atom   48 type  1   force =     0.00000000    0.00000000    0.00000000
     atom   49 type  1   force =     0.00000000    0.00000000    0.00000000
     atom   50 type  1   force =     0.00000000    0.00000000    0.00000000
     atom   51 type  1   force =     0.00000000    0.00000000    0.00000000
     atom   52 type  1   force =     0.00000000    0.00000000    0.00000000
     atom   53 type  1   force =     0.00000000    0.00000000    0.00000000
     atom   54 type  1   force =     0.00000000    0.00000000    0.00000000
     atom   55 type  1   force =     0.00000000    0.00000000    0.00000000
     atom   56 type  1   force =     0.00000000    0.00000000    0.00000000
     atom   57 type  1   force =     0.00000000    0.00000000    0.00000000
     atom   58 type  1   force =     0.00000000    0.00000000    0.00000000
     atom   59 type  1   force =     0.00000000    0.00000000    0.00000000
     atom   60 type  1   force =     0.00000000    0.00000000    0.00000000
[...]
     atom  497 type  1   force =     0.00000000    0.00000000    0.00000000
     atom  498 type  1   force =     0.00000000    0.00000000    0.00000000
     atom  499 type  1   force =     0.00000000    0.00000000    0.00000000
     atom  500 type  1   force =     0.00000000    0.00000000    0.00000000
     atom  501 type  1   force =     0.00000000    0.00000000    0.00000000
     atom  502 type  1   force =     0.00000000    0.00000000    0.00000000
     atom  503 type  1   force =     0.00000000    0.00000000    0.00000000
     atom  504 type  1   force =     0.00000000    0.00000000    0.00000000
     atom  505 type  1   force =     0.00000000    0.00000000    0.00000000
     atom  506 type  1   force =     0.00000000    0.00000000    0.00000000
     atom  507 type  1   force =     0.00000000    0.00000000    0.00000000
     atom  508 type  1   force =     0.00000000    0.00000000    0.00000000
     atom  509 type  1   force =     0.00000000    0.00000000    0.00000000
     atom  510 type  1   force =     0.00000000    0.00000000    0.00000000
     atom  511 type  1   force =     0.00000000    0.00000000    0.00000000
     The SCF correction term to forces
     atom    1 type  1   force =     0.00000015   -0.00000015    0.00000020
     atom    2 type  1   force =     0.00000005   -0.00000005   -0.00000029
     atom    3 type  1   force =     0.00000017   -0.00000017   -0.00000019
     atom    4 type  1   force =     0.00000017    0.00000019    0.00000017
     atom    5 type  1   force =     0.00000082    0.00000043    0.00000064
     atom    6 type  1   force =    -0.00000003    0.00000046   -0.00000013
     atom    7 type  1   force =    -0.00000067    0.00000069   -0.00000069
     atom    8 type  1   force =     0.00000005    0.00000029    0.00000005
     atom    9 type  1   force =     0.00000007    0.00000019    0.00000044
     atom   10 type  1   force =    -0.00000001    0.00000003   -0.00000003
     atom   11 type  1   force =    -0.00000003    0.00000013   -0.00000046
     atom   12 type  1   force =     0.00000015   -0.00000020    0.00000015
     atom   13 type  1   force =    -0.00000053   -0.00000044    0.00000044
     atom   14 type  1   force =     0.00000007   -0.00000044   -0.00000019
     atom   15 type  1   force =     0.00000082   -0.00000064   -0.00000043
     atom   16 type  1   force =     0.00000020   -0.00000015    0.00000015
     atom   17 type  1   force =     0.00000044    0.00000053    0.00000044
     atom   18 type  1   force =     0.00000044   -0.00000007   -0.00000019
     atom   19 type  1   force =     0.00000064   -0.00000082   -0.00000043
     atom   20 type  1   force =     0.00000064    0.00000043    0.00000082
     atom   21 type  1   force =    -0.00000017   -0.00000028   -0.00000017
     atom   22 type  1   force =    -0.00000048   -0.00000052   -0.00000055
     atom   23 type  1   force =     0.00000019    0.00000004   -0.00000004
     atom   24 type  1   force =     0.00000044    0.00000019    0.00000007
     atom   25 type  1   force =    -0.00000053   -0.00000029   -0.00000053
     atom   26 type  1   force =    -0.00000141    0.00000007   -0.00000007
     atom   27 type  1   force =    -0.00000048    0.00000055    0.00000052
     atom   28 type  1   force =     0.00000044   -0.00000044   -0.00000053
     atom   29 type  1   force =    -0.00000007    0.00000007   -0.00000007
     atom   30 type  1   force =    -0.00000053    0.00000053    0.00000029
     atom   31 type  1   force =    -0.00000017    0.00000017    0.00000028
     atom   32 type  1   force =    -0.00000029   -0.00000005    0.00000005
     atom   33 type  1   force =    -0.00000019   -0.00000007    0.00000044
     atom   34 type  1   force =    -0.00000003    0.00000001   -0.00000003
     atom   35 type  1   force =    -0.00000013    0.00000003   -0.00000046
     atom   36 type  1   force =    -0.00000013    0.00000046   -0.00000003
     atom   37 type  1   force =    -0.00000055   -0.00000052   -0.00000048
     atom   38 type  1   force =     0.00000006   -0.00000143    0.00000006
     atom   39 type  1   force =     0.00000050   -0.00000046    0.00000046
     atom   40 type  1   force =    -0.00000003    0.00000003   -0.00000001
     atom   41 type  1   force =    -0.00000007    0.00000007   -0.00000141
     atom   42 type  1   force =    -0.00000001    0.00000001   -0.00000001
     atom   43 type  1   force =     0.00000006   -0.00000006    0.00000143
     atom   44 type  1   force =    -0.00000019   -0.00000044    0.00000007
     atom   45 type  1   force =     0.00000029    0.00000053   -0.00000053
     atom   46 type  1   force =    -0.00000007    0.00000141   -0.00000007
     atom   47 type  1   force =    -0.00000055    0.00000048    0.00000052
     atom   48 type  1   force =    -0.00000019   -0.00000017    0.00000017
     atom   49 type  1   force =    -0.00000043   -0.00000082    0.00000064
     atom   50 type  1   force =    -0.00000046    0.00000003   -0.00000013
     atom   51 type  1   force =    -0.00000069    0.00000067   -0.00000069
     atom   52 type  1   force =    -0.00000069    0.00000069   -0.00000067
     atom   53 type  1   force =    -0.00000004    0.00000004    0.00000019
     atom   54 type  1   force =     0.00000046   -0.00000046    0.00000050
     atom   55 type  1   force =    -0.00000007    0.00000007   -0.00000007
     atom   56 type  1   force =    -0.00000046    0.00000013   -0.00000003
     atom   57 type  1   force =     0.00000052    0.00000055   -0.00000048
     atom   58 type  1   force =     0.00000143   -0.00000006    0.00000006
     atom   59 type  1   force =     0.00000046   -0.00000050    0.00000046
     atom   60 type  1   force =    -0.00000043   -0.00000064    0.00000082
[...]
     atom  497 type  1   force =    -0.00000008   -0.00000057    0.00000049
     atom  498 type  1   force =    -0.00000014    0.00000034   -0.00000045
     atom  499 type  1   force =     0.00000010    0.00000040    0.00000010
     atom  500 type  1   force =     0.00000010   -0.00000010   -0.00000040
     atom  501 type  1   force =     0.00000022   -0.00000022    0.00000070
     atom  502 type  1   force =     0.00000007   -0.00000007    0.00000029
     atom  503 type  1   force =    -0.00000072    0.00000072   -0.00000072
     atom  504 type  1   force =    -0.00000014    0.00000045   -0.00000034
     atom  505 type  1   force =     0.00000095    0.00000040    0.00000022
     atom  506 type  1   force =     0.00000131    0.00000006   -0.00000006
     atom  507 type  1   force =     0.00000007   -0.00000029    0.00000007
     atom  508 type  1   force =    -0.00000008   -0.00000049    0.00000057
     atom  509 type  1   force =     0.00000050    0.00000031   -0.00000031
     atom  510 type  1   force =     0.00000095   -0.00000022   -0.00000040
     atom  511 type  1   force =     0.00000022   -0.00000070    0.00000022

     Total force =     0.003809     Total SCF correction =     0.000020

     Computing stress (Cartesian axis) and pressure

     Non-local corr. energy    =      17.48171985 Ry

          total   stress  (Ry/bohr**3)                   (kbar)     P=       21.20
   0.00014412  -0.00000002   0.00000002           21.20       -0.00        0.00
  -0.00000002   0.00014412  -0.00000002           -0.00       21.20       -0.00
   0.00000002  -0.00000002   0.00014412            0.00       -0.00       21.20

     kinetic stress (kbar)  18982.75      0.00     -0.00
                                0.00  18982.75      0.00
                               -0.00      0.00  18982.75

     local   stress (kbar)  -3528.89      0.01     -0.01
                                0.01  -3528.89      0.01
                               -0.01      0.01  -3528.89

     nonloc. stress (kbar)   4317.35      0.00     -0.00
                                0.00   4317.35      0.00
                               -0.00      0.00   4317.35

     hartree stress (kbar)   1284.27     -0.00      0.00
                               -0.00   1284.27     -0.00
                                0.00     -0.00   1284.27

     exc-cor stress (kbar)   -417.69      0.00     -0.00
                                0.00   -417.69      0.00
                               -0.00      0.00   -417.69

     corecor stress (kbar)  -4426.94     -0.00      0.00
                               -0.00  -4426.94     -0.00
                                0.00     -0.00  -4426.94

     ewald   stress (kbar) -16214.49     -0.01      0.01
                               -0.01 -16214.49     -0.01
                                0.01     -0.01 -16214.49

     hubbard stress (kbar)      0.00      0.00      0.00
                                0.00      0.00      0.00
                                0.00      0.00      0.00

     DFT-D   stress (kbar)      0.00      0.00      0.00
                                0.00      0.00      0.00
                                0.00      0.00      0.00

     XDM     stress (kbar)      0.00      0.00      0.00
                                0.00      0.00      0.00
                                0.00      0.00      0.00

     dft-nl  stress (kbar)     24.84      0.00     -0.00
                                0.00     24.84      0.00
                               -0.00      0.00     24.84

     TS-vdW  stress (kbar)      0.00      0.00      0.00
                                0.00      0.00      0.00
                                0.00      0.00      0.00

     MDB     stress (kbar)      0.00      0.00      0.00
                                0.00      0.00      0.00
                                0.00      0.00      0.00

     3D-RISM stress (kbar)      0.00      0.00      0.00
                                0.00      0.00      0.00
                                0.00      0.00      0.00

     Energy error            =      4.7E-05 Ry
     Gradient error          =      2.5E-04 Ry/Bohr

     bfgs converged in   7 scf cycles and   6 bfgs steps
     (criteria: energy <  1.0E-04 Ry, force <  1.0E-03 Ry/Bohr)

     End of BFGS Geometry Optimization

     Final energy             =   -9702.5592736416 Ry

     File ./diamond.bfgs deleted, as requested
Begin final coordinates

ATOMIC_POSITIONS (angstrom)
C             0.8931744705        2.6791287065        4.4579158327
C             0.8931070827        2.6791960943        8.0377166193
C             0.8930585811        2.6792445959       11.6174988570
C             0.8930585811        6.2440170247        0.8930585811
C             0.8907992924        6.2561199227        4.4700445282
C             0.8931045514        6.2511535540        8.0377123415
C             0.8954452503        6.2561692007       11.6053466810
C             0.8931070827        9.8237992623        0.8931070827
C             0.8931058942        9.8238044064        4.4650621295
C             0.8930998924        9.8238034532        8.0377124284
C             0.8931045514        9.8238035401       11.6103623277
C             0.8931744705       13.4036000490        0.8931744705
C             0.8953114132       13.3914861971        4.4700296846
C             0.8931058942       13.3964537522        8.0377114752
C             0.8907992924       13.3914713535       11.6053959590
C             4.4579158327        2.6791287065        0.8931744705
C             4.4700296846        2.6769917638        4.4700296846
C             4.4650621295        2.6791972828        8.0377114752
C             4.4700445282        2.6815038846       11.6053959590
C             4.4700445282        6.2561199227        0.8907992924
C             4.4632084741        6.2492900553        4.4632084741
C             4.4653847859        6.2514750703        8.0374910324
C             4.4648143136        6.2509040721       11.6106118096
C             4.4650621295        9.8238044064        0.8931058942
C             4.4653807876        9.8235816021        4.4653807876
C             4.4653365453        9.8238029425        8.0377129391
C             4.4653847859        9.8240248492       11.6100408114
C             4.4700296846       13.3914861971        0.8953114132
C             4.4648241947       13.3966916870        4.4648241947
C             4.4653807876       13.3961350941        8.0379342795
C             4.4632084741       13.3983074076       11.6122258264
C             8.0377166193        2.6791960943        0.8931070827
C             8.0377114752        2.6791972828        4.4650621295
C             8.0377124284        2.6792032846        8.0377124284
C             8.0377123415        2.6791986256       11.6103623277
C             8.0377123415        6.2511535540        0.8931045514
C             8.0374910324        6.2514750703        4.4653847859
C             8.0377126196        6.2514262535        8.0377126196
C             8.0379304450        6.2514733151       11.6100425666
C             8.0377124284        9.8238034532        0.8930998924
C             8.0377129391        9.8238029425        4.4653365453
C             8.0377126190        9.8238032626        8.0377126190
C             8.0377126196        9.8238032620       11.6100896282
C             8.0377114752       13.3964537522        0.8931058942
C             8.0379342795       13.3961350941        4.4653807876
C             8.0377129391       13.3961793364        8.0377129391
C             8.0374910324       13.3961310958       11.6100408114
C            11.6174988570        2.6792445959        0.8930585811
C            11.6053959590        2.6815038846        4.4700445282
C            11.6103623277        2.6791986256        8.0377123415
C            11.6053466810        2.6768579267       11.6053466810
C            11.6053466810        6.2561692007        0.8954452503
C            11.6106118096        6.2509040721        4.4648143136
C            11.6100425666        6.2514733151        8.0379304450
C            11.6122306538        6.2492852279       11.6122306538
C            11.6103623277        9.8238035401        0.8931045514
C            11.6100408114        9.8240248492        4.4653847859
C            11.6100896282        9.8238032620        8.0377126196
C            11.6100425666        9.8235854366       11.6100425666
C            11.6053959590       13.3914713535        0.8907992924
[...]
C            12.5038024725        1.7866389494        5.3566484659
C            12.5033864784        1.7864283228        8.9312399124
C            12.4948174309        1.7897692620       12.4948174309
C            12.4948174309        5.3666984508        1.7825339150
C            12.5036513428        5.3578645389        5.3589482497
C            12.5031451561        5.3583707256        8.9309599738
C            12.5067421727        5.3547737090       12.5067421727
C            12.5033864784        8.9302759692        1.7858748542
C            12.5031791037        8.9309539286        5.3584062702
C            12.5031335104        8.9305729152        8.9309429664
C            12.5031451561        8.9305559078       12.5031451561
C            12.5038024725       12.5048674158        1.7856642276
C            12.5034870945       12.5040801329        5.3574357488
C            12.5031791037       12.5031096115        8.9305619530
C            12.5036513428       12.5025676320       12.5036513428
End final coordinates

     Writing all to output data dir ./diamond.save/

     General routines

     Parallel routines

     PAW routines

   This run was terminated on:  21: 8:32  30Sep2023

   JOB DONE.