     Program PWSCF v.7.1 starts on 25Jan2024 at 15:18:55

     Reading input from espresso.pwi
Warning: card &CELL ignored
Warning: card    CELL_DYNAMICS    = 'BFGS' ignored
Warning: card / ignored

     Current dimensions of program PWSCF are:
     Max number of different atomic species (ntypx) = 10
     Max number of k-points (npk) =  40000
     Max angular momentum in pseudopotentials (lmaxx) =  4
     file Ga.pbe-dn-kjpaw_psl.1.0.0.UPF: wavefunction(s)  4S renormalized
     file N.pbe-n-kjpaw_psl.1.0.0.UPF: wavefunction(s)  2S renormalized

     IMPORTANT: XC functional enforced from input :
     Exchange-correlation= BEEF-VDW
                           (   1   4  43  14   2   0   0)
     Any further DFT definition will be discarded
     Please, verify this is what you really want

     K-points division:     npool     =       4
     R & G space division:  proc/nbgrp/npool/nimage =      32
     Subspace diagonalization in iterative solution of the eigenvalue problem:
     a serial algorithm will be used

     Using Slab Decomposition

     bravais-lattice index     =            4
     lattice parameter (alat)  =      18.3939  a.u.
     unit-cell volume          =    5856.2271 (a.u.)^3
     number of atoms/cell      =           71
     number of atomic types    =            2
     number of electrons       =       635.00
     number of Kohn-Sham states=          382
     kinetic-energy cutoff     =      70.0000  Ry
     charge density cutoff     =     350.0000  Ry
     scf convergence threshold =      1.0E-09
     mixing beta               =       0.7000
     number of iterations used =            8  plain     mixing
     energy convergence thresh.=      1.0E-04
     force convergence thresh. =      1.0E-03
     Exchange-correlation= BEEF-VDW
                           (   1   4  43  14   2   0   0)
     nstep                     =           50

     celldm(1)=  18.393924  celldm(2)=   0.000000  celldm(3)=   1.086586
     celldm(4)=   0.000000  celldm(5)=   0.000000  celldm(6)=   0.000000

     crystal axes: (cart. coord. in units of alat)
               a(1) = (   1.000000   0.000000   0.000000 )
               a(2) = (  -0.500000   0.866025   0.000000 )
               a(3) = (   0.000000   0.000000   1.086586 )

     reciprocal axes: (cart. coord. in units 2 pi/alat)
               b(1) = (  1.000000  0.577350 -0.000000 )
               b(2) = (  0.000000  1.154701  0.000000 )
               b(3) = (  0.000000 -0.000000  0.920314 )

     PseudoPot. # 1 for Ga read from file:
     /trace/group/acmegroup/atimmins/packages/espresso/pseudo/psl_1.0.0/pslibrary.1.0.0/pbe/PSEUDOPOTENTIALS/Ga.pbe-dn-kjpaw_psl.1.0.0.UPF
     MD5 check sum: cd2a01e492f15b435d17032472d8505c
     Pseudo is Projector augmented-wave + core cor, Zval = 13.0
     Generated using 'atomic' code by A. Dal Corso  v.7.1
     Shape of augmentation charge: PSQ
     Using radial grid of 1205 points,  6 beta functions with:
                l(1) =   0
                l(2) =   0
                l(3) =   1
                l(4) =   1
                l(5) =   2
                l(6) =   2
     Q(r) pseudized with 0 coefficients

     PseudoPot. # 2 for N  read from file:
     /trace/group/acmegroup/atimmins/packages/espresso/pseudo/psl_1.0.0/pslibrary.1.0.0/pbe/PSEUDOPOTENTIALS/N.pbe-n-kjpaw_psl.1.0.0.UPF
     MD5 check sum: f77f775694dac7e2c3fe1c82443d1a16
     Pseudo is Projector augmented-wave + core cor, Zval =  5.0
     Generated using 'atomic' code by A. Dal Corso  v.7.1
     Shape of augmentation charge: PSQ
     Using radial grid of 1085 points,  4 beta functions with:
                l(1) =   0
                l(2) =   0
                l(3) =   1
                l(4) =   1
     Q(r) pseudized with 0 coefficients

     atomic species   valence    mass     pseudopotential
        Ga            13.00    69.72300     Ga( 1.00)
        N              5.00    14.00700     N ( 1.00)

      6 Sym. Ops. (no inversion) found ( 4 have fractional translation)

                                    s                        frac. trans.

      isym =  1     identity

 cryst.   s( 1) = (     1          0          0      )
                  (     0          1          0      )
                  (     0          0          1      )

 cart.    s( 1) = (  1.0000000  0.0000000  0.0000000 )
                  (  0.0000000  1.0000000  0.0000000 )
                  (  0.0000000  0.0000000  1.0000000 )

      isym =  2     120 deg rotation - cryst. axis [0,0,1]

 cryst.   s( 2) = (     0          1          0      )    f =( -0.3333334 )
                  (    -1         -1          0      )       (  0.0000003 )
                  (     0          0          1      )       (  0.0000000 )

 cart.    s( 2) = ( -0.5000000 -0.8660254  0.0000000 )    f =( -0.3333335 )
                  (  0.8660254 -0.5000000  0.0000000 )       (  0.0000002 )
                  (  0.0000000  0.0000000  1.0000000 )       (  0.0000000 )

      isym =  3     120 deg rotation - cryst. axis [0,0,-1]

[...]

      isym =  4     inv. 180 deg rotation - cart. axis [1,0,0]

[...]

      isym =  5     inv. 180 deg rotation - cryst. axis [0,1,0]

 cryst.   s( 5) = (     1          1          0      )
                  (     0         -1          0      )
                  (     0          0          1      )

 cart.    s( 5) = (  0.5000000  0.8660254  0.0000000 )
                  (  0.8660254 -0.5000000  0.0000000 )
                  (  0.0000000  0.0000000  1.0000000 )

      isym =  6     inv. 180 deg rotation - cryst. axis [1,1,0]

 cryst.   s( 6) = (     0         -1          0      )    f =( -0.3333334 )
                  (    -1          0          0      )       ( -0.3333334 )
                  (     0          0          1      )       (  0.0000000 )

 cart.    s( 6) = (  0.5000000 -0.8660254  0.0000000 )    f =( -0.1666667 )
                  ( -0.8660254 -0.5000000  0.0000000 )       ( -0.2886752 )
                  (  0.0000000  0.0000000  1.0000000 )       (  0.0000000 )

     point group C_3v (3m)
     there are  3 classes
     the character table:

       E     2C3   3s_v
A_1    1.00  1.00  1.00
A_2    1.00  1.00 -1.00
E      2.00 -1.00  0.00

     the symmetry operations in each class and the name of the first element:

     E        1
          identity
     2C3      2    3
          120 deg rotation - cryst. axis [0,0,1]
     3s_v     4    5    6
          inv. 180 deg rotation - cart. axis [1,0,0]

   Cartesian axes

     site n.     atom                  positions (alat units)
         1           Ga  tau(   1) = (   0.1666668   0.0962250   0.8144844  )
         2           Ga  tau(   2) = (   0.0000001   0.3849001   0.2711914  )
         3           Ga  tau(   3) = (   0.0000001   0.3849001   0.8144844  )
         4           Ga  tau(   4) = (  -0.1666665   0.6735752   0.2711914  )
         5           Ga  tau(   5) = (  -0.1666665   0.6735752   0.8144844  )
         6           Ga  tau(   6) = (   0.5000001   0.0962250   0.2711914  )
         7           Ga  tau(   7) = (   0.5000001   0.0962250   0.8144844  )
         8           Ga  tau(   8) = (   0.3333335   0.3849001   0.2711914  )
         9           Ga  tau(   9) = (   0.3333335   0.3849001   0.8144844  )
        10           Ga  tau(  10) = (   0.1666668   0.6735752   0.2711914  )
        11           Ga  tau(  11) = (   0.1666668   0.6735752   0.8144844  )
        12           Ga  tau(  12) = (   0.8333335   0.0962250   0.2711914  )
        13           Ga  tau(  13) = (   0.8333335   0.0962250   0.8144844  )
        14           Ga  tau(  14) = (   0.6666668   0.3849001   0.2711914  )
        15           Ga  tau(  15) = (   0.6666668   0.3849001   0.8144844  )
        16           Ga  tau(  16) = (   0.5000001   0.6735752   0.2711914  )
        17           Ga  tau(  17) = (   0.5000001   0.6735752   0.8144844  )
        18           Ga  tau(  18) = (  -0.0000002   0.1924502   0.5428379  )
        19           Ga  tau(  19) = (  -0.0000002   0.1924502   1.0861309  )
        20           Ga  tau(  20) = (  -0.1666669   0.4811254   0.5428379  )
        21           Ga  tau(  21) = (  -0.1666669   0.4811254   1.0861309  )
        22           Ga  tau(  22) = (  -0.3333335   0.7698005   0.5428379  )
        23           Ga  tau(  23) = (  -0.3333335   0.7698005   1.0861309  )
        24           Ga  tau(  24) = (   0.3333331   0.1924502   0.5428379  )
        25           Ga  tau(  25) = (   0.3333331   0.1924502   1.0861309  )
        26           Ga  tau(  26) = (   0.1666665   0.4811254   0.5428379  )
        27           Ga  tau(  27) = (   0.1666665   0.4811254   1.0861309  )
        28           Ga  tau(  28) = (  -0.0000002   0.7698005   0.5428379  )
        29           Ga  tau(  29) = (  -0.0000002   0.7698005   1.0861309  )
        30           Ga  tau(  30) = (   0.6666665   0.1924502   0.5428379  )
        31           Ga  tau(  31) = (   0.6666665   0.1924502   1.0861309  )
        32           Ga  tau(  32) = (   0.4999998   0.4811254   0.5428379  )
        33           Ga  tau(  33) = (   0.4999998   0.4811254   1.0861309  )
        34           Ga  tau(  34) = (   0.3333331   0.7698005   0.5428379  )
        35           Ga  tau(  35) = (   0.3333331   0.7698005   1.0861309  )
        36           N   tau(  36) = (   0.1666668   0.0962250   0.4758365  )
        37           N   tau(  37) = (   0.1666668   0.0962250   1.0191295  )
        38           N   tau(  38) = (   0.0000001   0.3849001   0.4758365  )
        39           N   tau(  39) = (   0.0000001   0.3849001   1.0191295  )
        40           N   tau(  40) = (  -0.1666665   0.6735752   0.4758365  )
        41           N   tau(  41) = (  -0.1666665   0.6735752   1.0191295  )
        42           N   tau(  42) = (   0.5000001   0.0962250   0.4758365  )
        43           N   tau(  43) = (   0.5000001   0.0962250   1.0191295  )
        44           N   tau(  44) = (   0.3333335   0.3849001   0.4758365  )
        45           N   tau(  45) = (   0.3333335   0.3849001   1.0191295  )
        46           N   tau(  46) = (   0.1666668   0.6735752   0.4758365  )
        47           N   tau(  47) = (   0.1666668   0.6735752   1.0191295  )
        48           N   tau(  48) = (   0.8333335   0.0962250   0.4758365  )
        49           N   tau(  49) = (   0.8333335   0.0962250   1.0191295  )
        50           N   tau(  50) = (   0.6666668   0.3849001   0.4758365  )
        51           N   tau(  51) = (   0.6666668   0.3849001   1.0191295  )
        52           N   tau(  52) = (   0.5000001   0.6735752   0.4758365  )
        53           N   tau(  53) = (   0.5000001   0.6735752   1.0191295  )
        54           N   tau(  54) = (  -0.0000002   0.1924502   0.2041900  )
        55           N   tau(  55) = (  -0.0000002   0.1924502   0.7474830  )
        56           N   tau(  56) = (  -0.1666669   0.4811254   0.2041900  )
        57           N   tau(  57) = (  -0.1666669   0.4811254   0.7474830  )
        58           N   tau(  58) = (  -0.3333335   0.7698005   0.2041900  )
        59           N   tau(  59) = (  -0.3333335   0.7698005   0.7474830  )
[...]
     atom   32 type  1   force =     0.00000000    0.00000000    0.00000000
     atom   33 type  1   force =     0.00000000    0.00000000    0.00000000
     atom   34 type  1   force =     0.00000000    0.00000000    0.00000000
     atom   35 type  1   force =     0.00000000    0.00000000    0.00000000
     atom   36 type  2   force =     0.00000000    0.00000000    0.00000000
     atom   37 type  2   force =     0.00000000    0.00000000    0.00000000
     atom   38 type  2   force =     0.00000000    0.00000000    0.00000000
     atom   39 type  2   force =     0.00000000    0.00000000    0.00000000
     atom   40 type  2   force =     0.00000000    0.00000000    0.00000000
     atom   41 type  2   force =     0.00000000    0.00000000    0.00000000
     atom   42 type  2   force =     0.00000000    0.00000000    0.00000000
     atom   43 type  2   force =     0.00000000    0.00000000    0.00000000
     atom   44 type  2   force =     0.00000000    0.00000000    0.00000000
     atom   45 type  2   force =     0.00000000    0.00000000    0.00000000
     atom   46 type  2   force =     0.00000000    0.00000000    0.00000000
     atom   47 type  2   force =     0.00000000    0.00000000    0.00000000
     atom   48 type  2   force =     0.00000000    0.00000000    0.00000000
     atom   49 type  2   force =     0.00000000    0.00000000    0.00000000
     atom   50 type  2   force =     0.00000000    0.00000000    0.00000000
     atom   51 type  2   force =     0.00000000    0.00000000    0.00000000
     atom   52 type  2   force =     0.00000000    0.00000000    0.00000000
     atom   53 type  2   force =     0.00000000    0.00000000    0.00000000
     atom   54 type  2   force =     0.00000000    0.00000000    0.00000000
     atom   55 type  2   force =     0.00000000    0.00000000    0.00000000
     atom   56 type  2   force =     0.00000000    0.00000000    0.00000000
     atom   57 type  2   force =     0.00000000    0.00000000    0.00000000
     atom   58 type  2   force =     0.00000000    0.00000000    0.00000000
     atom   59 type  2   force =     0.00000000    0.00000000    0.00000000
     atom   60 type  2   force =     0.00000000    0.00000000    0.00000000
     atom   61 type  2   force =     0.00000000    0.00000000    0.00000000
     atom   62 type  2   force =     0.00000000    0.00000000    0.00000000
     atom   63 type  2   force =     0.00000000    0.00000000    0.00000000
     atom   64 type  2   force =     0.00000000    0.00000000    0.00000000
     atom   65 type  2   force =     0.00000000    0.00000000    0.00000000
     atom   66 type  2   force =     0.00000000    0.00000000    0.00000000
     atom   67 type  2   force =     0.00000000    0.00000000    0.00000000
     atom   68 type  2   force =     0.00000000    0.00000000    0.00000000
     atom   69 type  2   force =     0.00000000    0.00000000    0.00000000
     atom   70 type  2   force =     0.00000000    0.00000000    0.00000000
     atom   71 type  2   force =     0.00000000    0.00000000    0.00000000
     The SCF correction term to forces
     atom    1 type  1   force =    -0.00000000    0.00000000   -0.00000133
     atom    2 type  1   force =     0.00000071   -0.00000227   -0.00000002
     atom    3 type  1   force =    -0.00000031    0.00000017   -0.00000048
     atom    4 type  1   force =    -0.00000161    0.00000175   -0.00000002
     atom    5 type  1   force =    -0.00000001   -0.00000035   -0.00000048
     atom    6 type  1   force =    -0.00000232    0.00000052   -0.00000002
     atom    7 type  1   force =     0.00000030    0.00000018   -0.00000048
     atom    8 type  1   force =    -0.00000071   -0.00000227   -0.00000002
     atom    9 type  1   force =     0.00000031    0.00000017   -0.00000048
     atom   10 type  1   force =     0.00000000   -0.00000000    0.00000035
     atom   11 type  1   force =     0.00000000   -0.00000000   -0.00000072
     atom   12 type  1   force =     0.00000232    0.00000052   -0.00000002
     atom   13 type  1   force =    -0.00000030    0.00000018   -0.00000048
     atom   14 type  1   force =    -0.00000000    0.00000000    0.00000078
     atom   15 type  1   force =    -0.00000000    0.00000000   -0.00000116
     atom   16 type  1   force =     0.00000161    0.00000175   -0.00000002
     atom   17 type  1   force =     0.00000001   -0.00000035   -0.00000048
     atom   18 type  1   force =     0.00000067   -0.00000039   -0.00000014
     atom   19 type  1   force =    -0.00000040    0.00000023    0.00000168
     atom   20 type  1   force =    -0.00000015   -0.00000009    0.00000125
     atom   21 type  1   force =     0.00000017    0.00000010   -0.00000135
     atom   22 type  1   force =     0.00000000    0.00000078   -0.00000014
     atom   23 type  1   force =    -0.00000000   -0.00000047    0.00000168
     atom   24 type  1   force =    -0.00000067   -0.00000039   -0.00000014
     atom   25 type  1   force =     0.00000040    0.00000023    0.00000168
     atom   26 type  1   force =     0.00000000    0.00000020    0.00000134
     atom   27 type  1   force =    -0.00000000   -0.00000037   -0.00000101
     atom   28 type  1   force =     0.00000017   -0.00000010    0.00000134
     atom   29 type  1   force =    -0.00000032    0.00000019   -0.00000101
     atom   30 type  1   force =     0.00000000    0.00000018    0.00000125
     atom   31 type  1   force =    -0.00000000   -0.00000019   -0.00000135
     atom   32 type  1   force =     0.00000015   -0.00000009    0.00000125
     atom   33 type  1   force =    -0.00000017    0.00000010   -0.00000135
     atom   34 type  1   force =    -0.00000017   -0.00000010    0.00000134
     atom   35 type  1   force =     0.00000032    0.00000019   -0.00000101
     atom   36 type  2   force =    -0.00000000    0.00000000   -0.00000024
     atom   37 type  2   force =     0.00000000   -0.00000000    0.00000016
     atom   38 type  2   force =    -0.00000018   -0.00000014    0.00000051
     atom   39 type  2   force =     0.00000004   -0.00000006   -0.00000028
     atom   40 type  2   force =    -0.00000021   -0.00000009    0.00000051
     atom   41 type  2   force =    -0.00000003    0.00000006   -0.00000028
     atom   42 type  2   force =    -0.00000003    0.00000023    0.00000051
     atom   43 type  2   force =    -0.00000007   -0.00000001   -0.00000028
     atom   44 type  2   force =     0.00000018   -0.00000014    0.00000051
     atom   45 type  2   force =    -0.00000004   -0.00000006   -0.00000028
     atom   46 type  2   force =     0.00000000   -0.00000000    0.00000093
     atom   47 type  2   force =    -0.00000000    0.00000000   -0.00000093
     atom   48 type  2   force =     0.00000003    0.00000023    0.00000051
     atom   49 type  2   force =     0.00000007   -0.00000001   -0.00000028
     atom   50 type  2   force =    -0.00000000    0.00000000    0.00000094
     atom   51 type  2   force =     0.00000000   -0.00000000   -0.00000063
     atom   52 type  2   force =     0.00000021   -0.00000009    0.00000051
     atom   53 type  2   force =     0.00000003    0.00000006   -0.00000028
     atom   54 type  2   force =     0.00000056   -0.00000032    0.00000011
     atom   55 type  2   force =    -0.00000014    0.00000008   -0.00000024
     atom   56 type  2   force =    -0.00000001   -0.00000001    0.00000002
     atom   57 type  2   force =    -0.00000017   -0.00000010   -0.00000034
     atom   58 type  2   force =     0.00000000    0.00000064    0.00000011
     atom   59 type  2   force =     0.00000000   -0.00000016   -0.00000024
     atom   60 type  2   force =    -0.00000056   -0.00000032    0.00000011
     atom   61 type  2   force =     0.00000014    0.00000008   -0.00000024
     atom   62 type  2   force =    -0.00000000   -0.00000049   -0.00000012
     atom   63 type  2   force =     0.00000000    0.00000055   -0.00000000
     atom   64 type  2   force =    -0.00000042    0.00000024   -0.00000012
     atom   65 type  2   force =     0.00000048   -0.00000028   -0.00000000
     atom   66 type  2   force =    -0.00000000    0.00000001    0.00000002
     atom   67 type  2   force =     0.00000000    0.00000020   -0.00000034
     atom   68 type  2   force =     0.00000001   -0.00000001    0.00000002
     atom   69 type  2   force =     0.00000017   -0.00000010   -0.00000034
     atom   70 type  2   force =     0.00000042    0.00000024   -0.00000012
     atom   71 type  2   force =    -0.00000048   -0.00000028   -0.00000000

     Total force =     0.002691     Total SCF correction =     0.000009

     Computing stress (Cartesian axis) and pressure

     Non-local corr. energy    =      19.17394435 Ry

          total   stress  (Ry/bohr**3)                   (kbar)     P=        4.27
   0.00002045  -0.00000000   0.00000000            3.01       -0.00        0.00
   0.00000000   0.00002045   0.00000000            0.00        3.01        0.00
   0.00000000   0.00000000   0.00004627            0.00        0.00        6.81

     kinetic stress (kbar)  18134.95      0.00      0.00
                                0.00  18134.95     -0.00
                                0.00     -0.00  18150.24

     local   stress (kbar)   4063.59     -0.07     -0.00
                               -0.07   4063.50      0.00
                               -0.00      0.00   2554.79

     nonloc. stress (kbar)     57.66      0.00      0.00
                                0.00     57.66      0.00
                                0.00      0.00     61.68

     hartree stress (kbar)  19623.17     -0.00     -0.00
                               -0.00  19623.17      0.00
                               -0.00      0.00  20296.13

     exc-cor stress (kbar)   5047.93      0.00      0.00
                                0.00   5047.93      0.00
                                0.00      0.00   5048.65

     corecor stress (kbar) -13735.55     -0.00      0.00
                               -0.00 -13735.55      0.00
                                0.00      0.00 -13735.42

     ewald   stress (kbar) -33346.99      0.09      0.00
                                0.09 -33346.87     -0.00
                                0.00     -0.00 -32526.60

     hubbard stress (kbar)      0.00      0.00      0.00
                                0.00      0.00      0.00
                                0.00      0.00      0.00

     DFT-D   stress (kbar)      0.00      0.00      0.00
                                0.00      0.00      0.00
                                0.00      0.00      0.00

     XDM     stress (kbar)      0.00      0.00      0.00
                                0.00      0.00      0.00
                                0.00      0.00      0.00

     dft-nl  stress (kbar)    158.23     -0.00     -0.00
                               -0.00    158.23     -0.00
                               -0.00     -0.00    157.34

     TS-vdW  stress (kbar)      0.00      0.00      0.00
                                0.00      0.00      0.00
                                0.00      0.00      0.00

     MDB     stress (kbar)      0.00      0.00      0.00
                                0.00      0.00      0.00
                                0.00      0.00      0.00

     3D-RISM stress (kbar)      0.00      0.00      0.00
                                0.00      0.00      0.00
                                0.00      0.00      0.00

     Energy error            =      1.8E-05 Ry
     Gradient error          =      8.6E-04 Ry/Bohr

     bfgs converged in  12 scf cycles and  11 bfgs steps
     (criteria: energy <  1.0E-04 Ry, force <  1.0E-03 Ry/Bohr)

     End of BFGS Geometry Optimization

     Final energy             =  -10958.6071566435 Ry

     File ./GaN.bfgs deleted, as requested
Begin final coordinates

ATOMIC_POSITIONS (angstrom)
Ga            1.6222756606        0.9366198184        7.9014179748
Ga            0.0239534541        3.7379018589        2.6566785016
Ga           -0.0009898461        3.7488066971        7.9234561096
Ga           -1.6177266581        6.5813752231        2.6566785016
Ga           -1.6207544413        6.5543212724        7.9234561096
Ga            4.8474181741        0.9201664325        2.6566785016
Ga            4.8693336911        0.9363155450        7.9234561096
Ga            3.2205978671        3.7379018589        2.6566785016
Ga            3.2455411673        3.7488066971        7.9234561096
Ga            1.6222756606        6.5563425246        2.6427243572
Ga            1.6222756606        6.5563425246        7.9289719606
Ga            8.1307783983        0.9201664325        2.6566785016
Ga            8.1088628813        0.9363155450        7.9234561096
Ga            6.4890982862        3.7464811715        2.6357297630
Ga            6.4890982862        3.7464811715        7.9292870432
Ga            4.8622779793        6.5813752231        2.6566785016
Ga            4.8653057625        6.5543212724        7.9234561096
Ga            0.0029778674        1.8715220396        5.2587769559
Ga            0.0029694821        1.8715268809       10.5842204485
Ga           -1.6238014993        4.6822231522        5.2822900774
Ga           -1.6205636149        4.6840925457       10.5732906761
Ga           -3.2445503819        7.4964059665        5.2587769559
Ga           -3.2445503819        7.4963962840       10.5842204485
Ga            3.2415666201        1.8715220396        5.2587769559
Ga            3.2415750054        1.8715268809       10.5842204485
Ga            1.6222722437        4.6845359871        5.2905918854
Ga            1.6222722437        4.6823535795       10.5665064257
Ga            0.0012383460        7.4922490590        5.2905918854
Ga           -0.0006516745        7.4933402628       10.5665064257
Ga            6.4890948693        1.8750037413        5.2822900774
Ga            6.4890948693        1.8712649544       10.5732906761
Ga            4.8683459868        4.6822231522        5.2822900774
Ga            4.8651081024        4.6840925457       10.5732906761
Ga            3.2433061415        7.4922490590        5.2905918854
Ga            3.2451961620        7.4933402628       10.5665064257
N             1.6222756606        0.9366198184        4.8103103148
N             1.6222756606        0.9366198184        9.9137028016
N             0.0005929871        3.7536405356        4.6367135783
N             0.0016514187        3.7514231412        9.9104635288
N            -1.6157767978        6.5532751269        4.6367135783
N            -1.6171679020        6.5553004527        9.9104635288
N             4.8727285014        0.9325278520        4.6367135783
N             4.8702789657        0.9327199206        9.9104635288
N             3.2439583341        3.7536405356        4.6367135783
N             3.2428999025        3.7514231412        9.9104635288
N             1.6222756606        6.5563425246        4.6333049603
N             1.6222756606        6.5563425246        9.9190423123
N             8.1054680710        0.9325278520        4.6367135783
N             8.1079176067        0.9327199206        9.9104635288
N             6.4890982862        3.7464811715        4.6262578575
N             6.4890982862        3.7464811715        9.9230587240
N             4.8603281190        6.5532751269        4.6367135783
N             4.8617192232        6.5553004527        9.9104635288
N            -0.1570839865        1.9639337940        1.9333419346
N            -0.0094935681        1.8787224262        7.2797380818
N            -1.6203337360        4.6842252663        1.9890197268
N            -1.6238722668        4.6821822946        7.2725764598
N            -3.2445503819        7.3115824576        1.9333419346
N            -3.2445503819        7.4820051932        7.2797380818
N             3.4016284740        1.9639337940        1.9333419346
N             3.2540380556        1.8787224262        7.2797380818
N             1.6222722437        4.6889759883        1.9855506938
N             1.6222722437        4.6850548618        7.2759588763
N             0.0050834998        7.4900290584        1.9855506938
N             0.0016877047        7.4919896216        7.2759588763
N             6.4890948693        1.8709995131        1.9890197268
N             6.4890948693        1.8750854566        7.2725764598
N             4.8648782235        4.6842252663        1.9890197268
N             4.8684167543        4.6821822946        7.2725764598
N             3.2394609877        7.4900290584        1.9855506938
N             3.2428567828        7.4919896216        7.2759588763
End final coordinates

     Writing all to output data dir ./GaN.save/

     General routines

     Parallel routines

     PAW routines

   This run was terminated on:  16:29:53  25Jan2024

   JOB DONE.