     Program PWSCF v.7.1 starts on 19Feb2024 at  7:16: 8

     Reading input from espresso.pwi
Warning: card &CELL ignored
Warning: card    CELL_DYNAMICS    = 'BFGS' ignored
Warning: card / ignored

     Current dimensions of program PWSCF are:
     Max number of different atomic species (ntypx) = 10
     Max number of k-points (npk) =  40000
     Max angular momentum in pseudopotentials (lmaxx) =  4
     file Ga.pbe-dn-kjpaw_psl.1.0.0.UPF: wavefunction(s)  4S renormalized
     file N.pbe-n-kjpaw_psl.1.0.0.UPF: wavefunction(s)  2S renormalized

     IMPORTANT: XC functional enforced from input :
     Exchange-correlation= BEEF-VDW
                           (   1   4  43  14   2   0   0)
     Any further DFT definition will be discarded
     Please, verify this is what you really want

     K-points division:     npool     =       4
     R & G space division:  proc/nbgrp/npool/nimage =      32
     Subspace diagonalization in iterative solution of the eigenvalue problem:
     a serial algorithm will be used

     Using Slab Decomposition

     bravais-lattice index     =            4
     lattice parameter (alat)  =      18.3939  a.u.
     unit-cell volume          =    5856.2271 (a.u.)^3
     number of atoms/cell      =           71
     number of atomic types    =            2
     number of electrons       =       635.00
     number of Kohn-Sham states=          382
     kinetic-energy cutoff     =      70.0000  Ry
     charge density cutoff     =     350.0000  Ry
     scf convergence threshold =      1.0E-07
     mixing beta               =       0.7000
     number of iterations used =            8  plain     mixing
     Exchange-correlation= BEEF-VDW
                           (   1   4  43  14   2   0   0)

     celldm(1)=  18.393924  celldm(2)=   0.000000  celldm(3)=   1.086586
     celldm(4)=   0.000000  celldm(5)=   0.000000  celldm(6)=   0.000000

     crystal axes: (cart. coord. in units of alat)
               a(1) = (   1.000000   0.000000   0.000000 )
               a(2) = (  -0.500000   0.866025   0.000000 )
               a(3) = (   0.000000   0.000000   1.086586 )

     reciprocal axes: (cart. coord. in units 2 pi/alat)
               b(1) = (  1.000000  0.577350 -0.000000 )
               b(2) = (  0.000000  1.154701  0.000000 )
               b(3) = (  0.000000 -0.000000  0.920314 )

     PseudoPot. # 1 for Ga read from file:
     //group///packages/espresso/pseudo/psl_1.0.0/pslibrary.1.0.0/pbe/PSEUDOPOTENTIALS/Ga.pbe-dn-kjpaw_psl.1.0.0.UPF
     MD5 check sum: cd2a01e492f15b435d17032472d8505c
     Pseudo is Projector augmented-wave + core cor, Zval = 13.0
     Generated using 'atomic' code by A. Dal Corso  v.7.1
     Shape of augmentation charge: PSQ
     Using radial grid of 1205 points,  6 beta functions with:
                l(1) =   0
                l(2) =   0
                l(3) =   1
                l(4) =   1
                l(5) =   2
                l(6) =   2
     Q(r) pseudized with 0 coefficients

     PseudoPot. # 2 for N  read from file:
     //group///packages/espresso/pseudo/psl_1.0.0/pslibrary.1.0.0/pbe/PSEUDOPOTENTIALS/N.pbe-n-kjpaw_psl.1.0.0.UPF
     MD5 check sum: f77f775694dac7e2c3fe1c82443d1a16
     Pseudo is Projector augmented-wave + core cor, Zval =  5.0
     Generated using 'atomic' code by A. Dal Corso  v.7.1
     Shape of augmentation charge: PSQ
     Using radial grid of 1085 points,  4 beta functions with:
                l(1) =   0
                l(2) =   0
                l(3) =   1
                l(4) =   1
     Q(r) pseudized with 0 coefficients

     atomic species   valence    mass     pseudopotential
        Ga            13.00    69.72300     Ga( 1.00)
        N              5.00    14.00700     N ( 1.00)

      6 Sym. Ops. (no inversion) found ( 4 have fractional translation)

                                    s                        frac. trans.

      isym =  1     identity

 cryst.   s( 1) = (     1          0          0      )
                  (     0          1          0      )
                  (     0          0          1      )

 cart.    s( 1) = (  1.0000000  0.0000000  0.0000000 )
                  (  0.0000000  1.0000000  0.0000000 )
                  (  0.0000000  0.0000000  1.0000000 )

      isym =  2     120 deg rotation - cryst. axis [0,0,1]

 cryst.   s( 2) = (     0          1          0      )    f =( -0.3333334 )
                  (    -1         -1          0      )       (  0.0000003 )
                  (     0          0          1      )       (  0.0000000 )

 cart.    s( 2) = ( -0.5000000 -0.8660254  0.0000000 )    f =( -0.3333335 )
                  (  0.8660254 -0.5000000  0.0000000 )       (  0.0000002 )
                  (  0.0000000  0.0000000  1.0000000 )       (  0.0000000 )

      isym =  3     120 deg rotation - cryst. axis [0,0,-1]

[...]

      isym =  4     inv. 180 deg rotation - cart. axis [1,0,0]

[...]

      isym =  5     inv. 180 deg rotation - cryst. axis [0,1,0]

 cryst.   s( 5) = (     1          1          0      )
                  (     0         -1          0      )
                  (     0          0          1      )

 cart.    s( 5) = (  0.5000000  0.8660254  0.0000000 )
                  (  0.8660254 -0.5000000  0.0000000 )
                  (  0.0000000  0.0000000  1.0000000 )

      isym =  6     inv. 180 deg rotation - cryst. axis [1,1,0]

 cryst.   s( 6) = (     0         -1          0      )    f =( -0.3333334 )
                  (    -1          0          0      )       ( -0.3333334 )
                  (     0          0          1      )       (  0.0000000 )

 cart.    s( 6) = (  0.5000000 -0.8660254  0.0000000 )    f =( -0.1666667 )
                  ( -0.8660254 -0.5000000  0.0000000 )       ( -0.2886752 )
                  (  0.0000000  0.0000000  1.0000000 )       (  0.0000000 )

     point group C_3v (3m)
     there are  3 classes
     the character table:

       E     2C3   3s_v
A_1    1.00  1.00  1.00
A_2    1.00  1.00 -1.00
E      2.00 -1.00  0.00

     the symmetry operations in each class and the name of the first element:

     E        1
          identity
     2C3      2    3
          120 deg rotation - cryst. axis [0,0,1]
     3s_v     4    5    6
          inv. 180 deg rotation - cart. axis [1,0,0]

   Cartesian axes

     site n.     atom                  positions (alat units)
         1           Ga  tau(   1) = (   0.1666668   0.0962250   0.8144844  )
         2           Ga  tau(   2) = (   0.0000001   0.3849001   0.2711914  )
         3           Ga  tau(   3) = (   0.0000001   0.3849001   0.8144844  )
         4           Ga  tau(   4) = (  -0.1666665   0.6735752   0.2711914  )
         5           Ga  tau(   5) = (  -0.1666665   0.6735752   0.8144844  )
         6           Ga  tau(   6) = (   0.5000001   0.0962250   0.2711914  )
         7           Ga  tau(   7) = (   0.5000001   0.0962250   0.8144844  )
         8           Ga  tau(   8) = (   0.3333335   0.3849001   0.2711914  )
         9           Ga  tau(   9) = (   0.3333335   0.3849001   0.8144844  )
        10           Ga  tau(  10) = (   0.1666668   0.6735752   0.2711914  )
        11           Ga  tau(  11) = (   0.1666668   0.6735752   0.8144844  )
        12           Ga  tau(  12) = (   0.8333335   0.0962250   0.2711914  )
        13           Ga  tau(  13) = (   0.8333335   0.0962250   0.8144844  )
        14           Ga  tau(  14) = (   0.6666668   0.3849001   0.2711914  )
        15           Ga  tau(  15) = (   0.6666668   0.3849001   0.8144844  )
        16           Ga  tau(  16) = (   0.5000001   0.6735752   0.2711914  )
        17           Ga  tau(  17) = (   0.5000001   0.6735752   0.8144844  )
        18           Ga  tau(  18) = (  -0.0000002   0.1924502   0.5428379  )
        19           Ga  tau(  19) = (  -0.0000002   0.1924502   1.0861309  )
        20           Ga  tau(  20) = (  -0.1666669   0.4811254   0.5428379  )
        21           Ga  tau(  21) = (  -0.1666669   0.4811254   1.0861309  )
        22           Ga  tau(  22) = (  -0.3333335   0.7698005   0.5428379  )
        23           Ga  tau(  23) = (  -0.3333335   0.7698005   1.0861309  )
        24           Ga  tau(  24) = (   0.3333331   0.1924502   0.5428379  )
        25           Ga  tau(  25) = (   0.3333331   0.1924502   1.0861309  )
        26           Ga  tau(  26) = (   0.1666665   0.4811254   0.5428379  )
        27           Ga  tau(  27) = (   0.1666665   0.4811254   1.0861309  )
        28           Ga  tau(  28) = (  -0.0000002   0.7698005   0.5428379  )
        29           Ga  tau(  29) = (  -0.0000002   0.7698005   1.0861309  )
        30           Ga  tau(  30) = (   0.6666665   0.1924502   0.5428379  )
        31           Ga  tau(  31) = (   0.6666665   0.1924502   1.0861309  )
        32           Ga  tau(  32) = (   0.4999998   0.4811254   0.5428379  )
        33           Ga  tau(  33) = (   0.4999998   0.4811254   1.0861309  )
        34           Ga  tau(  34) = (   0.3333331   0.7698005   0.5428379  )
        35           Ga  tau(  35) = (   0.3333331   0.7698005   1.0861309  )
        36           N   tau(  36) = (   0.1666668   0.0962250   0.4758365  )
        37           N   tau(  37) = (   0.1666668   0.0962250   1.0191295  )
        38           N   tau(  38) = (   0.0000001   0.3849001   0.4758365  )
        39           N   tau(  39) = (   0.0000001   0.3849001   1.0191295  )
        40           N   tau(  40) = (  -0.1666665   0.6735752   0.4758365  )
        41           N   tau(  41) = (  -0.1666665   0.6735752   1.0191295  )
        42           N   tau(  42) = (   0.5000001   0.0962250   0.4758365  )
        43           N   tau(  43) = (   0.5000001   0.0962250   1.0191295  )
        44           N   tau(  44) = (   0.3333335   0.3849001   0.4758365  )
        45           N   tau(  45) = (   0.3333335   0.3849001   1.0191295  )
        46           N   tau(  46) = (   0.1666668   0.6735752   0.4758365  )
        47           N   tau(  47) = (   0.1666668   0.6735752   1.0191295  )
        48           N   tau(  48) = (   0.8333335   0.0962250   0.4758365  )
        49           N   tau(  49) = (   0.8333335   0.0962250   1.0191295  )
        50           N   tau(  50) = (   0.6666668   0.3849001   0.4758365  )
        51           N   tau(  51) = (   0.6666668   0.3849001   1.0191295  )
        52           N   tau(  52) = (   0.5000001   0.6735752   0.4758365  )
        53           N   tau(  53) = (   0.5000001   0.6735752   1.0191295  )
        54           N   tau(  54) = (  -0.0000002   0.1924502   0.2041900  )
        55           N   tau(  55) = (  -0.0000002   0.1924502   0.7474830  )
        56           N   tau(  56) = (  -0.1666669   0.4811254   0.2041900  )
        57           N   tau(  57) = (  -0.1666669   0.4811254   0.7474830  )
        58           N   tau(  58) = (  -0.3333335   0.7698005   0.2041900  )
        59           N   tau(  59) = (  -0.3333335   0.7698005   0.7474830  )
        60           N   tau(  60) = (   0.3333331   0.1924502   0.2041900  )
        61           N   tau(  61) = (   0.3333331   0.1924502   0.7474830  )
        62           N   tau(  62) = (   0.1666665   0.4811254   0.2041900  )
[...]
     atom   17 type  1   force =     0.00000000    0.00000000    0.00000000
     atom   18 type  1   force =     0.00000000    0.00000000    0.00000000
     atom   19 type  1   force =     0.00000000    0.00000000    0.00000000
     atom   20 type  1   force =     0.00000000    0.00000000    0.00000000
     atom   21 type  1   force =     0.00000000    0.00000000    0.00000000
     atom   22 type  1   force =     0.00000000    0.00000000    0.00000000
     atom   23 type  1   force =     0.00000000    0.00000000    0.00000000
     atom   24 type  1   force =     0.00000000    0.00000000    0.00000000
     atom   25 type  1   force =     0.00000000    0.00000000    0.00000000
     atom   26 type  1   force =     0.00000000    0.00000000    0.00000000
     atom   27 type  1   force =     0.00000000    0.00000000    0.00000000
     atom   28 type  1   force =     0.00000000    0.00000000    0.00000000
     atom   29 type  1   force =     0.00000000    0.00000000    0.00000000
     atom   30 type  1   force =     0.00000000    0.00000000    0.00000000
     atom   31 type  1   force =     0.00000000    0.00000000    0.00000000
     atom   32 type  1   force =     0.00000000    0.00000000    0.00000000
     atom   33 type  1   force =     0.00000000    0.00000000    0.00000000
     atom   34 type  1   force =     0.00000000    0.00000000    0.00000000
     atom   35 type  1   force =     0.00000000    0.00000000    0.00000000
     atom   36 type  2   force =     0.00000000    0.00000000    0.00000000
     atom   37 type  2   force =     0.00000000    0.00000000    0.00000000
     atom   38 type  2   force =     0.00000000    0.00000000    0.00000000
     atom   39 type  2   force =     0.00000000    0.00000000    0.00000000
     atom   40 type  2   force =     0.00000000    0.00000000    0.00000000
     atom   41 type  2   force =     0.00000000    0.00000000    0.00000000
     atom   42 type  2   force =     0.00000000    0.00000000    0.00000000
     atom   43 type  2   force =     0.00000000    0.00000000    0.00000000
     atom   44 type  2   force =     0.00000000    0.00000000    0.00000000
     atom   45 type  2   force =     0.00000000    0.00000000    0.00000000
     atom   46 type  2   force =     0.00000000    0.00000000    0.00000000
     atom   47 type  2   force =     0.00000000    0.00000000    0.00000000
     atom   48 type  2   force =     0.00000000    0.00000000    0.00000000
     atom   49 type  2   force =     0.00000000    0.00000000    0.00000000
     atom   50 type  2   force =     0.00000000    0.00000000    0.00000000
     atom   51 type  2   force =     0.00000000    0.00000000    0.00000000
     atom   52 type  2   force =     0.00000000    0.00000000    0.00000000
     atom   53 type  2   force =     0.00000000    0.00000000    0.00000000
     atom   54 type  2   force =     0.00000000    0.00000000    0.00000000
     atom   55 type  2   force =     0.00000000    0.00000000    0.00000000
     atom   56 type  2   force =     0.00000000    0.00000000    0.00000000
     atom   57 type  2   force =     0.00000000    0.00000000    0.00000000
     atom   58 type  2   force =     0.00000000    0.00000000    0.00000000
     atom   59 type  2   force =     0.00000000    0.00000000    0.00000000
     atom   60 type  2   force =     0.00000000    0.00000000    0.00000000
     atom   61 type  2   force =     0.00000000    0.00000000    0.00000000
     atom   62 type  2   force =     0.00000000    0.00000000    0.00000000
     atom   63 type  2   force =     0.00000000    0.00000000    0.00000000
     atom   64 type  2   force =     0.00000000    0.00000000    0.00000000
     atom   65 type  2   force =     0.00000000    0.00000000    0.00000000
     atom   66 type  2   force =     0.00000000    0.00000000    0.00000000
     atom   67 type  2   force =     0.00000000    0.00000000    0.00000000
     atom   68 type  2   force =     0.00000000    0.00000000    0.00000000
     atom   69 type  2   force =     0.00000000    0.00000000    0.00000000
     atom   70 type  2   force =     0.00000000    0.00000000    0.00000000
     atom   71 type  2   force =     0.00000000    0.00000000    0.00000000
     The SCF correction term to forces
     atom    1 type  1   force =     0.00000000   -0.00000000   -0.00005893
     atom    2 type  1   force =     0.00004201   -0.00004269    0.00002599
     atom    3 type  1   force =     0.00000256   -0.00001316   -0.00001999
     atom    4 type  1   force =    -0.00001596    0.00005773    0.00002599
     atom    5 type  1   force =    -0.00001012    0.00000880   -0.00001999
     atom    6 type  1   force =    -0.00005798   -0.00001504    0.00002599
     atom    7 type  1   force =    -0.00001268    0.00000436   -0.00001999
     atom    8 type  1   force =    -0.00004201   -0.00004269    0.00002599
     atom    9 type  1   force =    -0.00000256   -0.00001316   -0.00001999
     atom   10 type  1   force =     0.00000000   -0.00000000    0.00001328
     atom   11 type  1   force =     0.00000000   -0.00000000   -0.00000879
     atom   12 type  1   force =     0.00005798   -0.00001504    0.00002599
     atom   13 type  1   force =     0.00001268    0.00000436   -0.00001999
     atom   14 type  1   force =    -0.00000000    0.00000000    0.00004757
     atom   15 type  1   force =    -0.00000000    0.00000000   -0.00001924
     atom   16 type  1   force =     0.00001596    0.00005773    0.00002599
     atom   17 type  1   force =     0.00001012    0.00000880   -0.00001999
     atom   18 type  1   force =     0.00005340   -0.00003083    0.00002764
     atom   19 type  1   force =     0.00000402   -0.00000232   -0.00001457
     atom   20 type  1   force =    -0.00000511   -0.00000295    0.00004892
     atom   21 type  1   force =     0.00001005    0.00000580   -0.00006779
     atom   22 type  1   force =     0.00000000    0.00006167    0.00002764
     atom   23 type  1   force =    -0.00000000    0.00000464   -0.00001456
     atom   24 type  1   force =    -0.00005340   -0.00003083    0.00002764
     atom   25 type  1   force =    -0.00000402   -0.00000232   -0.00001456
     atom   26 type  1   force =    -0.00000000   -0.00002235    0.00003797
     atom   27 type  1   force =    -0.00000000   -0.00000629   -0.00003964
     atom   28 type  1   force =    -0.00001935    0.00001117    0.00003797
     atom   29 type  1   force =    -0.00000545    0.00000315   -0.00003964
     atom   30 type  1   force =    -0.00000000    0.00000590    0.00004892
     atom   31 type  1   force =    -0.00000000   -0.00001161   -0.00006779
     atom   32 type  1   force =     0.00000511   -0.00000295    0.00004892
     atom   33 type  1   force =    -0.00001005    0.00000580   -0.00006779
     atom   34 type  1   force =     0.00001935    0.00001117    0.00003797
     atom   35 type  1   force =     0.00000545    0.00000315   -0.00003964
     atom   36 type  2   force =    -0.00000000    0.00000000    0.00000687
     atom   37 type  2   force =     0.00000000   -0.00000000   -0.00001059
     atom   38 type  2   force =     0.00000670   -0.00001226    0.00001869
     atom   39 type  2   force =     0.00000345   -0.00000207   -0.00001804
     atom   40 type  2   force =    -0.00000726    0.00001193    0.00001869
     atom   41 type  2   force =    -0.00000006    0.00000403   -0.00001804
     atom   42 type  2   force =    -0.00001396    0.00000033    0.00001869
     atom   43 type  2   force =    -0.00000352   -0.00000196   -0.00001804
     atom   44 type  2   force =    -0.00000670   -0.00001226    0.00001869
     atom   45 type  2   force =    -0.00000345   -0.00000207   -0.00001804
     atom   46 type  2   force =     0.00000000   -0.00000000    0.00001821
     atom   47 type  2   force =     0.00000000    0.00000000   -0.00001707
     atom   48 type  2   force =     0.00001396    0.00000033    0.00001869
     atom   49 type  2   force =     0.00000352   -0.00000196   -0.00001804
     atom   50 type  2   force =    -0.00000000    0.00000000    0.00002633
     atom   51 type  2   force =     0.00000000   -0.00000000   -0.00002595
     atom   52 type  2   force =     0.00000726    0.00001193    0.00001869
     atom   53 type  2   force =     0.00000006    0.00000403   -0.00001804
     atom   54 type  2   force =     0.00001770   -0.00001022    0.00000752
     atom   55 type  2   force =     0.00000514   -0.00000297   -0.00001016
     atom   56 type  2   force =     0.00000580    0.00000335    0.00000078
     atom   57 type  2   force =    -0.00000080   -0.00000046   -0.00000166
     atom   58 type  2   force =     0.00000000    0.00002044    0.00000752
     atom   59 type  2   force =     0.00000000    0.00000594   -0.00001016
     atom   60 type  2   force =    -0.00001770   -0.00001022    0.00000752
     atom   61 type  2   force =    -0.00000514   -0.00000297   -0.00001016
     atom   62 type  2   force =    -0.00000000   -0.00000836    0.00000047
     atom   63 type  2   force =     0.00000000   -0.00000454   -0.00000099
     atom   64 type  2   force =    -0.00000724    0.00000418    0.00000047
     atom   65 type  2   force =    -0.00000393    0.00000227   -0.00000099
     atom   66 type  2   force =    -0.00000000   -0.00000670    0.00000078
     atom   67 type  2   force =     0.00000000    0.00000092   -0.00000166
     atom   68 type  2   force =    -0.00000580    0.00000335    0.00000078
     atom   69 type  2   force =     0.00000080   -0.00000046   -0.00000166
     atom   70 type  2   force =     0.00000724    0.00000418    0.00000047
     atom   71 type  2   force =     0.00000393    0.00000227   -0.00000099

     Total force =     0.002709     Total SCF correction =     0.000303
     SCF correction compared to forces is large: reduce conv_thr to get better values

     Computing stress (Cartesian axis) and pressure

[...]

          total   stress  (Ry/bohr**3)                   (kbar)     P=        4.27
   0.00002045   0.00000000   0.00000000            3.01        0.00        0.00
   0.00000000   0.00002045  -0.00000000            0.00        3.01       -0.00
   0.00000000   0.00000000   0.00004627            0.00        0.00        6.81

     kinetic stress (kbar)  18134.96     -0.00      0.00
                                0.00  18134.96      0.00
                                0.00      0.00  18150.24

     local   stress (kbar)   4063.59     -0.07     -0.00
                               -0.07   4063.50      0.00
                               -0.00      0.00   2554.79

     nonloc. stress (kbar)     57.66      0.00      0.00
                                0.00     57.66      0.00
                                0.00      0.00     61.67

     hartree stress (kbar)  19623.16     -0.00     -0.00
                               -0.00  19623.16      0.00
                               -0.00      0.00  20296.14

     exc-cor stress (kbar)   5047.93      0.00      0.00
                                0.00   5047.93      0.00
                                0.00      0.00   5048.65

     corecor stress (kbar) -13735.55     -0.00      0.00
                               -0.00 -13735.55      0.00
                                0.00      0.00 -13735.42

     ewald   stress (kbar) -33346.99      0.09      0.00
                                0.09 -33346.87     -0.00
                                0.00     -0.00 -32526.60

     hubbard stress (kbar)      0.00      0.00      0.00
                                0.00      0.00      0.00
                                0.00      0.00      0.00

     DFT-D   stress (kbar)      0.00      0.00      0.00
                                0.00      0.00      0.00
                                0.00      0.00      0.00

     XDM     stress (kbar)      0.00      0.00      0.00
                                0.00      0.00      0.00
                                0.00      0.00      0.00

     dft-nl  stress (kbar)    158.23     -0.00     -0.00
                               -0.00    158.23     -0.00
                               -0.00     -0.00    157.34

     TS-vdW  stress (kbar)      0.00      0.00      0.00
                                0.00      0.00      0.00
                                0.00      0.00      0.00

     MDB     stress (kbar)      0.00      0.00      0.00
                                0.00      0.00      0.00
                                0.00      0.00      0.00

     3D-RISM stress (kbar)      0.00      0.00      0.00
                                0.00      0.00      0.00
                                0.00      0.00      0.00

[...]

     Non-local corr. energy    =      19.17394530 Ry

 BEEFens 2000 ensemble energies
             -0.155290513026305E+02
             -0.139480247271740E+03
             -0.599523244580706E+02
              0.491198516863138E+02
             -0.100221542749495E+03
             -0.128972459250003E+03
              0.663453605819702E+02
             -0.705750381683202E+01
              0.110428541469637E+03
             -0.476131950998183E+01
              0.541594405923714E+02
              0.221686409955510E+01
              0.227336424437368E+01
             -0.479074314786692E+01
              0.722853913206181E+02
             -0.526766245795370E+02
             -0.108582424904655E+03
             -0.354776613767920E+02
              0.264726533877008E+02
             -0.236782130095276E+01
              0.158336693936924E+03
              0.134807430368009E+03
             -0.770677507036171E+02
              0.279895470817013E+02
             -0.169176592986921E+03
              0.135645703762639E+03
              0.443318006919818E+02
              0.131950893094896E+03
              0.866544304021361E+02
             -0.422458733516548E+02
              0.319502856890221E+02
             -0.623827241278203E+02
              0.173503545456600E+02
              0.847290321873586E+02
              0.899446363583280E+02
             -0.324345400615335E+02
              0.199714477032574E+03
             -0.757730695618627E+02
             -0.545591044932183E+02
              0.800356367058467E+02
              0.357443279185826E+02
              0.599475211497713E+02
             -0.114181214906708E+03
             -0.320340362326056E+01
              0.112145007661674E+03
              0.145632217565534E+03
             -0.144914752690423E+03
              0.103177885293958E+02
              0.546474548675015E+02
              0.265178052790138E+02
              0.606320285060060E+02
              0.128387035374662E+03
             -0.776390941635195E+02
             -0.851031727861498E+02
             -0.110630173269160E+03
             -0.171810816984718E+02
             -0.100893884724560E+03
              0.983291741318249E+01
             -0.187298406857908E+02
             -0.786824382714362E+02
[...]
              0.982395599731331E+02
              0.541696289549177E+02
              0.689284721882525E+02
             -0.111326957576208E+03
             -0.106449324089724E+03
             -0.270098341678357E+02
             -0.104422780189422E+03
              0.167280692802785E+03
              0.143371290331582E+03
              0.685064836963585E+02
              0.185440161127427E+03
             -0.965327433029704E+02
             -0.393698563519858E+02
             -0.546929224193938E+02
              0.153362374492321E+03

 BEEF-vdW xc energy contributions
            1 :    -1405.762998228149
            2 :     1265.832269858706
            3 :    -1031.497050231892
            4 :     771.4671964221054
            5 :    -546.0978236464607
            6 :     384.4314960166778
            7 :    -281.0489615757897
            8 :     211.0833056811769
            9 :    -151.2911245097941
           10 :     93.49508896820612
           11 :    -44.00796082163424
           12 :     12.90122572543760
           13 :    -2.969512486080930
           14 :     6.529435928952807
           15 :    -11.08864682780927
           16 :     8.210803379042545
           17 :     1.655361843423179
           18 :    -11.57836738145579
           19 :     15.05121997937658
           20 :    -11.54246813733789
           21 :     6.541129825843882
           22 :    -6.668979366877920
           23 :     14.22328883994305
           24 :    -25.53164734261691
           25 :     34.09861178098640
           26 :    -35.67533415742992
           27 :     31.13635538737617
           28 :    -25.14168595646424
           29 :     22.05275522117245
           30 :    -22.58825547357424
           31 :    -120.6541617501703
           32 :    -82.61735136791140

     Writing all to output data dir ./GaN.save/

     General routines

     Parallel routines

     PAW routines

   This run was terminated on:   7:18:41  19Feb2024

   JOB DONE.