     Program PWSCF v.7.2 starts on 30Sep2023 at  7:13:45

     Reading input from espresso.pwi
Warning: card &CELL ignored
Warning: card    CELL_DYNAMICS    = 'BFGS' ignored
Warning: card / ignored

     Current dimensions of program PWSCF are:
     Max number of different atomic species (ntypx) = 10
     Max number of k-points (npk) =  40000
     Max angular momentum in pseudopotentials (lmaxx) =  4
     file C.pbe-n-kjpaw_psl.1.0.0.UPF: wavefunction(s)  2S 2P renormalized

     IMPORTANT: XC functional enforced from input :
     Exchange-correlation= BEEF-VDW
                           (   1   4  43  14   2   0   0)
     Any further DFT definition will be discarded
     Please, verify this is what you really want

     Found identity + (  0.0000  0.0000  0.2500) symmetry
     This is a supercell, fractional translations are disabled

     R & G space division:  proc/nbgrp/npool/nimage =     256
     wavefunctions fft division:  task group distribution
                                  #TG    x Z-proc =       8     32
     Subspace diagonalization in iterative solution of the eigenvalue problem:
     one sub-group per band group will be used

     Using Pencil Decomposition

     bravais-lattice index     =            1
     lattice parameter (alat)  =      27.0027  a.u.
     unit-cell volume          =   19688.9026 (a.u.)^3
     number of atoms/cell      =          512
     number of atomic types    =            1
     number of electrons       =      2048.00
     number of Kohn-Sham states=         1229
     kinetic-energy cutoff     =      70.0000  Ry
     charge density cutoff     =     350.0000  Ry
     scf convergence threshold =      1.0E-08
     mixing beta               =       0.7000
     number of iterations used =            8  plain     mixing
     energy convergence thresh.=      1.0E-04
     force convergence thresh. =      1.0E-03
     Exchange-correlation= BEEF-VDW
                           (   1   4  43  14   2   0   0)
     nstep                     =           50

     celldm(1)=  27.002699  celldm(2)=   0.000000  celldm(3)=   0.000000
     celldm(4)=   0.000000  celldm(5)=   0.000000  celldm(6)=   0.000000

     crystal axes: (cart. coord. in units of alat)
               a(1) = (   1.000000   0.000000   0.000000 )
               a(2) = (   0.000000   1.000000   0.000000 )
               a(3) = (   0.000000   0.000000   1.000000 )

     reciprocal axes: (cart. coord. in units 2 pi/alat)
               b(1) = (  1.000000  0.000000  0.000000 )
               b(2) = (  0.000000  1.000000  0.000000 )
               b(3) = (  0.000000  0.000000  1.000000 )

     PseudoPot. # 1 for C  read from file:
     //group///packages/espresso/pseudo/psl_1.0.0/pslibrary.1.0.0/pbe/PSEUDOPOTENTIALS/C.pbe-n-kjpaw_psl.1.0.0.UPF
     MD5 check sum: 5459cf7f2c8c37df2f7cde8914797f4d
     Pseudo is Projector augmented-wave + core cor, Zval =  4.0
     Generated using 'atomic' code by A. Dal Corso  v.7.1
     Shape of augmentation charge: PSQ
     Using radial grid of 1073 points,  4 beta functions with:
                l(1) =   0
                l(2) =   0
                l(3) =   1
                l(4) =   1
     Q(r) pseudized with 0 coefficients

     atomic species   valence    mass     pseudopotential
        C              4.00    12.01100     C ( 1.00)

     24 Sym. Ops. (no inversion) found

                                    s                        frac. trans.

      isym =  1     identity

 cryst.   s( 1) = (     1          0          0      )
                  (     0          1          0      )
                  (     0          0          1      )

 cart.    s( 1) = (  1.0000000  0.0000000  0.0000000 )
                  (  0.0000000  1.0000000  0.0000000 )
                  (  0.0000000  0.0000000  1.0000000 )

      isym =  2     180 deg rotation - cart. axis [0,0,1]

[...]

 cryst.   s( 9) = (     0          1          0      )
                  (     0          0          1      )
                  (     1          0          0      )

 cart.    s( 9) = (  0.0000000  0.0000000  1.0000000 )
                  (  1.0000000  0.0000000  0.0000000 )
                  (  0.0000000  1.0000000  0.0000000 )

[...]

 cryst.   s(10) = (     0         -1          0      )
                  (     0          0         -1      )
                  (     1          0          0      )

 cart.    s(10) = (  0.0000000  0.0000000  1.0000000 )
                  ( -1.0000000  0.0000000  0.0000000 )
                  (  0.0000000 -1.0000000  0.0000000 )

[...]

      isym = 12     120 deg rotation - cart. axis [-1,-1,1]

[...]

      isym = 13     inv. 180 deg rotation - cart. axis [1,1,0]

[...]

      isym = 24     inv.  90 deg rotation - cart. axis [1,0,0]

 cryst.   s(24) = (    -1          0          0      )
                  (     0          0         -1      )
                  (     0          1          0      )

 cart.    s(24) = ( -1.0000000  0.0000000  0.0000000 )
                  (  0.0000000  0.0000000  1.0000000 )
                  (  0.0000000 -1.0000000  0.0000000 )

     point group T_d (-43m)
     there are  5 classes
     the character table:

       E     8C3   3C2   6S4   6s_d
A_1    1.00  1.00  1.00  1.00  1.00
A_2    1.00  1.00  1.00 -1.00 -1.00
E      2.00 -1.00  2.00  0.00  0.00
T_1    3.00  0.00 -1.00  1.00 -1.00
T_2    3.00  0.00 -1.00 -1.00  1.00

     the symmetry operations in each class and the name of the first element:

     E        1
          identity
     8C3      5    7    8    6   12    9   10   11
          120 deg rotation - cart. axis [-1,-1,-1]
     3C2      2    3    4
          180 deg rotation - cart. axis [0,0,1]
     6S4     15   16   20   19   23   24
          inv.  90 deg rotation - cart. axis [0,0,-1]
     6s_d    13   14   17   18   21   22
          inv. 180 deg rotation - cart. axis [1,1,0]

   Cartesian axes

     site n.     atom                  positions (alat units)
         1           C   tau(   1) = (   0.0625015   0.1874985   0.0625015  )
         2           C   tau(   2) = (   0.0625015   0.1874985   0.3125015  )
         3           C   tau(   3) = (   0.0625015   0.1874985   0.5625015  )
         4           C   tau(   4) = (   0.0625015   0.1874985   0.8125015  )
         5           C   tau(   5) = (   0.0625015   0.4374985   0.0625015  )
         6           C   tau(   6) = (   0.0625015   0.4374985   0.3125015  )
         7           C   tau(   7) = (   0.0625015   0.4374985   0.5625015  )
         8           C   tau(   8) = (   0.0625015   0.4374985   0.8125015  )
         9           C   tau(   9) = (   0.0625015   0.6874985   0.0625015  )
        10           C   tau(  10) = (   0.0625015   0.6874985   0.3125015  )
        11           C   tau(  11) = (   0.0625015   0.6874985   0.5625015  )
        12           C   tau(  12) = (   0.0625015   0.6874985   0.8125015  )
        13           C   tau(  13) = (   0.0625015   0.9374985   0.0625015  )
        14           C   tau(  14) = (   0.0625015   0.9374985   0.3125015  )
        15           C   tau(  15) = (   0.0625015   0.9374985   0.5625015  )
        16           C   tau(  16) = (   0.0625015   0.9374985   0.8125015  )
        17           C   tau(  17) = (   0.3125015   0.1874985   0.0625015  )
        18           C   tau(  18) = (   0.3125015   0.1874985   0.3125015  )
        19           C   tau(  19) = (   0.3125015   0.1874985   0.5625015  )
        20           C   tau(  20) = (   0.3125015   0.1874985   0.8125015  )
        21           C   tau(  21) = (   0.3125015   0.4374985   0.0625015  )
        22           C   tau(  22) = (   0.3125015   0.4374985   0.3125015  )
        23           C   tau(  23) = (   0.3125015   0.4374985   0.5625015  )
        24           C   tau(  24) = (   0.3125015   0.4374985   0.8125015  )
        25           C   tau(  25) = (   0.3125015   0.6874985   0.0625015  )
        26           C   tau(  26) = (   0.3125015   0.6874985   0.3125015  )
        27           C   tau(  27) = (   0.3125015   0.6874985   0.5625015  )
        28           C   tau(  28) = (   0.3125015   0.6874985   0.8125015  )
        29           C   tau(  29) = (   0.3125015   0.9374985   0.0625015  )
        30           C   tau(  30) = (   0.3125015   0.9374985   0.3125015  )
        31           C   tau(  31) = (   0.3125015   0.9374985   0.5625015  )
        32           C   tau(  32) = (   0.3125015   0.9374985   0.8125015  )
        33           C   tau(  33) = (   0.5625015   0.1874985   0.0625015  )
        34           C   tau(  34) = (   0.5625015   0.1874985   0.3125015  )
        35           C   tau(  35) = (   0.5625015   0.1874985   0.5625015  )
        36           C   tau(  36) = (   0.5625015   0.1874985   0.8125015  )
        37           C   tau(  37) = (   0.5625015   0.4374985   0.0625015  )
        38           C   tau(  38) = (   0.5625015   0.4374985   0.3125015  )
        39           C   tau(  39) = (   0.5625015   0.4374985   0.5625015  )
        40           C   tau(  40) = (   0.5625015   0.4374985   0.8125015  )
        41           C   tau(  41) = (   0.5625015   0.6874985   0.0625015  )
        42           C   tau(  42) = (   0.5625015   0.6874985   0.3125015  )
        43           C   tau(  43) = (   0.5625015   0.6874985   0.5625015  )
        44           C   tau(  44) = (   0.5625015   0.6874985   0.8125015  )
        45           C   tau(  45) = (   0.5625015   0.9374985   0.0625015  )
        46           C   tau(  46) = (   0.5625015   0.9374985   0.3125015  )
        47           C   tau(  47) = (   0.5625015   0.9374985   0.5625015  )
        48           C   tau(  48) = (   0.5625015   0.9374985   0.8125015  )
        49           C   tau(  49) = (   0.8125015   0.1874985   0.0625015  )
        50           C   tau(  50) = (   0.8125015   0.1874985   0.3125015  )
        51           C   tau(  51) = (   0.8125015   0.1874985   0.5625015  )
        52           C   tau(  52) = (   0.8125015   0.1874985   0.8125015  )
        53           C   tau(  53) = (   0.8125015   0.4374985   0.0625015  )
        54           C   tau(  54) = (   0.8125015   0.4374985   0.3125015  )
        55           C   tau(  55) = (   0.8125015   0.4374985   0.5625015  )
        56           C   tau(  56) = (   0.8125015   0.4374985   0.8125015  )
        57           C   tau(  57) = (   0.8125015   0.6874985   0.0625015  )
        58           C   tau(  58) = (   0.8125015   0.6874985   0.3125015  )
        59           C   tau(  59) = (   0.8125015   0.6874985   0.5625015  )
        60           C   tau(  60) = (   0.8125015   0.6874985   0.8125015  )
[...]
       498           C   tau( 498) = (   0.8750000   0.1250000   0.3750000  )
       499           C   tau( 499) = (   0.8750000   0.1250000   0.6250000  )
       500           C   tau( 500) = (   0.8750000   0.1250000   0.8750000  )
       501           C   tau( 501) = (   0.8750000   0.3750000   0.1250000  )
       502           C   tau( 502) = (   0.8750000   0.3750000   0.3750000  )
       503           C   tau( 503) = (   0.8750000   0.3750000   0.6250000  )
       504           C   tau( 504) = (   0.8750000   0.3750000   0.8750000  )
[...]
                                0.00      0.00   4322.09

     hartree stress (kbar)   1267.23      0.00     -0.00
                                0.00   1267.23      0.00
                               -0.00      0.00   1267.23

     exc-cor stress (kbar)   -414.52      0.00      0.00
                                0.00   -414.52      0.00
                                0.00      0.00   -414.52

     corecor stress (kbar)  -4435.15     -0.00     -0.00
                               -0.00  -4435.15     -0.00
                               -0.00     -0.00  -4435.15

     ewald   stress (kbar) -16280.15      0.00      0.00
                                0.00 -16280.15      0.00
                                0.00      0.00 -16280.15

     hubbard stress (kbar)      0.00      0.00      0.00
                                0.00      0.00      0.00
                                0.00      0.00      0.00

     DFT-D   stress (kbar)      0.00      0.00      0.00
                                0.00      0.00      0.00
                                0.00      0.00      0.00

     XDM     stress (kbar)      0.00      0.00      0.00
                                0.00      0.00      0.00
                                0.00      0.00      0.00

     dft-nl  stress (kbar)     24.82     -0.00     -0.00
                               -0.00     24.82     -0.00
                               -0.00     -0.00     24.82

     TS-vdW  stress (kbar)      0.00      0.00      0.00
                                0.00      0.00      0.00
                                0.00      0.00      0.00

     MDB     stress (kbar)      0.00      0.00      0.00
                                0.00      0.00      0.00
                                0.00      0.00      0.00

     3D-RISM stress (kbar)      0.00      0.00      0.00
                                0.00      0.00      0.00
                                0.00      0.00      0.00

     BFGS Geometry Optimization
     Energy error            =      0.0E+00 Ry
     Gradient error          =      6.1E-04 Ry/Bohr

     bfgs converged in   1 scf cycles and   0 bfgs steps
     (criteria: energy <  1.0E-04 Ry, force <  1.0E-03 Ry/Bohr)

     End of BFGS Geometry Optimization

     Final energy             =   -9724.2994640528 Ry
Begin final coordinates

ATOMIC_POSITIONS (angstrom)
C             0.8930972856        2.6792058914        0.8930972856
C             0.8930972856        2.6792058914        4.4654004618
C             0.8930972856        2.6792058914        8.0377036379
C             0.8930972856        2.6792058914       11.6100068141
C             0.8930972856        6.2515090676        0.8930972856
C             0.8930972856        6.2515090676        4.4654004618
C             0.8930972856        6.2515090676        8.0377036379
C             0.8930972856        6.2515090676       11.6100068141
C             0.8930972856        9.8238122437        0.8930972856
C             0.8930972856        9.8238122437        4.4654004618
C             0.8930972856        9.8238122437        8.0377036379
C             0.8930972856        9.8238122437       11.6100068141
C             0.8930972856       13.3961154199        0.8930972856
C             0.8930972856       13.3961154199        4.4654004618
C             0.8930972856       13.3961154199        8.0377036379
C             0.8930972856       13.3961154199       11.6100068141
C             4.4654004618        2.6792058914        0.8930972856
C             4.4654004618        2.6792058914        4.4654004618
C             4.4654004618        2.6792058914        8.0377036379
C             4.4654004618        2.6792058914       11.6100068141
C             4.4654004618        6.2515090676        0.8930972856
C             4.4654004618        6.2515090676        4.4654004618
C             4.4654004618        6.2515090676        8.0377036379
C             4.4654004618        6.2515090676       11.6100068141
C             4.4654004618        9.8238122437        0.8930972856
C             4.4654004618        9.8238122437        4.4654004618
C             4.4654004618        9.8238122437        8.0377036379
C             4.4654004618        9.8238122437       11.6100068141
C             4.4654004618       13.3961154199        0.8930972856
C             4.4654004618       13.3961154199        4.4654004618
C             4.4654004618       13.3961154199        8.0377036379
C             4.4654004618       13.3961154199       11.6100068141
C             8.0377036379        2.6792058914        0.8930972856
C             8.0377036379        2.6792058914        4.4654004618
C             8.0377036379        2.6792058914        8.0377036379
C             8.0377036379        2.6792058914       11.6100068141
C             8.0377036379        6.2515090676        0.8930972856
C             8.0377036379        6.2515090676        4.4654004618
C             8.0377036379        6.2515090676        8.0377036379
C             8.0377036379        6.2515090676       11.6100068141
C             8.0377036379        9.8238122437        0.8930972856
C             8.0377036379        9.8238122437        4.4654004618
C             8.0377036379        9.8238122437        8.0377036379
C             8.0377036379        9.8238122437       11.6100068141
C             8.0377036379       13.3961154199        0.8930972856
C             8.0377036379       13.3961154199        4.4654004618
C             8.0377036379       13.3961154199        8.0377036379
C             8.0377036379       13.3961154199       11.6100068141
C            11.6100068141        2.6792058914        0.8930972856
C            11.6100068141        2.6792058914        4.4654004618
C            11.6100068141        2.6792058914        8.0377036379
C            11.6100068141        2.6792058914       11.6100068141
C            11.6100068141        6.2515090676        0.8930972856
C            11.6100068141        6.2515090676        4.4654004618
C            11.6100068141        6.2515090676        8.0377036379
C            11.6100068141        6.2515090676       11.6100068141
C            11.6100068141        9.8238122437        0.8930972856
C            11.6100068141        9.8238122437        4.4654004618
C            11.6100068141        9.8238122437        8.0377036379
C            11.6100068141        9.8238122437       11.6100068141
[...]
C            12.5030611170        1.7861515885        5.3584547647
C            12.5030611170        1.7861515885        8.9307579408
C            12.5030611170        1.7861515885       12.5030611170
C            12.5030611170        5.3584547647        1.7861515885
C            12.5030611170        5.3584547647        5.3584547647
C            12.5030611170        5.3584547647        8.9307579408
C            12.5030611170        5.3584547647       12.5030611170
C            12.5030611170        8.9307579408        1.7861515885
C            12.5030611170        8.9307579408        5.3584547647
C            12.5030611170        8.9307579408        8.9307579408
C            12.5030611170        8.9307579408       12.5030611170
C            12.5030611170       12.5030611170        1.7861515885
C            12.5030611170       12.5030611170        5.3584547647
C            12.5030611170       12.5030611170        8.9307579408
C            12.5030611170       12.5030611170       12.5030611170
End final coordinates

     Writing all to output data dir ./diamond.save/

     General routines

     Parallel routines

     PAW routines

   This run was terminated on:   7:33:29  30Sep2023

   JOB DONE.
[1696073610.119340] [16:1753596:0]          mpool.c:44   UCX  WARN  object 0x4f35d00 was not returned to mpool ucp_requests
[1696073610.417776] [16:1753622:0]          mpool.c:44   UCX  WARN  object 0x485dec0 was not returned to mpool ucp_requests
[1696073610.489503] [16:1753676:0]          mpool.c:44   UCX  WARN  object 0x3e88500 was not returned to mpool ucp_requests
[1696073610.552594] [16:1753633:0]          mpool.c:44   UCX  WARN  object 0x5a36040 was not returned to mpool ucp_requests
[1696073610.596446] [16:1753575:0]          mpool.c:44   UCX  WARN  object 0x5e80e40 was not returned to mpool ucp_requests
[1696073610.596672] [16:1753575:0]          mpool.c:44   UCX  WARN  object 0x5e60080 was not returned to mpool ucp_requests
[1696073610.621169] [16:1753470:0]          mpool.c:44   UCX  WARN  object 0x3d54780 was not returned to mpool ucp_requests
[1696073610.655930] [16:1753541:0]          mpool.c:44   UCX  WARN  object 0x6b67840 was not returned to mpool ucp_requests
[1696073610.657262] [16:1753465:0]          mpool.c:44   UCX  WARN  object 0x5c4bb80 was not returned to mpool ucp_requests
[1696073610.662291] [16:1753702:0]          mpool.c:44   UCX  WARN  object 0x4c0a280 was not returned to mpool ucp_requests
[1696073610.676459] [16:1753554:0]          mpool.c:44   UCX  WARN  object 0x5ac51c0 was not returned to mpool ucp_requests
[1696073610.676834] [16:1753472:0]          mpool.c:44   UCX  WARN  object 0x79b2580 was not returned to mpool ucp_requests
[1696073610.677990] [16:1753583:0]          mpool.c:44   UCX  WARN  object 0x7583100 was not returned to mpool ucp_requests
[1696073610.678429] [16:1753471:0]          mpool.c:44   UCX  WARN  object 0x74faf80 was not returned to mpool ucp_requests
[1696073610.679829] [16:1753614:0]          mpool.c:44   UCX  WARN  object 0x5ec62c0 was not returned to mpool ucp_requests
[1696073610.679851] [16:1753614:0]          mpool.c:44   UCX  WARN  object 0x5ecdd40 was not returned to mpool ucp_requests
[1696073610.679855] [16:1753614:0]          mpool.c:44   UCX  WARN  object 0x5f9ef80 was not returned to mpool ucp_requests
[1696073610.680082] [16:1753614:0]          mpool.c:44   UCX  WARN  object 0x405fec0 was not returned to mpool ucp_requests
[1696073610.683830] [16:1753469:0]          mpool.c:44   UCX  WARN  object 0x72915c0 was not returned to mpool ucp_requests
[1696073610.690383] [16:1753489:0]          mpool.c:44   UCX  WARN  object 0x6ce5180 was not returned to mpool ucp_requests
[1696073610.711874] [16:1753642:0]          mpool.c:44   UCX  WARN  object 0x6eb7d80 was not returned to mpool ucp_requests
[1696073610.713294] [16:1753636:0]          mpool.c:44   UCX  WARN  object 0x693edc0 was not returned to mpool ucp_requests
[1696073610.716515] [16:1753593:0]          mpool.c:44   UCX  WARN  object 0x5bb9280 was not returned to mpool ucp_requests
[1696073610.718738] [16:1753617:0]          mpool.c:44   UCX  WARN  object 0x7236c80 was not returned to mpool ucp_requests
[1696073610.725656] [16:1753656:0]          mpool.c:44   UCX  WARN  object 0x6276300 was not returned to mpool ucp_requests
[1696073610.725673] [16:1753656:0]          mpool.c:44   UCX  WARN  object 0x6261100 was not returned to mpool ucp_requests
[1696073610.725678] [16:1753656:0]          mpool.c:44   UCX  WARN  object 0x6261480 was not returned to mpool ucp_requests
[1696073610.725682] [16:1753656:0]          mpool.c:44   UCX  WARN  object 0x6263e80 was not returned to mpool ucp_requests
[1696073610.725687] [16:1753656:0]          mpool.c:44   UCX  WARN  object 0x626c000 was not returned to mpool ucp_requests
[1696073610.725863] [16:1753656:0]          mpool.c:44   UCX  WARN  object 0x4337c40 was not returned to mpool ucp_requests
[1696073610.725867] [16:1753656:0]          mpool.c:44   UCX  WARN  object 0x433a9c0 was not returned to mpool ucp_requests
[1696073610.726785] [16:1753473:0]          mpool.c:44   UCX  WARN  object 0x5452180 was not returned to mpool ucp_requests
[1696073610.728342] [16:1753640:0]          mpool.c:44   UCX  WARN  object 0x61002c0 was not returned to mpool ucp_requests
[1696073610.728826] [16:1753626:0]          mpool.c:44   UCX  WARN  object 0x6199d00 was not returned to mpool ucp_requests
[1696073610.735806] [16:1753498:0]          mpool.c:44   UCX  WARN  object 0x65e3140 was not returned to mpool ucp_requests
[1696073610.737065] [16:1753517:0]          mpool.c:44   UCX  WARN  object 0x6485bc0 was not returned to mpool ucp_requests
[1696073610.739751] [16:1753733:0]          mpool.c:44   UCX  WARN  object 0x6c81400 was not returned to mpool ucp_requests
[1696073610.740389] [16:1753501:0]          mpool.c:44   UCX  WARN  object 0x6b75900 was not returned to mpool ucp_requests
[1696073610.743641] [16:1753506:0]          mpool.c:44   UCX  WARN  object 0x6e9e1c0 was not returned to mpool ucp_requests
[1696073610.745746] [16:1753628:0]          mpool.c:44   UCX  WARN  object 0x6f23380 was not returned to mpool ucp_requests
[1696073610.747204] [16:1753505:0]          mpool.c:44   UCX  WARN  object 0x5cfb040 was not returned to mpool ucp_requests
[1696073610.747225] [16:1753505:0]          mpool.c:44   UCX  WARN  object 0x5cec8c0 was not returned to mpool ucp_requests
[1696073610.748266] [16:1753677:0]          mpool.c:44   UCX  WARN  object 0x5170bc0 was not returned to mpool ucp_requests
[1696073610.749434] [16:1753495:0]          mpool.c:44   UCX  WARN  object 0x5c86740 was not returned to mpool ucp_requests
[1696073610.750901] [16:1753491:0]          mpool.c:44   UCX  WARN  object 0x488c240 was not returned to mpool ucp_requests
[1696073610.753108] [16:1753566:0]          mpool.c:44   UCX  WARN  object 0x725ae40 was not returned to mpool ucp_requests
[1696073610.754305] [16:1753519:0]          mpool.c:44   UCX  WARN  object 0x5bab140 was not returned to mpool ucp_requests
[1696073610.755505] [16:1753768:0]          mpool.c:44   UCX  WARN  object 0x66f3a80 was not returned to mpool ucp_requests
[1696073610.758007] [16:1753632:0]          mpool.c:44   UCX  WARN  object 0x5d76700 was not returned to mpool ucp_requests
[1696073610.758346] [16:1753632:0]          mpool.c:44   UCX  WARN  object 0x5d66040 was not returned to mpool ucp_requests
[1696073610.758357] [16:1753632:0]          mpool.c:44   UCX  WARN  object 0x5d6d900 was not returned to mpool ucp_requests
[1696073610.758365] [16:1753632:0]          mpool.c:44   UCX  WARN  object 0x3e305c0 was not returned to mpool ucp_requests
[1696073610.758368] [16:1753632:0]          mpool.c:44   UCX  WARN  object 0x3e38580 was not returned to mpool ucp_requests
[1696073610.758370] [16:1753632:0]          mpool.c:44   UCX  WARN  object 0x3e39000 was not returned to mpool ucp_requests
[1696073610.758375] [16:1753632:0]          mpool.c:44   UCX  WARN  object 0x3e391c0 was not returned to mpool ucp_requests
[1696073610.761285] [16:1753484:0]          mpool.c:44   UCX  WARN  object 0x494a800 was not returned to mpool ucp_requests
[1696073610.762585] [16:1753538:0]          mpool.c:44   UCX  WARN  object 0x7125980 was not returned to mpool ucp_requests
[1696073610.762601] [16:1753538:0]          mpool.c:44   UCX  WARN  object 0x523a240 was not returned to mpool ucp_requests
[1696073610.767187] [16:1753487:0]          mpool.c:44   UCX  WARN  object 0x6088bc0 was not returned to mpool ucp_requests
[1696073610.770272] [16:1753756:0]          mpool.c:44   UCX  WARN  object 0x5cb8e40 was not returned to mpool ucp_requests
[1696073610.770744] [16:1753511:0]          mpool.c:44   UCX  WARN  object 0x5ddc280 was not returned to mpool ucp_requests
[1696073610.771156] [16:1753719:0]          mpool.c:44   UCX  WARN  object 0x60b0700 was not returned to mpool ucp_requests
[1696073610.771174] [16:1753719:0]          mpool.c:44   UCX  WARN  object 0x60b3100 was not returned to mpool ucp_requests
[1696073610.771179] [16:1753719:0]          mpool.c:44   UCX  WARN  object 0x60b47c0 was not returned to mpool ucp_requests
[1696073610.771183] [16:1753719:0]          mpool.c:44   UCX  WARN  object 0x60b63c0 was not returned to mpool ucp_requests
[1696073610.771186] [16:1753719:0]          mpool.c:44   UCX  WARN  object 0x60b7a80 was not returned to mpool ucp_requests
[1696073610.771348] [16:1753719:0]          mpool.c:44   UCX  WARN  object 0x4223480 was not returned to mpool ucp_requests
[1696073610.771352] [16:1753719:0]          mpool.c:44   UCX  WARN  object 0x4225e80 was not returned to mpool ucp_requests
[1696073610.771356] [16:1753719:0]          mpool.c:44   UCX  WARN  object 0x422c5c0 was not returned to mpool ucp_requests
[1696073610.772056] [16:1753701:0]          mpool.c:44   UCX  WARN  object 0x6465b00 was not returned to mpool ucp_requests
[1696073610.772481] [16:1753576:0]          mpool.c:44   UCX  WARN  object 0x6842f00 was not returned to mpool ucp_requests
[1696073610.773095] [16:1753565:0]          mpool.c:44   UCX  WARN  object 0x64fa580 was not returned to mpool ucp_requests
[1696073610.775269] [16:1753735:0]          mpool.c:44   UCX  WARN  object 0x732f300 was not returned to mpool ucp_requests
[1696073610.776411] [16:1753771:0]          mpool.c:44   UCX  WARN  object 0x7145140 was not returned to mpool ucp_requests