     Program PWSCF v.7.1 starts on 15Feb2024 at 11:37: 6

     Reading input from espresso.pwi
Warning: card &CELL ignored
Warning: card    CELL_DYNAMICS    = 'BFGS' ignored
Warning: card / ignored

     Current dimensions of program PWSCF are:
     Max number of different atomic species (ntypx) = 10
     Max number of k-points (npk) =  40000
     Max angular momentum in pseudopotentials (lmaxx) =  4
     file Pb.pbe-dn-kjpaw_psl.1.0.0.UPF: wavefunction(s)  6S 6P 5D renormalized
     file I.pbe-dn-kjpaw_psl.1.0.0.UPF: wavefunction(s)  5S 5P renormalized

     IMPORTANT: XC functional enforced from input :
     Exchange-correlation= BEEF-VDW
                           (   1   4  43  14   2   0   0)
     Any further DFT definition will be discarded
     Please, verify this is what you really want

     R & G space division:  proc/nbgrp/npool/nimage =     256
     wavefunctions fft division:  task group distribution
                                  #TG    x Z-proc =       8     32
     Subspace diagonalization in iterative solution of the eigenvalue problem:
     a serial algorithm will be used

     Using Pencil Decomposition

     bravais-lattice index     =            4
     lattice parameter (alat)  =      35.6120  a.u.
     unit-cell volume          =   45937.3577 (a.u.)^3
     number of atoms/cell      =          144
     number of atomic types    =            2
     number of electrons       =      2307.00
     number of Kohn-Sham states=         1385
     kinetic-energy cutoff     =      70.0000  Ry
     charge density cutoff     =     350.0000  Ry
     scf convergence threshold =      1.0E-07
     mixing beta               =       0.7000
     number of iterations used =            8  plain     mixing
     energy convergence thresh.=      1.0E-04
     force convergence thresh. =      1.0E-03
     Exchange-correlation= BEEF-VDW
                           (   1   4  43  14   2   0   0)
     nstep                     =           50

     celldm(1)=  35.612033  celldm(2)=   0.000000  celldm(3)=   1.174479
     celldm(4)=   0.000000  celldm(5)=   0.000000  celldm(6)=   0.000000

     crystal axes: (cart. coord. in units of alat)
               a(1) = (   1.000000   0.000000   0.000000 )
               a(2) = (  -0.500000   0.866025   0.000000 )
               a(3) = (   0.000000   0.000000   1.174479 )

     reciprocal axes: (cart. coord. in units 2 pi/alat)
               b(1) = (  1.000000  0.577350 -0.000000 )
               b(2) = (  0.000000  1.154701  0.000000 )
               b(3) = (  0.000000 -0.000000  0.851442 )

     PseudoPot. # 1 for Pb read from file:
     //group///packages/espresso/pseudo/psl_1.0.0/pslibrary.1.0.0/pbe/PSEUDOPOTENTIALS/Pb.pbe-dn-kjpaw_psl.1.0.0.UPF
     MD5 check sum: 39ab5b8a6bbd56b7735ad9f188aac93a
     Pseudo is Projector augmented-wave + core cor, Zval = 14.0
     Generated using 'atomic' code by A. Dal Corso  v.7.1
     Shape of augmentation charge: PSQ
     Using radial grid of 1281 points,  6 beta functions with:
                l(1) =   0
                l(2) =   0
                l(3) =   1
                l(4) =   1
                l(5) =   2
                l(6) =   2
     Q(r) pseudized with 0 coefficients

     PseudoPot. # 2 for I  read from file:
     //group///packages/espresso/pseudo/psl_1.0.0/pslibrary.1.0.0/pbe/PSEUDOPOTENTIALS/I.pbe-dn-kjpaw_psl.1.0.0.UPF
     MD5 check sum: bfa8781bc1224d19af3f3980e3fab11e
     Pseudo is Projector augmented-wave + core cor, Zval = 17.0
     Generated using 'atomic' code by A. Dal Corso  v.7.1
     Shape of augmentation charge: PSQ
     Using radial grid of 1247 points,  6 beta functions with:
                l(1) =   0
                l(2) =   0
                l(3) =   1
                l(4) =   1
                l(5) =   2
                l(6) =   2
     Q(r) pseudized with 0 coefficients

     atomic species   valence    mass     pseudopotential
        Pb            14.00   207.20000     Pb( 1.00)
        I             17.00   126.90447     I ( 1.00)

     No symmetry found

                                    s                        frac. trans.

      isym =  1     identity

 cryst.   s( 1) = (     1          0          0      )
                  (     0          1          0      )
                  (     0          0          1      )

 cart.    s( 1) = (  1.0000000  0.0000000  0.0000000 )
                  (  0.0000000  1.0000000  0.0000000 )
                  (  0.0000000  0.0000000  1.0000000 )

     point group C_1 (1)
     there are  1 classes
     the character table:

       E
A      1.00

     the symmetry operations in each class and the name of the first element:

     E        1
          identity

   Cartesian axes

     site n.     atom                  positions (alat units)
         1           Pb  tau(   1) = (   0.1250051   0.2164910   0.3914970  )
         2           Pb  tau(   2) = (   0.1250090   0.2164858   0.7829746  )
         3           Pb  tau(   3) = (   0.0000104   0.4329890   1.1744707  )
         4           Pb  tau(   4) = (   0.0000047   0.4329940   0.3914890  )
         5           Pb  tau(   5) = (   0.0000088   0.4329910   0.7829701  )
         6           Pb  tau(   6) = (  -0.1249897   0.6494945   1.1744658  )
         7           Pb  tau(   7) = (  -0.1249966   0.6495016   0.3914860  )
         8           Pb  tau(   8) = (  -0.1249927   0.6494965   0.7829690  )
         9           Pb  tau(   9) = (  -0.2499896   0.8660004   1.1744679  )
        10           Pb  tau(  10) = (  -0.2499978   0.8660090   0.3914874  )
        11           Pb  tau(  11) = (  -0.2499929   0.8660019   0.7829686  )
        12           Pb  tau(  12) = (   0.3750119   0.2164819   1.1744827  )
        13           Pb  tau(  13) = (   0.3750030   0.2164903   0.3915014  )
        14           Pb  tau(  14) = (   0.3750092   0.2164844   0.7829804  )
        15           Pb  tau(  15) = (   0.2500105   0.4329875   1.1744762  )
        16           Pb  tau(  16) = (   0.2500030   0.4329929   0.3914955  )
        17           Pb  tau(  17) = (   0.2500084   0.4329903   0.7829730  )
        18           Pb  tau(  18) = (   0.1250091   0.6494937   1.1744712  )
        19           Pb  tau(  19) = (   0.1250024   0.6494986   0.3914920  )
        20           Pb  tau(  20) = (   0.1250077   0.6494960   0.7829730  )
        21           Pb  tau(  21) = (   0.0000094   0.8659991   1.1744728  )
        22           Pb  tau(  22) = (   0.0000016   0.8660070   0.3914921  )
        23           Pb  tau(  23) = (   0.0000072   0.8660013   0.7829745  )
        24           Pb  tau(  24) = (   0.6250120   0.2164815   1.1744843  )
        25           Pb  tau(  25) = (   0.6250033   0.2164889   0.3915041  )
        26           Pb  tau(  26) = (   0.6250098   0.2164841   0.7829847  )
        27           Pb  tau(  27) = (   0.5000118   0.4329865   1.1744774  )
        28           Pb  tau(  28) = (   0.5000025   0.4329923   0.3914984  )
        29           Pb  tau(  29) = (   0.5000087   0.4329897   0.7829775  )
        30           Pb  tau(  30) = (   0.3750102   0.6494926   1.1744737  )
        31           Pb  tau(  31) = (   0.3750022   0.6494985   0.3914960  )
        32           Pb  tau(  32) = (   0.3750081   0.6494952   0.7829744  )
        33           Pb  tau(  33) = (   0.2500093   0.8659990   1.1744751  )
        34           Pb  tau(  34) = (   0.2500028   0.8660055   0.3914958  )
        35           Pb  tau(  35) = (   0.2500081   0.8660001   0.7829766  )
        36           Pb  tau(  36) = (   0.8750111   0.2164816   1.1744831  )
        37           Pb  tau(  37) = (   0.8750048   0.2164886   0.3915027  )
        38           Pb  tau(  38) = (   0.8750089   0.2164828   0.7829835  )
        39           Pb  tau(  39) = (   0.7500110   0.4329863   1.1744758  )
        40           Pb  tau(  40) = (   0.7500031   0.4329916   0.3914960  )
        41           Pb  tau(  41) = (   0.7500082   0.4329891   0.7829785  )
        42           Pb  tau(  42) = (   0.6250104   0.6494920   1.1744721  )
        43           Pb  tau(  43) = (   0.6250017   0.6494987   0.3914940  )
        44           Pb  tau(  44) = (   0.6250073   0.6494949   0.7829750  )
        45           Pb  tau(  45) = (   0.5000099   0.8659981   1.1744743  )
        46           Pb  tau(  46) = (   0.5000023   0.8660058   0.3914955  )
        47           Pb  tau(  47) = (   0.5000067   0.8659995   0.7829750  )
        48           I   tau(  48) = (   0.1250034   0.0721566   0.2914665  )
        49           I   tau(  49) = (   0.1250055   0.0721504   0.6828713  )
        50           I   tau(  50) = (   0.1250072   0.0721485   1.0745252  )
        51           I   tau(  51) = (   0.0000045   0.2886591   0.2914681  )
        52           I   tau(  52) = (   0.0000070   0.2886538   0.6828735  )
        53           I   tau(  53) = (   0.0000057   0.2886558   1.0745287  )
        54           I   tau(  54) = (  -0.1249966   0.5051629   0.2914632  )
        55           I   tau(  55) = (  -0.1249933   0.5051603   0.6828701  )
        56           I   tau(  56) = (  -0.1249949   0.5051618   1.0745235  )
        57           I   tau(  57) = (  -0.2499987   0.7216730   0.2914603  )
        58           I   tau(  58) = (  -0.2499954   0.7216694   0.6828678  )
        59           I   tau(  59) = (  -0.2499928   0.7216665   1.0745192  )
        60           I   tau(  60) = (   0.3750036   0.0721564   0.2914663  )
[...]
       130           I   tau( 130) = (   0.1250022   0.7938382   0.4915924  )
       131           I   tau( 131) = (   0.1250068   0.7938338   0.8830018  )
       132           I   tau( 132) = (   0.7500057   0.1443204   0.0999521  )
       133           I   tau( 133) = (   0.7500047   0.1443206   0.4916023  )
       134           I   tau( 134) = (   0.7500094   0.1443143   0.8830077  )
       135           I   tau( 135) = (   0.6250051   0.3608281   0.0999512  )
       136           I   tau( 136) = (   0.6250014   0.3608279   0.4916004  )
       137           I   tau( 137) = (   0.6250096   0.3608264   0.8830092  )
       138           I   tau( 138) = (   0.5000049   0.5773332   0.0999464  )
       139           I   tau( 139) = (   0.5000005   0.5773349   0.4915977  )
       140           I   tau( 140) = (   0.5000090   0.5773326   0.8830049  )
       141           I   tau( 141) = (   0.3750047   0.7938381   0.0999438  )
       142           I   tau( 142) = (   0.3750036   0.7938392   0.4915961  )
       143           I   tau( 143) = (   0.3750072   0.7938342   0.8830022  )
       144           I   tau( 144) = (   0.1250117   0.2164835   1.1744779  )

   Crystallographic axes

     site n.     atom                  positions (cryst. coord.)
         1           Pb  tau(   1) = (  0.2499962  0.2499823  0.3333368  )
         2           Pb  tau(   2) = (  0.2499971  0.2499763  0.6666572  )
         3           Pb  tau(   3) = (  0.2499967  0.4999726  0.9999933  )
         4           Pb  tau(   4) = (  0.2499939  0.4999785  0.3333301  )
         5           Pb  tau(   5) = (  0.2499962  0.4999750  0.6666534  )
         6           Pb  tau(   6) = (  0.2499961  0.7499716  0.9999891  )
[...]
     atom   44 type  1   force =     0.00000000    0.00000000    0.00000000
     atom   45 type  1   force =     0.00000000    0.00000000    0.00000000
     atom   46 type  1   force =     0.00000000    0.00000000    0.00000000
     atom   47 type  1   force =     0.00000000    0.00000000    0.00000000
     atom   48 type  2   force =     0.00000000    0.00000000    0.00000000
     atom   49 type  2   force =     0.00000000    0.00000000    0.00000000
     atom   50 type  2   force =     0.00000000    0.00000000    0.00000000
     atom   51 type  2   force =     0.00000000    0.00000000    0.00000000
     atom   52 type  2   force =     0.00000000    0.00000000    0.00000000
     atom   53 type  2   force =     0.00000000    0.00000000    0.00000000
     atom   54 type  2   force =     0.00000000    0.00000000    0.00000000
     atom   55 type  2   force =     0.00000000    0.00000000    0.00000000
     atom   56 type  2   force =     0.00000000    0.00000000    0.00000000
     atom   57 type  2   force =     0.00000000    0.00000000    0.00000000
     atom   58 type  2   force =     0.00000000    0.00000000    0.00000000
     atom   59 type  2   force =     0.00000000    0.00000000    0.00000000
     atom   60 type  2   force =     0.00000000    0.00000000    0.00000000
[...]
     atom  130 type  2   force =     0.00000000    0.00000000    0.00000000
     atom  131 type  2   force =     0.00000000    0.00000000    0.00000000
     atom  132 type  2   force =     0.00000000    0.00000000    0.00000000
     atom  133 type  2   force =     0.00000000    0.00000000    0.00000000
     atom  134 type  2   force =     0.00000000    0.00000000    0.00000000
     atom  135 type  2   force =     0.00000000    0.00000000    0.00000000
     atom  136 type  2   force =     0.00000000    0.00000000    0.00000000
     atom  137 type  2   force =     0.00000000    0.00000000    0.00000000
     atom  138 type  2   force =     0.00000000    0.00000000    0.00000000
     atom  139 type  2   force =     0.00000000    0.00000000    0.00000000
     atom  140 type  2   force =     0.00000000    0.00000000    0.00000000
     atom  141 type  2   force =     0.00000000    0.00000000    0.00000000
     atom  142 type  2   force =     0.00000000    0.00000000    0.00000000
     atom  143 type  2   force =     0.00000000    0.00000000    0.00000000
     atom  144 type  2   force =     0.00000000    0.00000000    0.00000000
     The SCF correction term to forces
     atom    1 type  1   force =    -0.00000007    0.00000028   -0.00000723
     atom    2 type  1   force =     0.00000054   -0.00000091    0.00000822
     atom    3 type  1   force =    -0.00000084    0.00000693    0.00000337
     atom    4 type  1   force =    -0.00000207    0.00000334   -0.00000483
     atom    5 type  1   force =    -0.00000076    0.00000370    0.00000380
     atom    6 type  1   force =    -0.00000097    0.00000065   -0.00000004
     atom    7 type  1   force =    -0.00000202   -0.00000115   -0.00000219
     atom    8 type  1   force =     0.00000147    0.00000183    0.00000212
     atom    9 type  1   force =    -0.00000023   -0.00000707   -0.00000497
     atom   10 type  1   force =     0.00000121   -0.00000415   -0.00000415
     atom   11 type  1   force =     0.00000153   -0.00000299    0.00000602
     atom   12 type  1   force =     0.00000652    0.00000108   -0.00000238
     atom   13 type  1   force =     0.00000388    0.00000080   -0.00000400
     atom   14 type  1   force =     0.00000295   -0.00000075    0.00000493
     atom   15 type  1   force =     0.00000194    0.00000491    0.00000127
     atom   16 type  1   force =     0.00000218    0.00000332   -0.00000479
     atom   17 type  1   force =     0.00000154    0.00000335    0.00000450
     atom   18 type  1   force =     0.00000017    0.00000123   -0.00000030
     atom   19 type  1   force =    -0.00000001   -0.00000025   -0.00000226
     atom   20 type  1   force =     0.00000018    0.00000232    0.00000136
     atom   21 type  1   force =     0.00000110   -0.00000143   -0.00000100
     atom   22 type  1   force =    -0.00000004   -0.00000041   -0.00000207
     atom   23 type  1   force =     0.00000133   -0.00000144    0.00000169
     atom   24 type  1   force =    -0.00000048    0.00000018    0.00000018
     atom   25 type  1   force =    -0.00000007    0.00000237   -0.00000206
     atom   26 type  1   force =    -0.00000039   -0.00000238    0.00000181
     atom   27 type  1   force =     0.00000135    0.00000177    0.00000065
     atom   28 type  1   force =     0.00000208    0.00000163   -0.00000209
     atom   29 type  1   force =    -0.00000050    0.00000051    0.00000256
     atom   30 type  1   force =     0.00000098    0.00000010   -0.00000034
     atom   31 type  1   force =     0.00000209   -0.00000126   -0.00000213
     atom   32 type  1   force =    -0.00000147    0.00000139    0.00000229
     atom   33 type  1   force =    -0.00000106   -0.00000161   -0.00000079
     atom   34 type  1   force =     0.00000012   -0.00000036   -0.00000214
     atom   35 type  1   force =    -0.00000147   -0.00000174    0.00000156
     atom   36 type  1   force =    -0.00000689   -0.00000147    0.00000120
     atom   37 type  1   force =    -0.00000379    0.00000055   -0.00000426
     atom   38 type  1   force =    -0.00000310   -0.00000130    0.00000403
     atom   39 type  1   force =    -0.00000249    0.00000218    0.00000143
     atom   40 type  1   force =    -0.00000222    0.00000169   -0.00000205
     atom   41 type  1   force =    -0.00000026    0.00000075    0.00000206
     atom   42 type  1   force =    -0.00000023   -0.00000029    0.00000003
     atom   43 type  1   force =    -0.00000002   -0.00000240   -0.00000224
     atom   44 type  1   force =    -0.00000019    0.00000107    0.00000320
     atom   45 type  1   force =     0.00000016   -0.00000599   -0.00000346
     atom   46 type  1   force =    -0.00000133   -0.00000404   -0.00000439
     atom   47 type  1   force =    -0.00000137   -0.00000335    0.00000581
     atom   48 type  2   force =    -0.00000062   -0.00000333   -0.00000249
     atom   49 type  2   force =     0.00000018   -0.00000470    0.00000477
     atom   50 type  2   force =     0.00000046   -0.00000933   -0.00000589
     atom   51 type  2   force =    -0.00000142    0.00000228   -0.00000383
     atom   52 type  2   force =    -0.00000300    0.00000186    0.00000338
     atom   53 type  2   force =    -0.00000438    0.00000222   -0.00000535
     atom   54 type  2   force =    -0.00000178    0.00000114   -0.00000109
     atom   55 type  2   force =     0.00000043    0.00000365    0.00000097
     atom   56 type  2   force =    -0.00000126    0.00000360    0.00000070
     atom   57 type  2   force =    -0.00000063   -0.00000259   -0.00000100
     atom   58 type  2   force =     0.00000242   -0.00000079    0.00000211
     atom   59 type  2   force =    -0.00000158    0.00000189   -0.00000002
     atom   60 type  2   force =     0.00000106   -0.00000116   -0.00000173
[...]
     atom  130 type  2   force =    -0.00000004   -0.00000045    0.00000120
     atom  131 type  2   force =    -0.00000003   -0.00000040   -0.00000164
     atom  132 type  2   force =    -0.00000132    0.00000007    0.00000021
     atom  133 type  2   force =    -0.00000247    0.00000135   -0.00000133
     atom  134 type  2   force =    -0.00000099   -0.00000213    0.00000058
     atom  135 type  2   force =    -0.00000046    0.00000139    0.00000036
     atom  136 type  2   force =    -0.00000013    0.00000190   -0.00000466
     atom  137 type  2   force =    -0.00000084   -0.00000115    0.00000343
     atom  138 type  2   force =     0.00000073    0.00000039   -0.00000036
     atom  139 type  2   force =     0.00000125   -0.00000046   -0.00000451
     atom  140 type  2   force =    -0.00000146    0.00000221    0.00000380
     atom  141 type  2   force =     0.00000050   -0.00000219   -0.00000062
     atom  142 type  2   force =     0.00000025   -0.00000338   -0.00000119
     atom  143 type  2   force =    -0.00000001   -0.00000083    0.00000137
     atom  144 type  2   force =     0.00000105   -0.00000155   -0.00000168

     Total force =     0.002996     Total SCF correction =     0.000054

     Computing stress (Cartesian axis) and pressure

     Non-local corr. energy    =      69.34137029 Ry

          total   stress  (Ry/bohr**3)                   (kbar)     P=        1.61
   0.00001041  -0.00000000  -0.00000000            1.53       -0.00       -0.00
  -0.00000000   0.00001042   0.00000001           -0.00        1.53        0.00
  -0.00000000   0.00000001   0.00001194           -0.00        0.00        1.76

     kinetic stress (kbar)  14942.48     -0.00      0.00
                               -0.00  14942.49      0.00
                                0.00      0.00  14952.97

     local   stress (kbar)  -7448.50     -0.04      0.04
                               -0.04  -7448.45      0.02
                                0.04      0.02   1419.85

     nonloc. stress (kbar)  -1000.88     -0.00      0.00
                               -0.00  -1000.88      0.00
                                0.00      0.00  -1006.68

     hartree stress (kbar)  12047.44      0.02     -0.01
                                0.02  12047.42     -0.01
                               -0.01     -0.01   8046.31

     exc-cor stress (kbar)   6971.09      0.00     -0.00
                                0.00   6971.09      0.00
                               -0.00      0.00   6970.06

     corecor stress (kbar) -11344.48      0.00     -0.00
                                0.00 -11344.48     -0.00
                               -0.00     -0.00 -11344.42

     ewald   stress (kbar) -14249.31      0.03     -0.02
                                0.03 -14249.34     -0.01
                               -0.02     -0.01 -19121.30

     hubbard stress (kbar)      0.00      0.00      0.00
                                0.00      0.00      0.00
                                0.00      0.00      0.00

     DFT-D   stress (kbar)      0.00      0.00      0.00
                                0.00      0.00      0.00
                                0.00      0.00      0.00

     XDM     stress (kbar)      0.00      0.00      0.00
                                0.00      0.00      0.00
                                0.00      0.00      0.00

     dft-nl  stress (kbar)     83.68     -0.00      0.00
                               -0.00     83.68     -0.00
                                0.00     -0.00     84.97

     TS-vdW  stress (kbar)      0.00      0.00      0.00
                                0.00      0.00      0.00
                                0.00      0.00      0.00

     MDB     stress (kbar)      0.00      0.00      0.00
                                0.00      0.00      0.00
                                0.00      0.00      0.00

     3D-RISM stress (kbar)      0.00      0.00      0.00
                                0.00      0.00      0.00
                                0.00      0.00      0.00

     Energy error            =      2.0E-05 Ry
     Gradient error          =      9.2E-04 Ry/Bohr

     bfgs converged in  10 scf cycles and   9 bfgs steps
     (criteria: energy <  1.0E-04 Ry, force <  1.0E-03 Ry/Bohr)

     End of BFGS Geometry Optimization

     Final energy             =  -96801.3785085500 Ry

     File ./PbI2.bfgs deleted, as requested
Begin final coordinates

ATOMIC_POSITIONS (angstrom)
Pb            2.3557223664        4.0796836700        7.3771741741
Pb            2.3558096148        4.0796026511       14.7559072962
Pb            0.0051734315        8.1510832778       22.1330133431
Pb           -0.0013375103        8.1585615257        7.3781769759
Pb            0.0019143697        8.1603359540       14.7547545549
Pb           -2.3555244022       12.2398444046       22.1328754730
Pb           -2.3561752305       12.2395672336        7.3771900869
Pb           -2.3549404448       12.2401556375       14.7556381850
Pb           -4.7161030683       16.3284834811       22.1329074940
Pb           -4.7129803633       16.3193668258        7.3781051281
Pb           -4.7097386158       16.3210823140       14.7547431940
Pb            7.0571728263        4.0795575562       22.1331333987
Pb            7.0666422098        4.0815309073        7.3782932171
Pb            7.0667176656        4.0777842472       14.7548784737
Pb            4.7064266052        8.1510959257       22.1330982303
Pb            4.7127673212        8.1585512079        7.3782390763
Pb            4.7096952069        8.1603293393       14.7547976384
Pb            2.3557864772       12.2377405313       22.1327573100
Pb            2.3557052838       12.2402780570        7.3776762939
Pb            2.3557931499       12.2402429223       14.7558900320
Pb           -0.0016741911       16.3209245128       22.1327791793
Pb            0.0004182358       16.3197951185        7.3776931732
Pb            0.0005129847       16.3196467813       14.7559145425
Pb           11.7783383675        4.0796070992       22.1331397350
Pb           11.7782654892        4.0803376774        7.3774293819
Pb           11.7783389940        4.0789639936       14.7558518458
Pb            9.4209264636        8.1586753978       22.1332340262
Pb            9.4230084154        8.1599836598        7.3771594288
Pb            9.4230459056        8.1599029852       14.7553462381
Pb            7.0671064139       12.2398065456       22.1329820196
Pb            7.0675642947       12.2395480045        7.3772953520
Pb            7.0665100083       12.2401196159       14.7557270048
Pb            4.7132435713       16.3209070745       22.1328421693
Pb            4.7110055251       16.3197822189        7.3777427112
Pb            4.7110553257       16.3196238486       14.7559631462
Pb           16.4995385911        4.0795959623       22.1331198680
Pb           16.4898701544        4.0815034615        7.3783190961
Pb           16.4899794426        4.0777795244       14.7549305040
Pb           14.1357555747        8.1586887567       22.1332212671
Pb           14.1334881628        8.1599864581        7.3771425958
Pb           14.1336202002        8.1599191866       14.7553419859
Pb           11.7783374024       12.2419028139       22.1331220270
Pb           11.7782326699       12.2394290984        7.3770585729
Pb           11.7783292951       12.2394277891       14.7553087358
Pb            9.4277173997       16.3284354148       22.1329698144
Pb            9.4243598401       16.3193425607        7.3781993639
Pb            9.4213211693       16.3210533623       14.7548317558
I             2.3556598592        1.3595212977        5.4919287177
I             2.3557380355        1.3594379608       12.8690460935
I             2.3557768186        1.1800722438       20.1512458899
I            -0.0001747757        5.4397503079        5.4920272254
I            -0.0001160688        5.4398341762       12.8690490508
I            -0.1549850323        5.5290769285       20.1514173144
I            -2.3555466958        9.5198920057        5.4922059833
I            -2.3559796198        9.5194408495       12.8690011278
I            -2.3569971738        9.5228662496       20.2499937174
I            -4.7111591757       13.6001141545        5.4921341302
I            -4.7117364154       13.5997532794       12.8689753475
I            -4.7093015752       13.5973483446       20.2500060125
I             7.0663709298        1.3601215450        5.4881551453
[...]
I             2.3556665432       14.9600049493        9.2635983914
I             2.3557345919       14.9599176072       16.6408353097
I            14.1306698316        2.7199342445        1.8828505055
I            14.1340219437        2.7191657074        9.2641049010
I            14.1340009039        2.7197453231       16.6409142678
I            11.7782849242        6.8001356786        1.8833975629
I            11.7782487287        6.7997704181        9.2644852037
I            11.7782789463        6.8003338348       16.6407294393
I             9.4230275255       10.8797489249        1.8832910025
I             9.4225734592       10.8799703560        9.2644366139
I             9.4231587361       10.8796309777       16.6406758328
I             7.0657037200       14.9569781106        1.8827349650
I             7.0665461340       14.9604089059        9.2640245817
I             7.0672410357       14.9598927101       16.6408792337
I             2.3558490695        4.0793919062       22.1327155998
End final coordinates

     Writing all to output data dir ./PbI2.save/

     General routines

     Parallel routines

     PAW routines

   This run was terminated on:  11:18:36  16Feb2024

   JOB DONE.