     Program PWSCF v.7.1 starts on 18Feb2024 at 11:35:26

     Reading input from espresso.pwi
Warning: card &CELL ignored
Warning: card    CELL_DYNAMICS    = 'BFGS' ignored
Warning: card / ignored

     Current dimensions of program PWSCF are:
     Max number of different atomic species (ntypx) = 10
     Max number of k-points (npk) =  40000
     Max angular momentum in pseudopotentials (lmaxx) =  4
     file Pb.pbe-dn-kjpaw_psl.1.0.0.UPF: wavefunction(s)  6S 6P 5D renormalized
     file I.pbe-dn-kjpaw_psl.1.0.0.UPF: wavefunction(s)  5S 5P renormalized

     IMPORTANT: XC functional enforced from input :
     Exchange-correlation= BEEF-VDW
                           (   1   4  43  14   2   0   0)
     Any further DFT definition will be discarded
     Please, verify this is what you really want

     R & G space division:  proc/nbgrp/npool/nimage =     256
     wavefunctions fft division:  task group distribution
                                  #TG    x Z-proc =       8     32
     Subspace diagonalization in iterative solution of the eigenvalue problem:
     a serial algorithm will be used

     Using Pencil Decomposition

     bravais-lattice index     =            4
     lattice parameter (alat)  =      35.6120  a.u.
     unit-cell volume          =   45937.3577 (a.u.)^3
     number of atoms/cell      =          144
     number of atomic types    =            2
     number of electrons       =      2307.00
     number of Kohn-Sham states=         1385
     kinetic-energy cutoff     =      70.0000  Ry
     charge density cutoff     =     350.0000  Ry
     scf convergence threshold =      1.0E-07
     mixing beta               =       0.7000
     number of iterations used =            8  plain     mixing
     Exchange-correlation= BEEF-VDW
                           (   1   4  43  14   2   0   0)

     celldm(1)=  35.612033  celldm(2)=   0.000000  celldm(3)=   1.174479
     celldm(4)=   0.000000  celldm(5)=   0.000000  celldm(6)=   0.000000

     crystal axes: (cart. coord. in units of alat)
               a(1) = (   1.000000   0.000000   0.000000 )
               a(2) = (  -0.500000   0.866025   0.000000 )
               a(3) = (   0.000000   0.000000   1.174479 )

     reciprocal axes: (cart. coord. in units 2 pi/alat)
               b(1) = (  1.000000  0.577350 -0.000000 )
               b(2) = (  0.000000  1.154701  0.000000 )
               b(3) = (  0.000000 -0.000000  0.851442 )

     PseudoPot. # 1 for Pb read from file:
     //group///packages/espresso/pseudo/psl_1.0.0/pslibrary.1.0.0/pbe/PSEUDOPOTENTIALS/Pb.pbe-dn-kjpaw_psl.1.0.0.UPF
     MD5 check sum: 39ab5b8a6bbd56b7735ad9f188aac93a
     Pseudo is Projector augmented-wave + core cor, Zval = 14.0
     Generated using 'atomic' code by A. Dal Corso  v.7.1
     Shape of augmentation charge: PSQ
     Using radial grid of 1281 points,  6 beta functions with:
                l(1) =   0
                l(2) =   0
                l(3) =   1
                l(4) =   1
                l(5) =   2
                l(6) =   2
     Q(r) pseudized with 0 coefficients

     PseudoPot. # 2 for I  read from file:
     //group///packages/espresso/pseudo/psl_1.0.0/pslibrary.1.0.0/pbe/PSEUDOPOTENTIALS/I.pbe-dn-kjpaw_psl.1.0.0.UPF
     MD5 check sum: bfa8781bc1224d19af3f3980e3fab11e
     Pseudo is Projector augmented-wave + core cor, Zval = 17.0
     Generated using 'atomic' code by A. Dal Corso  v.7.1
     Shape of augmentation charge: PSQ
     Using radial grid of 1247 points,  6 beta functions with:
                l(1) =   0
                l(2) =   0
                l(3) =   1
                l(4) =   1
                l(5) =   2
                l(6) =   2
     Q(r) pseudized with 0 coefficients

     atomic species   valence    mass     pseudopotential
        Pb            14.00   207.20000     Pb( 1.00)
        I             17.00   126.90447     I ( 1.00)

     No symmetry found

                                    s                        frac. trans.

      isym =  1     identity

 cryst.   s( 1) = (     1          0          0      )
                  (     0          1          0      )
                  (     0          0          1      )

 cart.    s( 1) = (  1.0000000  0.0000000  0.0000000 )
                  (  0.0000000  1.0000000  0.0000000 )
                  (  0.0000000  0.0000000  1.0000000 )

     point group C_1 (1)
     there are  1 classes
     the character table:

       E
A      1.00

     the symmetry operations in each class and the name of the first element:

     E        1
          identity

   Cartesian axes

     site n.     atom                  positions (alat units)
         1           Pb  tau(   1) = (   0.1250034   0.2164918   0.3914896  )
         2           Pb  tau(   2) = (   0.1250085   0.2164873   0.7829825  )
         3           Pb  tau(   3) = (   0.0000128   0.4329881   1.1744712  )
         4           Pb  tau(   4) = (   0.0000026   0.4329971   0.3914855  )
         5           Pb  tau(   5) = (   0.0000077   0.4329926   0.7829784  )
         6           Pb  tau(   6) = (  -0.1249881   0.6494934   1.1744671  )
         7           Pb  tau(   7) = (  -0.1249983   0.6495025   0.3914814  )
         8           Pb  tau(   8) = (  -0.1249932   0.6494980   0.7829742  )
         9           Pb  tau(   9) = (  -0.2499889   0.8659988   1.1744630  )
        10           Pb  tau(  10) = (  -0.2499991   0.8660078   0.3914773  )
        11           Pb  tau(  11) = (  -0.2499940   0.8660033   0.7829701  )
        12           Pb  tau(  12) = (   0.3750136   0.2164818   1.1744786  )
        13           Pb  tau(  13) = (   0.3750034   0.2164908   0.3914929  )
        14           Pb  tau(  14) = (   0.3750085   0.2164863   0.7829857  )
        15           Pb  tau(  15) = (   0.2500128   0.4329871   1.1744745  )
        16           Pb  tau(  16) = (   0.2500026   0.4329962   0.3914888  )
        17           Pb  tau(  17) = (   0.2500077   0.4329916   0.7829816  )
        18           Pb  tau(  18) = (   0.1250119   0.6494925   1.1744703  )
        19           Pb  tau(  19) = (   0.1250017   0.6495015   0.3914847  )
        20           Pb  tau(  20) = (   0.1250068   0.6494970   0.7829775  )
        21           Pb  tau(  21) = (   0.0000111   0.8659978   1.1744662  )
        22           Pb  tau(  22) = (   0.0000009   0.8660069   0.3914805  )
        23           Pb  tau(  23) = (   0.0000060   0.8660024   0.7829734  )
        24           Pb  tau(  24) = (   0.6250136   0.2164808   1.1744818  )
        25           Pb  tau(  25) = (   0.6250034   0.2164898   0.3914962  )
        26           Pb  tau(  26) = (   0.6250085   0.2164853   0.7829890  )
        27           Pb  tau(  27) = (   0.5000128   0.4329862   1.1744777  )
        28           Pb  tau(  28) = (   0.5000026   0.4329952   0.3914920  )
        29           Pb  tau(  29) = (   0.5000077   0.4329907   0.7829849  )
        30           Pb  tau(  30) = (   0.3750119   0.6494915   1.1744736  )
        31           Pb  tau(  31) = (   0.3750017   0.6495006   0.3914879  )
        32           Pb  tau(  32) = (   0.3750068   0.6494960   0.7829808  )
        33           Pb  tau(  33) = (   0.2500111   0.8659969   1.1744695  )
        34           Pb  tau(  34) = (   0.2500009   0.8660059   0.3914838  )
        35           Pb  tau(  35) = (   0.2500060   0.8660014   0.7829766  )
        36           Pb  tau(  36) = (   0.8750136   0.2164798   1.1744851  )
        37           Pb  tau(  37) = (   0.8750034   0.2164889   0.3914994  )
        38           Pb  tau(  38) = (   0.8750085   0.2164844   0.7829923  )
        39           Pb  tau(  39) = (   0.7500128   0.4329852   1.1744810  )
        40           Pb  tau(  40) = (   0.7500026   0.4329942   0.3914953  )
        41           Pb  tau(  41) = (   0.7500077   0.4329897   0.7829881  )
        42           Pb  tau(  42) = (   0.6250119   0.6494906   1.1744769  )
        43           Pb  tau(  43) = (   0.6250017   0.6494996   0.3914912  )
        44           Pb  tau(  44) = (   0.6250068   0.6494951   0.7829840  )
        45           Pb  tau(  45) = (   0.5000111   0.8659959   1.1744727  )
        46           Pb  tau(  46) = (   0.5000009   0.8660050   0.3914870  )
        47           Pb  tau(  47) = (   0.5000060   0.8660004   0.7829799  )
        48           I   tau(  48) = (   0.1250054   0.0721550   0.2909325  )
        49           I   tau(  49) = (   0.1250105   0.0721505   0.6824253  )
        50           I   tau(  50) = (   0.1250156   0.0721459   1.0739182  )
        51           I   tau(  51) = (   0.0000045   0.2886603   0.2909283  )
        52           I   tau(  52) = (   0.0000096   0.2886558   0.6824212  )
        53           I   tau(  53) = (   0.0000147   0.2886513   1.0739140  )
        54           I   tau(  54) = (  -0.1249963   0.5051657   0.2909242  )
        55           I   tau(  55) = (  -0.1249912   0.5051612   0.6824171  )
        56           I   tau(  56) = (  -0.1249861   0.5051566   1.0739099  )
        57           I   tau(  57) = (  -0.2499971   0.7216710   0.2909201  )
        58           I   tau(  58) = (  -0.2499920   0.7216665   0.6824129  )
        59           I   tau(  59) = (  -0.2499869   0.7216620   1.0739058  )
        60           I   tau(  60) = (   0.3750054   0.0721540   0.2909357  )
[...]
       130           I   tau( 130) = (   0.1250009   0.7938394   0.4920425  )
       131           I   tau( 131) = (   0.1250060   0.7938348   0.8835353  )
       132           I   tau( 132) = (   0.7499983   0.1443268   0.1005653  )
       133           I   tau( 133) = (   0.7500034   0.1443223   0.4920581  )
       134           I   tau( 134) = (   0.7500085   0.1443178   0.8835509  )
       135           I   tau( 135) = (   0.6249975   0.3608322   0.1005611  )
       136           I   tau( 136) = (   0.6250026   0.3608277   0.4920540  )
       137           I   tau( 137) = (   0.6250077   0.3608232   0.8835468  )
       138           I   tau( 138) = (   0.4999966   0.5773376   0.1005570  )
       139           I   tau( 139) = (   0.5000017   0.5773330   0.4920499  )
       140           I   tau( 140) = (   0.5000068   0.5773285   0.8835427  )
       141           I   tau( 141) = (   0.3749958   0.7938429   0.1005529  )
       142           I   tau( 142) = (   0.3750009   0.7938384   0.4920457  )
       143           I   tau( 143) = (   0.3750060   0.7938339   0.8835386  )
       144           I   tau( 144) = (   0.1250136   0.2164827   1.1744753  )

   Crystallographic axes

     site n.     atom                  positions (cryst. coord.)
         1           Pb  tau(   1) = (  0.2499950  0.2499832  0.3333306  )
         2           Pb  tau(   2) = (  0.2499975  0.2499780  0.6666639  )
         3           Pb  tau(   3) = (  0.2499986  0.4999716  0.9999938  )
         4           Pb  tau(   4) = (  0.2499936  0.4999820  0.3333271  )
         5           Pb  tau(   5) = (  0.2499961  0.4999768  0.6666604  )
         6           Pb  tau(   6) = (  0.2499972  0.7499704  0.9999902  )
         7           Pb  tau(   7) = (  0.2499922  0.7499809  0.3333236  )
         8           Pb  tau(   8) = (  0.2499947  0.7499757  0.6666569  )
[...]
     atom   26 type  1   force =     0.00000000    0.00000000    0.00000000
     atom   27 type  1   force =     0.00000000    0.00000000    0.00000000
     atom   28 type  1   force =     0.00000000    0.00000000    0.00000000
     atom   29 type  1   force =     0.00000000    0.00000000    0.00000000
     atom   30 type  1   force =     0.00000000    0.00000000    0.00000000
     atom   31 type  1   force =     0.00000000    0.00000000    0.00000000
     atom   32 type  1   force =     0.00000000    0.00000000    0.00000000
     atom   33 type  1   force =     0.00000000    0.00000000    0.00000000
     atom   34 type  1   force =     0.00000000    0.00000000    0.00000000
     atom   35 type  1   force =     0.00000000    0.00000000    0.00000000
     atom   36 type  1   force =     0.00000000    0.00000000    0.00000000
     atom   37 type  1   force =     0.00000000    0.00000000    0.00000000
     atom   38 type  1   force =     0.00000000    0.00000000    0.00000000
     atom   39 type  1   force =     0.00000000    0.00000000    0.00000000
     atom   40 type  1   force =     0.00000000    0.00000000    0.00000000
     atom   41 type  1   force =     0.00000000    0.00000000    0.00000000
     atom   42 type  1   force =     0.00000000    0.00000000    0.00000000
     atom   43 type  1   force =     0.00000000    0.00000000    0.00000000
     atom   44 type  1   force =     0.00000000    0.00000000    0.00000000
     atom   45 type  1   force =     0.00000000    0.00000000    0.00000000
     atom   46 type  1   force =     0.00000000    0.00000000    0.00000000
     atom   47 type  1   force =     0.00000000    0.00000000    0.00000000
     atom   48 type  2   force =     0.00000000    0.00000000    0.00000000
     atom   49 type  2   force =     0.00000000    0.00000000    0.00000000
     atom   50 type  2   force =     0.00000000    0.00000000    0.00000000
     atom   51 type  2   force =     0.00000000    0.00000000    0.00000000
     atom   52 type  2   force =     0.00000000    0.00000000    0.00000000
     atom   53 type  2   force =     0.00000000    0.00000000    0.00000000
     atom   54 type  2   force =     0.00000000    0.00000000    0.00000000
     atom   55 type  2   force =     0.00000000    0.00000000    0.00000000
     atom   56 type  2   force =     0.00000000    0.00000000    0.00000000
     atom   57 type  2   force =     0.00000000    0.00000000    0.00000000
     atom   58 type  2   force =     0.00000000    0.00000000    0.00000000
     atom   59 type  2   force =     0.00000000    0.00000000    0.00000000
     atom   60 type  2   force =     0.00000000    0.00000000    0.00000000
[...]
     atom  130 type  2   force =     0.00000000    0.00000000    0.00000000
     atom  131 type  2   force =     0.00000000    0.00000000    0.00000000
     atom  132 type  2   force =     0.00000000    0.00000000    0.00000000
     atom  133 type  2   force =     0.00000000    0.00000000    0.00000000
     atom  134 type  2   force =     0.00000000    0.00000000    0.00000000
     atom  135 type  2   force =     0.00000000    0.00000000    0.00000000
     atom  136 type  2   force =     0.00000000    0.00000000    0.00000000
     atom  137 type  2   force =     0.00000000    0.00000000    0.00000000
     atom  138 type  2   force =     0.00000000    0.00000000    0.00000000
     atom  139 type  2   force =     0.00000000    0.00000000    0.00000000
     atom  140 type  2   force =     0.00000000    0.00000000    0.00000000
     atom  141 type  2   force =     0.00000000    0.00000000    0.00000000
     atom  142 type  2   force =     0.00000000    0.00000000    0.00000000
     atom  143 type  2   force =     0.00000000    0.00000000    0.00000000
     atom  144 type  2   force =     0.00000000    0.00000000    0.00000000
     The SCF correction term to forces
     atom    1 type  1   force =     0.00000370   -0.00000701    0.00002809
     atom    2 type  1   force =    -0.00000650    0.00001094   -0.00003416
     atom    3 type  1   force =    -0.00001837   -0.00004288   -0.00004712
     atom    4 type  1   force =     0.00000407   -0.00001448    0.00003066
     atom    5 type  1   force =     0.00000007   -0.00001831   -0.00001338
     atom    6 type  1   force =     0.00000464   -0.00000335    0.00000109
     atom    7 type  1   force =     0.00000441    0.00000709    0.00001553
     atom    8 type  1   force =    -0.00000131   -0.00001068   -0.00001649
     atom    9 type  1   force =     0.00002429    0.00004174    0.00005746
     atom   10 type  1   force =    -0.00000211    0.00002020    0.00001379
     atom   11 type  1   force =    -0.00000103    0.00001287   -0.00003813
     atom   12 type  1   force =    -0.00003320   -0.00001746    0.00002943
     atom   13 type  1   force =    -0.00001519   -0.00000862    0.00001452
     atom   14 type  1   force =    -0.00000948    0.00000464   -0.00002749
     atom   15 type  1   force =     0.00000446   -0.00002106   -0.00001971
     atom   16 type  1   force =    -0.00000433   -0.00001654    0.00002949
     atom   17 type  1   force =    -0.00000883   -0.00001389   -0.00002312
     atom   18 type  1   force =    -0.00000391    0.00000227   -0.00000444
     atom   19 type  1   force =    -0.00000126    0.00000370    0.00001819
     atom   20 type  1   force =    -0.00000230   -0.00001074   -0.00001408
     atom   21 type  1   force =    -0.00000762    0.00001113    0.00001078
     atom   22 type  1   force =    -0.00000532    0.00000631    0.00001009
     atom   23 type  1   force =    -0.00000308    0.00000631   -0.00001730
     atom   24 type  1   force =     0.00000254   -0.00000087   -0.00000012
     atom   25 type  1   force =    -0.00000177   -0.00000839    0.00001363
     atom   26 type  1   force =     0.00000428    0.00000848   -0.00001374
     atom   27 type  1   force =    -0.00000151   -0.00001196   -0.00000092
     atom   28 type  1   force =    -0.00000698   -0.00000923    0.00001676
     atom   29 type  1   force =     0.00000175   -0.00000545   -0.00001717
     atom   30 type  1   force =    -0.00000458   -0.00000044    0.00000259
     atom   31 type  1   force =    -0.00000473    0.00000521    0.00001690
     atom   32 type  1   force =     0.00000153   -0.00000587   -0.00001890
     atom   33 type  1   force =     0.00000022    0.00001139    0.00000359
     atom   34 type  1   force =     0.00000022    0.00000484    0.00001403
     atom   35 type  1   force =     0.00000437    0.00000971   -0.00001581
     atom   36 type  1   force =     0.00003575    0.00002029   -0.00002181
     atom   37 type  1   force =     0.00001332   -0.00000350    0.00002270
     atom   38 type  1   force =     0.00001176    0.00001128   -0.00001562
     atom   39 type  1   force =     0.00001471   -0.00001508   -0.00001048
     atom   40 type  1   force =     0.00000732   -0.00000769    0.00001739
     atom   41 type  1   force =     0.00000697   -0.00000810   -0.00001100
     atom   42 type  1   force =     0.00000391   -0.00000731    0.00000845
     atom   43 type  1   force =     0.00000152    0.00001078    0.00001643
     atom   44 type  1   force =     0.00000211   -0.00000816   -0.00002377
     atom   45 type  1   force =    -0.00001624    0.00002601    0.00003360
     atom   46 type  1   force =     0.00000727    0.00001733    0.00002084
     atom   47 type  1   force =    -0.00000029    0.00001692   -0.00003598
     atom   48 type  2   force =     0.00001462    0.00001801    0.00000500
     atom   49 type  2   force =    -0.00000124    0.00002240   -0.00002957
     atom   50 type  2   force =    -0.00000175    0.00006097    0.00003366
     atom   51 type  2   force =     0.00000375   -0.00002128    0.00002445
     atom   52 type  2   force =     0.00000935   -0.00000531   -0.00001310
     atom   53 type  2   force =     0.00001200   -0.00000628    0.00002201
     atom   54 type  2   force =     0.00000221   -0.00000407    0.00001287
     atom   55 type  2   force =     0.00000320   -0.00001728   -0.00000675
     atom   56 type  2   force =     0.00001297   -0.00003648   -0.00000848
     atom   57 type  2   force =     0.00000394    0.00002083    0.00000791
     atom   58 type  2   force =    -0.00000411    0.00000445   -0.00001931
     atom   59 type  2   force =     0.00001985   -0.00001792    0.00000652
     atom   60 type  2   force =    -0.00001702    0.00001252   -0.00000670
[...]
     atom  130 type  2   force =    -0.00000153    0.00000450    0.00000210
     atom  131 type  2   force =    -0.00000037    0.00000241   -0.00000311
     atom  132 type  2   force =     0.00000671    0.00000432   -0.00000250
     atom  133 type  2   force =     0.00001012   -0.00000059    0.00001085
     atom  134 type  2   force =     0.00000918    0.00001730   -0.00000595
     atom  135 type  2   force =     0.00000269   -0.00001062   -0.00000319
     atom  136 type  2   force =     0.00000053   -0.00000925    0.00002041
     atom  137 type  2   force =     0.00001007   -0.00000121   -0.00001455
     atom  138 type  2   force =     0.00000043   -0.00000446    0.00000444
     atom  139 type  2   force =    -0.00000363    0.00000095    0.00001987
     atom  140 type  2   force =     0.00000270   -0.00001407   -0.00002063
     atom  141 type  2   force =    -0.00000232    0.00001513    0.00000805
     atom  142 type  2   force =     0.00000284    0.00001457    0.00001009
     atom  143 type  2   force =    -0.00000638    0.00000697   -0.00001607
     atom  144 type  2   force =    -0.00000658    0.00000980    0.00001149

     Total force =     0.003005     Total SCF correction =     0.000321
     SCF correction compared to forces is large: reduce conv_thr to get better values

     Computing stress (Cartesian axis) and pressure

[...]

          total   stress  (Ry/bohr**3)                   (kbar)     P=        1.61
   0.00001041  -0.00000000  -0.00000000            1.53       -0.00       -0.00
  -0.00000000   0.00001042   0.00000001           -0.00        1.53        0.00
  -0.00000000   0.00000001   0.00001194           -0.00        0.00        1.76

     kinetic stress (kbar)  14942.48     -0.00      0.00
                               -0.00  14942.49      0.00
                                0.00      0.00  14952.97

     local   stress (kbar)  -7448.50     -0.05      0.04
                               -0.05  -7448.45      0.01
                                0.04      0.01   1419.85

     nonloc. stress (kbar)  -1000.88     -0.00      0.00
                               -0.00  -1000.88      0.00
                                0.00      0.00  -1006.68

     hartree stress (kbar)  12047.44      0.02     -0.01
                                0.02  12047.42     -0.01
                               -0.01     -0.01   8046.31

     exc-cor stress (kbar)   6971.09      0.00     -0.00
                                0.00   6971.09      0.00
                               -0.00      0.00   6970.06

     corecor stress (kbar) -11344.48      0.00      0.00
                                0.00 -11344.48     -0.00
                                0.00     -0.00 -11344.42

     ewald   stress (kbar) -14249.31      0.03     -0.02
                                0.03 -14249.34     -0.01
                               -0.02     -0.01 -19121.30

     hubbard stress (kbar)      0.00      0.00      0.00
                                0.00      0.00      0.00
                                0.00      0.00      0.00

     DFT-D   stress (kbar)      0.00      0.00      0.00
                                0.00      0.00      0.00
                                0.00      0.00      0.00

     XDM     stress (kbar)      0.00      0.00      0.00
                                0.00      0.00      0.00
                                0.00      0.00      0.00

     dft-nl  stress (kbar)     83.68     -0.00      0.00
                               -0.00     83.68     -0.00
                                0.00     -0.00     84.97

     TS-vdW  stress (kbar)      0.00      0.00      0.00
                                0.00      0.00      0.00
                                0.00      0.00      0.00

     MDB     stress (kbar)      0.00      0.00      0.00
                                0.00      0.00      0.00
                                0.00      0.00      0.00

     3D-RISM stress (kbar)      0.00      0.00      0.00
                                0.00      0.00      0.00
                                0.00      0.00      0.00

[...]

     Non-local corr. energy    =      69.34137047 Ry

 BEEFens 2000 ensemble energies
             -0.581767304666316E+02
             -0.585651057752652E+03
             -0.266515139708895E+03
              0.204532006954352E+03
             -0.447626257580298E+03
             -0.548091998730329E+03
              0.281313866414546E+03
              0.120738764159296E+01
              0.474133797788238E+03
             -0.300131012485062E+02
              0.242714098237126E+03
              0.248486186220415E+02
             -0.186395280923623E+02
             -0.150458460716150E+02
              0.302658009506333E+03
             -0.227783810420238E+03
             -0.447293268921471E+03
             -0.144347575316971E+03
              0.129418363101542E+03
             -0.271050154938348E+01
              0.659546021331814E+03
              0.550514285463131E+03
             -0.339127537922645E+03
              0.117198168811700E+03
             -0.706472719520184E+03
              0.579934899439575E+03
              0.198306237642190E+03
              0.523701499410643E+03
              0.352970873772166E+03
             -0.163889191948565E+03
              0.129167969437165E+03
             -0.230938349246892E+03
              0.964064473578518E+02
              0.351108199361964E+03
              0.377757780342044E+03
             -0.164176681767965E+03
              0.833503192974227E+03
             -0.335355817695037E+03
             -0.223422586324551E+03
              0.333355147950334E+03
              0.146945509224507E+03
              0.253265230849330E+03
             -0.489241408969242E+03
             -0.317479947671645E+02
              0.469421706603031E+03
              0.613514458178681E+03
             -0.622855650780624E+03
              0.400162053437239E+02
              0.216063985966855E+03
              0.139508928301951E+03
              0.243601976828411E+03
              0.534878080357918E+03
             -0.347332313517619E+03
             -0.337128787610761E+03
             -0.469697389231695E+03
             -0.681979673203946E+02
             -0.400697449684869E+03
              0.517839466638147E+02
             -0.577672866165312E+02
             -0.317819643342802E+03
[...]
              0.396852813073241E+03
              0.254248667597738E+03
              0.259239989008749E+03
             -0.479682483392320E+03
             -0.495430582524320E+03
             -0.111682926006626E+03
             -0.442805127258076E+03
              0.703077357421712E+03
              0.592260429451055E+03
              0.279293652577871E+03
              0.770012133534156E+03
             -0.384860856965111E+03
             -0.165726032637053E+03
             -0.238844888597453E+03
              0.666135428700282E+03

 BEEF-vdW xc energy contributions
            1 :    -6021.300977215958
            2 :     5517.585326321248
            3 :    -4658.585310900395
            4 :     3673.142590683684
            5 :    -2776.870631710541
            6 :     2102.631827240204
            7 :    -1678.775277494252
            8 :     1449.024634864701
            9 :    -1315.206492962930
           10 :     1184.367145174392
           11 :    -1004.179173794902
           12 :     774.4593097110428
           13 :    -532.8453597623393
           14 :     325.8844435970213
           15 :    -182.9414910373980
           16 :     105.0349032120412
           17 :    -69.86840037540605
           18 :     46.48686576813452
           19 :    -11.02138958078831
           20 :    -43.36424689878004
           21 :     106.1029524876167
           22 :    -157.8971293762161
           23 :     183.3067697566512
           24 :    -180.0072500305805
           25 :     159.7792593511731
           26 :    -141.5008655305592
           27 :     140.7863743984472
           28 :    -162.0110759472518
           29 :     196.5520641973744
           30 :    -227.7673602771110
           31 :    -517.7500093258586
           32 :    -372.4340099374622

     Writing all to output data dir ./PbI2.save/

     General routines

     Parallel routines

     PAW routines

   This run was terminated on:  11:48:43  18Feb2024

   JOB DONE.