     Program PWSCF v.7.1 starts on  1Oct2023 at  6:45:41

     Reading input from espresso.pwi
Warning: card &CELL ignored
Warning: card    CELL_DYNAMICS    = 'BFGS' ignored
Warning: card / ignored

     Current dimensions of program PWSCF are:
     Max number of different atomic species (ntypx) = 10
     Max number of k-points (npk) =  40000
     Max angular momentum in pseudopotentials (lmaxx) =  4
     file C.pbe-n-kjpaw_psl.1.0.0.UPF: wavefunction(s)  2S 2P renormalized

     IMPORTANT: XC functional enforced from input :
     Exchange-correlation= BEEF-VDW
                           (   1   4  43  14   2   0   0)
     Any further DFT definition will be discarded
     Please, verify this is what you really want

     Found identity + (  0.0000  0.0000  0.2500) symmetry
     This is a supercell, fractional translations are disabled

     R & G space division:  proc/nbgrp/npool/nimage =     256
     wavefunctions fft division:  task group distribution
                                  #TG    x Z-proc =       8     32
     Subspace diagonalization in iterative solution of the eigenvalue problem:
     a serial algorithm will be used

     Using Pencil Decomposition

     bravais-lattice index     =            1
     lattice parameter (alat)  =      27.0027  a.u.
     unit-cell volume          =   19688.9026 (a.u.)^3
     number of atoms/cell      =          512
     number of atomic types    =            1
     number of electrons       =      2048.00
     number of Kohn-Sham states=         1229
     kinetic-energy cutoff     =      70.0000  Ry
     charge density cutoff     =     350.0000  Ry
     scf convergence threshold =      1.0E-08
     mixing beta               =       0.7000
     number of iterations used =            8  plain     mixing
     Exchange-correlation= BEEF-VDW
                           (   1   4  43  14   2   0   0)

     celldm(1)=  27.002699  celldm(2)=   0.000000  celldm(3)=   0.000000
     celldm(4)=   0.000000  celldm(5)=   0.000000  celldm(6)=   0.000000

     crystal axes: (cart. coord. in units of alat)
               a(1) = (   1.000000   0.000000   0.000000 )
               a(2) = (   0.000000   1.000000   0.000000 )
               a(3) = (   0.000000   0.000000   1.000000 )

     reciprocal axes: (cart. coord. in units 2 pi/alat)
               b(1) = (  1.000000  0.000000  0.000000 )
               b(2) = (  0.000000  1.000000  0.000000 )
               b(3) = (  0.000000  0.000000  1.000000 )

     PseudoPot. # 1 for C  read from file:
     /trace/group/acmegroup/atimmins/packages/espresso/pseudo/psl_1.0.0/pslibrary.1.0.0/pbe/PSEUDOPOTENTIALS/C.pbe-n-kjpaw_psl.1.0.0.UPF
     MD5 check sum: 5459cf7f2c8c37df2f7cde8914797f4d
     Pseudo is Projector augmented-wave + core cor, Zval =  4.0
     Generated using 'atomic' code by A. Dal Corso  v.7.1
     Shape of augmentation charge: PSQ
     Using radial grid of 1073 points,  4 beta functions with:
                l(1) =   0
                l(2) =   0
                l(3) =   1
                l(4) =   1
     Q(r) pseudized with 0 coefficients

     atomic species   valence    mass     pseudopotential
        C              4.00    12.01100     C ( 1.00)

     24 Sym. Ops. (no inversion) found

                                    s                        frac. trans.

      isym =  1     identity

 cryst.   s( 1) = (     1          0          0      )
                  (     0          1          0      )
                  (     0          0          1      )

 cart.    s( 1) = (  1.0000000  0.0000000  0.0000000 )
                  (  0.0000000  1.0000000  0.0000000 )
                  (  0.0000000  0.0000000  1.0000000 )

      isym =  2     180 deg rotation - cart. axis [0,0,1]

[...]

 cryst.   s( 9) = (     0          1          0      )
                  (     0          0          1      )
                  (     1          0          0      )

 cart.    s( 9) = (  0.0000000  0.0000000  1.0000000 )
                  (  1.0000000  0.0000000  0.0000000 )
                  (  0.0000000  1.0000000  0.0000000 )

[...]

 cryst.   s(10) = (     0         -1          0      )
                  (     0          0         -1      )
                  (     1          0          0      )

 cart.    s(10) = (  0.0000000  0.0000000  1.0000000 )
                  ( -1.0000000  0.0000000  0.0000000 )
                  (  0.0000000 -1.0000000  0.0000000 )

[...]

      isym = 12     120 deg rotation - cart. axis [-1,-1,1]

[...]

      isym = 13     inv. 180 deg rotation - cart. axis [1,1,0]

[...]

      isym = 24     inv.  90 deg rotation - cart. axis [1,0,0]

 cryst.   s(24) = (    -1          0          0      )
                  (     0          0         -1      )
                  (     0          1          0      )

 cart.    s(24) = ( -1.0000000  0.0000000  0.0000000 )
                  (  0.0000000  0.0000000  1.0000000 )
                  (  0.0000000 -1.0000000  0.0000000 )

     point group T_d (-43m)
     there are  5 classes
     the character table:

       E     8C3   3C2   6S4   6s_d
A_1    1.00  1.00  1.00  1.00  1.00
A_2    1.00  1.00  1.00 -1.00 -1.00
E      2.00 -1.00  2.00  0.00  0.00
T_1    3.00  0.00 -1.00  1.00 -1.00
T_2    3.00  0.00 -1.00 -1.00  1.00

     the symmetry operations in each class and the name of the first element:

     E        1
          identity
     8C3      5    7    8    6   12    9   10   11
          120 deg rotation - cart. axis [-1,-1,-1]
     3C2      2    3    4
          180 deg rotation - cart. axis [0,0,1]
     6S4     15   16   20   19   23   24
          inv.  90 deg rotation - cart. axis [0,0,-1]
     6s_d    13   14   17   18   21   22
          inv. 180 deg rotation - cart. axis [1,1,0]

   Cartesian axes

     site n.     atom                  positions (alat units)
         1           C   tau(   1) = (   0.0625015   0.1874985   0.0625015  )
         2           C   tau(   2) = (   0.0625015   0.1874985   0.3125015  )
         3           C   tau(   3) = (   0.0625015   0.1874985   0.5625015  )
         4           C   tau(   4) = (   0.0625015   0.1874985   0.8125015  )
         5           C   tau(   5) = (   0.0625015   0.4374985   0.0625015  )
         6           C   tau(   6) = (   0.0625015   0.4374985   0.3125015  )
         7           C   tau(   7) = (   0.0625015   0.4374985   0.5625015  )
         8           C   tau(   8) = (   0.0625015   0.4374985   0.8125015  )
         9           C   tau(   9) = (   0.0625015   0.6874985   0.0625015  )
        10           C   tau(  10) = (   0.0625015   0.6874985   0.3125015  )
        11           C   tau(  11) = (   0.0625015   0.6874985   0.5625015  )
        12           C   tau(  12) = (   0.0625015   0.6874985   0.8125015  )
        13           C   tau(  13) = (   0.0625015   0.9374985   0.0625015  )
        14           C   tau(  14) = (   0.0625015   0.9374985   0.3125015  )
        15           C   tau(  15) = (   0.0625015   0.9374985   0.5625015  )
        16           C   tau(  16) = (   0.0625015   0.9374985   0.8125015  )
        17           C   tau(  17) = (   0.3125015   0.1874985   0.0625015  )
        18           C   tau(  18) = (   0.3125015   0.1874985   0.3125015  )
        19           C   tau(  19) = (   0.3125015   0.1874985   0.5625015  )
        20           C   tau(  20) = (   0.3125015   0.1874985   0.8125015  )
        21           C   tau(  21) = (   0.3125015   0.4374985   0.0625015  )
        22           C   tau(  22) = (   0.3125015   0.4374985   0.3125015  )
        23           C   tau(  23) = (   0.3125015   0.4374985   0.5625015  )
        24           C   tau(  24) = (   0.3125015   0.4374985   0.8125015  )
        25           C   tau(  25) = (   0.3125015   0.6874985   0.0625015  )
        26           C   tau(  26) = (   0.3125015   0.6874985   0.3125015  )
        27           C   tau(  27) = (   0.3125015   0.6874985   0.5625015  )
        28           C   tau(  28) = (   0.3125015   0.6874985   0.8125015  )
        29           C   tau(  29) = (   0.3125015   0.9374985   0.0625015  )
        30           C   tau(  30) = (   0.3125015   0.9374985   0.3125015  )
        31           C   tau(  31) = (   0.3125015   0.9374985   0.5625015  )
        32           C   tau(  32) = (   0.3125015   0.9374985   0.8125015  )
        33           C   tau(  33) = (   0.5625015   0.1874985   0.0625015  )
        34           C   tau(  34) = (   0.5625015   0.1874985   0.3125015  )
        35           C   tau(  35) = (   0.5625015   0.1874985   0.5625015  )
        36           C   tau(  36) = (   0.5625015   0.1874985   0.8125015  )
        37           C   tau(  37) = (   0.5625015   0.4374985   0.0625015  )
        38           C   tau(  38) = (   0.5625015   0.4374985   0.3125015  )
        39           C   tau(  39) = (   0.5625015   0.4374985   0.5625015  )
        40           C   tau(  40) = (   0.5625015   0.4374985   0.8125015  )
        41           C   tau(  41) = (   0.5625015   0.6874985   0.0625015  )
        42           C   tau(  42) = (   0.5625015   0.6874985   0.3125015  )
        43           C   tau(  43) = (   0.5625015   0.6874985   0.5625015  )
        44           C   tau(  44) = (   0.5625015   0.6874985   0.8125015  )
        45           C   tau(  45) = (   0.5625015   0.9374985   0.0625015  )
        46           C   tau(  46) = (   0.5625015   0.9374985   0.3125015  )
        47           C   tau(  47) = (   0.5625015   0.9374985   0.5625015  )
        48           C   tau(  48) = (   0.5625015   0.9374985   0.8125015  )
        49           C   tau(  49) = (   0.8125015   0.1874985   0.0625015  )
        50           C   tau(  50) = (   0.8125015   0.1874985   0.3125015  )
        51           C   tau(  51) = (   0.8125015   0.1874985   0.5625015  )
        52           C   tau(  52) = (   0.8125015   0.1874985   0.8125015  )
        53           C   tau(  53) = (   0.8125015   0.4374985   0.0625015  )
        54           C   tau(  54) = (   0.8125015   0.4374985   0.3125015  )
        55           C   tau(  55) = (   0.8125015   0.4374985   0.5625015  )
        56           C   tau(  56) = (   0.8125015   0.4374985   0.8125015  )
        57           C   tau(  57) = (   0.8125015   0.6874985   0.0625015  )
        58           C   tau(  58) = (   0.8125015   0.6874985   0.3125015  )
        59           C   tau(  59) = (   0.8125015   0.6874985   0.5625015  )
        60           C   tau(  60) = (   0.8125015   0.6874985   0.8125015  )
[...]
       498           C   tau( 498) = (   0.8750000   0.1250000   0.3750000  )
       499           C   tau( 499) = (   0.8750000   0.1250000   0.6250000  )
       500           C   tau( 500) = (   0.8750000   0.1250000   0.8750000  )
       501           C   tau( 501) = (   0.8750000   0.3750000   0.1250000  )
       502           C   tau( 502) = (   0.8750000   0.3750000   0.3750000  )
       503           C   tau( 503) = (   0.8750000   0.3750000   0.6250000  )
       504           C   tau( 504) = (   0.8750000   0.3750000   0.8750000  )
       505           C   tau( 505) = (   0.8750000   0.6250000   0.1250000  )
       506           C   tau( 506) = (   0.8750000   0.6250000   0.3750000  )
[...]
     atom   25 type  1   force =     0.00000000    0.00000000    0.00000000
     atom   26 type  1   force =     0.00000000    0.00000000    0.00000000
     atom   27 type  1   force =     0.00000000    0.00000000    0.00000000
     atom   28 type  1   force =     0.00000000    0.00000000    0.00000000
     atom   29 type  1   force =     0.00000000    0.00000000    0.00000000
     atom   30 type  1   force =     0.00000000    0.00000000    0.00000000
     atom   31 type  1   force =     0.00000000    0.00000000    0.00000000
     atom   32 type  1   force =     0.00000000    0.00000000    0.00000000
     atom   33 type  1   force =     0.00000000    0.00000000    0.00000000
     atom   34 type  1   force =     0.00000000    0.00000000    0.00000000
     atom   35 type  1   force =     0.00000000    0.00000000    0.00000000
     atom   36 type  1   force =     0.00000000    0.00000000    0.00000000
     atom   37 type  1   force =     0.00000000    0.00000000    0.00000000
     atom   38 type  1   force =     0.00000000    0.00000000    0.00000000
     atom   39 type  1   force =     0.00000000    0.00000000    0.00000000
     atom   40 type  1   force =     0.00000000    0.00000000    0.00000000
     atom   41 type  1   force =     0.00000000    0.00000000    0.00000000
     atom   42 type  1   force =     0.00000000    0.00000000    0.00000000
     atom   43 type  1   force =     0.00000000    0.00000000    0.00000000
     atom   44 type  1   force =     0.00000000    0.00000000    0.00000000
     atom   45 type  1   force =     0.00000000    0.00000000    0.00000000
     atom   46 type  1   force =     0.00000000    0.00000000    0.00000000
     atom   47 type  1   force =     0.00000000    0.00000000    0.00000000
     atom   48 type  1   force =     0.00000000    0.00000000    0.00000000
     atom   49 type  1   force =     0.00000000    0.00000000    0.00000000
     atom   50 type  1   force =     0.00000000    0.00000000    0.00000000
     atom   51 type  1   force =     0.00000000    0.00000000    0.00000000
     atom   52 type  1   force =     0.00000000    0.00000000    0.00000000
     atom   53 type  1   force =     0.00000000    0.00000000    0.00000000
     atom   54 type  1   force =     0.00000000    0.00000000    0.00000000
     atom   55 type  1   force =     0.00000000    0.00000000    0.00000000
     atom   56 type  1   force =     0.00000000    0.00000000    0.00000000
     atom   57 type  1   force =     0.00000000    0.00000000    0.00000000
     atom   58 type  1   force =     0.00000000    0.00000000    0.00000000
     atom   59 type  1   force =     0.00000000    0.00000000    0.00000000
     atom   60 type  1   force =     0.00000000    0.00000000    0.00000000
[...]
     atom  498 type  1   force =     0.00000000    0.00000000    0.00000000
     atom  499 type  1   force =     0.00000000    0.00000000    0.00000000
     atom  500 type  1   force =     0.00000000    0.00000000    0.00000000
     atom  501 type  1   force =     0.00000000    0.00000000    0.00000000
     atom  502 type  1   force =     0.00000000    0.00000000    0.00000000
     atom  503 type  1   force =     0.00000000    0.00000000    0.00000000
     atom  504 type  1   force =     0.00000000    0.00000000    0.00000000
     atom  505 type  1   force =     0.00000000    0.00000000    0.00000000
     atom  506 type  1   force =     0.00000000    0.00000000    0.00000000
     atom  507 type  1   force =     0.00000000    0.00000000    0.00000000
     atom  508 type  1   force =     0.00000000    0.00000000    0.00000000
     atom  509 type  1   force =     0.00000000    0.00000000    0.00000000
     atom  510 type  1   force =     0.00000000    0.00000000    0.00000000
     atom  511 type  1   force =     0.00000000    0.00000000    0.00000000
     atom  512 type  1   force =     0.00000000    0.00000000    0.00000000
     The SCF correction term to forces
     atom    1 type  1   force =    -0.00000202   -0.00000168   -0.00000202
     atom    2 type  1   force =     0.00000038    0.00000073    0.00000015
     atom    3 type  1   force =     0.00000166    0.00000085    0.00000151
     atom    4 type  1   force =     0.00000617   -0.00000084    0.00000084
     atom    5 type  1   force =     0.00000170    0.00000053    0.00000170
     atom    6 type  1   force =     0.00000262   -0.00000095    0.00000000
     atom    7 type  1   force =     0.00000371   -0.00000188    0.00000188
     atom    8 type  1   force =     0.00000166   -0.00000151   -0.00000085
     atom    9 type  1   force =     0.00000274    0.00000368    0.00000274
     atom   10 type  1   force =     0.00000489    0.00000133   -0.00000133
     atom   11 type  1   force =     0.00000262   -0.00000000    0.00000095
     atom   12 type  1   force =     0.00000038   -0.00000015   -0.00000073
     atom   13 type  1   force =     0.00000169   -0.00000169    0.00000169
     atom   14 type  1   force =     0.00000274   -0.00000274   -0.00000368
     atom   15 type  1   force =     0.00000170   -0.00000170   -0.00000053
     atom   16 type  1   force =    -0.00000202    0.00000202    0.00000168
     atom   17 type  1   force =     0.00000015    0.00000073    0.00000038
     atom   18 type  1   force =     0.00000195    0.00000639    0.00000195
     atom   19 type  1   force =     0.00000086    0.00000324    0.00000170
     atom   20 type  1   force =    -0.00000458    0.00000209   -0.00000209
     atom   21 type  1   force =     0.00000000   -0.00000095    0.00000262
     atom   22 type  1   force =     0.00000376   -0.00000301    0.00000376
     atom   23 type  1   force =     0.00000601    0.00000196   -0.00000196
     atom   24 type  1   force =     0.00000086   -0.00000170   -0.00000324
     atom   25 type  1   force =    -0.00000133    0.00000133    0.00000489
     atom   26 type  1   force =    -0.00000005    0.00000005   -0.00000005
     atom   27 type  1   force =     0.00000376   -0.00000376    0.00000301
     atom   28 type  1   force =     0.00000195   -0.00000195   -0.00000639
     atom   29 type  1   force =    -0.00000368   -0.00000274    0.00000274
     atom   30 type  1   force =    -0.00000133   -0.00000489   -0.00000133
     atom   31 type  1   force =     0.00000000   -0.00000262    0.00000095
     atom   32 type  1   force =     0.00000015   -0.00000038   -0.00000073
     atom   33 type  1   force =     0.00000151    0.00000085    0.00000166
     atom   34 type  1   force =     0.00000170    0.00000324    0.00000086
     atom   35 type  1   force =     0.00000119    0.00000696    0.00000119
     atom   36 type  1   force =     0.00000148    0.00000311   -0.00000311
     atom   37 type  1   force =     0.00000188   -0.00000188    0.00000371
     atom   38 type  1   force =    -0.00000196    0.00000196    0.00000601
     atom   39 type  1   force =    -0.00000058    0.00000058   -0.00000058
     atom   40 type  1   force =     0.00000119   -0.00000119   -0.00000696
     atom   41 type  1   force =     0.00000095   -0.00000000    0.00000262
     atom   42 type  1   force =     0.00000301   -0.00000376    0.00000376
     atom   43 type  1   force =    -0.00000196   -0.00000601   -0.00000196
     atom   44 type  1   force =     0.00000170   -0.00000086   -0.00000324
     atom   45 type  1   force =    -0.00000053   -0.00000170    0.00000170
     atom   46 type  1   force =     0.00000095   -0.00000262    0.00000000
     atom   47 type  1   force =     0.00000188   -0.00000371    0.00000188
     atom   48 type  1   force =     0.00000151   -0.00000166   -0.00000085
     atom   49 type  1   force =     0.00000084   -0.00000084    0.00000617
     atom   50 type  1   force =    -0.00000209    0.00000209   -0.00000458
     atom   51 type  1   force =    -0.00000311    0.00000311    0.00000148
     atom   52 type  1   force =    -0.00000189    0.00000189   -0.00000189
     atom   53 type  1   force =    -0.00000085   -0.00000151    0.00000166
     atom   54 type  1   force =    -0.00000324   -0.00000170    0.00000086
     atom   55 type  1   force =    -0.00000696   -0.00000119    0.00000119
     atom   56 type  1   force =    -0.00000311   -0.00000148   -0.00000311
     atom   57 type  1   force =    -0.00000073   -0.00000015    0.00000038
     atom   58 type  1   force =    -0.00000639   -0.00000195    0.00000195
     atom   59 type  1   force =    -0.00000324   -0.00000086    0.00000170
     atom   60 type  1   force =    -0.00000209    0.00000458   -0.00000209
[...]
     atom  498 type  1   force =    -0.00000268    0.00000268   -0.00000334
     atom  499 type  1   force =    -0.00000196    0.00000196    0.00000033
     atom  500 type  1   force =     0.00000162   -0.00000162    0.00000162
     atom  501 type  1   force =    -0.00000268   -0.00000334    0.00000268
     atom  502 type  1   force =    -0.00000424   -0.00000197   -0.00000197
     atom  503 type  1   force =    -0.00000563   -0.00000067    0.00000067
     atom  504 type  1   force =    -0.00000196   -0.00000033   -0.00000196
     atom  505 type  1   force =    -0.00000196    0.00000033    0.00000196
     atom  506 type  1   force =    -0.00000563    0.00000067   -0.00000067
     atom  507 type  1   force =    -0.00000424    0.00000197    0.00000197
     atom  508 type  1   force =    -0.00000268    0.00000334   -0.00000268
     atom  509 type  1   force =     0.00000162    0.00000162   -0.00000162
     atom  510 type  1   force =    -0.00000196   -0.00000196   -0.00000033
     atom  511 type  1   force =    -0.00000268   -0.00000268    0.00000334
     atom  512 type  1   force =    -0.00000215   -0.00000215   -0.00000215

     Total force =     0.011770     Total SCF correction =     0.000099

     Computing stress (Cartesian axis) and pressure

[...]

          total   stress  (Ry/bohr**3)                   (kbar)     P=        0.02
   0.00000015   0.00000000   0.00000000            0.02        0.00        0.00
   0.00000000   0.00000015   0.00000000            0.00        0.02        0.00
   0.00000000   0.00000000   0.00000015            0.00        0.00        0.02

     kinetic stress (kbar)  18999.87      0.00      0.00
                                0.00  18999.87      0.00
                                0.00      0.00  18999.87

     local   stress (kbar)  -3484.16     -0.00     -0.00
                               -0.00  -3484.16     -0.00
                               -0.00     -0.00  -3484.16

     nonloc. stress (kbar)   4322.09      0.00      0.00
                                0.00   4322.09      0.00
                                0.00      0.00   4322.09

     hartree stress (kbar)   1267.23     -0.00      0.00
                               -0.00   1267.23      0.00
                                0.00      0.00   1267.23

     exc-cor stress (kbar)   -414.52      0.00      0.00
                                0.00   -414.52      0.00
                                0.00      0.00   -414.52

     corecor stress (kbar)  -4435.15     -0.00     -0.00
                               -0.00  -4435.15     -0.00
                               -0.00     -0.00  -4435.15

     ewald   stress (kbar) -16280.15      0.00      0.00
                                0.00 -16280.15      0.00
                                0.00      0.00 -16280.15

     hubbard stress (kbar)      0.00      0.00      0.00
                                0.00      0.00      0.00
                                0.00      0.00      0.00

     DFT-D   stress (kbar)      0.00      0.00      0.00
                                0.00      0.00      0.00
                                0.00      0.00      0.00

     XDM     stress (kbar)      0.00      0.00      0.00
                                0.00      0.00      0.00
                                0.00      0.00      0.00

     dft-nl  stress (kbar)     24.82     -0.00     -0.00
                               -0.00     24.82     -0.00
                               -0.00     -0.00     24.82

     TS-vdW  stress (kbar)      0.00      0.00      0.00
                                0.00      0.00      0.00
                                0.00      0.00      0.00

     MDB     stress (kbar)      0.00      0.00      0.00
                                0.00      0.00      0.00
                                0.00      0.00      0.00

     3D-RISM stress (kbar)      0.00      0.00      0.00
                                0.00      0.00      0.00
                                0.00      0.00      0.00

[...]

     Non-local corr. energy    =      17.50337254 Ry

 BEEFens 2000 ensemble energies
             -0.309821091533872E+02
             -0.215849105482930E+03
             -0.766242487733247E+02
              0.847386916982405E+02
             -0.142763526406812E+03
             -0.199715431622207E+03
              0.118222348348534E+03
             -0.244987952669931E+02
              0.164073753526815E+03
             -0.271556314075281E+01
              0.667114841935653E+02
              0.335588131493176E+01
              0.922441926721933E+01
             -0.194519774007208E+02
              0.111082851926883E+03
             -0.830586564277559E+02
             -0.190576852566509E+03
             -0.528328716627393E+02
              0.430594345071783E+02
              0.463567022905318E+01
              0.228064263116163E+03
              0.206826112996989E+03
             -0.101639154846478E+03
              0.570510175061102E+02
             -0.259120864645387E+03
              0.208688013751373E+03
              0.746872794091904E+02
              0.219699186354021E+03
              0.138602438758407E+03
             -0.865712130635582E+02
              0.540681015175796E+02
             -0.112461674772279E+03
              0.334468645289701E+01
              0.110556468073946E+03
              0.142648851836049E+03
             -0.351438715174281E+02
              0.307516457616611E+03
             -0.107672837784257E+03
             -0.778632781273767E+02
              0.119176669163453E+03
              0.410663124727905E+02
              0.100303739862692E+03
             -0.175238457778168E+03
             -0.720604832080267E+01
              0.185730883897904E+03
              0.226560164403151E+03
             -0.205333120070107E+03
              0.169943870746436E+02
              0.809411658636009E+02
              0.189132704528731E+02
              0.989882721378868E+02
              0.198623151623658E+03
             -0.133079478785934E+03
             -0.139994414531459E+03
             -0.177468899621861E+03
             -0.489043668437052E+02
             -0.148192924904023E+03
              0.791643454248322E+01
             -0.393870941217617E+02
             -0.134409942815694E+03
[...]
              0.174319041980283E+03
              0.713139776520231E+02
              0.121539103498752E+03
             -0.174024221662018E+03
             -0.135634844211495E+03
             -0.551843928604995E+02
             -0.149155348038290E+03
              0.268801819015505E+03
              0.230558020429827E+03
              0.100206047675899E+03
              0.271837810990087E+03
             -0.145823881802332E+03
             -0.701329349311904E+02
             -0.724051901283981E+02
              0.214488306213811E+03

 BEEF-vdW xc energy contributions
            1 :    -2096.409484080661
            2 :     1849.812375660393
            3 :    -1424.549089268887
            4 :     930.8539944961653
            5 :    -481.2922942842438
            6 :     153.5795692003512
            7 :     28.90480233554945
            8 :    -92.93405599156677
            9 :     92.58726589409162
           10 :    -80.39836265873373
           11 :     86.09646758705003
           12 :    -110.9600815682447
           13 :     137.1534776556155
           14 :    -144.3137654919365
           15 :     123.4632585126824
           16 :    -81.49120654132548
           17 :     35.60496244799970
           18 :    -2.643951770767217
           19 :    -9.853015672840684
           20 :     6.020372972745918
           21 :     2.882292180825516
           22 :    -6.294923264429599
           23 :    0.4502117539636856
           24 :     10.56596456727766
           25 :    -18.68818308560321
           26 :     17.67505056563868
           27 :    -7.070358272649173
           28 :    -7.879790189711002
           29 :     19.84697026895992
           30 :    -23.97084823503610
           31 :    -274.2490050778829
           32 :    -199.0192914653226

     Writing all to output data dir ./diamond.save/

     General routines

     Parallel routines

     PAW routines

   This run was terminated on:   7:15:14   1Oct2023

   JOB DONE.