     Program PWSCF v.7.1 starts on 18Mar2024 at 14:28: 8

     Reading input from espresso.pwi
Warning: card &CELL ignored
Warning: card    CELL_DYNAMICS    = 'BFGS' ignored
Warning: card / ignored

     Current dimensions of program PWSCF are:
     Max number of different atomic species (ntypx) = 10
     Max number of k-points (npk) =  40000
     Max angular momentum in pseudopotentials (lmaxx) =  4
     file Pb.pbe-dn-kjpaw_psl.1.0.0.UPF: wavefunction(s)  6S 6P 5D renormalized
     file I.pbe-dn-kjpaw_psl.1.0.0.UPF: wavefunction(s)  5S 5P renormalized

     IMPORTANT: XC functional enforced from input :
     Exchange-correlation= BEEF-VDW
                           (   1   4  43  14   2   0   0)
     Any further DFT definition will be discarded
     Please, verify this is what you really want

     R & G space division:  proc/nbgrp/npool/nimage =     256
     wavefunctions fft division:  task group distribution
                                  #TG    x Z-proc =       8     32
     Subspace diagonalization in iterative solution of the eigenvalue problem:
     a serial algorithm will be used

     Using Pencil Decomposition

     bravais-lattice index     =            4
     lattice parameter (alat)  =      35.6120  a.u.
     unit-cell volume          =   45937.3577 (a.u.)^3
     number of atoms/cell      =          143
     number of atomic types    =            2
     number of electrons       =      2288.00
     number of Kohn-Sham states=         1373
     kinetic-energy cutoff     =      70.0000  Ry
     charge density cutoff     =     350.0000  Ry
     scf convergence threshold =      1.0E-07
     mixing beta               =       0.7000
     number of iterations used =            8  plain     mixing
     energy convergence thresh.=      1.0E-04
     force convergence thresh. =      1.0E-03
     Exchange-correlation= BEEF-VDW
                           (   1   4  43  14   2   0   0)
     nstep                     =           50

     celldm(1)=  35.612033  celldm(2)=   0.000000  celldm(3)=   1.174479
     celldm(4)=   0.000000  celldm(5)=   0.000000  celldm(6)=   0.000000

     crystal axes: (cart. coord. in units of alat)
               a(1) = (   1.000000   0.000000   0.000000 )
               a(2) = (  -0.500000   0.866025   0.000000 )
               a(3) = (   0.000000   0.000000   1.174479 )

     reciprocal axes: (cart. coord. in units 2 pi/alat)
               b(1) = (  1.000000  0.577350 -0.000000 )
               b(2) = (  0.000000  1.154701  0.000000 )
               b(3) = (  0.000000 -0.000000  0.851442 )

     PseudoPot. # 1 for Pb read from file:
     /trace/group/acmegroup/atimmins/packages/espresso/pseudo/psl_1.0.0/pslibrary.1.0.0/pbe/PSEUDOPOTENTIALS/Pb.pbe-dn-kjpaw_psl.1.0.0.UPF
     MD5 check sum: 39ab5b8a6bbd56b7735ad9f188aac93a
     Pseudo is Projector augmented-wave + core cor, Zval = 14.0
     Generated using 'atomic' code by A. Dal Corso  v.7.1
     Shape of augmentation charge: PSQ
     Using radial grid of 1281 points,  6 beta functions with:
                l(1) =   0
                l(2) =   0
                l(3) =   1
                l(4) =   1
                l(5) =   2
                l(6) =   2
     Q(r) pseudized with 0 coefficients

     PseudoPot. # 2 for I  read from file:
     /trace/group/acmegroup/atimmins/packages/espresso/pseudo/psl_1.0.0/pslibrary.1.0.0/pbe/PSEUDOPOTENTIALS/I.pbe-dn-kjpaw_psl.1.0.0.UPF
     MD5 check sum: bfa8781bc1224d19af3f3980e3fab11e
     Pseudo is Projector augmented-wave + core cor, Zval = 17.0
     Generated using 'atomic' code by A. Dal Corso  v.7.1
     Shape of augmentation charge: PSQ
     Using radial grid of 1247 points,  6 beta functions with:
                l(1) =   0
                l(2) =   0
                l(3) =   1
                l(4) =   1
                l(5) =   2
                l(6) =   2
     Q(r) pseudized with 0 coefficients

     atomic species   valence    mass     pseudopotential
        Pb            14.00   207.20000     Pb( 1.00)
        I             17.00   126.90447     I ( 1.00)

     No symmetry found

                                    s                        frac. trans.

      isym =  1     identity

 cryst.   s( 1) = (     1          0          0      )
                  (     0          1          0      )
                  (     0          0          1      )

 cart.    s( 1) = (  1.0000000  0.0000000  0.0000000 )
                  (  0.0000000  1.0000000  0.0000000 )
                  (  0.0000000  0.0000000  1.0000000 )

     point group C_1 (1)
     there are  1 classes
     the character table:

       E
A      1.00

     the symmetry operations in each class and the name of the first element:

     E        1
          identity

   Cartesian axes

     site n.     atom                  positions (alat units)
         1           Pb  tau(   1) = (   0.1250136   0.2164827   1.1744753  )
         2           Pb  tau(   2) = (   0.1250034   0.2164918   0.3914896  )
         3           Pb  tau(   3) = (   0.1250085   0.2164873   0.7829825  )
         4           Pb  tau(   4) = (   0.0000128   0.4329881   1.1744712  )
         5           Pb  tau(   5) = (   0.0000026   0.4329971   0.3914855  )
         6           Pb  tau(   6) = (   0.0000077   0.4329926   0.7829784  )
         7           Pb  tau(   7) = (  -0.1249881   0.6494934   1.1744671  )
         8           Pb  tau(   8) = (  -0.1249983   0.6495025   0.3914814  )
         9           Pb  tau(   9) = (  -0.1249932   0.6494980   0.7829742  )
        10           Pb  tau(  10) = (  -0.2499889   0.8659988   1.1744630  )
        11           Pb  tau(  11) = (  -0.2499991   0.8660078   0.3914773  )
        12           Pb  tau(  12) = (  -0.2499940   0.8660033   0.7829701  )
        13           Pb  tau(  13) = (   0.3750136   0.2164818   1.1744786  )
        14           Pb  tau(  14) = (   0.3750034   0.2164908   0.3914929  )
        15           Pb  tau(  15) = (   0.3750085   0.2164863   0.7829857  )
        16           Pb  tau(  16) = (   0.2500128   0.4329871   1.1744745  )
        17           Pb  tau(  17) = (   0.2500026   0.4329962   0.3914888  )
        18           Pb  tau(  18) = (   0.2500077   0.4329916   0.7829816  )
        19           Pb  tau(  19) = (   0.1250119   0.6494925   1.1744703  )
        20           Pb  tau(  20) = (   0.1250017   0.6495015   0.3914847  )
        21           Pb  tau(  21) = (   0.1250068   0.6494970   0.7829775  )
        22           Pb  tau(  22) = (   0.0000111   0.8659978   1.1744662  )
        23           Pb  tau(  23) = (   0.0000009   0.8660069   0.3914805  )
        24           Pb  tau(  24) = (   0.0000060   0.8660024   0.7829734  )
        25           Pb  tau(  25) = (   0.6250136   0.2164808   1.1744818  )
        26           Pb  tau(  26) = (   0.6250034   0.2164898   0.3914962  )
        27           Pb  tau(  27) = (   0.6250085   0.2164853   0.7829890  )
        28           Pb  tau(  28) = (   0.5000128   0.4329862   1.1744777  )
        29           Pb  tau(  29) = (   0.5000026   0.4329952   0.3914920  )
        30           Pb  tau(  30) = (   0.5000077   0.4329907   0.7829849  )
        31           Pb  tau(  31) = (   0.3750119   0.6494915   1.1744736  )
        32           Pb  tau(  32) = (   0.3750017   0.6495006   0.3914879  )
        33           Pb  tau(  33) = (   0.3750068   0.6494960   0.7829808  )
        34           Pb  tau(  34) = (   0.2500111   0.8659969   1.1744695  )
        35           Pb  tau(  35) = (   0.2500009   0.8660059   0.3914838  )
        36           Pb  tau(  36) = (   0.2500060   0.8660014   0.7829766  )
        37           Pb  tau(  37) = (   0.8750136   0.2164798   1.1744851  )
        38           Pb  tau(  38) = (   0.8750034   0.2164889   0.3914994  )
        39           Pb  tau(  39) = (   0.8750085   0.2164844   0.7829923  )
        40           Pb  tau(  40) = (   0.7500128   0.4329852   1.1744810  )
        41           Pb  tau(  41) = (   0.7500026   0.4329942   0.3914953  )
        42           Pb  tau(  42) = (   0.7500077   0.4329897   0.7829881  )
        43           Pb  tau(  43) = (   0.6250119   0.6494906   1.1744769  )
        44           Pb  tau(  44) = (   0.6250017   0.6494996   0.3914912  )
        45           Pb  tau(  45) = (   0.6250068   0.6494951   0.7829840  )
        46           Pb  tau(  46) = (   0.5000111   0.8659959   1.1744727  )
        47           Pb  tau(  47) = (   0.5000009   0.8660050   0.3914870  )
        48           Pb  tau(  48) = (   0.5000060   0.8660004   0.7829799  )
        49           I   tau(  49) = (   0.1250105   0.0721505   0.6824253  )
        50           I   tau(  50) = (   0.1250156   0.0721459   1.0739182  )
        51           I   tau(  51) = (   0.0000045   0.2886603   0.2909283  )
        52           I   tau(  52) = (   0.0000096   0.2886558   0.6824212  )
        53           I   tau(  53) = (   0.0000147   0.2886513   1.0739140  )
        54           I   tau(  54) = (  -0.1249963   0.5051657   0.2909242  )
        55           I   tau(  55) = (  -0.1249912   0.5051612   0.6824171  )
        56           I   tau(  56) = (  -0.1249861   0.5051566   1.0739099  )
        57           I   tau(  57) = (  -0.2499971   0.7216710   0.2909201  )
        58           I   tau(  58) = (  -0.2499920   0.7216665   0.6824129  )
        59           I   tau(  59) = (  -0.2499869   0.7216620   1.0739058  )
        60           I   tau(  60) = (   0.3750054   0.0721540   0.2909357  )
[...]
       129           I   tau( 129) = (   0.1249958   0.7938439   0.1005496  )
       130           I   tau( 130) = (   0.1250009   0.7938394   0.4920425  )
       131           I   tau( 131) = (   0.1250060   0.7938348   0.8835353  )
       132           I   tau( 132) = (   0.7499983   0.1443268   0.1005653  )
       133           I   tau( 133) = (   0.7500034   0.1443223   0.4920581  )
       134           I   tau( 134) = (   0.7500085   0.1443178   0.8835509  )
       135           I   tau( 135) = (   0.6249975   0.3608322   0.1005611  )
       136           I   tau( 136) = (   0.6250026   0.3608277   0.4920540  )
       137           I   tau( 137) = (   0.6250077   0.3608232   0.8835468  )
       138           I   tau( 138) = (   0.4999966   0.5773376   0.1005570  )
       139           I   tau( 139) = (   0.5000017   0.5773330   0.4920499  )
       140           I   tau( 140) = (   0.5000068   0.5773285   0.8835427  )
       141           I   tau( 141) = (   0.3749958   0.7938429   0.1005529  )
       142           I   tau( 142) = (   0.3750009   0.7938384   0.4920457  )
       143           I   tau( 143) = (   0.3750060   0.7938339   0.8835386  )

   Crystallographic axes

     site n.     atom                  positions (cryst. coord.)
         1           Pb  tau(   1) = (  0.2500000  0.2499727  0.9999973  )
         2           Pb  tau(   2) = (  0.2499950  0.2499832  0.3333306  )
         3           Pb  tau(   3) = (  0.2499975  0.2499780  0.6666639  )
         4           Pb  tau(   4) = (  0.2499986  0.4999716  0.9999938  )
         5           Pb  tau(   5) = (  0.2499936  0.4999820  0.3333271  )
[...]
     atom   56 type  2   force =     0.00000000    0.00000000    0.00000000
     atom   57 type  2   force =     0.00000000    0.00000000    0.00000000
     atom   58 type  2   force =     0.00000000    0.00000000    0.00000000
     atom   59 type  2   force =     0.00000000    0.00000000    0.00000000
     atom   60 type  2   force =     0.00000000    0.00000000    0.00000000
[...]
     atom  129 type  2   force =     0.00000000    0.00000000    0.00000000
     atom  130 type  2   force =     0.00000000    0.00000000    0.00000000
     atom  131 type  2   force =     0.00000000    0.00000000    0.00000000
     atom  132 type  2   force =     0.00000000    0.00000000    0.00000000
     atom  133 type  2   force =     0.00000000    0.00000000    0.00000000
     atom  134 type  2   force =     0.00000000    0.00000000    0.00000000
     atom  135 type  2   force =     0.00000000    0.00000000    0.00000000
     atom  136 type  2   force =     0.00000000    0.00000000    0.00000000
     atom  137 type  2   force =     0.00000000    0.00000000    0.00000000
     atom  138 type  2   force =     0.00000000    0.00000000    0.00000000
     atom  139 type  2   force =     0.00000000    0.00000000    0.00000000
     atom  140 type  2   force =     0.00000000    0.00000000    0.00000000
     atom  141 type  2   force =     0.00000000    0.00000000    0.00000000
     atom  142 type  2   force =     0.00000000    0.00000000    0.00000000
     atom  143 type  2   force =     0.00000000    0.00000000    0.00000000
     The SCF correction term to forces
     atom    1 type  1   force =    -0.00000021    0.00000634   -0.00000130
     atom    2 type  1   force =    -0.00000096   -0.00000399   -0.00000936
     atom    3 type  1   force =    -0.00000015    0.00001254    0.00000181
     atom    4 type  1   force =     0.00000535   -0.00000931    0.00000160
     atom    5 type  1   force =     0.00000103    0.00000205   -0.00000016
     atom    6 type  1   force =     0.00001183    0.00000363   -0.00000252
     atom    7 type  1   force =    -0.00000522    0.00000884    0.00000149
     atom    8 type  1   force =     0.00000279   -0.00000101   -0.00000024
     atom    9 type  1   force =     0.00000926    0.00000793   -0.00000228
     atom   10 type  1   force =     0.00000515   -0.00000299   -0.00000144
     atom   11 type  1   force =    -0.00000442    0.00000223   -0.00000947
     atom   12 type  1   force =     0.00001039   -0.00000604    0.00000212
     atom   13 type  1   force =    -0.00000582   -0.00000306   -0.00000004
     atom   14 type  1   force =    -0.00000004    0.00000043   -0.00000176
     atom   15 type  1   force =    -0.00000721   -0.00000384   -0.00000178
     atom   16 type  1   force =    -0.00000526   -0.00000916    0.00000166
     atom   17 type  1   force =    -0.00000091    0.00000285   -0.00000008
     atom   18 type  1   force =    -0.00001164    0.00000402   -0.00000248
     atom   19 type  1   force =     0.00000028   -0.00000005   -0.00000299
     atom   20 type  1   force =     0.00000055   -0.00000010    0.00001200
     atom   21 type  1   force =     0.00000040   -0.00000009   -0.00000726
     atom   22 type  1   force =    -0.00001028    0.00000008    0.00000138
     atom   23 type  1   force =     0.00000235   -0.00000195   -0.00000023
     atom   24 type  1   force =    -0.00000213   -0.00001205   -0.00000222
     atom   25 type  1   force =     0.00000025   -0.00000053    0.00000411
     atom   26 type  1   force =     0.00000048   -0.00000136   -0.00000912
     atom   27 type  1   force =     0.00000022   -0.00000720   -0.00000064
     atom   28 type  1   force =    -0.00000054    0.00000040    0.00000419
     atom   29 type  1   force =    -0.00000138    0.00000094   -0.00000906
     atom   30 type  1   force =    -0.00000641    0.00000381   -0.00000077
     atom   31 type  1   force =     0.00000532    0.00000924    0.00000172
     atom   32 type  1   force =    -0.00000278   -0.00000031   -0.00000005
     atom   33 type  1   force =    -0.00000926    0.00000824   -0.00000257
     atom   34 type  1   force =     0.00001084   -0.00000001    0.00000163
     atom   35 type  1   force =    -0.00000115   -0.00000203   -0.00000005
     atom   36 type  1   force =     0.00000282   -0.00001217   -0.00000258
     atom   37 type  1   force =     0.00000574   -0.00000339    0.00000018
     atom   38 type  1   force =     0.00000021   -0.00000030   -0.00000154
     atom   39 type  1   force =     0.00000724   -0.00000429   -0.00000214
     atom   40 type  1   force =     0.00000053    0.00000013    0.00000419
     atom   41 type  1   force =     0.00000131    0.00000029   -0.00000918
     atom   42 type  1   force =     0.00000618    0.00000341   -0.00000071
     atom   43 type  1   force =    -0.00000031    0.00000649    0.00000013
     atom   44 type  1   force =    -0.00000057    0.00000000   -0.00000183
     atom   45 type  1   force =    -0.00000037    0.00000817   -0.00000192
     atom   46 type  1   force =    -0.00000566   -0.00000306   -0.00000125
     atom   47 type  1   force =     0.00000286    0.00000237   -0.00000925
     atom   48 type  1   force =    -0.00001108   -0.00000627    0.00000175
     atom   49 type  2   force =    -0.00000065   -0.00000000    0.00001274
     atom   50 type  2   force =    -0.00000039    0.00000016    0.00000646
     atom   51 type  2   force =     0.00000059    0.00000382   -0.00000257
     atom   52 type  2   force =     0.00000626    0.00000859    0.00000667
     atom   53 type  2   force =     0.00000078   -0.00000444    0.00000926
     atom   54 type  2   force =     0.00000665    0.00000326   -0.00000701
     atom   55 type  2   force =     0.00001400    0.00000767    0.00000080
     atom   56 type  2   force =     0.00000206    0.00000080   -0.00000423
     atom   57 type  2   force =     0.00000328   -0.00000183   -0.00000296
     atom   58 type  2   force =     0.00001020    0.00000079    0.00000687
     atom   59 type  2   force =    -0.00000376    0.00000297    0.00000908
     atom   60 type  2   force =     0.00000314   -0.00000207   -0.00000283
[...]
     atom  129 type  2   force =     0.00000055    0.00000182    0.00000485
     atom  130 type  2   force =     0.00000082   -0.00000212    0.00001162
     atom  131 type  2   force =     0.00000040   -0.00000611   -0.00001052
     atom  132 type  2   force =     0.00000878    0.00000135    0.00000079
     atom  133 type  2   force =     0.00000678   -0.00000852    0.00000487
     atom  134 type  2   force =     0.00000298   -0.00001173    0.00000166
     atom  135 type  2   force =     0.00000020    0.00000015    0.00001377
     atom  136 type  2   force =     0.00000005    0.00000002    0.00000939
     atom  137 type  2   force =     0.00000009    0.00000004    0.00000703
     atom  138 type  2   force =     0.00000512    0.00000669    0.00000091
     atom  139 type  2   force =    -0.00000484    0.00000951    0.00000491
     atom  140 type  2   force =    -0.00000898    0.00000841    0.00000144
     atom  141 type  2   force =     0.00000373    0.00000221   -0.00000641
     atom  142 type  2   force =    -0.00000655   -0.00000381    0.00000632
     atom  143 type  2   force =    -0.00000398   -0.00000232   -0.00001093

     Total force =     0.004120     Total SCF correction =     0.000118

     Computing stress (Cartesian axis) and pressure

[...]

          total   stress  (Ry/bohr**3)                   (kbar)     P=        3.42
   0.00002155  -0.00000000  -0.00000000            3.17       -0.00       -0.00
  -0.00000000   0.00002155  -0.00000000           -0.00        3.17       -0.00
  -0.00000000  -0.00000000   0.00002668           -0.00       -0.00        3.92

     kinetic stress (kbar)  14904.33     -0.00      0.00
                               -0.00  14904.33     -0.00
                                0.00     -0.00  14915.14

     local   stress (kbar)  -7682.14     -0.01     -0.00
                               -0.01  -7682.14     -0.00
                               -0.00     -0.00   1576.31

     nonloc. stress (kbar)  -1087.99     -0.00      0.00
                               -0.00  -1087.99     -0.00
                                0.00     -0.00  -1094.06

     hartree stress (kbar)  12044.32      0.00      0.00
                                0.00  12044.32      0.00
                                0.00      0.00   7869.29

     exc-cor stress (kbar)   6889.70      0.00      0.00
                                0.00   6889.70     -0.00
                                0.00     -0.00   6888.43

     corecor stress (kbar) -11220.05     -0.00     -0.00
                               -0.00 -11220.05     -0.00
                               -0.00     -0.00 -11219.95

     ewald   stress (kbar) -13927.58      0.01      0.00
                                0.01 -13927.58      0.00
                                0.00      0.00 -19015.22

     hubbard stress (kbar)      0.00      0.00      0.00
                                0.00      0.00      0.00
                                0.00      0.00      0.00

     DFT-D   stress (kbar)      0.00      0.00      0.00
                                0.00      0.00      0.00
                                0.00      0.00      0.00

     XDM     stress (kbar)      0.00      0.00      0.00
                                0.00      0.00      0.00
                                0.00      0.00      0.00

     dft-nl  stress (kbar)     82.58     -0.00     -0.00
                               -0.00     82.58      0.00
                               -0.00      0.00     83.98

     TS-vdW  stress (kbar)      0.00      0.00      0.00
                                0.00      0.00      0.00
                                0.00      0.00      0.00

     MDB     stress (kbar)      0.00      0.00      0.00
                                0.00      0.00      0.00
                                0.00      0.00      0.00

     3D-RISM stress (kbar)      0.00      0.00      0.00
                                0.00      0.00      0.00
                                0.00      0.00      0.00

     Energy error            =      1.1E-04 Ry
     Gradient error          =      1.1E-03 Ry/Bohr

     number of scf cycles    =  17
     number of bfgs steps    =  16

     energy             old  =  -96570.2594013365 Ry
     energy             new  =  -96570.2595076713 Ry

     CASE: energy            _new < energy            _old

     new trust radius        =       0.0092275251 bohr
     new conv_thr            =       0.0000000011 Ry

ATOMIC_POSITIONS (angstrom)
Pb            2.3557668311        4.0752752046       22.1513261914
Pb            2.3557986347        3.5388377847        7.2735995211
Pb            2.3557495705        4.0824878545       14.7528148627
Pb            0.0015717115        8.1588148360       22.1405063320
Pb            0.0532264898        8.0997652363        7.3893354852
Pb            0.0025698135        8.1631549933       14.7475328482
Pb           -2.3556067982       12.2415488493       22.1404668786
Pb           -2.3808279490       12.3157005980        7.3893050393
Pb           -2.3513238752       12.2402364856       14.7475563750
Pb           -4.7149522881       16.3220876029       22.1512595016
Pb           -5.1794015502       16.5902096487        7.2737061740
Pb           -4.7087200310       16.3185056788       14.7528212450
Pb            7.0646526024        4.0783097205       22.1555826981
Pb            7.0635979741        4.0776963535        7.3207996293
Pb            7.0666657240        4.0794751152       14.7497906820
Pb            4.7099535759        8.1588230683       22.1405631329
Pb            4.6582751232        8.0998328329        7.3894775034
Pb            4.7089614862        8.1631753869       14.7476005002
Pb            2.3557753166       12.2398408405       22.1395461214
Pb            2.3557722135       12.2398552747        7.3893432441
Pb            2.3557868833       12.2398210137       14.7379158007
Pb           -0.0013959153       16.3191517649       22.1405210863
Pb           -0.0782612820       16.3038860260        7.3894167826
Pb            0.0018876527       16.3160789749       14.7475808652
Pb           11.7783260099        4.0734159563       22.1451606653
Pb           11.7783000576        4.0415535111        7.3838208111
Pb           11.7783213934        4.0788651506       14.7529296903
Pb            9.4172396144        8.1628912833       22.1451506484
Pb            9.3896178738        8.1788387723        7.3838791198
Pb            9.4219807318        8.1601587495       14.7529350556
Pb            7.0671302632       12.2415697656       22.1405561142
Pb            7.0923380335       12.3157371890        7.3894615821
Pb            7.0628601967       12.2402501431       14.7475692521
Pb            4.7129439421       16.3191513063       22.1405568120
Pb            4.7898593974       16.3038982167        7.3894310878
Pb            4.7096838682       16.3160917300       14.7475395213
Pb           16.4919940168        4.0782781161       22.1556049765
Pb           16.4930021993        4.0776539289        7.3207343412
Pb           16.4899469989        4.0794543825       14.7496784413
Pb           14.1393776419        8.1628714276       22.1450865209
Pb           14.1669254860        8.1788093365        7.3837650092
Pb           14.1346313572        8.1601429802       14.7529049705
Pb           11.7782913407       12.2425357120       22.1554586390
Pb           11.7782550077       12.2437594225        7.3207333176
Pb           11.7782913435       12.2402537504       14.7496921207
Pb            9.4264779293       16.3220877000       22.1513107218
Pb            9.8909796444       16.5902214505        7.2735810758
Pb            9.4202153419       16.3185003279       14.7527777374
I             2.3557375363        1.3597181466       12.8824090144
I             2.3557221557        1.3597170983       20.2553969571
I             0.0120253580        5.3547159460        5.5014696885
I             0.0014408223        5.4403079633       12.8705288009
I             0.0000235240        5.4342915977       20.2575938025
I            -2.3734907078        9.5093601568        5.4925415332
I            -2.3548443045        9.5202757543       12.8735385265
I            -2.3565681238        9.5192571524       20.2497203118
I            -4.7787973371       13.6524786827        5.5014766951
I            -4.7100418927       13.6008543707       12.8705681959
I            -4.7159470440       13.6025970221       20.2575250609
I             6.9875855979        1.3918226507        5.5015514342
[...]
I             2.3557334303       14.9603545836        1.8798450266
I             2.3557659736       14.9676496243        9.2359718709
I             2.3557737083       14.9600774390       16.6419069077
I            14.1329128892        2.7181641493        1.8850465396
I            14.1339280557        2.7157536316        9.2680414539
I            14.1350360535        2.7187419421       16.6429101081
I            11.7782983031        6.7998368950        1.8847508193
I            11.7782815526        6.7998236513        9.2591007122
I            11.7782916642        6.7997966091       16.6469386282
I             9.4207838283       10.8798177272        1.8849972779
I             9.4191657056       10.8818982556        9.2680805908
I             9.4223512708       10.8813316675       16.6429217396
I             7.0653057821       14.9590047663        1.8844197777
I             7.0220905730       14.9339244605        9.2415178830
I             7.0664186755       14.9596307050       16.6444637900

     Writing config-only to output data dir ./PbI2.save/
     NEW-OLD atomic charge density approx. for the potential

     Check: negative core charge=   -0.000001

[...]

     Self-consistent Calculation

[...]

     Threshold (ethr) on eigenvalues was too large:
     Diagonalizing with lowered threshold

     Davidson diagonalization with overlap

[...]

     ethr =  2.33E-11,  avg # of iterations = 19.0

     Non-local corr. energy    =      68.47805278 Ry

     total energy              =  -96570.25954577 Ry
     estimated scf accuracy    <       0.00000019 Ry

     iteration #  7     ecut=    70.00 Ry     beta= 0.70
     Davidson diagonalization with overlap

     c_bands:  1 eigenvalues not converged

     max_seconds     =  160000.00
     Calculation stopped in k-point loop, point #     1
     Calculation stopped in scf loop at iteration #     6

     Writing config to output data dir ./PbI2.save/
     Message from routine punch:
     wavefunctions written to file

     General routines

     Parallel routines

     PAW routines

   This run was terminated on:  11: 7: 8  20Mar2024

   JOB DONE.