     Program PWSCF v.7.1 starts on 24Mar2024 at  7:27:52

     Reading input from espresso.pwi
Warning: card &CELL ignored
Warning: card    CELL_DYNAMICS    = 'BFGS' ignored
Warning: card / ignored

     Current dimensions of program PWSCF are:
     Max number of different atomic species (ntypx) = 10
     Max number of k-points (npk) =  40000
     Max angular momentum in pseudopotentials (lmaxx) =  4
     file Pb.pbe-dn-kjpaw_psl.1.0.0.UPF: wavefunction(s)  6S 6P 5D renormalized
     file I.pbe-dn-kjpaw_psl.1.0.0.UPF: wavefunction(s)  5S 5P renormalized

     IMPORTANT: XC functional enforced from input :
     Exchange-correlation= BEEF-VDW
                           (   1   4  43  14   2   0   0)
     Any further DFT definition will be discarded
     Please, verify this is what you really want

     R & G space division:  proc/nbgrp/npool/nimage =     125
     Subspace diagonalization in iterative solution of the eigenvalue problem:
     a serial algorithm will be used

     Using Slab Decomposition

     bravais-lattice index     =            4
     lattice parameter (alat)  =      35.6120  a.u.
     unit-cell volume          =   45937.3577 (a.u.)^3
     number of atoms/cell      =          143
     number of atomic types    =            2
     number of electrons       =      2288.00
     number of Kohn-Sham states=         1373
     kinetic-energy cutoff     =      70.0000  Ry
     charge density cutoff     =     350.0000  Ry
     scf convergence threshold =      1.0E-07
     mixing beta               =       0.7000
     number of iterations used =            8  plain     mixing
     Exchange-correlation= BEEF-VDW
                           (   1   4  43  14   2   0   0)

     celldm(1)=  35.612033  celldm(2)=   0.000000  celldm(3)=   1.174479
     celldm(4)=   0.000000  celldm(5)=   0.000000  celldm(6)=   0.000000

     crystal axes: (cart. coord. in units of alat)
               a(1) = (   1.000000   0.000000   0.000000 )
               a(2) = (  -0.500000   0.866025   0.000000 )
               a(3) = (   0.000000   0.000000   1.174479 )

     reciprocal axes: (cart. coord. in units 2 pi/alat)
               b(1) = (  1.000000  0.577350 -0.000000 )
               b(2) = (  0.000000  1.154701  0.000000 )
               b(3) = (  0.000000 -0.000000  0.851442 )

     PseudoPot. # 1 for Pb read from file:
     //group///packages/espresso/pseudo/psl_1.0.0/pslibrary.1.0.0/pbe/PSEUDOPOTENTIALS/Pb.pbe-dn-kjpaw_psl.1.0.0.UPF
     MD5 check sum: 39ab5b8a6bbd56b7735ad9f188aac93a
     Pseudo is Projector augmented-wave + core cor, Zval = 14.0
     Generated using 'atomic' code by A. Dal Corso  v.7.1
     Shape of augmentation charge: PSQ
     Using radial grid of 1281 points,  6 beta functions with:
                l(1) =   0
                l(2) =   0
                l(3) =   1
                l(4) =   1
                l(5) =   2
                l(6) =   2
     Q(r) pseudized with 0 coefficients

     PseudoPot. # 2 for I  read from file:
     //group///packages/espresso/pseudo/psl_1.0.0/pslibrary.1.0.0/pbe/PSEUDOPOTENTIALS/I.pbe-dn-kjpaw_psl.1.0.0.UPF
     MD5 check sum: bfa8781bc1224d19af3f3980e3fab11e
     Pseudo is Projector augmented-wave + core cor, Zval = 17.0
     Generated using 'atomic' code by A. Dal Corso  v.7.1
     Shape of augmentation charge: PSQ
     Using radial grid of 1247 points,  6 beta functions with:
                l(1) =   0
                l(2) =   0
                l(3) =   1
                l(4) =   1
                l(5) =   2
                l(6) =   2
     Q(r) pseudized with 0 coefficients

     atomic species   valence    mass     pseudopotential
        Pb            14.00   207.20000     Pb( 1.00)
        I             17.00   126.90447     I ( 1.00)

     No symmetry found

                                    s                        frac. trans.

      isym =  1     identity

 cryst.   s( 1) = (     1          0          0      )
                  (     0          1          0      )
                  (     0          0          1      )

 cart.    s( 1) = (  1.0000000  0.0000000  0.0000000 )
                  (  0.0000000  1.0000000  0.0000000 )
                  (  0.0000000  0.0000000  1.0000000 )

     point group C_1 (1)
     there are  1 classes
     the character table:

       E
A      1.00

     the symmetry operations in each class and the name of the first element:

     E        1
          identity

   Cartesian axes

     site n.     atom                  positions (alat units)
         1           Pb  tau(   1) = (   0.1250136   0.2164827   1.1744753  )
         2           Pb  tau(   2) = (   0.1250034   0.2164918   0.3914896  )
         3           Pb  tau(   3) = (   0.1250085   0.2164873   0.7829825  )
         4           Pb  tau(   4) = (   0.0000128   0.4329881   1.1744712  )
         5           Pb  tau(   5) = (   0.0000026   0.4329971   0.3914855  )
         6           Pb  tau(   6) = (   0.0000077   0.4329926   0.7829784  )
         7           Pb  tau(   7) = (  -0.1249881   0.6494934   1.1744671  )
         8           Pb  tau(   8) = (  -0.1249983   0.6495025   0.3914814  )
         9           Pb  tau(   9) = (  -0.1249932   0.6494980   0.7829742  )
        10           Pb  tau(  10) = (  -0.2499889   0.8659988   1.1744630  )
        11           Pb  tau(  11) = (  -0.2499991   0.8660078   0.3914773  )
        12           Pb  tau(  12) = (  -0.2499940   0.8660033   0.7829701  )
        13           Pb  tau(  13) = (   0.3750136   0.2164818   1.1744786  )
        14           Pb  tau(  14) = (   0.3750034   0.2164908   0.3914929  )
        15           Pb  tau(  15) = (   0.3750085   0.2164863   0.7829857  )
        16           Pb  tau(  16) = (   0.2500128   0.4329871   1.1744745  )
        17           Pb  tau(  17) = (   0.2500026   0.4329962   0.3914888  )
        18           Pb  tau(  18) = (   0.2500077   0.4329916   0.7829816  )
        19           Pb  tau(  19) = (   0.1250119   0.6494925   1.1744703  )
        20           Pb  tau(  20) = (   0.1250017   0.6495015   0.3914847  )
        21           Pb  tau(  21) = (   0.1250068   0.6494970   0.7829775  )
        22           Pb  tau(  22) = (   0.0000111   0.8659978   1.1744662  )
        23           Pb  tau(  23) = (   0.0000009   0.8660069   0.3914805  )
        24           Pb  tau(  24) = (   0.0000060   0.8660024   0.7829734  )
        25           Pb  tau(  25) = (   0.6250136   0.2164808   1.1744818  )
        26           Pb  tau(  26) = (   0.6250034   0.2164898   0.3914962  )
        27           Pb  tau(  27) = (   0.6250085   0.2164853   0.7829890  )
        28           Pb  tau(  28) = (   0.5000128   0.4329862   1.1744777  )
        29           Pb  tau(  29) = (   0.5000026   0.4329952   0.3914920  )
        30           Pb  tau(  30) = (   0.5000077   0.4329907   0.7829849  )
        31           Pb  tau(  31) = (   0.3750119   0.6494915   1.1744736  )
        32           Pb  tau(  32) = (   0.3750017   0.6495006   0.3914879  )
        33           Pb  tau(  33) = (   0.3750068   0.6494960   0.7829808  )
        34           Pb  tau(  34) = (   0.2500111   0.8659969   1.1744695  )
        35           Pb  tau(  35) = (   0.2500009   0.8660059   0.3914838  )
        36           Pb  tau(  36) = (   0.2500060   0.8660014   0.7829766  )
        37           Pb  tau(  37) = (   0.8750136   0.2164798   1.1744851  )
        38           Pb  tau(  38) = (   0.8750034   0.2164889   0.3914994  )
        39           Pb  tau(  39) = (   0.8750085   0.2164844   0.7829923  )
        40           Pb  tau(  40) = (   0.7500128   0.4329852   1.1744810  )
        41           Pb  tau(  41) = (   0.7500026   0.4329942   0.3914953  )
        42           Pb  tau(  42) = (   0.7500077   0.4329897   0.7829881  )
        43           Pb  tau(  43) = (   0.6250119   0.6494906   1.1744769  )
        44           Pb  tau(  44) = (   0.6250017   0.6494996   0.3914912  )
        45           Pb  tau(  45) = (   0.6250068   0.6494951   0.7829840  )
        46           Pb  tau(  46) = (   0.5000111   0.8659959   1.1744727  )
        47           Pb  tau(  47) = (   0.5000009   0.8660050   0.3914870  )
        48           Pb  tau(  48) = (   0.5000060   0.8660004   0.7829799  )
        49           I   tau(  49) = (   0.1250105   0.0721505   0.6824253  )
        50           I   tau(  50) = (   0.1250156   0.0721459   1.0739182  )
        51           I   tau(  51) = (   0.0000045   0.2886603   0.2909283  )
        52           I   tau(  52) = (   0.0000096   0.2886558   0.6824212  )
        53           I   tau(  53) = (   0.0000147   0.2886513   1.0739140  )
        54           I   tau(  54) = (  -0.1249963   0.5051657   0.2909242  )
        55           I   tau(  55) = (  -0.1249912   0.5051612   0.6824171  )
        56           I   tau(  56) = (  -0.1249861   0.5051566   1.0739099  )
        57           I   tau(  57) = (  -0.2499971   0.7216710   0.2909201  )
        58           I   tau(  58) = (  -0.2499920   0.7216665   0.6824129  )
        59           I   tau(  59) = (  -0.2499869   0.7216620   1.0739058  )
        60           I   tau(  60) = (   0.3750054   0.0721540   0.2909357  )
[...]
       129           I   tau( 129) = (   0.1249958   0.7938439   0.1005496  )
       130           I   tau( 130) = (   0.1250009   0.7938394   0.4920425  )
       131           I   tau( 131) = (   0.1250060   0.7938348   0.8835353  )
       132           I   tau( 132) = (   0.7499983   0.1443268   0.1005653  )
       133           I   tau( 133) = (   0.7500034   0.1443223   0.4920581  )
       134           I   tau( 134) = (   0.7500085   0.1443178   0.8835509  )
       135           I   tau( 135) = (   0.6249975   0.3608322   0.1005611  )
       136           I   tau( 136) = (   0.6250026   0.3608277   0.4920540  )
       137           I   tau( 137) = (   0.6250077   0.3608232   0.8835468  )
       138           I   tau( 138) = (   0.4999966   0.5773376   0.1005570  )
       139           I   tau( 139) = (   0.5000017   0.5773330   0.4920499  )
       140           I   tau( 140) = (   0.5000068   0.5773285   0.8835427  )
       141           I   tau( 141) = (   0.3749958   0.7938429   0.1005529  )
       142           I   tau( 142) = (   0.3750009   0.7938384   0.4920457  )
       143           I   tau( 143) = (   0.3750060   0.7938339   0.8835386  )

   Crystallographic axes

     site n.     atom                  positions (cryst. coord.)
         1           Pb  tau(   1) = (  0.2500000  0.2499727  0.9999973  )
         2           Pb  tau(   2) = (  0.2499950  0.2499832  0.3333306  )
         3           Pb  tau(   3) = (  0.2499975  0.2499780  0.6666639  )
         4           Pb  tau(   4) = (  0.2499986  0.4999716  0.9999938  )
         5           Pb  tau(   5) = (  0.2499936  0.4999820  0.3333271  )
         6           Pb  tau(   6) = (  0.2499961  0.4999768  0.6666604  )
         7           Pb  tau(   7) = (  0.2499972  0.7499704  0.9999902  )
         8           Pb  tau(   8) = (  0.2499922  0.7499809  0.3333236  )
         9           Pb  tau(   9) = (  0.2499947  0.7499757  0.6666569  )
[...]
     atom   26 type  1   force =     0.00000000    0.00000000    0.00000000
     atom   27 type  1   force =     0.00000000    0.00000000    0.00000000
     atom   28 type  1   force =     0.00000000    0.00000000    0.00000000
     atom   29 type  1   force =     0.00000000    0.00000000    0.00000000
     atom   30 type  1   force =     0.00000000    0.00000000    0.00000000
     atom   31 type  1   force =     0.00000000    0.00000000    0.00000000
     atom   32 type  1   force =     0.00000000    0.00000000    0.00000000
     atom   33 type  1   force =     0.00000000    0.00000000    0.00000000
     atom   34 type  1   force =     0.00000000    0.00000000    0.00000000
     atom   35 type  1   force =     0.00000000    0.00000000    0.00000000
     atom   36 type  1   force =     0.00000000    0.00000000    0.00000000
     atom   37 type  1   force =     0.00000000    0.00000000    0.00000000
     atom   38 type  1   force =     0.00000000    0.00000000    0.00000000
     atom   39 type  1   force =     0.00000000    0.00000000    0.00000000
     atom   40 type  1   force =     0.00000000    0.00000000    0.00000000
     atom   41 type  1   force =     0.00000000    0.00000000    0.00000000
     atom   42 type  1   force =     0.00000000    0.00000000    0.00000000
     atom   43 type  1   force =     0.00000000    0.00000000    0.00000000
     atom   44 type  1   force =     0.00000000    0.00000000    0.00000000
     atom   45 type  1   force =     0.00000000    0.00000000    0.00000000
     atom   46 type  1   force =     0.00000000    0.00000000    0.00000000
     atom   47 type  1   force =     0.00000000    0.00000000    0.00000000
     atom   48 type  1   force =     0.00000000    0.00000000    0.00000000
     atom   49 type  2   force =     0.00000000    0.00000000    0.00000000
     atom   50 type  2   force =     0.00000000    0.00000000    0.00000000
     atom   51 type  2   force =     0.00000000    0.00000000    0.00000000
     atom   52 type  2   force =     0.00000000    0.00000000    0.00000000
     atom   53 type  2   force =     0.00000000    0.00000000    0.00000000
     atom   54 type  2   force =     0.00000000    0.00000000    0.00000000
     atom   55 type  2   force =     0.00000000    0.00000000    0.00000000
     atom   56 type  2   force =     0.00000000    0.00000000    0.00000000
     atom   57 type  2   force =     0.00000000    0.00000000    0.00000000
     atom   58 type  2   force =     0.00000000    0.00000000    0.00000000
     atom   59 type  2   force =     0.00000000    0.00000000    0.00000000
     atom   60 type  2   force =     0.00000000    0.00000000    0.00000000
[...]
     atom  129 type  2   force =     0.00000000    0.00000000    0.00000000
     atom  130 type  2   force =     0.00000000    0.00000000    0.00000000
     atom  131 type  2   force =     0.00000000    0.00000000    0.00000000
     atom  132 type  2   force =     0.00000000    0.00000000    0.00000000
     atom  133 type  2   force =     0.00000000    0.00000000    0.00000000
     atom  134 type  2   force =     0.00000000    0.00000000    0.00000000
     atom  135 type  2   force =     0.00000000    0.00000000    0.00000000
     atom  136 type  2   force =     0.00000000    0.00000000    0.00000000
     atom  137 type  2   force =     0.00000000    0.00000000    0.00000000
     atom  138 type  2   force =     0.00000000    0.00000000    0.00000000
     atom  139 type  2   force =     0.00000000    0.00000000    0.00000000
     atom  140 type  2   force =     0.00000000    0.00000000    0.00000000
     atom  141 type  2   force =     0.00000000    0.00000000    0.00000000
     atom  142 type  2   force =     0.00000000    0.00000000    0.00000000
     atom  143 type  2   force =     0.00000000    0.00000000    0.00000000
     The SCF correction term to forces
     atom    1 type  1   force =    -0.00000300   -0.00001822   -0.00013972
     atom    2 type  1   force =    -0.00000080    0.00006198    0.00002034
     atom    3 type  1   force =     0.00000295   -0.00002268    0.00016610
     atom    4 type  1   force =     0.00001790   -0.00000038   -0.00001820
     atom    5 type  1   force =     0.00001071    0.00001582    0.00000320
     atom    6 type  1   force =    -0.00001440   -0.00001274    0.00004439
     atom    7 type  1   force =     0.00000681    0.00001526   -0.00001698
     atom    8 type  1   force =     0.00001867    0.00000282    0.00000372
     atom    9 type  1   force =    -0.00002144   -0.00000198    0.00004642
     atom   10 type  1   force =    -0.00001665    0.00000826   -0.00013626
     atom   11 type  1   force =     0.00005470   -0.00003341    0.00001821
     atom   12 type  1   force =    -0.00001822    0.00000893    0.00016523
     atom   13 type  1   force =    -0.00003089   -0.00001719   -0.00004815
     atom   14 type  1   force =     0.00004867    0.00002813    0.00001804
     atom   15 type  1   force =    -0.00000783   -0.00000151    0.00006892
     atom   16 type  1   force =    -0.00001840    0.00000090   -0.00001833
     atom   17 type  1   force =    -0.00000989    0.00001629    0.00000503
     atom   18 type  1   force =     0.00001331   -0.00001975    0.00004659
     atom   19 type  1   force =     0.00000132   -0.00000009    0.00003039
     atom   20 type  1   force =    -0.00000344   -0.00000156   -0.00003388
     atom   21 type  1   force =    -0.00000065    0.00000141    0.00002653
     atom   22 type  1   force =    -0.00000862   -0.00001513   -0.00001672
     atom   23 type  1   force =     0.00000823   -0.00001843    0.00000197
     atom   24 type  1   force =    -0.00000876    0.00001731    0.00004859
     atom   25 type  1   force =     0.00000015   -0.00003062    0.00002952
     atom   26 type  1   force =     0.00000018    0.00004198    0.00004606
     atom   27 type  1   force =     0.00000033    0.00000258   -0.00002549
     atom   28 type  1   force =    -0.00002667    0.00001291    0.00003166
     atom   29 type  1   force =     0.00003521   -0.00002085    0.00004546
     atom   30 type  1   force =     0.00000432   -0.00000222   -0.00002686
     atom   31 type  1   force =    -0.00000747    0.00001298   -0.00002085
     atom   32 type  1   force =    -0.00001612   -0.00000275    0.00000330
     atom   33 type  1   force =     0.00001946    0.00000078    0.00004440
     atom   34 type  1   force =     0.00000890   -0.00001412   -0.00001505
     atom   35 type  1   force =    -0.00000858   -0.00001145    0.00000349
     atom   36 type  1   force =     0.00001004    0.00001665    0.00004978
     atom   37 type  1   force =     0.00003398   -0.00001780   -0.00004914
     atom   38 type  1   force =    -0.00004887    0.00002705    0.00002084
     atom   39 type  1   force =     0.00000551   -0.00000556    0.00007137
     atom   40 type  1   force =     0.00002660    0.00001498    0.00002721
     atom   41 type  1   force =    -0.00003649   -0.00002202    0.00004179
     atom   42 type  1   force =    -0.00000340    0.00000014   -0.00002562
     atom   43 type  1   force =     0.00000043    0.00003848   -0.00004651
     atom   44 type  1   force =    -0.00000099   -0.00005155    0.00001918
     atom   45 type  1   force =     0.00000348    0.00000560    0.00007149
     atom   46 type  1   force =     0.00001606    0.00001070   -0.00013889
     atom   47 type  1   force =    -0.00005232   -0.00003075    0.00002013
     atom   48 type  1   force =     0.00001603    0.00001093    0.00016498
     atom   49 type  2   force =     0.00000113    0.00000209   -0.00000926
     atom   50 type  2   force =    -0.00000242    0.00000109   -0.00023417
     atom   51 type  2   force =    -0.00002957    0.00007108   -0.00012208
     atom   52 type  2   force =    -0.00002858    0.00001127   -0.00005794
     atom   53 type  2   force =     0.00006007   -0.00006087   -0.00017446
     atom   54 type  2   force =    -0.00000362   -0.00000176   -0.00009379
     atom   55 type  2   force =    -0.00002654   -0.00001407   -0.00009249
     atom   56 type  2   force =     0.00003514    0.00001689   -0.00011173
     atom   57 type  2   force =     0.00004803   -0.00005675   -0.00012177
     atom   58 type  2   force =    -0.00000475   -0.00003335   -0.00005008
     atom   59 type  2   force =    -0.00002169    0.00008129   -0.00017511
     atom   60 type  2   force =     0.00007667   -0.00001398   -0.00012535
[...]
     atom  129 type  2   force =     0.00000068   -0.00002965    0.00008953
     atom  130 type  2   force =    -0.00000427   -0.00001479    0.00008702
     atom  131 type  2   force =     0.00000150    0.00001751    0.00013551
     atom  132 type  2   force =    -0.00000959   -0.00002437    0.00008732
     atom  133 type  2   force =    -0.00004893    0.00004557    0.00009911
     atom  134 type  2   force =     0.00005348   -0.00001809    0.00010567
     atom  135 type  2   force =    -0.00000254    0.00000036    0.00014238
     atom  136 type  2   force =    -0.00000317   -0.00000442    0.00006679
     atom  137 type  2   force =    -0.00000002    0.00000061    0.00004288
     atom  138 type  2   force =    -0.00002061    0.00000319    0.00008738
     atom  139 type  2   force =     0.00001062   -0.00006656    0.00010072
     atom  140 type  2   force =     0.00001547    0.00005426    0.00010327
     atom  141 type  2   force =    -0.00003601   -0.00001542    0.00005211
     atom  142 type  2   force =    -0.00003354   -0.00001867    0.00010984
     atom  143 type  2   force =     0.00006302    0.00004012    0.00017398

     Total force =     0.003600     Total SCF correction =     0.001329
     SCF correction compared to forces is large: reduce conv_thr to get better values

     Computing stress (Cartesian axis) and pressure

[...]

          total   stress  (Ry/bohr**3)                   (kbar)     P=        3.45
   0.00002172  -0.00000000  -0.00000000            3.19       -0.00       -0.00
  -0.00000000   0.00002172  -0.00000000           -0.00        3.19       -0.00
  -0.00000000  -0.00000000   0.00002685           -0.00       -0.00        3.95

     kinetic stress (kbar)  14904.34     -0.00      0.00
                               -0.00  14904.34     -0.00
                                0.00     -0.00  14915.14

     local   stress (kbar)  -7682.57     -0.01     -0.00
                               -0.01  -7682.57     -0.00
                               -0.00     -0.00   1577.06

     nonloc. stress (kbar)  -1087.96     -0.00      0.00
                               -0.00  -1087.96     -0.00
                                0.00     -0.00  -1094.04

     hartree stress (kbar)  12044.52      0.00      0.00
                                0.00  12044.52      0.00
                                0.00      0.00   7868.95

     exc-cor stress (kbar)   6889.70      0.00      0.00
                                0.00   6889.70     -0.00
                                0.00     -0.00   6888.42

     corecor stress (kbar) -11220.05     -0.00      0.00
                               -0.00 -11220.05     -0.00
                                0.00     -0.00 -11219.95

     ewald   stress (kbar) -13927.36      0.01      0.00
                                0.01 -13927.36      0.00
                                0.00      0.00 -19015.62

     hubbard stress (kbar)      0.00      0.00      0.00
                                0.00      0.00      0.00
                                0.00      0.00      0.00

     DFT-D   stress (kbar)      0.00      0.00      0.00
                                0.00      0.00      0.00
                                0.00      0.00      0.00

     XDM     stress (kbar)      0.00      0.00      0.00
                                0.00      0.00      0.00
                                0.00      0.00      0.00

     dft-nl  stress (kbar)     82.58     -0.00     -0.00
                               -0.00     82.58      0.00
                               -0.00      0.00     83.99

     TS-vdW  stress (kbar)      0.00      0.00      0.00
                                0.00      0.00      0.00
                                0.00      0.00      0.00

     MDB     stress (kbar)      0.00      0.00      0.00
                                0.00      0.00      0.00
                                0.00      0.00      0.00

     3D-RISM stress (kbar)      0.00      0.00      0.00
                                0.00      0.00      0.00
                                0.00      0.00      0.00

[...]

     Non-local corr. energy    =      68.47805192 Ry

 BEEFens 2000 ensemble energies
             -0.575728980517231E+02
             -0.579272527155669E+03
             -0.263602169482521E+03
              0.202341465550298E+03
             -0.442762104967154E+03
             -0.542081221325356E+03
              0.278258883948301E+03
              0.114126563908758E+01
              0.468914375173008E+03
             -0.296673395943517E+02
              0.240095732478770E+03
              0.244950305251872E+02
             -0.184225425921841E+02
             -0.149054858750819E+02
              0.299221682864080E+03
             -0.225412754608577E+03
             -0.442431090806403E+03
             -0.142777599732902E+03
              0.127925106343693E+03
             -0.275377514973479E+01
              0.652319677440821E+03
              0.544485588448882E+03
             -0.335348461023646E+03
              0.115933424824953E+03
             -0.698729989650053E+03
              0.573562175492067E+03
              0.196188370959398E+03
              0.517910419539775E+03
              0.349054900288979E+03
             -0.162074547202319E+03
              0.127747507569968E+03
             -0.228330062926710E+03
              0.953314568770636E+02
              0.347255126796907E+03
              0.373720933888500E+03
             -0.162374982025871E+03
              0.824331417210056E+03
             -0.331748779889049E+03
             -0.220926349058007E+03
              0.329689522811690E+03
              0.145359971688548E+03
              0.250548379296515E+03
             -0.483931903787236E+03
             -0.314639968973688E+02
              0.464290003770433E+03
              0.606834685075756E+03
             -0.616138657783904E+03
              0.395374260158740E+02
              0.213713037476658E+03
              0.137977561616291E+03
              0.240904231679762E+03
              0.529058116778215E+03
             -0.343610434947862E+03
             -0.333477546018502E+03
             -0.464519667002090E+03
             -0.673823222429041E+02
             -0.396254656311462E+03
              0.511765663311012E+02
             -0.571541892359205E+02
             -0.314391588237414E+03
[...]
              0.392597712396682E+03
              0.251448034105333E+03
              0.256371345236368E+03
             -0.474463055602738E+03
             -0.489961868592403E+03
             -0.110472482529921E+03
             -0.437952633423896E+03
              0.695371429452079E+03
              0.585738438114325E+03
              0.276277253983216E+03
              0.761537036211429E+03
             -0.380521661519214E+03
             -0.163953155992613E+03
             -0.236296148905539E+03
              0.658863084768946E+03

 BEEF-vdW xc energy contributions
            1 :    -5955.562694309233
            2 :     5457.088912655507
            3 :    -4607.228322738755
            4 :     3632.609525231202
            5 :    -2746.555312970896
            6 :     2080.317001106037
            7 :    -1661.677922066574
            8 :     1434.736713920838
            9 :    -1302.266217930443
           10 :     1172.411882989616
           11 :    -993.7116208917132
           12 :     766.3185474216216
           13 :    -527.5987577964306
           14 :     323.4280075478409
           15 :    -182.4897532798977
           16 :     105.4573525170081
           17 :    -70.15567471737631
           18 :     46.10281141904761
           19 :    -9.993004417017801
           20 :    -44.62346138767680
           21 :     107.1162988727610
           22 :    -158.4161882928256
           23 :     183.4256874425364
           24 :    -180.0645489894077
           25 :     160.1332875083217
           26 :    -142.3212083900107
           27 :     141.9700701906631
           28 :    -163.2491739828756
           29 :     197.4942635106099
           30 :    -228.1906366983430
           31 :    -512.9374181781759
           32 :    -369.0661452250079

     Writing all to output data dir ./PbI2.save/

     General routines

     Parallel routines

     PAW routines

   This run was terminated on:   8:16:59  24Mar2024

   JOB DONE.