     Program PWSCF v.7.1 starts on 22Mar2024 at  9:18:44

     Reading input from espresso.pwi
Warning: card &CELL ignored
Warning: card    CELL_DYNAMICS    = 'BFGS' ignored
Warning: card / ignored

     Current dimensions of program PWSCF are:
     Max number of different atomic species (ntypx) = 10
     Max number of k-points (npk) =  40000
     Max angular momentum in pseudopotentials (lmaxx) =  4
     file Pb.pbe-dn-kjpaw_psl.1.0.0.UPF: wavefunction(s)  6S 6P 5D renormalized
     file I.pbe-dn-kjpaw_psl.1.0.0.UPF: wavefunction(s)  5S 5P renormalized

     IMPORTANT: XC functional enforced from input :
     Exchange-correlation= BEEF-VDW
                           (   1   4  43  14   2   0   0)
     Any further DFT definition will be discarded
     Please, verify this is what you really want

     R & G space division:  proc/nbgrp/npool/nimage =     125
     Subspace diagonalization in iterative solution of the eigenvalue problem:
     a serial algorithm will be used

     Using Slab Decomposition

     bravais-lattice index     =            4
     lattice parameter (alat)  =      35.6120  a.u.
     unit-cell volume          =   45937.3577 (a.u.)^3
     number of atoms/cell      =          143
     number of atomic types    =            2
     number of electrons       =      2288.00
     number of Kohn-Sham states=         1373
     kinetic-energy cutoff     =      70.0000  Ry
     charge density cutoff     =     350.0000  Ry
     scf convergence threshold =      1.0E-07
     mixing beta               =       0.7000
     number of iterations used =            8  plain     mixing
     energy convergence thresh.=      1.0E-04
     force convergence thresh. =      1.0E-03
     Exchange-correlation= BEEF-VDW
                           (   1   4  43  14   2   0   0)
     nstep                     =           50

     celldm(1)=  35.612033  celldm(2)=   0.000000  celldm(3)=   1.174479
     celldm(4)=   0.000000  celldm(5)=   0.000000  celldm(6)=   0.000000

     crystal axes: (cart. coord. in units of alat)
               a(1) = (   1.000000   0.000000   0.000000 )
               a(2) = (  -0.500000   0.866025   0.000000 )
               a(3) = (   0.000000   0.000000   1.174479 )

     reciprocal axes: (cart. coord. in units 2 pi/alat)
               b(1) = (  1.000000  0.577350 -0.000000 )
               b(2) = (  0.000000  1.154701  0.000000 )
               b(3) = (  0.000000 -0.000000  0.851442 )

     PseudoPot. # 1 for Pb read from file:
     //group///packages/espresso/pseudo/psl_1.0.0/pslibrary.1.0.0/pbe/PSEUDOPOTENTIALS/Pb.pbe-dn-kjpaw_psl.1.0.0.UPF
     MD5 check sum: 39ab5b8a6bbd56b7735ad9f188aac93a
     Pseudo is Projector augmented-wave + core cor, Zval = 14.0
     Generated using 'atomic' code by A. Dal Corso  v.7.1
     Shape of augmentation charge: PSQ
     Using radial grid of 1281 points,  6 beta functions with:
                l(1) =   0
                l(2) =   0
                l(3) =   1
                l(4) =   1
                l(5) =   2
                l(6) =   2
     Q(r) pseudized with 0 coefficients

     PseudoPot. # 2 for I  read from file:
     //group///packages/espresso/pseudo/psl_1.0.0/pslibrary.1.0.0/pbe/PSEUDOPOTENTIALS/I.pbe-dn-kjpaw_psl.1.0.0.UPF
     MD5 check sum: bfa8781bc1224d19af3f3980e3fab11e
     Pseudo is Projector augmented-wave + core cor, Zval = 17.0
     Generated using 'atomic' code by A. Dal Corso  v.7.1
     Shape of augmentation charge: PSQ
     Using radial grid of 1247 points,  6 beta functions with:
                l(1) =   0
                l(2) =   0
                l(3) =   1
                l(4) =   1
                l(5) =   2
                l(6) =   2
     Q(r) pseudized with 0 coefficients

     atomic species   valence    mass     pseudopotential
        Pb            14.00   207.20000     Pb( 1.00)
        I             17.00   126.90447     I ( 1.00)

     No symmetry found

                                    s                        frac. trans.

      isym =  1     identity

 cryst.   s( 1) = (     1          0          0      )
                  (     0          1          0      )
                  (     0          0          1      )

 cart.    s( 1) = (  1.0000000  0.0000000  0.0000000 )
                  (  0.0000000  1.0000000  0.0000000 )
                  (  0.0000000  0.0000000  1.0000000 )

     point group C_1 (1)
     there are  1 classes
     the character table:

       E
A      1.00

     the symmetry operations in each class and the name of the first element:

     E        1
          identity

   Cartesian axes

     site n.     atom                  positions (alat units)
         1           Pb  tau(   1) = (   0.1250136   0.2164827   1.1744753  )
         2           Pb  tau(   2) = (   0.1250034   0.2164918   0.3914896  )
         3           Pb  tau(   3) = (   0.1250085   0.2164873   0.7829825  )
         4           Pb  tau(   4) = (   0.0000128   0.4329881   1.1744712  )
         5           Pb  tau(   5) = (   0.0000026   0.4329971   0.3914855  )
         6           Pb  tau(   6) = (   0.0000077   0.4329926   0.7829784  )
         7           Pb  tau(   7) = (  -0.1249881   0.6494934   1.1744671  )
         8           Pb  tau(   8) = (  -0.1249983   0.6495025   0.3914814  )
         9           Pb  tau(   9) = (  -0.1249932   0.6494980   0.7829742  )
        10           Pb  tau(  10) = (  -0.2499889   0.8659988   1.1744630  )
        11           Pb  tau(  11) = (  -0.2499991   0.8660078   0.3914773  )
        12           Pb  tau(  12) = (  -0.2499940   0.8660033   0.7829701  )
        13           Pb  tau(  13) = (   0.3750136   0.2164818   1.1744786  )
        14           Pb  tau(  14) = (   0.3750034   0.2164908   0.3914929  )
        15           Pb  tau(  15) = (   0.3750085   0.2164863   0.7829857  )
        16           Pb  tau(  16) = (   0.2500128   0.4329871   1.1744745  )
        17           Pb  tau(  17) = (   0.2500026   0.4329962   0.3914888  )
        18           Pb  tau(  18) = (   0.2500077   0.4329916   0.7829816  )
        19           Pb  tau(  19) = (   0.1250119   0.6494925   1.1744703  )
        20           Pb  tau(  20) = (   0.1250017   0.6495015   0.3914847  )
        21           Pb  tau(  21) = (   0.1250068   0.6494970   0.7829775  )
        22           Pb  tau(  22) = (   0.0000111   0.8659978   1.1744662  )
        23           Pb  tau(  23) = (   0.0000009   0.8660069   0.3914805  )
        24           Pb  tau(  24) = (   0.0000060   0.8660024   0.7829734  )
        25           Pb  tau(  25) = (   0.6250136   0.2164808   1.1744818  )
        26           Pb  tau(  26) = (   0.6250034   0.2164898   0.3914962  )
        27           Pb  tau(  27) = (   0.6250085   0.2164853   0.7829890  )
        28           Pb  tau(  28) = (   0.5000128   0.4329862   1.1744777  )
        29           Pb  tau(  29) = (   0.5000026   0.4329952   0.3914920  )
        30           Pb  tau(  30) = (   0.5000077   0.4329907   0.7829849  )
        31           Pb  tau(  31) = (   0.3750119   0.6494915   1.1744736  )
        32           Pb  tau(  32) = (   0.3750017   0.6495006   0.3914879  )
        33           Pb  tau(  33) = (   0.3750068   0.6494960   0.7829808  )
        34           Pb  tau(  34) = (   0.2500111   0.8659969   1.1744695  )
        35           Pb  tau(  35) = (   0.2500009   0.8660059   0.3914838  )
        36           Pb  tau(  36) = (   0.2500060   0.8660014   0.7829766  )
        37           Pb  tau(  37) = (   0.8750136   0.2164798   1.1744851  )
        38           Pb  tau(  38) = (   0.8750034   0.2164889   0.3914994  )
        39           Pb  tau(  39) = (   0.8750085   0.2164844   0.7829923  )
        40           Pb  tau(  40) = (   0.7500128   0.4329852   1.1744810  )
        41           Pb  tau(  41) = (   0.7500026   0.4329942   0.3914953  )
        42           Pb  tau(  42) = (   0.7500077   0.4329897   0.7829881  )
        43           Pb  tau(  43) = (   0.6250119   0.6494906   1.1744769  )
        44           Pb  tau(  44) = (   0.6250017   0.6494996   0.3914912  )
        45           Pb  tau(  45) = (   0.6250068   0.6494951   0.7829840  )
        46           Pb  tau(  46) = (   0.5000111   0.8659959   1.1744727  )
        47           Pb  tau(  47) = (   0.5000009   0.8660050   0.3914870  )
        48           Pb  tau(  48) = (   0.5000060   0.8660004   0.7829799  )
        49           I   tau(  49) = (   0.1250105   0.0721505   0.6824253  )
        50           I   tau(  50) = (   0.1250156   0.0721459   1.0739182  )
        51           I   tau(  51) = (   0.0000045   0.2886603   0.2909283  )
        52           I   tau(  52) = (   0.0000096   0.2886558   0.6824212  )
        53           I   tau(  53) = (   0.0000147   0.2886513   1.0739140  )
        54           I   tau(  54) = (  -0.1249963   0.5051657   0.2909242  )
        55           I   tau(  55) = (  -0.1249912   0.5051612   0.6824171  )
        56           I   tau(  56) = (  -0.1249861   0.5051566   1.0739099  )
        57           I   tau(  57) = (  -0.2499971   0.7216710   0.2909201  )
        58           I   tau(  58) = (  -0.2499920   0.7216665   0.6824129  )
        59           I   tau(  59) = (  -0.2499869   0.7216620   1.0739058  )
        60           I   tau(  60) = (   0.3750054   0.0721540   0.2909357  )
[...]
       129           I   tau( 129) = (   0.1249958   0.7938439   0.1005496  )
       130           I   tau( 130) = (   0.1250009   0.7938394   0.4920425  )
       131           I   tau( 131) = (   0.1250060   0.7938348   0.8835353  )
       132           I   tau( 132) = (   0.7499983   0.1443268   0.1005653  )
       133           I   tau( 133) = (   0.7500034   0.1443223   0.4920581  )
       134           I   tau( 134) = (   0.7500085   0.1443178   0.8835509  )
       135           I   tau( 135) = (   0.6249975   0.3608322   0.1005611  )
       136           I   tau( 136) = (   0.6250026   0.3608277   0.4920540  )
       137           I   tau( 137) = (   0.6250077   0.3608232   0.8835468  )
       138           I   tau( 138) = (   0.4999966   0.5773376   0.1005570  )
       139           I   tau( 139) = (   0.5000017   0.5773330   0.4920499  )
       140           I   tau( 140) = (   0.5000068   0.5773285   0.8835427  )
       141           I   tau( 141) = (   0.3749958   0.7938429   0.1005529  )
       142           I   tau( 142) = (   0.3750009   0.7938384   0.4920457  )
       143           I   tau( 143) = (   0.3750060   0.7938339   0.8835386  )

   Crystallographic axes

     site n.     atom                  positions (cryst. coord.)
         1           Pb  tau(   1) = (  0.2500000  0.2499727  0.9999973  )
         2           Pb  tau(   2) = (  0.2499950  0.2499832  0.3333306  )
         3           Pb  tau(   3) = (  0.2499975  0.2499780  0.6666639  )
         4           Pb  tau(   4) = (  0.2499986  0.4999716  0.9999938  )
         5           Pb  tau(   5) = (  0.2499936  0.4999820  0.3333271  )
         6           Pb  tau(   6) = (  0.2499961  0.4999768  0.6666604  )
         7           Pb  tau(   7) = (  0.2499972  0.7499704  0.9999902  )
         8           Pb  tau(   8) = (  0.2499922  0.7499809  0.3333236  )
[...]
     atom   45 type  1   force =     0.00000000    0.00000000    0.00000000
     atom   46 type  1   force =     0.00000000    0.00000000    0.00000000
     atom   47 type  1   force =     0.00000000    0.00000000    0.00000000
     atom   48 type  1   force =     0.00000000    0.00000000    0.00000000
     atom   49 type  2   force =     0.00000000    0.00000000    0.00000000
     atom   50 type  2   force =     0.00000000    0.00000000    0.00000000
     atom   51 type  2   force =     0.00000000    0.00000000    0.00000000
     atom   52 type  2   force =     0.00000000    0.00000000    0.00000000
     atom   53 type  2   force =     0.00000000    0.00000000    0.00000000
     atom   54 type  2   force =     0.00000000    0.00000000    0.00000000
     atom   55 type  2   force =     0.00000000    0.00000000    0.00000000
     atom   56 type  2   force =     0.00000000    0.00000000    0.00000000
     atom   57 type  2   force =     0.00000000    0.00000000    0.00000000
     atom   58 type  2   force =     0.00000000    0.00000000    0.00000000
     atom   59 type  2   force =     0.00000000    0.00000000    0.00000000
     atom   60 type  2   force =     0.00000000    0.00000000    0.00000000
[...]
     atom  129 type  2   force =     0.00000000    0.00000000    0.00000000
     atom  130 type  2   force =     0.00000000    0.00000000    0.00000000
     atom  131 type  2   force =     0.00000000    0.00000000    0.00000000
     atom  132 type  2   force =     0.00000000    0.00000000    0.00000000
     atom  133 type  2   force =     0.00000000    0.00000000    0.00000000
     atom  134 type  2   force =     0.00000000    0.00000000    0.00000000
     atom  135 type  2   force =     0.00000000    0.00000000    0.00000000
     atom  136 type  2   force =     0.00000000    0.00000000    0.00000000
     atom  137 type  2   force =     0.00000000    0.00000000    0.00000000
     atom  138 type  2   force =     0.00000000    0.00000000    0.00000000
     atom  139 type  2   force =     0.00000000    0.00000000    0.00000000
     atom  140 type  2   force =     0.00000000    0.00000000    0.00000000
     atom  141 type  2   force =     0.00000000    0.00000000    0.00000000
     atom  142 type  2   force =     0.00000000    0.00000000    0.00000000
     atom  143 type  2   force =     0.00000000    0.00000000    0.00000000
     The SCF correction term to forces
     atom    1 type  1   force =    -0.00000108   -0.00000327    0.00016421
     atom    2 type  1   force =     0.00000002    0.00001735   -0.00023152
     atom    3 type  1   force =     0.00000145   -0.00000496    0.00008124
     atom    4 type  1   force =     0.00000582    0.00000599    0.00021804
     atom    5 type  1   force =     0.00001692    0.00000770   -0.00023242
     atom    6 type  1   force =    -0.00000817    0.00000154    0.00002665
     atom    7 type  1   force =     0.00000648    0.00000261    0.00021844
     atom    8 type  1   force =     0.00001473    0.00001118   -0.00023110
     atom    9 type  1   force =    -0.00000491   -0.00000413    0.00002685
     atom   10 type  1   force =    -0.00000289    0.00000183    0.00016528
     atom   11 type  1   force =     0.00001476   -0.00000925   -0.00023257
     atom   12 type  1   force =    -0.00000372    0.00000076    0.00008013
     atom   13 type  1   force =    -0.00000705   -0.00000326    0.00020603
     atom   14 type  1   force =     0.00000891    0.00000664   -0.00022513
     atom   15 type  1   force =     0.00000175    0.00000141    0.00003863
     atom   16 type  1   force =    -0.00000718    0.00000558    0.00021797
     atom   17 type  1   force =    -0.00001671    0.00000755   -0.00023075
     atom   18 type  1   force =     0.00000693   -0.00000371    0.00002743
     atom   19 type  1   force =     0.00000089    0.00000087    0.00024293
     atom   20 type  1   force =    -0.00000215   -0.00000109   -0.00025466
     atom   21 type  1   force =     0.00000037    0.00000074    0.00001916
     atom   22 type  1   force =     0.00000097   -0.00000797    0.00021886
     atom   23 type  1   force =    -0.00000132   -0.00001917   -0.00023173
     atom   24 type  1   force =     0.00000250    0.00000559    0.00002703
     atom   25 type  1   force =     0.00000039   -0.00001248    0.00023954
     atom   26 type  1   force =    -0.00000067    0.00001018   -0.00020964
     atom   27 type  1   force =     0.00000014    0.00000080   -0.00000036
     atom   28 type  1   force =    -0.00001047    0.00000347    0.00024155
     atom   29 type  1   force =     0.00000833   -0.00000454   -0.00020971
     atom   30 type  1   force =     0.00000286   -0.00000187    0.00000058
     atom   31 type  1   force =    -0.00000601    0.00000066    0.00021441
     atom   32 type  1   force =    -0.00001430    0.00000918   -0.00023273
     atom   33 type  1   force =     0.00000342   -0.00000249    0.00002609
     atom   34 type  1   force =    -0.00000109   -0.00000721    0.00022043
     atom   35 type  1   force =     0.00000239   -0.00001572   -0.00023126
     atom   36 type  1   force =    -0.00000067    0.00000422    0.00002880
     atom   37 type  1   force =     0.00000841   -0.00000375    0.00020621
     atom   38 type  1   force =    -0.00001079    0.00000653   -0.00022233
     atom   39 type  1   force =    -0.00000325   -0.00000000    0.00004078
     atom   40 type  1   force =     0.00001107    0.00000630    0.00023765
     atom   41 type  1   force =    -0.00000805   -0.00000548   -0.00021319
     atom   42 type  1   force =    -0.00000105   -0.00000005   -0.00000023
     atom   43 type  1   force =     0.00000047    0.00000854    0.00020629
     atom   44 type  1   force =    -0.00000143   -0.00000823   -0.00022458
     atom   45 type  1   force =     0.00000196   -0.00000402    0.00004122
     atom   46 type  1   force =     0.00000308    0.00000173    0.00016425
     atom   47 type  1   force =    -0.00001234   -0.00000803   -0.00023194
     atom   48 type  1   force =     0.00000238    0.00000291    0.00008015
     atom   49 type  2   force =     0.00000307    0.00000508   -0.00011248
     atom   50 type  2   force =    -0.00000187   -0.00000116   -0.00001478
     atom   51 type  2   force =    -0.00000163    0.00003540   -0.00032260
     atom   52 type  2   force =    -0.00001298    0.00001486   -0.00012887
     atom   53 type  2   force =     0.00002846   -0.00002288    0.00001573
     atom   54 type  2   force =     0.00001228    0.00000607   -0.00028982
     atom   55 type  2   force =     0.00000098   -0.00000307   -0.00013784
     atom   56 type  2   force =     0.00002443    0.00000609    0.00004244
     atom   57 type  2   force =     0.00003522   -0.00001158   -0.00031528
     atom   58 type  2   force =    -0.00000005   -0.00002051   -0.00011703
     atom   59 type  2   force =    -0.00000214    0.00002976    0.00001812
     atom   60 type  2   force =     0.00003364   -0.00001909   -0.00031878
[...]
     atom  129 type  2   force =     0.00000814   -0.00002416    0.00030746
     atom  130 type  2   force =    -0.00000707   -0.00001900   -0.00005512
     atom  131 type  2   force =     0.00000567    0.00000412    0.00016951
     atom  132 type  2   force =    -0.00001325   -0.00002140    0.00029362
     atom  133 type  2   force =    -0.00002041    0.00000037   -0.00005877
     atom  134 type  2   force =     0.00002681   -0.00000792    0.00015921
     atom  135 type  2   force =    -0.00000393    0.00000701    0.00030665
     atom  136 type  2   force =    -0.00000310   -0.00000509   -0.00005463
     atom  137 type  2   force =     0.00000066    0.00000269    0.00012569
     atom  138 type  2   force =    -0.00001689    0.00000904    0.00028639
     atom  139 type  2   force =    -0.00001153   -0.00002155   -0.00005752
     atom  140 type  2   force =     0.00001029    0.00002709    0.00015450
     atom  141 type  2   force =    -0.00002622   -0.00000456    0.00028361
     atom  142 type  2   force =     0.00000619    0.00001062   -0.00006057
     atom  143 type  2   force =     0.00003096    0.00002283    0.00018560

     Total force =     0.003772     Total SCF correction =     0.002272
     SCF correction compared to forces is large: reduce conv_thr to get better values

     Computing stress (Cartesian axis) and pressure

     Non-local corr. energy    =      68.47801863 Ry

          total   stress  (Ry/bohr**3)                   (kbar)     P=        3.43
   0.00002163  -0.00000000  -0.00000000            3.18       -0.00       -0.00
  -0.00000000   0.00002163  -0.00000000           -0.00        3.18       -0.00
  -0.00000000  -0.00000000   0.00002674           -0.00       -0.00        3.93

     kinetic stress (kbar)  14904.32     -0.00      0.00
                               -0.00  14904.32     -0.00
                                0.00     -0.00  14915.12

     local   stress (kbar)  -7682.58     -0.01     -0.00
                               -0.01  -7682.58     -0.00
                               -0.00     -0.00   1577.04

     nonloc. stress (kbar)  -1087.95     -0.00      0.00
                               -0.00  -1087.95     -0.00
                                0.00     -0.00  -1094.03

     hartree stress (kbar)  12044.51      0.00      0.00
                                0.00  12044.51      0.00
                                0.00      0.00   7868.96

     exc-cor stress (kbar)   6889.70      0.00      0.00
                                0.00   6889.70     -0.00
                                0.00     -0.00   6888.42

     corecor stress (kbar) -11220.05     -0.00     -0.00
                               -0.00 -11220.05     -0.00
                               -0.00     -0.00 -11219.95

     ewald   stress (kbar) -13927.36      0.01      0.00
                                0.01 -13927.36      0.00
                                0.00      0.00 -19015.62

     hubbard stress (kbar)      0.00      0.00      0.00
                                0.00      0.00      0.00
                                0.00      0.00      0.00

     DFT-D   stress (kbar)      0.00      0.00      0.00
                                0.00      0.00      0.00
                                0.00      0.00      0.00

     XDM     stress (kbar)      0.00      0.00      0.00
                                0.00      0.00      0.00
                                0.00      0.00      0.00

     dft-nl  stress (kbar)     82.58     -0.00     -0.00
                               -0.00     82.58      0.00
                               -0.00      0.00     83.99

     TS-vdW  stress (kbar)      0.00      0.00      0.00
                                0.00      0.00      0.00
                                0.00      0.00      0.00

     MDB     stress (kbar)      0.00      0.00      0.00
                                0.00      0.00      0.00
                                0.00      0.00      0.00

     3D-RISM stress (kbar)      0.00      0.00      0.00
                                0.00      0.00      0.00
                                0.00      0.00      0.00

     Energy error            =      3.8E-05 Ry
     Gradient error          =      8.5E-04 Ry/Bohr

     bfgs converged in  18 scf cycles and  17 bfgs steps
     (criteria: energy <  1.0E-04 Ry, force <  1.0E-03 Ry/Bohr)

     End of BFGS Geometry Optimization

     Final energy             =  -96570.2595457172 Ry

     File ./PbI2.bfgs deleted, as requested
Begin final coordinates

ATOMIC_POSITIONS (angstrom)
Pb            2.3557668311        4.0752752046       22.1513261914
Pb            2.3557986347        3.5388377847        7.2735995211
Pb            2.3557495705        4.0824878545       14.7528148627
Pb            0.0015717115        8.1588148360       22.1405063320
Pb            0.0532264898        8.0997652363        7.3893354852
Pb            0.0025698135        8.1631549933       14.7475328482
Pb           -2.3556067982       12.2415488493       22.1404668786
Pb           -2.3808279490       12.3157005980        7.3893050393
Pb           -2.3513238752       12.2402364856       14.7475563750
Pb           -4.7149522881       16.3220876029       22.1512595016
Pb           -5.1794015502       16.5902096487        7.2737061740
Pb           -4.7087200310       16.3185056788       14.7528212450
Pb            7.0646526024        4.0783097205       22.1555826981
Pb            7.0635979741        4.0776963535        7.3207996293
Pb            7.0666657240        4.0794751152       14.7497906820
Pb            4.7099535759        8.1588230683       22.1405631329
Pb            4.6582751232        8.0998328329        7.3894775034
Pb            4.7089614862        8.1631753869       14.7476005002
Pb            2.3557753166       12.2398408405       22.1395461214
Pb            2.3557722135       12.2398552747        7.3893432441
Pb            2.3557868833       12.2398210137       14.7379158007
Pb           -0.0013959153       16.3191517649       22.1405210863
Pb           -0.0782612820       16.3038860260        7.3894167826
Pb            0.0018876527       16.3160789749       14.7475808652
Pb           11.7783260099        4.0734159563       22.1451606653
Pb           11.7783000576        4.0415535111        7.3838208111
Pb           11.7783213934        4.0788651506       14.7529296903
Pb            9.4172396144        8.1628912833       22.1451506484
Pb            9.3896178738        8.1788387723        7.3838791198
Pb            9.4219807318        8.1601587495       14.7529350556
Pb            7.0671302632       12.2415697656       22.1405561142
Pb            7.0923380335       12.3157371890        7.3894615821
Pb            7.0628601967       12.2402501431       14.7475692521
Pb            4.7129439421       16.3191513063       22.1405568120
Pb            4.7898593974       16.3038982167        7.3894310878
Pb            4.7096838682       16.3160917300       14.7475395213
Pb           16.4919940168        4.0782781161       22.1556049765
Pb           16.4930021993        4.0776539289        7.3207343412
Pb           16.4899469989        4.0794543825       14.7496784413
Pb           14.1393776419        8.1628714276       22.1450865209
Pb           14.1669254860        8.1788093365        7.3837650092
Pb           14.1346313572        8.1601429802       14.7529049705
Pb           11.7782913407       12.2425357120       22.1554586390
Pb           11.7782550077       12.2437594225        7.3207333176
Pb           11.7782913435       12.2402537504       14.7496921207
Pb            9.4264779293       16.3220877000       22.1513107218
Pb            9.8909796444       16.5902214505        7.2735810758
Pb            9.4202153419       16.3185003279       14.7527777374
I             2.3557375363        1.3597181466       12.8824090144
I             2.3557221557        1.3597170983       20.2553969571
I             0.0120253580        5.3547159460        5.5014696885
I             0.0014408223        5.4403079633       12.8705288009
I             0.0000235240        5.4342915977       20.2575938025
I            -2.3734907078        9.5093601568        5.4925415332
I            -2.3548443045        9.5202757543       12.8735385265
I            -2.3565681238        9.5192571524       20.2497203118
I            -4.7787973371       13.6524786827        5.5014766951
I            -4.7100418927       13.6008543707       12.8705681960
I            -4.7159470440       13.6025970221       20.2575250609
I             6.9875855979        1.3918226507        5.5015514342
[...]
I             2.3557334303       14.9603545836        1.8798450266
I             2.3557659736       14.9676496243        9.2359718709
I             2.3557737083       14.9600774390       16.6419069077
I            14.1329128892        2.7181641493        1.8850465396
I            14.1339280557        2.7157536316        9.2680414539
I            14.1350360535        2.7187419421       16.6429101081
I            11.7782983031        6.7998368950        1.8847508193
I            11.7782815526        6.7998236513        9.2591007122
I            11.7782916642        6.7997966091       16.6469386282
I             9.4207838283       10.8798177272        1.8849972779
I             9.4191657056       10.8818982556        9.2680805908
I             9.4223512708       10.8813316675       16.6429217396
I             7.0653057821       14.9590047663        1.8844197777
I             7.0220905730       14.9339244605        9.2415178830
I             7.0664186755       14.9596307050       16.6444637900
End final coordinates

     Writing all to output data dir ./PbI2.save/

     General routines

     Parallel routines

     PAW routines

   This run was terminated on:  10:32:23  22Mar2024

   JOB DONE.