     Program PWSCF v.7.1 starts on  8Mar2024 at  9:35:31

     Reading input from espresso.pwi
Warning: card &CELL ignored
Warning: card    CELL_DYNAMICS    = 'BFGS' ignored
Warning: card / ignored

     Current dimensions of program PWSCF are:
     Max number of different atomic species (ntypx) = 10
     Max number of k-points (npk) =  40000
     Max angular momentum in pseudopotentials (lmaxx) =  4
     file Pb.pbe-dn-kjpaw_psl.1.0.0.UPF: wavefunction(s)  6S 6P 5D renormalized
     file I.pbe-dn-kjpaw_psl.1.0.0.UPF: wavefunction(s)  5S 5P renormalized

     IMPORTANT: XC functional enforced from input :
     Exchange-correlation= BEEF-VDW
                           (   1   4  43  14   2   0   0)
     Any further DFT definition will be discarded
     Please, verify this is what you really want

     R & G space division:  proc/nbgrp/npool/nimage =     256
     wavefunctions fft division:  task group distribution
                                  #TG    x Z-proc =       8     32
     Subspace diagonalization in iterative solution of the eigenvalue problem:
     a serial algorithm will be used

     Using Pencil Decomposition

     bravais-lattice index     =            4
     lattice parameter (alat)  =      35.6120  a.u.
     unit-cell volume          =   45937.3577 (a.u.)^3
     number of atoms/cell      =          143
     number of atomic types    =            2
     number of electrons       =      2287.00
     number of Kohn-Sham states=         1373
     kinetic-energy cutoff     =      70.0000  Ry
     charge density cutoff     =     350.0000  Ry
     scf convergence threshold =      1.0E-07
     mixing beta               =       0.7000
     number of iterations used =            8  plain     mixing
     energy convergence thresh.=      1.0E-04
     force convergence thresh. =      1.0E-03
     Exchange-correlation= BEEF-VDW
                           (   1   4  43  14   2   0   0)
     nstep                     =           50

     celldm(1)=  35.612033  celldm(2)=   0.000000  celldm(3)=   1.174479
     celldm(4)=   0.000000  celldm(5)=   0.000000  celldm(6)=   0.000000

     crystal axes: (cart. coord. in units of alat)
               a(1) = (   1.000000   0.000000   0.000000 )
               a(2) = (  -0.500000   0.866025   0.000000 )
               a(3) = (   0.000000   0.000000   1.174479 )

     reciprocal axes: (cart. coord. in units 2 pi/alat)
               b(1) = (  1.000000  0.577350 -0.000000 )
               b(2) = (  0.000000  1.154701  0.000000 )
               b(3) = (  0.000000 -0.000000  0.851442 )

     PseudoPot. # 1 for Pb read from file:
     //group///packages/espresso/pseudo/psl_1.0.0/pslibrary.1.0.0/pbe/PSEUDOPOTENTIALS/Pb.pbe-dn-kjpaw_psl.1.0.0.UPF
     MD5 check sum: 39ab5b8a6bbd56b7735ad9f188aac93a
     Pseudo is Projector augmented-wave + core cor, Zval = 14.0
     Generated using 'atomic' code by A. Dal Corso  v.7.1
     Shape of augmentation charge: PSQ
     Using radial grid of 1281 points,  6 beta functions with:
                l(1) =   0
                l(2) =   0
                l(3) =   1
                l(4) =   1
                l(5) =   2
                l(6) =   2
     Q(r) pseudized with 0 coefficients

     PseudoPot. # 2 for I  read from file:
     //group///packages/espresso/pseudo/psl_1.0.0/pslibrary.1.0.0/pbe/PSEUDOPOTENTIALS/I.pbe-dn-kjpaw_psl.1.0.0.UPF
     MD5 check sum: bfa8781bc1224d19af3f3980e3fab11e
     Pseudo is Projector augmented-wave + core cor, Zval = 17.0
     Generated using 'atomic' code by A. Dal Corso  v.7.1
     Shape of augmentation charge: PSQ
     Using radial grid of 1247 points,  6 beta functions with:
                l(1) =   0
                l(2) =   0
                l(3) =   1
                l(4) =   1
                l(5) =   2
                l(6) =   2
     Q(r) pseudized with 0 coefficients

     atomic species   valence    mass     pseudopotential
        Pb            14.00   207.20000     Pb( 1.00)
        I             17.00   126.90447     I ( 1.00)

     No symmetry found

                                    s                        frac. trans.

      isym =  1     identity

 cryst.   s( 1) = (     1          0          0      )
                  (     0          1          0      )
                  (     0          0          1      )

 cart.    s( 1) = (  1.0000000  0.0000000  0.0000000 )
                  (  0.0000000  1.0000000  0.0000000 )
                  (  0.0000000  0.0000000  1.0000000 )

     point group C_1 (1)
     there are  1 classes
     the character table:

       E
A      1.00

     the symmetry operations in each class and the name of the first element:

     E        1
          identity

   Cartesian axes

     site n.     atom                  positions (alat units)
         1           Pb  tau(   1) = (   0.1250136   0.2164827   1.1744753  )
         2           Pb  tau(   2) = (   0.1250034   0.2164918   0.3914896  )
         3           Pb  tau(   3) = (   0.1250085   0.2164873   0.7829825  )
         4           Pb  tau(   4) = (   0.0000128   0.4329881   1.1744712  )
         5           Pb  tau(   5) = (   0.0000026   0.4329971   0.3914855  )
         6           Pb  tau(   6) = (   0.0000077   0.4329926   0.7829784  )
         7           Pb  tau(   7) = (  -0.1249881   0.6494934   1.1744671  )
         8           Pb  tau(   8) = (  -0.1249983   0.6495025   0.3914814  )
         9           Pb  tau(   9) = (  -0.1249932   0.6494980   0.7829742  )
        10           Pb  tau(  10) = (  -0.2499889   0.8659988   1.1744630  )
        11           Pb  tau(  11) = (  -0.2499991   0.8660078   0.3914773  )
        12           Pb  tau(  12) = (  -0.2499940   0.8660033   0.7829701  )
        13           Pb  tau(  13) = (   0.3750136   0.2164818   1.1744786  )
        14           Pb  tau(  14) = (   0.3750034   0.2164908   0.3914929  )
        15           Pb  tau(  15) = (   0.3750085   0.2164863   0.7829857  )
        16           Pb  tau(  16) = (   0.2500128   0.4329871   1.1744745  )
        17           Pb  tau(  17) = (   0.2500026   0.4329962   0.3914888  )
        18           Pb  tau(  18) = (   0.2500077   0.4329916   0.7829816  )
        19           Pb  tau(  19) = (   0.1250119   0.6494925   1.1744703  )
        20           Pb  tau(  20) = (   0.1250017   0.6495015   0.3914847  )
        21           Pb  tau(  21) = (   0.1250068   0.6494970   0.7829775  )
        22           Pb  tau(  22) = (   0.0000111   0.8659978   1.1744662  )
        23           Pb  tau(  23) = (   0.0000009   0.8660069   0.3914805  )
        24           Pb  tau(  24) = (   0.0000060   0.8660024   0.7829734  )
        25           Pb  tau(  25) = (   0.6250136   0.2164808   1.1744818  )
        26           Pb  tau(  26) = (   0.6250034   0.2164898   0.3914962  )
        27           Pb  tau(  27) = (   0.6250085   0.2164853   0.7829890  )
        28           Pb  tau(  28) = (   0.5000128   0.4329862   1.1744777  )
        29           Pb  tau(  29) = (   0.5000026   0.4329952   0.3914920  )
        30           Pb  tau(  30) = (   0.5000077   0.4329907   0.7829849  )
        31           Pb  tau(  31) = (   0.3750119   0.6494915   1.1744736  )
        32           Pb  tau(  32) = (   0.3750017   0.6495006   0.3914879  )
        33           Pb  tau(  33) = (   0.3750068   0.6494960   0.7829808  )
        34           Pb  tau(  34) = (   0.2500111   0.8659969   1.1744695  )
        35           Pb  tau(  35) = (   0.2500009   0.8660059   0.3914838  )
        36           Pb  tau(  36) = (   0.2500060   0.8660014   0.7829766  )
        37           Pb  tau(  37) = (   0.8750136   0.2164798   1.1744851  )
        38           Pb  tau(  38) = (   0.8750034   0.2164889   0.3914994  )
        39           Pb  tau(  39) = (   0.8750085   0.2164844   0.7829923  )
        40           Pb  tau(  40) = (   0.7500128   0.4329852   1.1744810  )
        41           Pb  tau(  41) = (   0.7500026   0.4329942   0.3914953  )
        42           Pb  tau(  42) = (   0.7500077   0.4329897   0.7829881  )
        43           Pb  tau(  43) = (   0.6250119   0.6494906   1.1744769  )
        44           Pb  tau(  44) = (   0.6250017   0.6494996   0.3914912  )
        45           Pb  tau(  45) = (   0.6250068   0.6494951   0.7829840  )
        46           Pb  tau(  46) = (   0.5000111   0.8659959   1.1744727  )
        47           Pb  tau(  47) = (   0.5000009   0.8660050   0.3914870  )
        48           Pb  tau(  48) = (   0.5000060   0.8660004   0.7829799  )
        49           I   tau(  49) = (   0.1250105   0.0721505   0.6824253  )
        50           I   tau(  50) = (   0.1250156   0.0721459   1.0739182  )
        51           I   tau(  51) = (   0.0000045   0.2886603   0.2909283  )
        52           I   tau(  52) = (   0.0000096   0.2886558   0.6824212  )
        53           I   tau(  53) = (   0.0000147   0.2886513   1.0739140  )
        54           I   tau(  54) = (  -0.1249963   0.5051657   0.2909242  )
        55           I   tau(  55) = (  -0.1249912   0.5051612   0.6824171  )
        56           I   tau(  56) = (  -0.1249861   0.5051566   1.0739099  )
        57           I   tau(  57) = (  -0.2499971   0.7216710   0.2909201  )
        58           I   tau(  58) = (  -0.2499920   0.7216665   0.6824129  )
        59           I   tau(  59) = (  -0.2499869   0.7216620   1.0739058  )
        60           I   tau(  60) = (   0.3750054   0.0721540   0.2909357  )
[...]
       129           I   tau( 129) = (   0.1249958   0.7938439   0.1005496  )
       130           I   tau( 130) = (   0.1250009   0.7938394   0.4920425  )
       131           I   tau( 131) = (   0.1250060   0.7938348   0.8835353  )
       132           I   tau( 132) = (   0.7499983   0.1443268   0.1005653  )
       133           I   tau( 133) = (   0.7500034   0.1443223   0.4920581  )
       134           I   tau( 134) = (   0.7500085   0.1443178   0.8835509  )
       135           I   tau( 135) = (   0.6249975   0.3608322   0.1005611  )
       136           I   tau( 136) = (   0.6250026   0.3608277   0.4920540  )
       137           I   tau( 137) = (   0.6250077   0.3608232   0.8835468  )
       138           I   tau( 138) = (   0.4999966   0.5773376   0.1005570  )
       139           I   tau( 139) = (   0.5000017   0.5773330   0.4920499  )
       140           I   tau( 140) = (   0.5000068   0.5773285   0.8835427  )
       141           I   tau( 141) = (   0.3749958   0.7938429   0.1005529  )
       142           I   tau( 142) = (   0.3750009   0.7938384   0.4920457  )
       143           I   tau( 143) = (   0.3750060   0.7938339   0.8835386  )

   Crystallographic axes

     site n.     atom                  positions (cryst. coord.)
         1           Pb  tau(   1) = (  0.2500000  0.2499727  0.9999973  )
         2           Pb  tau(   2) = (  0.2499950  0.2499832  0.3333306  )
         3           Pb  tau(   3) = (  0.2499975  0.2499780  0.6666639  )
         4           Pb  tau(   4) = (  0.2499986  0.4999716  0.9999938  )
         5           Pb  tau(   5) = (  0.2499936  0.4999820  0.3333271  )
         6           Pb  tau(   6) = (  0.2499961  0.4999768  0.6666604  )
[...]
     atom   51 type  2   force =     0.00000000    0.00000000    0.00000000
     atom   52 type  2   force =     0.00000000    0.00000000    0.00000000
     atom   53 type  2   force =     0.00000000    0.00000000    0.00000000
     atom   54 type  2   force =     0.00000000    0.00000000    0.00000000
     atom   55 type  2   force =     0.00000000    0.00000000    0.00000000
     atom   56 type  2   force =     0.00000000    0.00000000    0.00000000
     atom   57 type  2   force =     0.00000000    0.00000000    0.00000000
     atom   58 type  2   force =     0.00000000    0.00000000    0.00000000
     atom   59 type  2   force =     0.00000000    0.00000000    0.00000000
     atom   60 type  2   force =     0.00000000    0.00000000    0.00000000
[...]
     atom  129 type  2   force =     0.00000000    0.00000000    0.00000000
     atom  130 type  2   force =     0.00000000    0.00000000    0.00000000
     atom  131 type  2   force =     0.00000000    0.00000000    0.00000000
     atom  132 type  2   force =     0.00000000    0.00000000    0.00000000
     atom  133 type  2   force =     0.00000000    0.00000000    0.00000000
     atom  134 type  2   force =     0.00000000    0.00000000    0.00000000
     atom  135 type  2   force =     0.00000000    0.00000000    0.00000000
     atom  136 type  2   force =     0.00000000    0.00000000    0.00000000
     atom  137 type  2   force =     0.00000000    0.00000000    0.00000000
     atom  138 type  2   force =     0.00000000    0.00000000    0.00000000
     atom  139 type  2   force =     0.00000000    0.00000000    0.00000000
     atom  140 type  2   force =     0.00000000    0.00000000    0.00000000
     atom  141 type  2   force =     0.00000000    0.00000000    0.00000000
     atom  142 type  2   force =     0.00000000    0.00000000    0.00000000
     atom  143 type  2   force =     0.00000000    0.00000000    0.00000000
     The SCF correction term to forces
     atom    1 type  1   force =    -0.00000028   -0.00000204    0.00000101
     atom    2 type  1   force =    -0.00000053   -0.00002943    0.00001251
     atom    3 type  1   force =    -0.00000036   -0.00001370   -0.00001691
     atom    4 type  1   force =    -0.00000351   -0.00000366    0.00000832
     atom    5 type  1   force =     0.00001166   -0.00000528    0.00000457
     atom    6 type  1   force =    -0.00000071   -0.00001271   -0.00001349
     atom    7 type  1   force =    -0.00000457   -0.00000185    0.00000829
     atom    8 type  1   force =     0.00000183    0.00001178    0.00000422
     atom    9 type  1   force =    -0.00001103    0.00000507   -0.00001312
     atom   10 type  1   force =    -0.00000228    0.00000130    0.00000078
     atom   11 type  1   force =    -0.00002644    0.00001523    0.00001205
     atom   12 type  1   force =    -0.00001242    0.00000714   -0.00001644
     atom   13 type  1   force =     0.00000137    0.00000115   -0.00000539
     atom   14 type  1   force =    -0.00001162   -0.00000610    0.00001328
     atom   15 type  1   force =    -0.00001109   -0.00000597   -0.00001002
     atom   16 type  1   force =     0.00000358   -0.00000319    0.00000822
     atom   17 type  1   force =    -0.00001161   -0.00000458    0.00000480
     atom   18 type  1   force =     0.00000089   -0.00001218   -0.00001367
     atom   19 type  1   force =     0.00000038   -0.00000013    0.00002442
     atom   20 type  1   force =     0.00000057   -0.00000021    0.00000494
     atom   21 type  1   force =     0.00000046   -0.00000021   -0.00002551
     atom   22 type  1   force =    -0.00000055    0.00000494    0.00000790
     atom   23 type  1   force =    -0.00000924   -0.00000752    0.00000421
     atom   24 type  1   force =    -0.00000982    0.00000703   -0.00001334
     atom   25 type  1   force =     0.00000021    0.00000843    0.00000022
     atom   26 type  1   force =     0.00000057   -0.00000298    0.00000153
     atom   27 type  1   force =     0.00000034    0.00000315   -0.00000393
     atom   28 type  1   force =     0.00000709   -0.00000412    0.00000020
     atom   29 type  1   force =    -0.00000283    0.00000170    0.00000186
     atom   30 type  1   force =     0.00000251   -0.00000139   -0.00000390
     atom   31 type  1   force =     0.00000461   -0.00000152    0.00000833
     atom   32 type  1   force =    -0.00000176    0.00001248    0.00000470
     atom   33 type  1   force =     0.00001105    0.00000546   -0.00001378
     atom   34 type  1   force =     0.00000139    0.00000483    0.00000821
     atom   35 type  1   force =     0.00001044   -0.00000753    0.00000446
     atom   36 type  1   force =     0.00001063    0.00000697   -0.00001372
     atom   37 type  1   force =    -0.00000124    0.00000074   -0.00000479
     atom   38 type  1   force =     0.00001160   -0.00000680    0.00001331
     atom   39 type  1   force =     0.00001105   -0.00000642   -0.00001047
     atom   40 type  1   force =    -0.00000711   -0.00000445    0.00000035
     atom   41 type  1   force =     0.00000279    0.00000105    0.00000162
     atom   42 type  1   force =    -0.00000265   -0.00000190   -0.00000382
     atom   43 type  1   force =    -0.00000029   -0.00000174   -0.00000513
     atom   44 type  1   force =    -0.00000066    0.00001313    0.00001343
     atom   45 type  1   force =    -0.00000046    0.00001259   -0.00000999
     atom   46 type  1   force =     0.00000151    0.00000130    0.00000101
     atom   47 type  1   force =     0.00002513    0.00001508    0.00001251
     atom   48 type  1   force =     0.00001157    0.00000704   -0.00001702
     atom   49 type  2   force =    -0.00000098    0.00000043   -0.00001183
     atom   50 type  2   force =    -0.00000056    0.00000027   -0.00001089
     atom   51 type  2   force =     0.00000454   -0.00000153    0.00001381
     atom   52 type  2   force =     0.00000874   -0.00001967   -0.00000928
     atom   53 type  2   force =    -0.00000538   -0.00000969   -0.00000568
     atom   54 type  2   force =     0.00000559    0.00000237    0.00000159
     atom   55 type  2   force =    -0.00000295   -0.00000267   -0.00001035
     atom   56 type  2   force =    -0.00001204   -0.00000756    0.00000090
     atom   57 type  2   force =     0.00000065    0.00000424    0.00001315
     atom   58 type  2   force =    -0.00001338    0.00001699   -0.00000890
     atom   59 type  2   force =    -0.00001122    0.00000017   -0.00000644
     atom   60 type  2   force =    -0.00000359   -0.00000284    0.00001332
[...]
     atom  129 type  2   force =     0.00000081   -0.00000547    0.00001235
     atom  130 type  2   force =     0.00000122   -0.00000790    0.00000643
     atom  131 type  2   force =     0.00000076    0.00001413   -0.00001056
     atom  132 type  2   force =     0.00000071    0.00000089   -0.00000100
     atom  133 type  2   force =     0.00001394   -0.00000107    0.00000646
     atom  134 type  2   force =     0.00000802    0.00000691   -0.00000207
     atom  135 type  2   force =     0.00000020   -0.00000018   -0.00000591
     atom  136 type  2   force =     0.00000001   -0.00000008    0.00000403
     atom  137 type  2   force =    -0.00000008    0.00000007    0.00000174
     atom  138 type  2   force =     0.00000037   -0.00000018   -0.00000118
     atom  139 type  2   force =     0.00000489    0.00001182    0.00000681
     atom  140 type  2   force =     0.00000954    0.00000293   -0.00000215
     atom  141 type  2   force =    -0.00000007    0.00000019    0.00000832
     atom  142 type  2   force =    -0.00000587   -0.00000356    0.00001679
     atom  143 type  2   force =     0.00002041    0.00001178   -0.00001356

     Total force =     0.006734     Total SCF correction =     0.000179

     Computing stress (Cartesian axis) and pressure

[...]

          total   stress  (Ry/bohr**3)                   (kbar)     P=        1.13
   0.00000616   0.00000001  -0.00000002            0.91        0.00       -0.00
   0.00000001   0.00000617   0.00000002            0.00        0.91        0.00
  -0.00000002   0.00000002   0.00001066           -0.00        0.00        1.57

     kinetic stress (kbar)  14903.02     -0.00     -0.00
                               -0.00  14903.02      0.00
                               -0.00      0.00  14914.89

     local   stress (kbar)  -7754.17     -0.21      0.23
                               -0.21  -7754.57     -0.18
                                0.23     -0.18   1600.28

     nonloc. stress (kbar)  -1089.32      0.00     -0.00
                                0.00  -1089.32      0.00
                               -0.00      0.00  -1094.89

     hartree stress (kbar)  12077.56      0.07     -0.09
                                0.07  12077.71      0.07
                               -0.09      0.07   7860.81

     exc-cor stress (kbar)   6890.29      0.00     -0.00
                                0.00   6890.29      0.00
                               -0.00      0.00   6889.04

     corecor stress (kbar) -11220.01     -0.00      0.00
                               -0.00 -11220.01     -0.00
                                0.00     -0.00 -11219.94

     ewald   stress (kbar) -13889.03      0.13     -0.14
                                0.13 -13888.78      0.11
                               -0.14      0.11 -19032.61

     hubbard stress (kbar)      0.00      0.00      0.00
                                0.00      0.00      0.00
                                0.00      0.00      0.00

     DFT-D   stress (kbar)      0.00      0.00      0.00
                                0.00      0.00      0.00
                                0.00      0.00      0.00

     XDM     stress (kbar)      0.00      0.00      0.00
                                0.00      0.00      0.00
                                0.00      0.00      0.00

     dft-nl  stress (kbar)     82.58     -0.00      0.00
                               -0.00     82.58     -0.00
                                0.00     -0.00     83.98

     TS-vdW  stress (kbar)      0.00      0.00      0.00
                                0.00      0.00      0.00
                                0.00      0.00      0.00

     MDB     stress (kbar)      0.00      0.00      0.00
                                0.00      0.00      0.00
                                0.00      0.00      0.00

     3D-RISM stress (kbar)      0.00      0.00      0.00
                                0.00      0.00      0.00
                                0.00      0.00      0.00

     Energy error            =      1.2E-04 Ry
     Gradient error          =      1.5E-03 Ry/Bohr

     number of scf cycles    =  16
     number of bfgs steps    =  15

     energy             old  =  -96570.6326638334 Ry
     energy             new  =  -96570.6327869560 Ry

     CASE: energy            _new < energy            _old

     new trust radius        =       0.0136112832 bohr
     new conv_thr            =       0.0000000012 Ry

ATOMIC_POSITIONS (angstrom)
Pb            2.3556533764        4.0737543805       22.1421097922
Pb            2.3556462453        3.8820812743        7.3529791922
Pb            2.3557098609        4.0805180904       14.7561986909
Pb            0.0009500232        8.1600432380       22.1326747554
Pb            0.0072194469        8.1475274049        7.3738795300
Pb            0.0006091403        8.1596399022       14.7541396595
Pb           -2.3548010790       12.2403012482       22.1325773482
Pb           -2.3624697870       12.2520218049        7.3738382824
Pb           -2.3552882320       12.2401028128       14.7541539924
Pb           -4.7163558146       16.3228653678       22.1420165575
Pb           -4.8823921640       16.4187223040        7.3531247768
Pb           -4.7104633372       16.3194372242       14.7562174311
Pb            7.0632691169        4.0775236787       22.1410879831
Pb            7.0752816952        4.0845476343        7.3571613707
Pb            7.0675528423        4.0799882808       14.7557127717
Pb            4.7105434956        8.1601422939       22.1326980423
Pb            4.7042079015        8.1477116601        7.3739924855
Pb            4.7110363498        8.1597649949       14.7541545387
Pb            2.3558289269       12.2398160425       22.1343483234
Pb            2.3558836461       12.2398260361        7.3775102029
Pb            2.3559073815       12.2397537513       14.7542062470
Pb            0.0001063692       16.3190055486       22.1326245319
Pb           -0.0138670416       16.3197916152        7.3738799433
Pb            0.0000498701       16.3195240765       14.7541491740
Pb           11.7784025183        4.0758127813       22.1364453474
Pb           11.7784223360        4.0707096235        7.3852619687
Pb           11.7784138609        4.0796000953       14.7558150773
Pb            9.4193526203        8.1617037493       22.1364331581
Pb            9.4148607349        8.1643114255        7.3853368498
Pb            9.4226638254        8.1597562743       14.7558143949
Pb            7.0663093069       12.2404123957       22.1326960141
Pb            7.0739016771       12.2521197242        7.3739450508
Pb            7.0668551794       12.2401692702       14.7541257792
Pb            4.7115991739       16.3190045434       22.1327126031
Pb            4.7255787813       16.3198422138        7.3738812890
Pb            4.7117584690       16.3194822177       14.7541053358
Pb           16.4933594669        4.0774464585       22.1411513118
Pb           16.4813098934        4.0843796979        7.3571090941
Pb           16.4891428868        4.0798411237       14.7556582236
Pb           14.1372913929        8.1616175028       22.1364069238
Pb           14.1416779313        8.1641553981        7.3852200365
Pb           14.1339431257        8.1596461821       14.7558320709
Pb           11.7782200837       12.2441533589       22.1410473367
Pb           11.7781167545       12.2302742973        7.3570915370
Pb           11.7781958505       12.2392149388       14.7556747633
Pb            9.4276885248       16.3228701581       22.1421017092
Pb            9.5936428306       16.4186994840        7.3528996920
Pb            9.4218351122       16.3194070856       14.7561747728
I             2.3556332946        1.3597334133       12.8728318370
I             2.3556007504        1.3597591420       20.2508404204
I             0.0227882982        5.4030193062        5.5118834566
I             0.0007949726        5.4404534071       12.8677699386
I            -0.0018544202        5.4368391679       20.2540453541
I            -2.3601020877        9.5171139684        5.4869951524
I            -2.3557628493        9.5196706679       12.8699184819
I            -2.3564065080        9.5192799046       20.2494556715
I            -4.7316308047       13.6378825876        5.5120995322
I            -4.7102657020       13.6001925249       12.8678882752
I            -4.7146999851       13.5997586512       20.2540849823
I             7.0238871737        1.3584013329        5.5121661481
[...]
I             2.3558475260       14.9595148975        1.8834961006
I             2.3558247109       14.9608349500        9.2602960352
I             2.3558278294       14.9592970454       16.6421178955
I            14.1338706739        2.7192612450        1.8858814206
I            14.1321801866        2.7207503166        9.2628489668
I            14.1342752291        2.7195333415       16.6422816492
I            11.7783901136        6.7998022654        1.8840362889
I            11.7782696307        6.7998537635        9.2634490271
I            11.7782804049        6.7997959561       16.6441639106
I             9.4222943420       10.8799081833        1.8858219612
I             9.4225590939       10.8779119634        9.2628443753
I             9.4226510450       10.8802000814       16.6423027357
I             7.0649762444       14.9586903214        1.8835850129
I             7.1604741449       15.0138712617        9.1782786363
I             7.0673296643       14.9601070346       16.6427137621

     Writing config-only to output data dir ./PbI2.save/
     NEW-OLD atomic charge density approx. for the potential

     Check: negative core charge=   -0.000001

     Non-local corr. energy    =      68.47868920 Ry

     Self-consistent Calculation

     iteration #  1     ecut=    70.00 Ry     beta= 0.70
     Davidson diagonalization with overlap

     max_seconds     =  154800.00
     Calculation stopped in k-point loop, point #     1
     Calculation stopped in scf loop at iteration #     0

     Writing config to output data dir ./PbI2.save/
     Message from routine punch:
     wavefunctions written to file

     General routines

     Parallel routines

     PAW routines

   This run was terminated on:   5:38:19  10Mar2024

   JOB DONE.