     Program PWSCF v.7.1 starts on 12Feb2024 at 14:28:34

     Reading input from espresso.pwi
Warning: card &CELL ignored
Warning: card    CELL_DYNAMICS    = 'BFGS' ignored
Warning: card / ignored

     Current dimensions of program PWSCF are:
     Max number of different atomic species (ntypx) = 10
     Max number of k-points (npk) =  40000
     Max angular momentum in pseudopotentials (lmaxx) =  4
     file Pb.pbe-dn-kjpaw_psl.1.0.0.UPF: wavefunction(s)  6S 6P 5D renormalized
     file I.pbe-dn-kjpaw_psl.1.0.0.UPF: wavefunction(s)  5S 5P renormalized

     IMPORTANT: XC functional enforced from input :
     Exchange-correlation= BEEF-VDW
                           (   1   4  43  14   2   0   0)
     Any further DFT definition will be discarded
     Please, verify this is what you really want

     K-points division:     npool     =       2
     R & G space division:  proc/nbgrp/npool/nimage =      64
     Subspace diagonalization in iterative solution of the eigenvalue problem:
     a serial algorithm will be used

     Using Slab Decomposition

     bravais-lattice index     =            4
     lattice parameter (alat)  =      26.7090  a.u.
     unit-cell volume          =   17226.5091 (a.u.)^3
     number of atoms/cell      =           54
     number of atomic types    =            2
     number of electrons       =       868.00
     number of Kohn-Sham states=          521
     kinetic-energy cutoff     =      70.0000  Ry
     charge density cutoff     =     350.0000  Ry
     scf convergence threshold =      1.0E-07
     mixing beta               =       0.7000
     number of iterations used =            8  plain     mixing
     energy convergence thresh.=      1.0E-04
     force convergence thresh. =      1.0E-03
     Exchange-correlation= BEEF-VDW
                           (   1   4  43  14   2   0   0)
     nstep                     =           50

     celldm(1)=  26.709025  celldm(2)=   0.000000  celldm(3)=   1.043981
     celldm(4)=   0.000000  celldm(5)=   0.000000  celldm(6)=   0.000000

     crystal axes: (cart. coord. in units of alat)
               a(1) = (   1.000000   0.000000   0.000000 )
               a(2) = (  -0.500000   0.866025   0.000000 )
               a(3) = (   0.000000   0.000000   1.043981 )

     reciprocal axes: (cart. coord. in units 2 pi/alat)
               b(1) = (  1.000000  0.577350 -0.000000 )
               b(2) = (  0.000000  1.154701  0.000000 )
               b(3) = (  0.000000 -0.000000  0.957872 )

     PseudoPot. # 1 for Pb read from file:
     //group///packages/espresso/pseudo/psl_1.0.0/pslibrary.1.0.0/pbe/PSEUDOPOTENTIALS/Pb.pbe-dn-kjpaw_psl.1.0.0.UPF
     MD5 check sum: 39ab5b8a6bbd56b7735ad9f188aac93a
     Pseudo is Projector augmented-wave + core cor, Zval = 14.0
     Generated using 'atomic' code by A. Dal Corso  v.7.1
     Shape of augmentation charge: PSQ
     Using radial grid of 1281 points,  6 beta functions with:
                l(1) =   0
                l(2) =   0
                l(3) =   1
                l(4) =   1
                l(5) =   2
                l(6) =   2
     Q(r) pseudized with 0 coefficients

     PseudoPot. # 2 for I  read from file:
     //group///packages/espresso/pseudo/psl_1.0.0/pslibrary.1.0.0/pbe/PSEUDOPOTENTIALS/I.pbe-dn-kjpaw_psl.1.0.0.UPF
     MD5 check sum: bfa8781bc1224d19af3f3980e3fab11e
     Pseudo is Projector augmented-wave + core cor, Zval = 17.0
     Generated using 'atomic' code by A. Dal Corso  v.7.1
     Shape of augmentation charge: PSQ
     Using radial grid of 1247 points,  6 beta functions with:
                l(1) =   0
                l(2) =   0
                l(3) =   1
                l(4) =   1
                l(5) =   2
                l(6) =   2
     Q(r) pseudized with 0 coefficients

     atomic species   valence    mass     pseudopotential
        Pb            14.00   207.20000     Pb( 1.00)
        I             17.00   126.90447     I ( 1.00)

     No symmetry found

                                    s                        frac. trans.

      isym =  1     identity

 cryst.   s( 1) = (     1          0          0      )
                  (     0          1          0      )
                  (     0          0          1      )

 cart.    s( 1) = (  1.0000000  0.0000000  0.0000000 )
                  (  0.0000000  1.0000000  0.0000000 )
                  (  0.0000000  0.0000000  1.0000000 )

     point group C_1 (1)
     there are  1 classes
     the character table:

       E
A      1.00

     the symmetry operations in each class and the name of the first element:

     E        1
          identity

   Cartesian axes

     site n.     atom                  positions (alat units)
         1           Pb  tau(   1) = (   0.1666712   0.2886557   0.5219862  )
         2           Pb  tau(   2) = (   0.0000102   0.5773235   1.0439712  )
         3           Pb  tau(   3) = (   0.0000034   0.5773295   0.5219807  )
         4           Pb  tau(   4) = (  -0.1666576   0.8659973   1.0439657  )
         5           Pb  tau(   5) = (  -0.1666644   0.8660033   0.5219752  )
         6           Pb  tau(   6) = (   0.5000113   0.2886484   1.0439810  )
         7           Pb  tau(   7) = (   0.5000045   0.2886544   0.5219905  )
         8           Pb  tau(   8) = (   0.3333436   0.5773222   1.0439755  )
         9           Pb  tau(   9) = (   0.3333367   0.5773282   0.5219850  )
        10           Pb  tau(  10) = (   0.1666758   0.8659960   1.0439700  )
        11           Pb  tau(  11) = (   0.1666690   0.8660020   0.5219795  )
        12           Pb  tau(  12) = (   0.8333447   0.2886471   1.0439853  )
        13           Pb  tau(  13) = (   0.8333379   0.2886531   0.5219949  )
        14           Pb  tau(  14) = (   0.6666769   0.5773209   1.0439798  )
        15           Pb  tau(  15) = (   0.6666701   0.5773269   0.5219894  )
        16           Pb  tau(  16) = (   0.5000091   0.8659947   1.0439743  )
        17           Pb  tau(  17) = (   0.5000023   0.8660007   0.5219839  )
        18           I   tau(  18) = (   0.1666738   0.0962066   0.3879099  )
        19           I   tau(  19) = (   0.1666806   0.0962006   0.9099004  )
        20           I   tau(  20) = (   0.0000060   0.3848804   0.3879044  )
        21           I   tau(  21) = (   0.0000129   0.3848744   0.9098949  )
        22           I   tau(  22) = (  -0.1666617   0.6735542   0.3878990  )
        23           I   tau(  23) = (  -0.1666549   0.6735482   0.9098894  )
        24           I   tau(  24) = (   0.5000071   0.0962053   0.3879143  )
        25           I   tau(  25) = (   0.5000140   0.0961993   0.9099047  )
        26           I   tau(  26) = (   0.3333394   0.3848792   0.3879088  )
        27           I   tau(  27) = (   0.3333462   0.3848731   0.9098993  )
        28           I   tau(  28) = (   0.1666716   0.6735530   0.3879033  )
        29           I   tau(  29) = (   0.1666784   0.6735469   0.9098938  )
        30           I   tau(  30) = (   0.8333405   0.0962041   0.3879186  )
        31           I   tau(  31) = (   0.8333473   0.0961980   0.9099091  )
        32           I   tau(  32) = (   0.6666727   0.3848779   0.3879131  )
        33           I   tau(  33) = (   0.6666795   0.3848718   0.9099036  )
        34           I   tau(  34) = (   0.5000049   0.6735517   0.3879076  )
        35           I   tau(  35) = (   0.5000117   0.6735457   0.9098981  )
        36           I   tau(  36) = (  -0.0000023   0.1924396   0.1340740  )
        37           I   tau(  37) = (   0.0000045   0.1924336   0.6560644  )
        38           I   tau(  38) = (  -0.1666701   0.4811134   0.1340685  )
        39           I   tau(  39) = (  -0.1666632   0.4811074   0.6560589  )
        40           I   tau(  40) = (  -0.3333378   0.7697873   0.1340630  )
        41           I   tau(  41) = (  -0.3333310   0.7697812   0.6560534  )
        42           I   tau(  42) = (   0.3333311   0.1924384   0.1340783  )
        43           I   tau(  43) = (   0.3333379   0.1924323   0.6560688  )
        44           I   tau(  44) = (   0.1666633   0.4811122   0.1340728  )
        45           I   tau(  45) = (   0.1666701   0.4811061   0.6560633  )
        46           I   tau(  46) = (  -0.0000045   0.7697860   0.1340673  )
        47           I   tau(  47) = (   0.0000023   0.7697799   0.6560578  )
        48           I   tau(  48) = (   0.6666644   0.1924371   0.1340827  )
        49           I   tau(  49) = (   0.6666712   0.1924310   0.6560731  )
        50           I   tau(  50) = (   0.4999966   0.4811109   0.1340772  )
        51           I   tau(  51) = (   0.5000034   0.4811049   0.6560676  )
        52           I   tau(  52) = (   0.3333288   0.7697847   0.1340717  )
        53           I   tau(  53) = (   0.3333356   0.7697787   0.6560621  )
        54           I   tau(  54) = (   0.1666780   0.2886497   1.0439767  )

   Crystallographic axes

     site n.     atom                  positions (cryst. coord.)
         1           Pb  tau(   1) = (  0.3333266  0.3333109  0.4999959  )
         2           Pb  tau(   2) = (  0.3333281  0.6666357  0.9999906  )
         3           Pb  tau(   3) = (  0.3333248  0.6666427  0.4999906  )
         4           Pb  tau(   4) = (  0.3333262  0.9999675  0.9999854  )
         5           Pb  tau(   5) = (  0.3333229  0.9999745  0.4999854  )
         6           Pb  tau(   6) = (  0.6666626  0.3333025  1.0000001  )
         7           Pb  tau(   7) = (  0.6666592  0.3333094  0.5000001  )
         8           Pb  tau(   8) = (  0.6666607  0.6666343  0.9999948  )
         9           Pb  tau(   9) = (  0.6666573  0.6666412  0.4999948  )
        10           Pb  tau(  10) = (  0.6666588  0.9999661  0.9999895  )
        11           Pb  tau(  11) = (  0.6666555  0.9999730  0.4999895  )
        12           Pb  tau(  12) = (  0.9999951  0.3333010  1.0000042  )
        13           Pb  tau(  13) = (  0.9999918  0.3333079  0.5000042  )
        14           Pb  tau(  14) = (  0.9999933  0.6666328  0.9999990  )
        15           Pb  tau(  15) = (  0.9999899  0.6666397  0.4999990  )
        16           Pb  tau(  16) = (  0.9999914  0.9999646  0.9999937  )
        17           Pb  tau(  17) = (  0.9999881  0.9999715  0.4999937  )
        18           I   tau(  18) = (  0.2222187  0.1110899  0.3715680  )
        19           I   tau(  19) = (  0.2222221  0.1110829  0.8715680  )
        20           I   tau(  20) = (  0.2222169  0.4444217  0.3715628  )
        21           I   tau(  21) = (  0.2222202  0.4444147  0.8715628  )
        22           I   tau(  22) = (  0.2222150  0.7777534  0.3715575  )
        23           I   tau(  23) = (  0.2222183  0.7777465  0.8715575  )
        24           I   tau(  24) = (  0.5555513  0.1110884  0.3715722  )
        25           I   tau(  25) = (  0.5555547  0.1110814  0.8715722  )
        26           I   tau(  26) = (  0.5555495  0.4444202  0.3715669  )
        27           I   tau(  27) = (  0.5555528  0.4444132  0.8715669  )
        28           I   tau(  28) = (  0.5555476  0.7777520  0.3715617  )
        29           I   tau(  29) = (  0.5555509  0.7777450  0.8715617  )
[...]
     atom   38 type  2   force =     0.00001257    0.00014554    0.00514184
     atom   39 type  2   force =     0.00029520   -0.00007177    0.00543522
     atom   40 type  2   force =     0.00016315   -0.00018608    0.00510710
     atom   41 type  2   force =     0.00021996    0.00010567    0.00543678
     atom   42 type  2   force =    -0.00144202    0.00070562    0.00400955
     atom   43 type  2   force =    -0.00005989    0.00002419    0.00544366
     atom   44 type  2   force =    -0.00013596   -0.00171565    0.00397117
     atom   45 type  2   force =    -0.00013834    0.00006986    0.00539319
     atom   46 type  2   force =    -0.00029211   -0.00033862    0.00458869
     atom   47 type  2   force =     0.00011937   -0.00007799    0.00538431
     atom   48 type  2   force =    -0.00000570    0.00027115    0.00461366
     atom   49 type  2   force =     0.00013994    0.00007345    0.00541044
     atom   50 type  2   force =     0.00008809    0.00008426    0.00511579
     atom   51 type  2   force =     0.00013260   -0.00008517    0.00543334
     atom   52 type  2   force =     0.00011911   -0.00028451    0.00460062
     atom   53 type  2   force =    -0.00008190   -0.00003877    0.00536039
     atom   54 type  2   force =    -0.00009061   -0.00015367    0.00000016
     The Hubbard contrib.    to forces
     atom    1 type  1   force =     0.00000000    0.00000000    0.00000000
     atom    2 type  1   force =     0.00000000    0.00000000    0.00000000
     atom    3 type  1   force =     0.00000000    0.00000000    0.00000000
     atom    4 type  1   force =     0.00000000    0.00000000    0.00000000
     atom    5 type  1   force =     0.00000000    0.00000000    0.00000000
     atom    6 type  1   force =     0.00000000    0.00000000    0.00000000
     atom    7 type  1   force =     0.00000000    0.00000000    0.00000000
     atom    8 type  1   force =     0.00000000    0.00000000    0.00000000
     atom    9 type  1   force =     0.00000000    0.00000000    0.00000000
     atom   10 type  1   force =     0.00000000    0.00000000    0.00000000
     atom   11 type  1   force =     0.00000000    0.00000000    0.00000000
     atom   12 type  1   force =     0.00000000    0.00000000    0.00000000
     atom   13 type  1   force =     0.00000000    0.00000000    0.00000000
     atom   14 type  1   force =     0.00000000    0.00000000    0.00000000
     atom   15 type  1   force =     0.00000000    0.00000000    0.00000000
     atom   16 type  1   force =     0.00000000    0.00000000    0.00000000
     atom   17 type  1   force =     0.00000000    0.00000000    0.00000000
     atom   18 type  2   force =     0.00000000    0.00000000    0.00000000
     atom   19 type  2   force =     0.00000000    0.00000000    0.00000000
     atom   20 type  2   force =     0.00000000    0.00000000    0.00000000
     atom   21 type  2   force =     0.00000000    0.00000000    0.00000000
     atom   22 type  2   force =     0.00000000    0.00000000    0.00000000
     atom   23 type  2   force =     0.00000000    0.00000000    0.00000000
     atom   24 type  2   force =     0.00000000    0.00000000    0.00000000
     atom   25 type  2   force =     0.00000000    0.00000000    0.00000000
     atom   26 type  2   force =     0.00000000    0.00000000    0.00000000
     atom   27 type  2   force =     0.00000000    0.00000000    0.00000000
     atom   28 type  2   force =     0.00000000    0.00000000    0.00000000
     atom   29 type  2   force =     0.00000000    0.00000000    0.00000000
     atom   30 type  2   force =     0.00000000    0.00000000    0.00000000
     atom   31 type  2   force =     0.00000000    0.00000000    0.00000000
     atom   32 type  2   force =     0.00000000    0.00000000    0.00000000
     atom   33 type  2   force =     0.00000000    0.00000000    0.00000000
     atom   34 type  2   force =     0.00000000    0.00000000    0.00000000
     atom   35 type  2   force =     0.00000000    0.00000000    0.00000000
     atom   36 type  2   force =     0.00000000    0.00000000    0.00000000
     atom   37 type  2   force =     0.00000000    0.00000000    0.00000000
     atom   38 type  2   force =     0.00000000    0.00000000    0.00000000
     atom   39 type  2   force =     0.00000000    0.00000000    0.00000000
     atom   40 type  2   force =     0.00000000    0.00000000    0.00000000
     atom   41 type  2   force =     0.00000000    0.00000000    0.00000000
     atom   42 type  2   force =     0.00000000    0.00000000    0.00000000
     atom   43 type  2   force =     0.00000000    0.00000000    0.00000000
     atom   44 type  2   force =     0.00000000    0.00000000    0.00000000
     atom   45 type  2   force =     0.00000000    0.00000000    0.00000000
     atom   46 type  2   force =     0.00000000    0.00000000    0.00000000
     atom   47 type  2   force =     0.00000000    0.00000000    0.00000000
     atom   48 type  2   force =     0.00000000    0.00000000    0.00000000
     atom   49 type  2   force =     0.00000000    0.00000000    0.00000000
     atom   50 type  2   force =     0.00000000    0.00000000    0.00000000
     atom   51 type  2   force =     0.00000000    0.00000000    0.00000000
     atom   52 type  2   force =     0.00000000    0.00000000    0.00000000
     atom   53 type  2   force =     0.00000000    0.00000000    0.00000000
     atom   54 type  2   force =     0.00000000    0.00000000    0.00000000
     The SCF correction term to forces
     atom    1 type  1   force =     0.00000729    0.00001201    0.00000642
     atom    2 type  1   force =     0.00001141   -0.00000227   -0.00000254
     atom    3 type  1   force =     0.00000354    0.00000861    0.00000782
     atom    4 type  1   force =     0.00001005    0.00000027   -0.00000056
     atom    5 type  1   force =     0.00001152   -0.00000746    0.00000567
     atom    6 type  1   force =    -0.00000838    0.00001224   -0.00001295
     atom    7 type  1   force =     0.00000600    0.00000743    0.00000506
     atom    8 type  1   force =    -0.00000377   -0.00001227   -0.00000858
     atom    9 type  1   force =     0.00000342    0.00000460    0.00000722
     atom   10 type  1   force =    -0.00000158   -0.00000600   -0.00000103
     atom   11 type  1   force =    -0.00000136   -0.00000748    0.00001918
     atom   12 type  1   force =    -0.00000541    0.00000749   -0.00000918
     atom   13 type  1   force =    -0.00001340    0.00000559    0.00000529
     atom   14 type  1   force =    -0.00000673   -0.00000712   -0.00001278
     atom   15 type  1   force =    -0.00000654   -0.00000589   -0.00000829
     atom   16 type  1   force =    -0.00000869   -0.00001173   -0.00000307
     atom   17 type  1   force =    -0.00001014   -0.00001669    0.00000482
     atom   18 type  2   force =     0.00000416    0.00000223    0.00000077
     atom   19 type  2   force =     0.00000687    0.00000160   -0.00000857
     atom   20 type  2   force =     0.00000428    0.00001030    0.00000194
     atom   21 type  2   force =     0.00000359    0.00001398   -0.00000578
     atom   22 type  2   force =    -0.00000750   -0.00001149    0.00000451
     atom   23 type  2   force =     0.00000137   -0.00001145   -0.00000401
     atom   24 type  2   force =     0.00000245    0.00000395    0.00001009
     atom   25 type  2   force =     0.00000399    0.00000776   -0.00000676
     atom   26 type  2   force =     0.00000353    0.00000928    0.00000244
     atom   27 type  2   force =     0.00000683    0.00001251   -0.00000139
     atom   28 type  2   force =     0.00000562   -0.00001444    0.00001265
     atom   29 type  2   force =     0.00000499   -0.00001066   -0.00000503
     atom   30 type  2   force =    -0.00000710   -0.00000561    0.00001113
     atom   31 type  2   force =    -0.00001202   -0.00000364   -0.00000933
     atom   32 type  2   force =    -0.00000840    0.00001177    0.00000909
     atom   33 type  2   force =    -0.00001221    0.00000898   -0.00000421
     atom   34 type  2   force =     0.00000165   -0.00001791    0.00000959
     atom   35 type  2   force =    -0.00000693   -0.00002266   -0.00000421
     atom   36 type  2   force =    -0.00000369    0.00000524   -0.00000112
     atom   37 type  2   force =    -0.00000041    0.00000693    0.00000763
     atom   38 type  2   force =     0.00000088    0.00000310   -0.00000286
     atom   39 type  2   force =     0.00000048    0.00000179    0.00000094
     atom   40 type  2   force =     0.00000041   -0.00001161    0.00000184
     atom   41 type  2   force =    -0.00000261   -0.00001179   -0.00000359
     atom   42 type  2   force =     0.00001155    0.00001077   -0.00000437
     atom   43 type  2   force =     0.00000732    0.00001339    0.00000842
     atom   44 type  2   force =     0.00000883    0.00000929   -0.00000899
     atom   45 type  2   force =     0.00000918    0.00000577    0.00000986
     atom   46 type  2   force =     0.00001064   -0.00000335   -0.00000612
     atom   47 type  2   force =     0.00001613   -0.00000099   -0.00000077
     atom   48 type  2   force =    -0.00000799   -0.00000215   -0.00000548
     atom   49 type  2   force =    -0.00000844   -0.00001074    0.00000469
     atom   50 type  2   force =    -0.00000959   -0.00000273   -0.00000793
     atom   51 type  2   force =    -0.00001707   -0.00000486    0.00000361
     atom   52 type  2   force =    -0.00001096   -0.00001244   -0.00000528
     atom   53 type  2   force =    -0.00001687   -0.00000952    0.00000035
     atom   54 type  2   force =     0.00001591    0.00002718   -0.00000931

     Total force =     0.003841     Total SCF correction =     0.000110

     Computing stress (Cartesian axis) and pressure

     Non-local corr. energy    =      26.18938104 Ry

          total   stress  (Ry/bohr**3)                   (kbar)     P=        8.99
   0.00006068   0.00000022  -0.00000033            8.93        0.03       -0.05
   0.00000022   0.00006095   0.00000020            0.03        8.97        0.03
  -0.00000033   0.00000020   0.00006173           -0.05        0.03        9.08

     kinetic stress (kbar)  14864.30      0.02     -0.05
                                0.02  14864.34      0.04
                               -0.05      0.04  14874.23

     local   stress (kbar)  -7247.58     -6.50      3.82
                               -6.50  -7254.61     -2.07
                                3.82     -2.07   1004.21

     nonloc. stress (kbar)   -878.32      0.03     -0.04
                                0.03   -878.28      0.03
                               -0.04      0.03   -882.29

     hartree stress (kbar)  12025.90      2.68     -1.49
                                2.68  12028.81      0.81
                               -1.49      0.81   8289.31

     exc-cor stress (kbar)   7010.10      0.01     -0.01
                                0.01   7010.10      0.00
                               -0.01      0.00   7009.43

     corecor stress (kbar) -11402.02     -0.00      0.00
                               -0.00 -11402.02     -0.00
                                0.00     -0.00 -11402.00

     ewald   stress (kbar) -14447.84      3.80     -2.28
                                3.80 -14443.75      1.23
                               -2.28      1.23 -18969.28

     hubbard stress (kbar)      0.00      0.00      0.00
                                0.00      0.00      0.00
                                0.00      0.00      0.00

     DFT-D   stress (kbar)      0.00      0.00      0.00
                                0.00      0.00      0.00
                                0.00      0.00      0.00

     XDM     stress (kbar)      0.00      0.00      0.00
                                0.00      0.00      0.00
                                0.00      0.00      0.00

     dft-nl  stress (kbar)     84.38     -0.00      0.00
                               -0.00     84.37     -0.00
                                0.00     -0.00     85.48

     TS-vdW  stress (kbar)      0.00      0.00      0.00
                                0.00      0.00      0.00
                                0.00      0.00      0.00

     MDB     stress (kbar)      0.00      0.00      0.00
                                0.00      0.00      0.00
                                0.00      0.00      0.00

     3D-RISM stress (kbar)      0.00      0.00      0.00
                                0.00      0.00      0.00
                                0.00      0.00      0.00

     Energy error            =      8.5E-05 Ry
     Gradient error          =      9.7E-04 Ry/Bohr

     bfgs converged in  16 scf cycles and  15 bfgs steps
     (criteria: energy <  1.0E-04 Ry, force <  1.0E-03 Ry/Bohr)

     End of BFGS Geometry Optimization

     Final energy             =  -36092.0885487525 Ry

     File ./PbI2.bfgs deleted, as requested
Begin final coordinates

ATOMIC_POSITIONS (angstrom)
Pb            2.3573801981        4.0826091228        7.3777293057
Pb            0.0273901672        8.1156152444       14.7521593532
Pb            0.0014796066        8.1593829884        7.3715286118
Pb           -2.3788777522       12.2832922895       14.7532067594
Pb           -2.3537697894       12.2428545370        7.3779461759
Pb            7.0150370251        4.0812223822       14.7586186878
Pb            7.0658113065        4.0807822536        7.3838042114
Pb            4.6845676036        8.1134911678       14.7555086237
Pb            4.7100813954        8.1576344397        7.3777326944
Pb            2.3532544241       12.2407227958       14.7802148391
Pb            2.3539385428       12.2417909352        7.3960624456
Pb           11.8274027619        4.0813044222       14.7573275341
Pb           11.7798790253        4.0828463533        7.3773123468
Pb            9.4246113568        8.1581933767       14.7303551641
Pb            9.4251155030        8.1593200891        7.3592065311
Pb            7.0903979379       12.2802923562       14.7552598058
Pb            7.0687456796       12.2429396606        7.3776637880
I             2.3606502555        1.3651363724        5.4978762423
I             2.3535559026        1.0339551053       12.7186805211
I             0.0042590448        5.4366624482        5.4930069914
I            -0.2773524807        5.5948421220       12.7190190049
I            -2.3442985867        9.5324780591        5.4869128506
I            -2.3586835548        9.5165746265       12.8872475911
I             7.0821311128        1.3582552521        5.5178286412
I             7.0642562527        1.3685317192       12.8552156838
I             4.7161479729        5.4372128050        5.4967641984
I             4.9864290412        5.5937916180       12.7214845892
I             2.3565219338        9.5459279210        5.5152293932
I             2.3583434270        9.5204841309       12.8545832339
I            11.7584324707        1.3546761828        5.5188859885
I            11.7763520812        1.3641423768       12.8579697481
I             9.4173939754        5.4259602704        5.4899781062
I             9.4186375015        5.4365699860       12.8913368092
I             7.0555894496        9.5250061296        5.4915590239
I             7.0680172395        9.5111873821       12.8900342212
I            -0.2806799408        2.5552726395        2.0363396442
I             0.0021795103        2.7266821716        9.2574342874
I            -2.3466790056        6.8019156556        1.8999797406
I            -2.3644682885        6.8122664481        9.2374958353
I            -4.7063032860       10.8804037608        1.8972641505
I            -4.7056184414       10.8602249707        9.2364446801
I             4.9843294243        2.5569670017        2.0362559269
I             4.7067014890        2.7215014273        9.2623765802
I             2.3514607612        7.1155021292        2.0340913388
I             2.3509487266        6.8027583364        9.2586239146
I            -0.0008235693       10.8749429823        1.8638363132
I            -0.0093912398       10.8685389362        9.2653068098
I             9.4212728337        2.7152061713        1.8679368625
I             9.4279020773        2.7358367106        9.2682985759
I             7.0666697863        6.8024103525        1.9006965816
I             7.0892941742        6.8135691386        9.2402041483
I             4.7032266542       10.8766120290        1.8652326024
I             4.7215215858       10.8727102097        9.2637522159
I             2.3508767086        4.0714915400       14.7554368588
End final coordinates

     Writing all to output data dir ./PbI2.save/

     General routines

     Parallel routines

     PAW routines

   This run was terminated on:  19:29:46  12Feb2024

   JOB DONE.