     Program PWSCF v.7.1 starts on 18Feb2024 at 12: 8: 7

     Reading input from espresso.pwi
Warning: card &CELL ignored
Warning: card    CELL_DYNAMICS    = 'BFGS' ignored
Warning: card / ignored

     Current dimensions of program PWSCF are:
     Max number of different atomic species (ntypx) = 10
     Max number of k-points (npk) =  40000
     Max angular momentum in pseudopotentials (lmaxx) =  4
     file Pb.pbe-dn-kjpaw_psl.1.0.0.UPF: wavefunction(s)  6S 6P 5D renormalized
     file I.pbe-dn-kjpaw_psl.1.0.0.UPF: wavefunction(s)  5S 5P renormalized

     IMPORTANT: XC functional enforced from input :
     Exchange-correlation= BEEF-VDW
                           (   1   4  43  14   2   0   0)
     Any further DFT definition will be discarded
     Please, verify this is what you really want

     K-points division:     npool     =       2
     R & G space division:  proc/nbgrp/npool/nimage =      64
     Subspace diagonalization in iterative solution of the eigenvalue problem:
     a serial algorithm will be used

     Using Slab Decomposition

     bravais-lattice index     =            4
     lattice parameter (alat)  =      26.7090  a.u.
     unit-cell volume          =   17226.5091 (a.u.)^3
     number of atoms/cell      =           54
     number of atomic types    =            2
     number of electrons       =       868.00
     number of Kohn-Sham states=          521
     kinetic-energy cutoff     =      70.0000  Ry
     charge density cutoff     =     350.0000  Ry
     scf convergence threshold =      1.0E-07
     mixing beta               =       0.7000
     number of iterations used =            8  plain     mixing
     Exchange-correlation= BEEF-VDW
                           (   1   4  43  14   2   0   0)

     celldm(1)=  26.709025  celldm(2)=   0.000000  celldm(3)=   1.043981
     celldm(4)=   0.000000  celldm(5)=   0.000000  celldm(6)=   0.000000

     crystal axes: (cart. coord. in units of alat)
               a(1) = (   1.000000   0.000000   0.000000 )
               a(2) = (  -0.500000   0.866025   0.000000 )
               a(3) = (   0.000000   0.000000   1.043981 )

     reciprocal axes: (cart. coord. in units 2 pi/alat)
               b(1) = (  1.000000  0.577350 -0.000000 )
               b(2) = (  0.000000  1.154701  0.000000 )
               b(3) = (  0.000000 -0.000000  0.957872 )

     PseudoPot. # 1 for Pb read from file:
     /trace/group/acmegroup/atimmins/packages/espresso/pseudo/psl_1.0.0/pslibrary.1.0.0/pbe/PSEUDOPOTENTIALS/Pb.pbe-dn-kjpaw_psl.1.0.0.UPF
     MD5 check sum: 39ab5b8a6bbd56b7735ad9f188aac93a
     Pseudo is Projector augmented-wave + core cor, Zval = 14.0
     Generated using 'atomic' code by A. Dal Corso  v.7.1
     Shape of augmentation charge: PSQ
     Using radial grid of 1281 points,  6 beta functions with:
                l(1) =   0
                l(2) =   0
                l(3) =   1
                l(4) =   1
                l(5) =   2
                l(6) =   2
     Q(r) pseudized with 0 coefficients

     PseudoPot. # 2 for I  read from file:
     /trace/group/acmegroup/atimmins/packages/espresso/pseudo/psl_1.0.0/pslibrary.1.0.0/pbe/PSEUDOPOTENTIALS/I.pbe-dn-kjpaw_psl.1.0.0.UPF
     MD5 check sum: bfa8781bc1224d19af3f3980e3fab11e
     Pseudo is Projector augmented-wave + core cor, Zval = 17.0
     Generated using 'atomic' code by A. Dal Corso  v.7.1
     Shape of augmentation charge: PSQ
     Using radial grid of 1247 points,  6 beta functions with:
                l(1) =   0
                l(2) =   0
                l(3) =   1
                l(4) =   1
                l(5) =   2
                l(6) =   2
     Q(r) pseudized with 0 coefficients

     atomic species   valence    mass     pseudopotential
        Pb            14.00   207.20000     Pb( 1.00)
        I             17.00   126.90447     I ( 1.00)

     No symmetry found

                                    s                        frac. trans.

      isym =  1     identity

 cryst.   s( 1) = (     1          0          0      )
                  (     0          1          0      )
                  (     0          0          1      )

 cart.    s( 1) = (  1.0000000  0.0000000  0.0000000 )
                  (  0.0000000  1.0000000  0.0000000 )
                  (  0.0000000  0.0000000  1.0000000 )

     point group C_1 (1)
     there are  1 classes
     the character table:

       E
A      1.00

     the symmetry operations in each class and the name of the first element:

     E        1
          identity

   Cartesian axes

     site n.     atom                  positions (alat units)
         1           Pb  tau(   1) = (   0.1666712   0.2886557   0.5219862  )
         2           Pb  tau(   2) = (   0.0000102   0.5773235   1.0439712  )
         3           Pb  tau(   3) = (   0.0000034   0.5773295   0.5219807  )
         4           Pb  tau(   4) = (  -0.1666576   0.8659973   1.0439657  )
         5           Pb  tau(   5) = (  -0.1666644   0.8660033   0.5219752  )
         6           Pb  tau(   6) = (   0.5000113   0.2886484   1.0439810  )
         7           Pb  tau(   7) = (   0.5000045   0.2886544   0.5219905  )
         8           Pb  tau(   8) = (   0.3333436   0.5773222   1.0439755  )
         9           Pb  tau(   9) = (   0.3333367   0.5773282   0.5219850  )
        10           Pb  tau(  10) = (   0.1666758   0.8659960   1.0439700  )
        11           Pb  tau(  11) = (   0.1666690   0.8660020   0.5219795  )
        12           Pb  tau(  12) = (   0.8333447   0.2886471   1.0439853  )
        13           Pb  tau(  13) = (   0.8333379   0.2886531   0.5219949  )
        14           Pb  tau(  14) = (   0.6666769   0.5773209   1.0439798  )
        15           Pb  tau(  15) = (   0.6666701   0.5773269   0.5219894  )
        16           Pb  tau(  16) = (   0.5000091   0.8659947   1.0439743  )
        17           Pb  tau(  17) = (   0.5000023   0.8660007   0.5219839  )
        18           I   tau(  18) = (   0.1666738   0.0962066   0.3879099  )
        19           I   tau(  19) = (   0.1666806   0.0962006   0.9099004  )
        20           I   tau(  20) = (   0.0000060   0.3848804   0.3879044  )
        21           I   tau(  21) = (   0.0000129   0.3848744   0.9098949  )
        22           I   tau(  22) = (  -0.1666617   0.6735542   0.3878990  )
        23           I   tau(  23) = (  -0.1666549   0.6735482   0.9098894  )
        24           I   tau(  24) = (   0.5000071   0.0962053   0.3879143  )
        25           I   tau(  25) = (   0.5000140   0.0961993   0.9099047  )
        26           I   tau(  26) = (   0.3333394   0.3848792   0.3879088  )
        27           I   tau(  27) = (   0.3333462   0.3848731   0.9098993  )
        28           I   tau(  28) = (   0.1666716   0.6735530   0.3879033  )
        29           I   tau(  29) = (   0.1666784   0.6735469   0.9098938  )
        30           I   tau(  30) = (   0.8333405   0.0962041   0.3879186  )
        31           I   tau(  31) = (   0.8333473   0.0961980   0.9099091  )
        32           I   tau(  32) = (   0.6666727   0.3848779   0.3879131  )
        33           I   tau(  33) = (   0.6666795   0.3848718   0.9099036  )
        34           I   tau(  34) = (   0.5000049   0.6735517   0.3879076  )
        35           I   tau(  35) = (   0.5000117   0.6735457   0.9098981  )
        36           I   tau(  36) = (  -0.0000023   0.1924396   0.1340740  )
        37           I   tau(  37) = (   0.0000045   0.1924336   0.6560644  )
        38           I   tau(  38) = (  -0.1666701   0.4811134   0.1340685  )
        39           I   tau(  39) = (  -0.1666632   0.4811074   0.6560589  )
        40           I   tau(  40) = (  -0.3333378   0.7697873   0.1340630  )
        41           I   tau(  41) = (  -0.3333310   0.7697812   0.6560534  )
        42           I   tau(  42) = (   0.3333311   0.1924384   0.1340783  )
        43           I   tau(  43) = (   0.3333379   0.1924323   0.6560688  )
        44           I   tau(  44) = (   0.1666633   0.4811122   0.1340728  )
        45           I   tau(  45) = (   0.1666701   0.4811061   0.6560633  )
        46           I   tau(  46) = (  -0.0000045   0.7697860   0.1340673  )
        47           I   tau(  47) = (   0.0000023   0.7697799   0.6560578  )
        48           I   tau(  48) = (   0.6666644   0.1924371   0.1340827  )
        49           I   tau(  49) = (   0.6666712   0.1924310   0.6560731  )
        50           I   tau(  50) = (   0.4999966   0.4811109   0.1340772  )
        51           I   tau(  51) = (   0.5000034   0.4811049   0.6560676  )
        52           I   tau(  52) = (   0.3333288   0.7697847   0.1340717  )
        53           I   tau(  53) = (   0.3333356   0.7697787   0.6560621  )
        54           I   tau(  54) = (   0.1666780   0.2886497   1.0439767  )

   Crystallographic axes

     site n.     atom                  positions (cryst. coord.)
         1           Pb  tau(   1) = (  0.3333266  0.3333109  0.4999959  )
         2           Pb  tau(   2) = (  0.3333281  0.6666357  0.9999906  )
         3           Pb  tau(   3) = (  0.3333248  0.6666427  0.4999906  )
         4           Pb  tau(   4) = (  0.3333262  0.9999675  0.9999854  )
         5           Pb  tau(   5) = (  0.3333229  0.9999745  0.4999854  )
         6           Pb  tau(   6) = (  0.6666626  0.3333025  1.0000001  )
         7           Pb  tau(   7) = (  0.6666592  0.3333094  0.5000001  )
         8           Pb  tau(   8) = (  0.6666607  0.6666343  0.9999948  )
         9           Pb  tau(   9) = (  0.6666573  0.6666412  0.4999948  )
        10           Pb  tau(  10) = (  0.6666588  0.9999661  0.9999895  )
        11           Pb  tau(  11) = (  0.6666555  0.9999730  0.4999895  )
        12           Pb  tau(  12) = (  0.9999951  0.3333010  1.0000042  )
        13           Pb  tau(  13) = (  0.9999918  0.3333079  0.5000042  )
        14           Pb  tau(  14) = (  0.9999933  0.6666328  0.9999990  )
        15           Pb  tau(  15) = (  0.9999899  0.6666397  0.4999990  )
        16           Pb  tau(  16) = (  0.9999914  0.9999646  0.9999937  )
        17           Pb  tau(  17) = (  0.9999881  0.9999715  0.4999937  )
        18           I   tau(  18) = (  0.2222187  0.1110899  0.3715680  )
        19           I   tau(  19) = (  0.2222221  0.1110829  0.8715680  )
        20           I   tau(  20) = (  0.2222169  0.4444217  0.3715628  )
        21           I   tau(  21) = (  0.2222202  0.4444147  0.8715628  )
        22           I   tau(  22) = (  0.2222150  0.7777534  0.3715575  )
        23           I   tau(  23) = (  0.2222183  0.7777465  0.8715575  )
        24           I   tau(  24) = (  0.5555513  0.1110884  0.3715722  )
        25           I   tau(  25) = (  0.5555547  0.1110814  0.8715722  )
        26           I   tau(  26) = (  0.5555495  0.4444202  0.3715669  )
        27           I   tau(  27) = (  0.5555528  0.4444132  0.8715669  )
        28           I   tau(  28) = (  0.5555476  0.7777520  0.3715617  )
        29           I   tau(  29) = (  0.5555509  0.7777450  0.8715617  )
        30           I   tau(  30) = (  0.8888839  0.1110869  0.3715764  )
[...]
     atom   38 type  2   force =     0.00001261    0.00014552    0.00514185
     atom   39 type  2   force =     0.00029524   -0.00007179    0.00543520
     atom   40 type  2   force =     0.00016315   -0.00018619    0.00510718
     atom   41 type  2   force =     0.00021990    0.00010549    0.00543669
     atom   42 type  2   force =    -0.00144179    0.00070574    0.00400957
     atom   43 type  2   force =    -0.00005988    0.00002437    0.00544376
     atom   44 type  2   force =    -0.00013583   -0.00171534    0.00397105
     atom   45 type  2   force =    -0.00013821    0.00006987    0.00539326
     atom   46 type  2   force =    -0.00029196   -0.00033859    0.00458853
     atom   47 type  2   force =     0.00011961   -0.00007799    0.00538402
     atom   48 type  2   force =    -0.00000575    0.00027102    0.00461375
     atom   49 type  2   force =     0.00013983    0.00007323    0.00541034
     atom   50 type  2   force =     0.00008795    0.00008418    0.00511566
     atom   51 type  2   force =     0.00013225   -0.00008530    0.00543326
     atom   52 type  2   force =     0.00011892   -0.00028457    0.00460055
     atom   53 type  2   force =    -0.00008217   -0.00003891    0.00536016
     atom   54 type  2   force =    -0.00009007   -0.00015276   -0.00000014
     The Hubbard contrib.    to forces
     atom    1 type  1   force =     0.00000000    0.00000000    0.00000000
     atom    2 type  1   force =     0.00000000    0.00000000    0.00000000
     atom    3 type  1   force =     0.00000000    0.00000000    0.00000000
     atom    4 type  1   force =     0.00000000    0.00000000    0.00000000
     atom    5 type  1   force =     0.00000000    0.00000000    0.00000000
     atom    6 type  1   force =     0.00000000    0.00000000    0.00000000
     atom    7 type  1   force =     0.00000000    0.00000000    0.00000000
     atom    8 type  1   force =     0.00000000    0.00000000    0.00000000
     atom    9 type  1   force =     0.00000000    0.00000000    0.00000000
     atom   10 type  1   force =     0.00000000    0.00000000    0.00000000
     atom   11 type  1   force =     0.00000000    0.00000000    0.00000000
     atom   12 type  1   force =     0.00000000    0.00000000    0.00000000
     atom   13 type  1   force =     0.00000000    0.00000000    0.00000000
     atom   14 type  1   force =     0.00000000    0.00000000    0.00000000
     atom   15 type  1   force =     0.00000000    0.00000000    0.00000000
     atom   16 type  1   force =     0.00000000    0.00000000    0.00000000
     atom   17 type  1   force =     0.00000000    0.00000000    0.00000000
     atom   18 type  2   force =     0.00000000    0.00000000    0.00000000
     atom   19 type  2   force =     0.00000000    0.00000000    0.00000000
     atom   20 type  2   force =     0.00000000    0.00000000    0.00000000
     atom   21 type  2   force =     0.00000000    0.00000000    0.00000000
     atom   22 type  2   force =     0.00000000    0.00000000    0.00000000
     atom   23 type  2   force =     0.00000000    0.00000000    0.00000000
     atom   24 type  2   force =     0.00000000    0.00000000    0.00000000
     atom   25 type  2   force =     0.00000000    0.00000000    0.00000000
     atom   26 type  2   force =     0.00000000    0.00000000    0.00000000
     atom   27 type  2   force =     0.00000000    0.00000000    0.00000000
     atom   28 type  2   force =     0.00000000    0.00000000    0.00000000
     atom   29 type  2   force =     0.00000000    0.00000000    0.00000000
     atom   30 type  2   force =     0.00000000    0.00000000    0.00000000
     atom   31 type  2   force =     0.00000000    0.00000000    0.00000000
     atom   32 type  2   force =     0.00000000    0.00000000    0.00000000
     atom   33 type  2   force =     0.00000000    0.00000000    0.00000000
     atom   34 type  2   force =     0.00000000    0.00000000    0.00000000
     atom   35 type  2   force =     0.00000000    0.00000000    0.00000000
     atom   36 type  2   force =     0.00000000    0.00000000    0.00000000
     atom   37 type  2   force =     0.00000000    0.00000000    0.00000000
     atom   38 type  2   force =     0.00000000    0.00000000    0.00000000
     atom   39 type  2   force =     0.00000000    0.00000000    0.00000000
     atom   40 type  2   force =     0.00000000    0.00000000    0.00000000
     atom   41 type  2   force =     0.00000000    0.00000000    0.00000000
     atom   42 type  2   force =     0.00000000    0.00000000    0.00000000
     atom   43 type  2   force =     0.00000000    0.00000000    0.00000000
     atom   44 type  2   force =     0.00000000    0.00000000    0.00000000
     atom   45 type  2   force =     0.00000000    0.00000000    0.00000000
     atom   46 type  2   force =     0.00000000    0.00000000    0.00000000
     atom   47 type  2   force =     0.00000000    0.00000000    0.00000000
     atom   48 type  2   force =     0.00000000    0.00000000    0.00000000
     atom   49 type  2   force =     0.00000000    0.00000000    0.00000000
     atom   50 type  2   force =     0.00000000    0.00000000    0.00000000
     atom   51 type  2   force =     0.00000000    0.00000000    0.00000000
     atom   52 type  2   force =     0.00000000    0.00000000    0.00000000
     atom   53 type  2   force =     0.00000000    0.00000000    0.00000000
     atom   54 type  2   force =     0.00000000    0.00000000    0.00000000
     The SCF correction term to forces
     atom    1 type  1   force =    -0.00003165   -0.00005254   -0.00004668
     atom    2 type  1   force =    -0.00003547    0.00000170    0.00003963
     atom    3 type  1   force =    -0.00001968   -0.00002154   -0.00004547
     atom    4 type  1   force =    -0.00005161    0.00001159    0.00002071
     atom    5 type  1   force =    -0.00003951    0.00002125   -0.00003779
     atom    6 type  1   force =     0.00002440   -0.00006028    0.00007957
     atom    7 type  1   force =    -0.00001201   -0.00003465   -0.00005009
     atom    8 type  1   force =     0.00000007    0.00005000    0.00006968
     atom    9 type  1   force =    -0.00000844   -0.00000183   -0.00005209
     atom   10 type  1   force =     0.00000701    0.00002569    0.00003784
     atom   11 type  1   force =     0.00000393    0.00002664   -0.00007373
     atom   12 type  1   force =     0.00003456   -0.00003401    0.00005605
     atom   13 type  1   force =     0.00004379   -0.00002218   -0.00004277
     atom   14 type  1   force =     0.00003284    0.00003965    0.00005365
     atom   15 type  1   force =     0.00002718    0.00002585   -0.00001112
     atom   16 type  1   force =     0.00004445    0.00005688    0.00002766
     atom   17 type  1   force =     0.00003533    0.00005663   -0.00003655
     atom   18 type  2   force =    -0.00001732    0.00000172   -0.00002224
     atom   19 type  2   force =    -0.00002487    0.00000132    0.00005565
     atom   20 type  2   force =    -0.00000996   -0.00004841   -0.00002794
     atom   21 type  2   force =    -0.00000471   -0.00006109    0.00004438
     atom   22 type  2   force =     0.00000508    0.00003304   -0.00002977
     atom   23 type  2   force =    -0.00002177    0.00004750    0.00003368
     atom   24 type  2   force =    -0.00002008   -0.00000793   -0.00004625
     atom   25 type  2   force =    -0.00002466   -0.00003740    0.00004382
     atom   26 type  2   force =    -0.00002456   -0.00004781   -0.00003690
     atom   27 type  2   force =    -0.00004099   -0.00005935    0.00003278
     atom   28 type  2   force =    -0.00001972    0.00002407   -0.00005025
     atom   29 type  2   force =    -0.00002917    0.00004491    0.00003701
     atom   30 type  2   force =     0.00003823    0.00002617   -0.00004875
     atom   31 type  2   force =     0.00005458    0.00001491    0.00005150
     atom   32 type  2   force =     0.00003507   -0.00003457   -0.00004625
     atom   33 type  2   force =     0.00006305   -0.00001852    0.00003609
     atom   34 type  2   force =     0.00001546    0.00006239   -0.00004493
     atom   35 type  2   force =     0.00005340    0.00010330    0.00003593
     atom   36 type  2   force =     0.00002374   -0.00001705    0.00000872
     atom   37 type  2   force =     0.00001671   -0.00002751   -0.00003743
     atom   38 type  2   force =     0.00000722   -0.00001616    0.00002537
     atom   39 type  2   force =     0.00001120   -0.00000731   -0.00002903
     atom   40 type  2   force =     0.00000177    0.00005787    0.00000148
     atom   41 type  2   force =     0.00001161    0.00006137   -0.00000486
     atom   42 type  2   force =    -0.00005438   -0.00004295    0.00002594
     atom   43 type  2   force =    -0.00004803   -0.00006392   -0.00004571
     atom   44 type  2   force =    -0.00003787   -0.00004658    0.00004036
     atom   45 type  2   force =    -0.00004763   -0.00003428   -0.00005204
     atom   46 type  2   force =    -0.00003144    0.00002356    0.00003053
     atom   47 type  2   force =    -0.00005312    0.00001235   -0.00001757
     atom   48 type  2   force =     0.00003237   -0.00001210    0.00003348
     atom   49 type  2   force =     0.00003245    0.00000424   -0.00003560
     atom   50 type  2   force =     0.00003322    0.00000570    0.00005217
     atom   51 type  2   force =     0.00004384    0.00001156   -0.00005045
     atom   52 type  2   force =     0.00002989    0.00006287    0.00003155
     atom   53 type  2   force =     0.00004343    0.00005477   -0.00002206
     atom   54 type  2   force =    -0.00006751   -0.00011339    0.00006614

     Total force =     0.003854     Total SCF correction =     0.000505
     SCF correction compared to forces is large: reduce conv_thr to get better values

     Computing stress (Cartesian axis) and pressure

[...]

          total   stress  (Ry/bohr**3)                   (kbar)     P=        8.99
   0.00006068   0.00000022  -0.00000033            8.93        0.03       -0.05
   0.00000022   0.00006095   0.00000020            0.03        8.97        0.03
  -0.00000033   0.00000020   0.00006173           -0.05        0.03        9.08

     kinetic stress (kbar)  14864.30      0.02     -0.05
                                0.02  14864.34      0.04
                               -0.05      0.04  14874.23

     local   stress (kbar)  -7247.58     -6.50      3.82
                               -6.50  -7254.61     -2.07
                                3.82     -2.07   1004.20

     nonloc. stress (kbar)   -878.32      0.03     -0.04
                                0.03   -878.28      0.03
                               -0.04      0.03   -882.29

     hartree stress (kbar)  12025.90      2.68     -1.50
                                2.68  12028.81      0.81
                               -1.50      0.81   8289.31

     exc-cor stress (kbar)   7010.10      0.01     -0.01
                                0.01   7010.10      0.00
                               -0.01      0.00   7009.43

     corecor stress (kbar) -11402.02     -0.00      0.00
                               -0.00 -11402.02     -0.00
                                0.00     -0.00 -11402.00

     ewald   stress (kbar) -14447.84      3.80     -2.28
                                3.80 -14443.75      1.23
                               -2.28      1.23 -18969.28

     hubbard stress (kbar)      0.00      0.00      0.00
                                0.00      0.00      0.00
                                0.00      0.00      0.00

     DFT-D   stress (kbar)      0.00      0.00      0.00
                                0.00      0.00      0.00
                                0.00      0.00      0.00

     XDM     stress (kbar)      0.00      0.00      0.00
                                0.00      0.00      0.00
                                0.00      0.00      0.00

     dft-nl  stress (kbar)     84.38     -0.00      0.00
                               -0.00     84.37     -0.00
                                0.00     -0.00     85.48

     TS-vdW  stress (kbar)      0.00      0.00      0.00
                                0.00      0.00      0.00
                                0.00      0.00      0.00

     MDB     stress (kbar)      0.00      0.00      0.00
                                0.00      0.00      0.00
                                0.00      0.00      0.00

     3D-RISM stress (kbar)      0.00      0.00      0.00
                                0.00      0.00      0.00
                                0.00      0.00      0.00

[...]

     Non-local corr. energy    =      26.18938144 Ry

 BEEFens 2000 ensemble energies
             -0.219286494114027E+02
             -0.220797425289506E+03
             -0.100428724840939E+03
              0.770929930763680E+02
             -0.168735312501877E+03
             -0.206657606940078E+03
              0.106042140993972E+03
              0.475932357574038E+00
              0.178771195827722E+03
             -0.113137608141594E+02
              0.914642676131609E+02
              0.940408560410913E+01
             -0.701569057908125E+01
             -0.566017179409084E+01
              0.114162507765732E+03
             -0.858119751893435E+02
             -0.168682543840524E+03
             -0.544022528740512E+02
              0.488351272267466E+02
             -0.979537236448323E+00
              0.248636636357222E+03
              0.207546772827592E+03
             -0.127877202937437E+03
              0.442044377316022E+02
             -0.266362782494412E+03
              0.218655314167861E+03
              0.747344444354478E+02
              0.197473014787106E+03
              0.133115154388166E+03
             -0.618207197716001E+02
              0.486937076699719E+02
             -0.871285432699015E+02
              0.363270711152585E+02
              0.132347709624190E+03
              0.142372763571699E+03
             -0.618754489154645E+02
              0.314270153281411E+03
             -0.126400553505461E+03
             -0.842637015219311E+02
              0.125688840944322E+03
              0.554042076729245E+02
              0.954662324872743E+02
             -0.184417996904230E+03
             -0.119532359714881E+02
              0.176972224143882E+03
              0.231260312918702E+03
             -0.234740064051567E+03
              0.151126379672367E+02
              0.814645401721012E+02
              0.525703106704543E+02
              0.918636252425141E+02
              0.201642658320153E+03
             -0.130950202840328E+03
             -0.127114754436976E+03
             -0.177108108278651E+03
             -0.257769386737693E+02
             -0.151087985426749E+03
              0.195425327360417E+02
             -0.217927478825079E+02
             -0.119822207972965E+03
[...]
              0.149616490692073E+03
              0.958510114109744E+02
              0.977828020082677E+02
             -0.180842724336703E+03
             -0.186784063702330E+03
             -0.421204789467562E+02
             -0.166951922827310E+03
              0.265094358009015E+03
              0.223309455968890E+03
              0.105263289418966E+03
              0.290314393272920E+03
             -0.145134186387193E+03
             -0.624786635780745E+02
             -0.900016991525517E+02
              0.251095098946053E+03

 BEEF-vdW xc energy contributions
            1 :    -2270.120041051035
            2 :     2080.415678923056
            3 :    -1756.708067418774
            4 :     1385.024379379759
            5 :    -1046.648216444114
            6 :     791.8838578249793
            7 :    -631.6655988355669
            8 :     544.9236792583461
            9 :    -494.6689038258132
           10 :     445.7579117419507
           11 :    -378.2533712330414
           12 :     291.8555486417786
           13 :    -200.6586690735085
           14 :     122.3353575955043
           15 :    -68.20840309418827
           16 :     38.85029554958828
           17 :    -25.86689347499578
           18 :     17.46769505118436
           19 :    -4.520175685867798
           20 :    -15.63002290038003
           21 :     39.02103846117825
           22 :    -58.36815171989656
           23 :     67.83204485283113
           24 :    -66.54308584584442
           25 :     59.00018371948454
           26 :    -52.39399142462889
           27 :     52.60675234193968
           28 :    -61.13411462390741
           29 :     74.44795926027382
           30 :    -85.98693922009443
           31 :    -194.8675012913864
           32 :    -140.1478682759907

     Writing all to output data dir ./PbI2.save/

     General routines

     Parallel routines

     PAW routines

   This run was terminated on:  12:11:40  18Feb2024

   JOB DONE.