     Program PWSCF v.7.1 starts on 24Mar2024 at 22:16:19

     Reading input from espresso.pwi
Warning: card &CELL ignored
Warning: card    CELL_DYNAMICS    = 'BFGS' ignored
Warning: card / ignored

     Current dimensions of program PWSCF are:
     Max number of different atomic species (ntypx) = 10
     Max number of k-points (npk) =  40000
     Max angular momentum in pseudopotentials (lmaxx) =  4
     file Pb.pbe-dn-kjpaw_psl.1.0.0.UPF: wavefunction(s)  6S 6P 5D renormalized
     file I.pbe-dn-kjpaw_psl.1.0.0.UPF: wavefunction(s)  5S 5P renormalized

     IMPORTANT: XC functional enforced from input :
     Exchange-correlation= BEEF-VDW
                           (   1   4  43  14   2   0   0)
     Any further DFT definition will be discarded
     Please, verify this is what you really want

     band groups division:  nbgrp     =       2
     R & G space division:  proc/nbgrp/npool/nimage =      64
     Subspace diagonalization in iterative solution of the eigenvalue problem:
     a serial algorithm will be used

     Using Slab Decomposition

     bravais-lattice index     =            4
     lattice parameter (alat)  =      35.6073  a.u.
     unit-cell volume          =   30614.2220 (a.u.)^3
     number of atoms/cell      =           96
     number of atomic types    =            2
     number of electrons       =      1531.00
     number of Kohn-Sham states=          919
     kinetic-energy cutoff     =      70.0000  Ry
     charge density cutoff     =     350.0000  Ry
     scf convergence threshold =      1.0E-07
     mixing beta               =       0.7000
     number of iterations used =            8  plain     mixing
     energy convergence thresh.=      1.0E-04
     force convergence thresh. =      1.0E-03
     Exchange-correlation= BEEF-VDW
                           (   1   4  43  14   2   0   0)
     nstep                     =           50

     celldm(1)=  35.607290  celldm(2)=   0.000000  celldm(3)=   0.783025
     celldm(4)=   0.000000  celldm(5)=   0.000000  celldm(6)=   0.000000

     crystal axes: (cart. coord. in units of alat)
               a(1) = (   1.000000   0.000000   0.000000 )
               a(2) = (  -0.500000   0.866025   0.000000 )
               a(3) = (   0.000000   0.000000   0.783025 )

     reciprocal axes: (cart. coord. in units 2 pi/alat)
               b(1) = (  1.000000  0.577350 -0.000000 )
               b(2) = (  0.000000  1.154701  0.000000 )
               b(3) = (  0.000000 -0.000000  1.277098 )

     PseudoPot. # 1 for Pb read from file:
     //group///packages/espresso/pseudo/psl_1.0.0/pslibrary.1.0.0/pbe/PSEUDOPOTENTIALS/Pb.pbe-dn-kjpaw_psl.1.0.0.UPF
     MD5 check sum: 39ab5b8a6bbd56b7735ad9f188aac93a
     Pseudo is Projector augmented-wave + core cor, Zval = 14.0
     Generated using 'atomic' code by A. Dal Corso  v.7.1
     Shape of augmentation charge: PSQ
     Using radial grid of 1281 points,  6 beta functions with:
                l(1) =   0
                l(2) =   0
                l(3) =   1
                l(4) =   1
                l(5) =   2
                l(6) =   2
     Q(r) pseudized with 0 coefficients

     PseudoPot. # 2 for I  read from file:
     //group///packages/espresso/pseudo/psl_1.0.0/pslibrary.1.0.0/pbe/PSEUDOPOTENTIALS/I.pbe-dn-kjpaw_psl.1.0.0.UPF
     MD5 check sum: bfa8781bc1224d19af3f3980e3fab11e
     Pseudo is Projector augmented-wave + core cor, Zval = 17.0
     Generated using 'atomic' code by A. Dal Corso  v.7.1
     Shape of augmentation charge: PSQ
     Using radial grid of 1247 points,  6 beta functions with:
                l(1) =   0
                l(2) =   0
                l(3) =   1
                l(4) =   1
                l(5) =   2
                l(6) =   2
     Q(r) pseudized with 0 coefficients

     atomic species   valence    mass     pseudopotential
        Pb            14.00   207.20000     Pb( 1.00)
        I             17.00   126.90447     I ( 1.00)

     No symmetry found

                                    s                        frac. trans.

      isym =  1     identity

 cryst.   s( 1) = (     1          0          0      )
                  (     0          1          0      )
                  (     0          0          1      )

 cart.    s( 1) = (  1.0000000  0.0000000  0.0000000 )
                  (  0.0000000  1.0000000  0.0000000 )
                  (  0.0000000  0.0000000  1.0000000 )

     point group C_1 (1)
     there are  1 classes
     the character table:

       E
A      1.00

     the symmetry operations in each class and the name of the first element:

     E        1
          identity

   Cartesian axes

     site n.     atom                  positions (alat units)
         1           Pb  tau(   1) = (   0.1250086   0.2164870   0.7830203  )
         2           Pb  tau(   2) = (   0.1250034   0.2164916   0.3915076  )
         3           Pb  tau(   3) = (   0.0000077   0.4329922   0.7830161  )
         4           Pb  tau(   4) = (   0.0000025   0.4329968   0.3915034  )
         5           Pb  tau(   5) = (  -0.1249932   0.6494975   0.7830119  )
         6           Pb  tau(   6) = (  -0.1249984   0.6495021   0.3914992  )
         7           Pb  tau(   7) = (  -0.2499941   0.8660028   0.7830077  )
         8           Pb  tau(   8) = (  -0.2499993   0.8660074   0.3914950  )
         9           Pb  tau(   9) = (   0.3750086   0.2164859   0.7830237  )
        10           Pb  tau(  10) = (   0.3750034   0.2164905   0.3915110  )
        11           Pb  tau(  11) = (   0.2500077   0.4329912   0.7830194  )
        12           Pb  tau(  12) = (   0.2500025   0.4329958   0.3915068  )
        13           Pb  tau(  13) = (   0.1250068   0.6494965   0.7830152  )
        14           Pb  tau(  14) = (   0.1250016   0.6495011   0.3915026  )
        15           Pb  tau(  15) = (   0.0000059   0.8660017   0.7830110  )
        16           Pb  tau(  16) = (   0.0000007   0.8660063   0.3914983  )
        17           Pb  tau(  17) = (   0.6250086   0.2164849   0.7830270  )
        18           Pb  tau(  18) = (   0.6250034   0.2164895   0.3915143  )
        19           Pb  tau(  19) = (   0.5000077   0.4329901   0.7830228  )
        20           Pb  tau(  20) = (   0.5000025   0.4329947   0.3915101  )
        21           Pb  tau(  21) = (   0.3750068   0.6494954   0.7830186  )
        22           Pb  tau(  22) = (   0.3750016   0.6495000   0.3915059  )
        23           Pb  tau(  23) = (   0.2500059   0.8660007   0.7830144  )
        24           Pb  tau(  24) = (   0.2500007   0.8660053   0.3915017  )
        25           Pb  tau(  25) = (   0.8750086   0.2164838   0.7830303  )
        26           Pb  tau(  26) = (   0.8750034   0.2164884   0.3915177  )
        27           Pb  tau(  27) = (   0.7500077   0.4329891   0.7830261  )
        28           Pb  tau(  28) = (   0.7500025   0.4329937   0.3915135  )
        29           Pb  tau(  29) = (   0.6250068   0.6494944   0.7830219  )
        30           Pb  tau(  30) = (   0.6250016   0.6494990   0.3915092  )
        31           Pb  tau(  31) = (   0.5000059   0.8659996   0.7830177  )
        32           Pb  tau(  32) = (   0.5000007   0.8660042   0.3915050  )
        33           I   tau(  33) = (   0.1250108   0.0721500   0.6824290  )
        34           I   tau(  34) = (   0.0000047   0.2886599   0.2909121  )
        35           I   tau(  35) = (   0.0000099   0.2886553   0.6824248  )
        36           I   tau(  36) = (  -0.1249962   0.5051652   0.2909079  )
        37           I   tau(  37) = (  -0.1249910   0.5051606   0.6824206  )
        38           I   tau(  38) = (  -0.2499972   0.7216704   0.2909037  )
        39           I   tau(  39) = (  -0.2499919   0.7216658   0.6824164  )
        40           I   tau(  40) = (   0.3750056   0.0721536   0.2909197  )
        41           I   tau(  41) = (   0.3750108   0.0721490   0.6824324  )
        42           I   tau(  42) = (   0.2500047   0.2886589   0.2909155  )
        43           I   tau(  43) = (   0.2500099   0.2886543   0.6824282  )
        44           I   tau(  44) = (   0.1250038   0.5051641   0.2909113  )
        45           I   tau(  45) = (   0.1250090   0.5051595   0.6824240  )
        46           I   tau(  46) = (   0.0000028   0.7216694   0.2909071  )
        47           I   tau(  47) = (   0.0000081   0.7216648   0.6824197  )
        48           I   tau(  48) = (   0.6250056   0.0721525   0.2909230  )
        49           I   tau(  49) = (   0.6250108   0.0721479   0.6824357  )
        50           I   tau(  50) = (   0.5000047   0.2886578   0.2909188  )
        51           I   tau(  51) = (   0.5000099   0.2886532   0.6824315  )
        52           I   tau(  52) = (   0.3750038   0.5051631   0.2909146  )
        53           I   tau(  53) = (   0.3750090   0.5051585   0.6824273  )
        54           I   tau(  54) = (   0.2500028   0.7216683   0.2909104  )
        55           I   tau(  55) = (   0.2500081   0.7216637   0.6824231  )
        56           I   tau(  56) = (   0.8750056   0.0721515   0.2909264  )
        57           I   tau(  57) = (   0.8750108   0.0721469   0.6824391  )
        58           I   tau(  58) = (   0.7500047   0.2886567   0.2909222  )
        59           I   tau(  59) = (   0.7500099   0.2886521   0.6824348  )
        60           I   tau(  60) = (   0.6250038   0.5051620   0.2909180  )
[...]
        82           I   tau(  82) = (   0.3749973   0.3608329   0.1005958  )
        83           I   tau(  83) = (   0.3750025   0.3608283   0.4921084  )
        84           I   tau(  84) = (   0.2499964   0.5773382   0.1005915  )
        85           I   tau(  85) = (   0.2500016   0.5773336   0.4921042  )
        86           I   tau(  86) = (   0.1249955   0.7938434   0.1005873  )
        87           I   tau(  87) = (   0.1250007   0.7938388   0.4921000  )
        88           I   tau(  88) = (   0.7499982   0.1443266   0.1006033  )
        89           I   tau(  89) = (   0.7500034   0.1443220   0.4921160  )
        90           I   tau(  90) = (   0.6249973   0.3608319   0.1005991  )
        91           I   tau(  91) = (   0.6250025   0.3608273   0.4921118  )
        92           I   tau(  92) = (   0.4999964   0.5773371   0.1005949  )
        93           I   tau(  93) = (   0.5000016   0.5773325   0.4921076  )
        94           I   tau(  94) = (   0.3749955   0.7938424   0.1005907  )
        95           I   tau(  95) = (   0.3750007   0.7938378   0.4921034  )
        96           Pb  tau(  96) = (   0.1250056   0.0721546   0.2909163  )

   Crystallographic axes

     site n.     atom                  positions (cryst. coord.)
         1           Pb  tau(   1) = (  0.2499975  0.2499776  0.9999935  )
         2           Pb  tau(   2) = (  0.2499949  0.2499829  0.4999935  )
         3           Pb  tau(   3) = (  0.2499959  0.4999764  0.9999882  )
         4           Pb  tau(   4) = (  0.2499933  0.4999817  0.4999882  )
         5           Pb  tau(   5) = (  0.2499944  0.7499751  0.9999828  )
         6           Pb  tau(   6) = (  0.2499918  0.7499804  0.4999828  )
         7           Pb  tau(   7) = (  0.2499928  0.9999739  0.9999774  )
[...]
     atom   45 type  2   force =     0.00000000    0.00000000    0.00000000
     atom   46 type  2   force =     0.00000000    0.00000000    0.00000000
     atom   47 type  2   force =     0.00000000    0.00000000    0.00000000
     atom   48 type  2   force =     0.00000000    0.00000000    0.00000000
     atom   49 type  2   force =     0.00000000    0.00000000    0.00000000
     atom   50 type  2   force =     0.00000000    0.00000000    0.00000000
     atom   51 type  2   force =     0.00000000    0.00000000    0.00000000
     atom   52 type  2   force =     0.00000000    0.00000000    0.00000000
     atom   53 type  2   force =     0.00000000    0.00000000    0.00000000
     atom   54 type  2   force =     0.00000000    0.00000000    0.00000000
     atom   55 type  2   force =     0.00000000    0.00000000    0.00000000
     atom   56 type  2   force =     0.00000000    0.00000000    0.00000000
     atom   57 type  2   force =     0.00000000    0.00000000    0.00000000
     atom   58 type  2   force =     0.00000000    0.00000000    0.00000000
     atom   59 type  2   force =     0.00000000    0.00000000    0.00000000
     atom   60 type  2   force =     0.00000000    0.00000000    0.00000000
[...]
     atom   82 type  2   force =     0.00000000    0.00000000    0.00000000
     atom   83 type  2   force =     0.00000000    0.00000000    0.00000000
     atom   84 type  2   force =     0.00000000    0.00000000    0.00000000
     atom   85 type  2   force =     0.00000000    0.00000000    0.00000000
     atom   86 type  2   force =     0.00000000    0.00000000    0.00000000
     atom   87 type  2   force =     0.00000000    0.00000000    0.00000000
     atom   88 type  2   force =     0.00000000    0.00000000    0.00000000
     atom   89 type  2   force =     0.00000000    0.00000000    0.00000000
     atom   90 type  2   force =     0.00000000    0.00000000    0.00000000
     atom   91 type  2   force =     0.00000000    0.00000000    0.00000000
     atom   92 type  2   force =     0.00000000    0.00000000    0.00000000
     atom   93 type  2   force =     0.00000000    0.00000000    0.00000000
     atom   94 type  2   force =     0.00000000    0.00000000    0.00000000
     atom   95 type  2   force =     0.00000000    0.00000000    0.00000000
     atom   96 type  1   force =     0.00000000    0.00000000    0.00000000
     The SCF correction term to forces
     atom    1 type  1   force =    -0.00000198   -0.00004502    0.00005389
     atom    2 type  1   force =    -0.00000072   -0.00003161   -0.00006303
     atom    3 type  1   force =    -0.00004042   -0.00005222    0.00005246
     atom    4 type  1   force =    -0.00003052   -0.00005886   -0.00004243
     atom    5 type  1   force =    -0.00006461   -0.00000842    0.00005102
     atom    6 type  1   force =    -0.00006415   -0.00000090   -0.00004220
     atom    7 type  1   force =    -0.00003740    0.00002185    0.00005644
     atom    8 type  1   force =    -0.00002902    0.00001328   -0.00006134
     atom    9 type  1   force =    -0.00000198   -0.00000189    0.00003904
     atom   10 type  1   force =     0.00001779    0.00001091   -0.00002568
     atom   11 type  1   force =     0.00004127   -0.00005145    0.00005033
     atom   12 type  1   force =     0.00003022   -0.00005601   -0.00004238
     atom   13 type  1   force =     0.00000065    0.00000104    0.00007944
     atom   14 type  1   force =    -0.00000000    0.00000186   -0.00006419
     atom   15 type  1   force =    -0.00002390    0.00006087    0.00005259
     atom   16 type  1   force =    -0.00003278    0.00005672   -0.00004330
     atom   17 type  1   force =     0.00000022    0.00004391    0.00002072
     atom   18 type  1   force =     0.00000038    0.00004516   -0.00000361
     atom   19 type  1   force =     0.00003969   -0.00002281    0.00001668
     atom   20 type  1   force =     0.00003668   -0.00002125   -0.00000326
     atom   21 type  1   force =     0.00006299   -0.00000886    0.00005221
     atom   22 type  1   force =     0.00006630    0.00000018   -0.00004358
     atom   23 type  1   force =     0.00002431    0.00005961    0.00005344
     atom   24 type  1   force =     0.00003360    0.00005623   -0.00004401
     atom   25 type  1   force =     0.00000487   -0.00000345    0.00004104
     atom   26 type  1   force =    -0.00001757    0.00000822   -0.00002815
     atom   27 type  1   force =    -0.00003767   -0.00002358    0.00001781
     atom   28 type  1   force =    -0.00003904   -0.00002240   -0.00000118
     atom   29 type  1   force =     0.00000251    0.00000425    0.00004110
     atom   30 type  1   force =     0.00000052   -0.00001728   -0.00002816
     atom   31 type  1   force =     0.00003820    0.00002462    0.00005446
     atom   32 type  1   force =     0.00002889    0.00001726   -0.00006245
     atom   33 type  2   force =    -0.00000200    0.00000949   -0.00008830
     atom   34 type  2   force =    -0.00001942   -0.00003557   -0.00017091
     atom   35 type  2   force =    -0.00003614   -0.00003286   -0.00007256
     atom   36 type  2   force =    -0.00006271   -0.00002680   -0.00015404
     atom   37 type  2   force =    -0.00008150   -0.00004366   -0.00009040
     atom   38 type  2   force =    -0.00003742    0.00000840   -0.00015974
     atom   39 type  2   force =    -0.00005000   -0.00002765   -0.00007687
     atom   40 type  2   force =    -0.00001129    0.00002484   -0.00017303
     atom   41 type  2   force =    -0.00000759    0.00005831   -0.00009637
     atom   42 type  2   force =     0.00001192   -0.00002690   -0.00017193
     atom   43 type  2   force =     0.00004577   -0.00002727   -0.00008581
     atom   44 type  2   force =    -0.00000135   -0.00003942   -0.00021143
     atom   45 type  2   force =     0.00000258   -0.00004645   -0.00009177
     atom   46 type  2   force =    -0.00003599    0.00001747   -0.00020476
     atom   47 type  2   force =    -0.00003984    0.00002101   -0.00009091
     atom   48 type  2   force =    -0.00000655    0.00007018   -0.00015909
     atom   49 type  2   force =    -0.00001144    0.00008842   -0.00009731
     atom   50 type  2   force =     0.00000064   -0.00000628   -0.00013262
     atom   51 type  2   force =     0.00002462    0.00002006   -0.00009960
     atom   52 type  2   force =     0.00007185   -0.00003144   -0.00016237
     atom   53 type  2   force =     0.00007812   -0.00005255   -0.00008666
     atom   54 type  2   force =     0.00003518    0.00002073   -0.00020709
     atom   55 type  2   force =     0.00004401    0.00002647   -0.00009085
     atom   56 type  2   force =     0.00001698    0.00003550   -0.00017281
     atom   57 type  2   force =     0.00001791    0.00005937   -0.00008215
     atom   58 type  2   force =    -0.00001048   -0.00000245   -0.00012337
     atom   59 type  2   force =    -0.00002638    0.00002570   -0.00009805
     atom   60 type  2   force =    -0.00000119   -0.00000240   -0.00013662
[...]
     atom   82 type  2   force =     0.00001251   -0.00003453    0.00013873
     atom   83 type  2   force =     0.00006460   -0.00003760    0.00010989
     atom   84 type  2   force =     0.00001287   -0.00001018    0.00015669
     atom   85 type  2   force =     0.00003606   -0.00003694    0.00010248
     atom   86 type  2   force =     0.00000178    0.00002375    0.00015770
     atom   87 type  2   force =     0.00000581    0.00005504    0.00010654
     atom   88 type  2   force =     0.00003511    0.00003064    0.00012532
     atom   89 type  2   force =     0.00000505    0.00007027    0.00011067
     atom   90 type  2   force =     0.00000505   -0.00000477    0.00011603
     atom   91 type  2   force =     0.00000334   -0.00000619    0.00013472
     atom   92 type  2   force =     0.00002863    0.00001144    0.00013057
     atom   93 type  2   force =     0.00005460   -0.00003625    0.00010730
     atom   94 type  2   force =     0.00003058    0.00001898    0.00017689
     atom   95 type  2   force =     0.00002105    0.00001366    0.00008890
     atom   96 type  1   force =     0.00000168    0.00000048   -0.00000116

     Total force =     0.003801     Total SCF correction =     0.001159
     SCF correction compared to forces is large: reduce conv_thr to get better values

     Computing stress (Cartesian axis) and pressure

     Non-local corr. energy    =      45.71846523 Ry

          total   stress  (Ry/bohr**3)                   (kbar)     P=       -5.73
  -0.00003928   0.00000000  -0.00000000           -5.78        0.00       -0.00
   0.00000000  -0.00003928   0.00000000            0.00       -5.78        0.00
  -0.00000000   0.00000000  -0.00003829           -0.00        0.00       -5.63

     kinetic stress (kbar)  15066.41     -0.00     -0.00
                               -0.00  15066.41      0.00
                               -0.00      0.00  15078.51

     local   stress (kbar)  -7336.85     -0.02     -0.01
                               -0.02  -7336.87     -0.01
                               -0.01     -0.01   1273.79

     nonloc. stress (kbar)  -1184.58      0.00     -0.00
                                0.00  -1184.58      0.00
                               -0.00      0.00  -1189.15

     hartree stress (kbar)  11900.97      0.01      0.00
                                0.01  11900.98      0.00
                                0.00      0.00   8026.29

     exc-cor stress (kbar)   6914.29      0.00     -0.00
                                0.00   6914.29      0.00
                               -0.00      0.00   6913.21

     corecor stress (kbar) -11262.20     -0.00      0.00
                               -0.00 -11262.20     -0.00
                                0.00     -0.00 -11262.14

     ewald   stress (kbar) -14186.59      0.01      0.00
                                0.01 -14186.57      0.01
                                0.00      0.01 -18930.19

     hubbard stress (kbar)      0.00      0.00      0.00
                                0.00      0.00      0.00
                                0.00      0.00      0.00

     DFT-D   stress (kbar)      0.00      0.00      0.00
                                0.00      0.00      0.00
                                0.00      0.00      0.00

     XDM     stress (kbar)      0.00      0.00      0.00
                                0.00      0.00      0.00
                                0.00      0.00      0.00

     dft-nl  stress (kbar)     82.76     -0.00      0.00
                               -0.00     82.76     -0.00
                                0.00     -0.00     84.04

     TS-vdW  stress (kbar)      0.00      0.00      0.00
                                0.00      0.00      0.00
                                0.00      0.00      0.00

     MDB     stress (kbar)      0.00      0.00      0.00
                                0.00      0.00      0.00
                                0.00      0.00      0.00

     3D-RISM stress (kbar)      0.00      0.00      0.00
                                0.00      0.00      0.00
                                0.00      0.00      0.00

     BFGS Geometry Optimization
     Energy error            =      0.0E+00 Ry
     Gradient error          =      7.8E-04 Ry/Bohr

     bfgs converged in   1 scf cycles and   0 bfgs steps
     (criteria: energy <  1.0E-04 Ry, force <  1.0E-03 Ry/Bohr)

     End of BFGS Geometry Optimization

     Final energy             =  -65089.5074596356 Ry
Begin final coordinates

ATOMIC_POSITIONS (angstrom)
Pb            2.3554203625        4.1802491600       14.6728750210
Pb            2.3553459401        4.0452156886        7.4697644879
Pb            0.0112391810        8.2003897659       14.7719260915
Pb           -0.0078366750        8.1619540972        7.3499146669
Pb           -2.3135672040       12.2270731515       14.7720285680
Pb           -2.3563532299       12.2298531407        7.3498922179
Pb           -4.6229410204       16.2670990847       14.6726257734
Pb           -4.7399435552       16.3347382028        7.4698406750
Pb            7.1858157895        4.1483321295       14.7496726349
Pb            7.0778587924        4.0860416863        7.4089766483
Pb            4.6995344059        8.2004137910       14.7719424966
Pb            4.7185583438        8.1619516969        7.3499283069
Pb            2.3553807714       12.2383111026       14.7293199953
Pb            2.3553823175       12.2383055958        7.3298066296
Pb            0.0305994911       16.2873454277       14.7721485689
Pb            0.0067765049       16.3230070725        7.3500337277
Pb           11.7766910222        4.0465204799       14.8254318265
Pb           11.7766817178        4.0853553739        7.4036860326
Pb            9.3930482530        8.1750306000       14.8251955463
Pb            9.4266449858        8.1556497467        7.4035303165
Pb            7.0243490588       12.2270888502       14.7721062797
Pb            7.0671361143       12.2298606592        7.3499663454
Pb            4.6802168844       16.2873583041       14.7722062737
Pb            4.7039849908       16.3230517073        7.3500939798
Pb           16.3676062656        4.1482973677       14.7497902296
Pb           16.4754538320        4.0860376279        7.4091376099
Pb           14.1603193823        8.1750212512       14.8252192273
Pb           14.1266959664        8.1556390950        7.4034795406
Pb           11.7766797959       12.0997944597       14.7494168717
Pb           11.7766536147       12.2245840714        7.4088895717
Pb            9.3337787294       16.2670927315       14.6727501848
Pb            9.4507070256       16.3347771023        7.4699004062
I             2.3553718791        1.3595368077       12.9336212260
I             0.0325326981        5.3847464425        5.5201711798
I             0.0016463722        5.4225399868       12.9052821318
I            -2.3591180819        9.5163725002        5.4846029948
I            -2.3563940089        9.5180022296       12.8920849641
I            -4.7413685446       13.6536199971        5.5201120434
I            -4.7239489168       13.6075153660       12.9050963007
I             7.0026691953        1.3585324764        5.5201892428
I             7.0511468039        1.3664255940       12.9052259183
I             4.6781195764        5.3847608050        5.5201242542
I             4.7091330613        5.4225797828       12.9052449469
I             2.3553637315        9.5048760825        5.4699505426
I             2.3553738474        9.5073408996       12.8588964955
I            -0.0118353236       13.6050801811        5.4699230090
I            -0.0097557154       13.6039123446       12.8590439655
I            11.7766896766        1.3641023900        5.4848648775
I            11.7766833088        1.3608880962       12.8922621388
I             9.4152390809        5.4355397768        5.5198987195
I             9.3914427945        5.4216334213       12.8915247763
I             7.0698630273        9.5164082276        5.4846748488
I             7.0671343871        9.5180346775       12.8921041194
I             4.7226153315       13.6051115815        5.4699912488
I             4.7205316388       13.6039272352       12.8591034692
I            16.5506136495        1.3585896000        5.5202659736
I            16.5022643883        1.3664076170       12.9053180005
I            14.1381245293        5.4354965995        5.5199171083
I            14.1620483991        5.4215762119       12.8915798387
I            11.7766436946        9.5257186812        5.5198345466
[...]
I             7.0710764779        6.8021001069        1.9147234861
I             7.0542175453        6.8081948267        9.2709967999
I             4.6974458279       10.8860513589        1.8973206219
I             4.7149095678       10.8760652889        9.2279075662
I             2.3553753085       14.9427299186        1.8974531235
I             2.3553517238       14.9628763614        9.2279835877
I            14.1267587584        2.7222846389        1.9149239490
I            14.1298492175        2.7045443669        9.2712052295
I            11.7766575103        6.7990271514        1.9047455173
I            11.7766675429        6.7990353451        9.3026058589
I             9.4212262378       10.8724587080        1.9147026188
I             9.4074513369       10.8840658424        9.2709373546
I             7.0626156522       14.9560079938        1.8980079241
I             7.1538039213       15.0086705900        9.2330280457
Pb            2.3555207913        1.3591188268        3.7262881861
End final coordinates

     Writing all to output data dir ./PbI2.save/

     General routines

     Parallel routines

     PAW routines

   This run was terminated on:  22:45:38  24Mar2024

   JOB DONE.