     Program PWSCF v.7.1 starts on 17Mar2024 at  1:40:38

     Reading input from espresso.pwi
Warning: card &CELL ignored
Warning: card    CELL_DYNAMICS    = 'BFGS' ignored
Warning: card / ignored

     Current dimensions of program PWSCF are:
     Max number of different atomic species (ntypx) = 10
     Max number of k-points (npk) =  40000
     Max angular momentum in pseudopotentials (lmaxx) =  4
     file Ga.pbe-dn-kjpaw_psl.1.0.0.UPF: wavefunction(s)  4S renormalized
     file N.pbe-n-kjpaw_psl.1.0.0.UPF: wavefunction(s)  2S renormalized

     IMPORTANT: XC functional enforced from input :
     Exchange-correlation= BEEF-VDW
                           (   1   4  43  14   2   0   0)
     Any further DFT definition will be discarded
     Please, verify this is what you really want

     K-points division:     npool     =       4
     R & G space division:  proc/nbgrp/npool/nimage =      64
     Subspace diagonalization in iterative solution of the eigenvalue problem:
     a serial algorithm will be used

     Using Slab Decomposition

     bravais-lattice index     =            4
     lattice parameter (alat)  =      30.6565  a.u.
     unit-cell volume          =   24400.9461 (a.u.)^3
     number of atoms/cell      =          300
     number of atomic types    =            2
     number of electrons       =      2692.00
     number of Kohn-Sham states=         1615
     kinetic-energy cutoff     =      70.0000  Ry
     charge density cutoff     =     350.0000  Ry
     scf convergence threshold =      1.0E-07
     mixing beta               =       0.7000
     number of iterations used =            8  plain     mixing
     energy convergence thresh.=      1.0E-04
     force convergence thresh. =      1.0E-03
     Exchange-correlation= BEEF-VDW
                           (   1   4  43  14   2   0   0)
     nstep                     =           50

     celldm(1)=  30.656540  celldm(2)=   0.000000  celldm(3)=   0.977927
     celldm(4)=   0.000000  celldm(5)=   0.000000  celldm(6)=   0.000000

     crystal axes: (cart. coord. in units of alat)
               a(1) = (   1.000000   0.000000   0.000000 )
               a(2) = (  -0.500000   0.866025   0.000000 )
               a(3) = (   0.000000   0.000000   0.977927 )

     reciprocal axes: (cart. coord. in units 2 pi/alat)
               b(1) = (  1.000000  0.577350 -0.000000 )
               b(2) = (  0.000000  1.154701  0.000000 )
               b(3) = (  0.000000 -0.000000  1.022571 )

     PseudoPot. # 1 for Ga read from file:
     //group///packages/espresso/pseudo/psl_1.0.0/pslibrary.1.0.0/pbe/PSEUDOPOTENTIALS/Ga.pbe-dn-kjpaw_psl.1.0.0.UPF
     MD5 check sum: cd2a01e492f15b435d17032472d8505c
     Pseudo is Projector augmented-wave + core cor, Zval = 13.0
     Generated using 'atomic' code by A. Dal Corso  v.7.1
     Shape of augmentation charge: PSQ
     Using radial grid of 1205 points,  6 beta functions with:
                l(1) =   0
                l(2) =   0
                l(3) =   1
                l(4) =   1
                l(5) =   2
                l(6) =   2
     Q(r) pseudized with 0 coefficients

     PseudoPot. # 2 for N  read from file:
     //group///packages/espresso/pseudo/psl_1.0.0/pslibrary.1.0.0/pbe/PSEUDOPOTENTIALS/N.pbe-n-kjpaw_psl.1.0.0.UPF
     MD5 check sum: f77f775694dac7e2c3fe1c82443d1a16
     Pseudo is Projector augmented-wave + core cor, Zval =  5.0
     Generated using 'atomic' code by A. Dal Corso  v.7.1
     Shape of augmentation charge: PSQ
     Using radial grid of 1085 points,  4 beta functions with:
                l(1) =   0
                l(2) =   0
                l(3) =   1
                l(4) =   1
     Q(r) pseudized with 0 coefficients

     atomic species   valence    mass     pseudopotential
        Ga            13.00    69.72300     Ga( 1.00)
        N              5.00    14.00700     N ( 1.00)

      2 Sym. Ops. (no inversion) found

                                    s                        frac. trans.

      isym =  1     identity

 cryst.   s( 1) = (     1          0          0      )
                  (     0          1          0      )
                  (     0          0          1      )

 cart.    s( 1) = (  1.0000000  0.0000000  0.0000000 )
                  (  0.0000000  1.0000000  0.0000000 )
                  (  0.0000000  0.0000000  1.0000000 )

      isym =  2     inv. 180 deg rotation - cryst. axis [0,1,0]

 cryst.   s( 2) = (     1          1          0      )
                  (     0         -1          0      )
                  (     0          0          1      )

 cart.    s( 2) = (  0.5000000  0.8660254  0.0000000 )
                  (  0.8660254 -0.5000000  0.0000000 )
                  (  0.0000000  0.0000000  1.0000000 )

     point group C_s (m)
     there are  2 classes
     the character table:

       E     s
A'     1.00  1.00
A''    1.00 -1.00

     the symmetry operations in each class and the name of the first element:

     E        1
          identity
     s        2
          inv. 180 deg rotation - cryst. axis [0,1,0]

   Cartesian axes

     site n.     atom                  positions (alat units)
         1           Ga  tau(   1) = (   0.1000001   0.0577350   0.4886906  )
         2           Ga  tau(   2) = (   0.1000001   0.0577350   0.8146665  )
         3           Ga  tau(   3) = (   0.0000001   0.2309401   0.1627148  )
         4           Ga  tau(   4) = (   0.0000001   0.2309401   0.4886906  )
         5           Ga  tau(   5) = (   0.0000001   0.2309401   0.8146665  )
         6           Ga  tau(   6) = (  -0.0999999   0.4041451   0.1627148  )
         7           Ga  tau(   7) = (  -0.0999999   0.4041451   0.4886906  )
         8           Ga  tau(   8) = (  -0.0999999   0.4041451   0.8146665  )
         9           Ga  tau(   9) = (  -0.1999999   0.5773502   0.1627148  )
        10           Ga  tau(  10) = (  -0.1999999   0.5773502   0.4886906  )
        11           Ga  tau(  11) = (  -0.1999999   0.5773502   0.8146665  )
        12           Ga  tau(  12) = (  -0.2999999   0.7505553   0.1627148  )
        13           Ga  tau(  13) = (  -0.2999999   0.7505553   0.4886906  )
        14           Ga  tau(  14) = (  -0.2999999   0.7505553   0.8146665  )
        15           Ga  tau(  15) = (   0.3000001   0.0577350   0.1627148  )
        16           Ga  tau(  16) = (   0.3000001   0.0577350   0.4886906  )
        17           Ga  tau(  17) = (   0.3000001   0.0577350   0.8146665  )
        18           Ga  tau(  18) = (   0.2000001   0.2309401   0.1627148  )
        19           Ga  tau(  19) = (   0.2000001   0.2309401   0.4886906  )
        20           Ga  tau(  20) = (   0.2000001   0.2309401   0.8146665  )
        21           Ga  tau(  21) = (   0.1000001   0.4041451   0.1627148  )
        22           Ga  tau(  22) = (   0.1000001   0.4041451   0.4886906  )
        23           Ga  tau(  23) = (   0.1000001   0.4041451   0.8146665  )
        24           Ga  tau(  24) = (   0.0000001   0.5773502   0.1627148  )
        25           Ga  tau(  25) = (   0.0000001   0.5773502   0.4886906  )
        26           Ga  tau(  26) = (   0.0000001   0.5773502   0.8146665  )
        27           Ga  tau(  27) = (  -0.0999999   0.7505553   0.1627148  )
        28           Ga  tau(  28) = (  -0.0999999   0.7505553   0.4886906  )
        29           Ga  tau(  29) = (  -0.0999999   0.7505553   0.8146665  )
        30           Ga  tau(  30) = (   0.5000001   0.0577350   0.1627148  )
        31           Ga  tau(  31) = (   0.5000001   0.0577350   0.4886906  )
        32           Ga  tau(  32) = (   0.5000001   0.0577350   0.8146665  )
        33           Ga  tau(  33) = (   0.4000001   0.2309401   0.1627148  )
        34           Ga  tau(  34) = (   0.4000001   0.2309401   0.4886906  )
        35           Ga  tau(  35) = (   0.4000001   0.2309401   0.8146665  )
        36           Ga  tau(  36) = (   0.3000001   0.4041451   0.1627148  )
        37           Ga  tau(  37) = (   0.3000001   0.4041451   0.4886906  )
        38           Ga  tau(  38) = (   0.3000001   0.4041451   0.8146665  )
        39           Ga  tau(  39) = (   0.2000001   0.5773502   0.1627148  )
        40           Ga  tau(  40) = (   0.2000001   0.5773502   0.4886906  )
        41           Ga  tau(  41) = (   0.2000001   0.5773502   0.8146665  )
        42           Ga  tau(  42) = (   0.1000001   0.7505553   0.1627148  )
        43           Ga  tau(  43) = (   0.1000001   0.7505553   0.4886906  )
        44           Ga  tau(  44) = (   0.1000001   0.7505553   0.8146665  )
        45           Ga  tau(  45) = (   0.7000001   0.0577350   0.1627148  )
        46           Ga  tau(  46) = (   0.7000001   0.0577350   0.4886906  )
        47           Ga  tau(  47) = (   0.7000001   0.0577350   0.8146665  )
        48           Ga  tau(  48) = (   0.6000001   0.2309401   0.1627148  )
        49           Ga  tau(  49) = (   0.6000001   0.2309401   0.4886906  )
        50           Ga  tau(  50) = (   0.6000001   0.2309401   0.8146665  )
        51           Ga  tau(  51) = (   0.5000001   0.4041451   0.1627148  )
        52           Ga  tau(  52) = (   0.5000001   0.4041451   0.4886906  )
        53           Ga  tau(  53) = (   0.5000001   0.4041451   0.8146665  )
        54           Ga  tau(  54) = (   0.4000001   0.5773502   0.1627148  )
        55           Ga  tau(  55) = (   0.4000001   0.5773502   0.4886906  )
        56           Ga  tau(  56) = (   0.4000001   0.5773502   0.8146665  )
        57           Ga  tau(  57) = (   0.3000001   0.7505553   0.1627148  )
        58           Ga  tau(  58) = (   0.3000001   0.7505553   0.4886906  )
        59           Ga  tau(  59) = (   0.3000001   0.7505553   0.8146665  )
        60           Ga  tau(  60) = (   0.9000001   0.0577350   0.1627148  )
[...]
       286           N   tau( 286) = (   0.7999999   0.1154701   0.4484898  )
       287           N   tau( 287) = (   0.7999999   0.1154701   0.7744656  )
       288           N   tau( 288) = (   0.6999999   0.2886752   0.1225140  )
       289           N   tau( 289) = (   0.6999999   0.2886752   0.4484898  )
       290           N   tau( 290) = (   0.6999999   0.2886752   0.7744656  )
       291           N   tau( 291) = (   0.5999999   0.4618803   0.1225140  )
       292           N   tau( 292) = (   0.5999999   0.4618803   0.4484898  )
       293           N   tau( 293) = (   0.5999999   0.4618803   0.7744656  )
       294           N   tau( 294) = (   0.4999999   0.6350854   0.1225140  )
       295           N   tau( 295) = (   0.4999999   0.6350854   0.4484898  )
       296           N   tau( 296) = (   0.4999999   0.6350854   0.7744656  )
       297           N   tau( 297) = (   0.3999999   0.8082905   0.1225140  )
       298           N   tau( 298) = (   0.3999999   0.8082905   0.4484898  )
       299           N   tau( 299) = (   0.3999999   0.8082905   0.7744656  )
       300           N   tau( 300) = (   0.1000001   0.0577350   0.1627148  )

   Crystallographic axes

     site n.     atom                  positions (cryst. coord.)
         1           Ga  tau(   1) = (  0.1333334  0.0666666  0.4997208  )
[...]
     atom   53 type  1   force =     0.00000000    0.00000000    0.00000000
     atom   54 type  1   force =     0.00000000    0.00000000    0.00000000
     atom   55 type  1   force =     0.00000000    0.00000000    0.00000000
     atom   56 type  1   force =     0.00000000    0.00000000    0.00000000
     atom   57 type  1   force =     0.00000000    0.00000000    0.00000000
     atom   58 type  1   force =     0.00000000    0.00000000    0.00000000
     atom   59 type  1   force =     0.00000000    0.00000000    0.00000000
     atom   60 type  1   force =     0.00000000    0.00000000    0.00000000
[...]
     atom  286 type  2   force =     0.00000000    0.00000000    0.00000000
     atom  287 type  2   force =     0.00000000    0.00000000    0.00000000
     atom  288 type  2   force =     0.00000000    0.00000000    0.00000000
     atom  289 type  2   force =     0.00000000    0.00000000    0.00000000
     atom  290 type  2   force =     0.00000000    0.00000000    0.00000000
     atom  291 type  2   force =     0.00000000    0.00000000    0.00000000
     atom  292 type  2   force =     0.00000000    0.00000000    0.00000000
     atom  293 type  2   force =     0.00000000    0.00000000    0.00000000
     atom  294 type  2   force =     0.00000000    0.00000000    0.00000000
     atom  295 type  2   force =     0.00000000    0.00000000    0.00000000
     atom  296 type  2   force =     0.00000000    0.00000000    0.00000000
     atom  297 type  2   force =     0.00000000    0.00000000    0.00000000
     atom  298 type  2   force =     0.00000000    0.00000000    0.00000000
     atom  299 type  2   force =     0.00000000    0.00000000    0.00000000
     atom  300 type  2   force =     0.00000000    0.00000000    0.00000000
     The SCF correction term to forces
     atom    1 type  1   force =    -0.00000040   -0.00000023   -0.00002086
     atom    2 type  1   force =    -0.00000048   -0.00000028   -0.00000826
     atom    3 type  1   force =     0.00000722    0.00000168    0.00001779
     atom    4 type  1   force =    -0.00000024   -0.00000188   -0.00000834
     atom    5 type  1   force =     0.00000180   -0.00000194   -0.00000623
     atom    6 type  1   force =    -0.00000078    0.00000181    0.00000346
     atom    7 type  1   force =    -0.00000230   -0.00000138   -0.00000309
     atom    8 type  1   force =     0.00000001   -0.00000339   -0.00000026
     atom    9 type  1   force =     0.00000117   -0.00000158    0.00000346
     atom   10 type  1   force =    -0.00000234   -0.00000130   -0.00000309
     atom   11 type  1   force =    -0.00000294    0.00000170   -0.00000026
     atom   12 type  1   force =     0.00000506    0.00000542    0.00001779
     atom   13 type  1   force =    -0.00000174    0.00000073   -0.00000834
     atom   14 type  1   force =    -0.00000077    0.00000253   -0.00000623
     atom   15 type  1   force =    -0.00000270   -0.00000827    0.00001818
     atom   16 type  1   force =    -0.00000165    0.00000071   -0.00000788
     atom   17 type  1   force =    -0.00000304   -0.00000122   -0.00000591
     atom   18 type  1   force =    -0.00000851    0.00000180    0.00001818
     atom   19 type  1   force =    -0.00000021   -0.00000178   -0.00000788
     atom   20 type  1   force =    -0.00000257   -0.00000202   -0.00000591
     atom   21 type  1   force =    -0.00000018   -0.00000093    0.00000543
     atom   22 type  1   force =     0.00000001   -0.00000093    0.00000028
     atom   23 type  1   force =    -0.00000014   -0.00000475   -0.00000587
     atom   24 type  1   force =    -0.00000080   -0.00000046    0.00000028
     atom   25 type  1   force =    -0.00000156   -0.00000090   -0.00000191
     atom   26 type  1   force =    -0.00000139   -0.00000080   -0.00000339
     atom   27 type  1   force =    -0.00000089    0.00000031    0.00000543
     atom   28 type  1   force =    -0.00000080    0.00000048    0.00000028
     atom   29 type  1   force =    -0.00000419    0.00000225   -0.00000587
     atom   30 type  1   force =     0.00000246   -0.00000017    0.00000334
     atom   31 type  1   force =     0.00000010    0.00000252   -0.00000314
     atom   32 type  1   force =    -0.00000258    0.00000169   -0.00000067
     atom   33 type  1   force =     0.00000406    0.00000234    0.00000762
     atom   34 type  1   force =    -0.00000006   -0.00000003   -0.00000466
     atom   35 type  1   force =    -0.00000247   -0.00000143   -0.00000109
     atom   36 type  1   force =     0.00000108    0.00000221    0.00000334
     atom   37 type  1   force =     0.00000223   -0.00000118   -0.00000314
     atom   38 type  1   force =     0.00000018   -0.00000308   -0.00000067
     atom   39 type  1   force =     0.00000074   -0.00000061   -0.00000009
     atom   40 type  1   force =     0.00000172   -0.00000102   -0.00000219
     atom   41 type  1   force =     0.00000129   -0.00000084   -0.00000371
     atom   42 type  1   force =    -0.00000016    0.00000095   -0.00000009
     atom   43 type  1   force =    -0.00000002    0.00000200   -0.00000219
     atom   44 type  1   force =    -0.00000008    0.00000154   -0.00000371
     atom   45 type  1   force =    -0.00000189   -0.00000021    0.00000375
     atom   46 type  1   force =    -0.00000006    0.00000251   -0.00000290
     atom   47 type  1   force =     0.00000304    0.00000165   -0.00000033
     atom   48 type  1   force =     0.00000027    0.00000177    0.00000183
     atom   49 type  1   force =    -0.00000001    0.00000079   -0.00000468
     atom   50 type  1   force =    -0.00000006   -0.00000044   -0.00000295
     atom   51 type  1   force =     0.00000166   -0.00000065    0.00000183
     atom   52 type  1   force =     0.00000068   -0.00000040   -0.00000468
     atom   53 type  1   force =    -0.00000041    0.00000016   -0.00000295
     atom   54 type  1   force =    -0.00000113   -0.00000153    0.00000375
     atom   55 type  1   force =     0.00000215   -0.00000131   -0.00000290
     atom   56 type  1   force =     0.00000295    0.00000181   -0.00000033
     atom   57 type  1   force =     0.00000083    0.00000048    0.00000554
     atom   58 type  1   force =     0.00000087    0.00000050    0.00000000
     atom   59 type  1   force =     0.00000466    0.00000269   -0.00000615
     atom   60 type  1   force =     0.00000318   -0.00000761    0.00001797
[...]
     atom  286 type  2   force =     0.00000055    0.00000094   -0.00000084
     atom  287 type  2   force =     0.00000006   -0.00000040   -0.00000134
     atom  288 type  2   force =    -0.00000100    0.00000066    0.00000161
     atom  289 type  2   force =    -0.00000047    0.00000031   -0.00000097
     atom  290 type  2   force =    -0.00000014    0.00000013   -0.00000210
     atom  291 type  2   force =     0.00000007   -0.00000120    0.00000161
     atom  292 type  2   force =     0.00000004   -0.00000056   -0.00000097
     atom  293 type  2   force =     0.00000004   -0.00000019   -0.00000210
     atom  294 type  2   force =    -0.00000123   -0.00000145    0.00000188
     atom  295 type  2   force =     0.00000109    0.00000001   -0.00000084
     atom  296 type  2   force =    -0.00000032    0.00000025   -0.00000134
     atom  297 type  2   force =    -0.00000060   -0.00000034    0.00000345
     atom  298 type  2   force =     0.00000193    0.00000111   -0.00000218
     atom  299 type  2   force =    -0.00000002   -0.00000001   -0.00000114
     atom  300 type  2   force =    -0.00000048   -0.00000027    0.00002637

     Total force =     0.030016     Total SCF correction =     0.000106

     Computing stress (Cartesian axis) and pressure

[...]

          total   stress  (Ry/bohr**3)                   (kbar)     P=       -0.65
  -0.00001653  -0.00000036   0.00000021           -2.43       -0.05        0.03
  -0.00000036  -0.00001612   0.00000012           -0.05       -2.37        0.02
   0.00000021   0.00000012   0.00001939            0.03        0.02        2.85

     kinetic stress (kbar)  18405.11     -0.12      0.06
                               -0.12  18405.25      0.04
                                0.06      0.04  18410.64

     local   stress (kbar)   5287.48     -2.17      0.91
                               -2.17   5289.80      0.53
                                0.91      0.53   3695.40

     nonloc. stress (kbar)     74.88     -0.01      0.01
                               -0.01     74.90      0.00
                                0.01      0.00     84.66

     hartree stress (kbar)  19522.87      0.77     -0.32
                                0.77  19521.98     -0.18
                               -0.32     -0.18  20253.34

     exc-cor stress (kbar)   5171.59      0.01     -0.00
                                0.01   5171.58     -0.00
                               -0.00     -0.00   5171.70

     corecor stress (kbar) -14024.54      0.00     -0.00
                                0.00 -14024.54     -0.00
                               -0.00     -0.00 -14024.15

     ewald   stress (kbar) -34601.02      1.48     -0.63
                                1.48 -34602.50     -0.36
                               -0.63     -0.36 -33749.11

     hubbard stress (kbar)      0.00      0.00      0.00
                                0.00      0.00      0.00
                                0.00      0.00      0.00

     DFT-D   stress (kbar)      0.00      0.00      0.00
                                0.00      0.00      0.00
                                0.00      0.00      0.00

     XDM     stress (kbar)      0.00      0.00      0.00
                                0.00      0.00      0.00
                                0.00      0.00      0.00

     dft-nl  stress (kbar)    161.18     -0.00      0.00
                               -0.00    161.18      0.00
                                0.00      0.00    160.37

     TS-vdW  stress (kbar)      0.00      0.00      0.00
                                0.00      0.00      0.00
                                0.00      0.00      0.00

     MDB     stress (kbar)      0.00      0.00      0.00
                                0.00      0.00      0.00
                                0.00      0.00      0.00

     3D-RISM stress (kbar)      0.00      0.00      0.00
                                0.00      0.00      0.00
                                0.00      0.00      0.00

     Energy error            =      3.7E-04 Ry
     Gradient error          =      7.9E-03 Ry/Bohr

     number of scf cycles    =  16
     number of bfgs steps    =  15

     energy             old  =  -46588.5423287761 Ry
     energy             new  =  -46588.5426954156 Ry

     CASE: energy            _new < energy            _old

     new trust radius        =       0.0665868477 bohr
     new conv_thr            =       0.0000000037 Ry

ATOMIC_POSITIONS (angstrom)
Ga            1.6214389712        0.9361367556        7.8922377323
Ga            1.6211217822        0.9359536264       13.1964982152
Ga            0.0403305940        3.7246992156        2.6606340369
Ga           -0.0016778730        3.7450700478        7.9148005340
Ga            0.0038656295        3.7370986753       13.2206755292
Ga           -1.6164880129        6.5495920096        2.6377785737
Ga           -1.6226572329        6.5537384057        7.9276938485
Ga           -1.6213992395        6.5495910718       13.2235493714
Ga           -3.2475007106        9.3745888700        2.6377785737
Ga           -3.2469944363        9.3671729707        7.9276938485
Ga           -3.2499571361        9.3703360919       13.2235493714
Ga           -4.8655203297       12.2218822700        2.6606340369
Ga           -4.8688829050       12.1753164543        7.9148005340
Ga           -4.8730145649       12.1841029546       13.2206755292
Ga            4.8261603923        0.9114749197        2.6604070382
Ga            4.8662784079        0.9383950484        7.9151104789
Ga            4.8559123111        0.9375001750       13.2220140401
Ga            3.2024419054        3.7238378362        2.6604070382
Ga            3.2458144285        3.7451209926        7.9151104789
Ga            3.2398563969        3.7365911261       13.2220140401
Ga            1.6230827764        6.5545460776        2.6441321801
Ga            1.6226635352        6.5558473706        7.9354097448
Ga            1.6225353834        6.5499055947       13.2108955645
Ga           -0.0023923089        9.3648218391        2.6379105584
Ga           -0.0009046760        9.3656807243        7.9284275384
Ga           -0.0013105862        9.3654463719       13.2153010182
Ga           -1.6234249674       12.1776624370        2.6441321801
Ga           -1.6225076351       12.1766487170        7.9354097448
Ga           -1.6277174399       12.1795086222       13.2108955645
Ga            8.1036504980        0.9354346359        2.6377963018
Ga            8.1093348515        0.9381423200        7.9273548101
Ga            8.1052919569        0.9392648388       13.2236048355
Ga            6.4775036227        3.7397869894        2.6460009763
Ga            6.4883385110        3.7460425151        7.9262867048
Ga            6.4831551632        3.7430499079       13.2234798557
Ga            4.8619366812        6.5502476706        2.6377963018
Ga            4.8671237811        6.5538166230        7.9273548101
Ga            4.8660744636        6.5497541142       13.2236048355
Ga            3.2472988709        9.3646501620        2.6374853014
Ga            3.2459315092        9.3656221647        7.9280622328
Ga            3.2463560279        9.3654355306       13.2149070441
Ga            1.6223046043       12.1792227939        2.6374853014
Ga            1.6224627025       12.1775526225        7.9280622328
Ga            1.6225133320       12.1780135836       13.2149070441
Ga           11.3650861991        0.9348432295        2.6382359774
Ga           11.3575394227        0.9375920047        7.9278803280
Ga           11.3619509555        0.9386263008       13.2233286205
Ga            9.7332159302        3.7462612578        2.6354886548
Ga            9.7331034137        3.7453040564        7.9252970160
Ga            9.7331417275        3.7464015057       13.2171597705
Ga            8.1109666573        6.5560794210        2.6354886548
Ga            8.1100814383        6.5564605796        7.9252970160
Ga            8.1110510142        6.5559450357       13.2171597705
Ga            6.4921423587        9.3750295437        2.6382359774
Ga            6.4907494797        9.3671194560        7.9278803280
Ga            6.4938509728        9.3704228075       13.2233286205
Ga            4.8672377364       12.1763040567        2.6440556687
Ga            4.8669106736       12.1761152268        7.9350498541
Ga            4.8724610692       12.1793197493       13.2109844363
Ga           14.6397652091        0.9115475325        2.6600882378
[...]
N            12.9774591254        1.8743666862        7.2678454384
N            12.9871509101        1.8701904983       12.5679737420
N            11.3662895379        4.6771485683        1.9903861702
N            11.3567428872        4.6826639027        7.2721678836
N            11.3608639515        4.6802928799       12.5670432022
N             9.7336719263        7.5049252211        1.9903861702
N             9.7336750207        7.4938999119        7.2721678836
N             9.7336821869        7.4986543696       12.5670432022
N             8.1213910911       10.3332245607        1.9929073230
N             8.1119764090       10.3016299546        7.2678454384
N             8.1132056165       10.3121113803       12.5679737420
N             6.4882085432       13.1121761382        1.9895387001
N             6.4867039611       13.1113074673        7.2740175289
N             6.4971618424       13.1173453279       12.5645055057
N             1.6268869198        0.9392821302        2.5414494866

     Writing config-only to output data dir ./GaN.save/
     NEW-OLD atomic charge density approx. for the potential

     Check: negative core charge=   -0.000003

[...]

     Self-consistent Calculation

[...]

     ethr =  6.20E-07,  avg # of iterations = 16.3

[...]

     iteration #  4     ecut=    70.00 Ry     beta= 0.70
     Davidson diagonalization with overlap

     c_bands:  1 eigenvalues not converged
     ethr =  6.09E-07,  avg # of iterations = 17.7

     Non-local corr. energy    =      81.34231230 Ry

     total energy              =  -46588.54282316 Ry
     estimated scf accuracy    <       0.00278154 Ry

     max_seconds     =  154800.00
     Calculation stopped in scf loop at iteration #     4

     Writing config to output data dir ./GaN.save/

     General routines

     Parallel routines

     PAW routines

   This run was terminated on:  20:50:38  18Mar2024

   JOB DONE.