     Program PWSCF v.7.1 starts on 23Mar2024 at 23:27: 7

     Reading input from espresso.pwi
Warning: card &CELL ignored
Warning: card    CELL_DYNAMICS    = 'BFGS' ignored
Warning: card / ignored

     Current dimensions of program PWSCF are:
     Max number of different atomic species (ntypx) = 10
     Max number of k-points (npk) =  40000
     Max angular momentum in pseudopotentials (lmaxx) =  4
     file Pb.pbe-dn-kjpaw_psl.1.0.0.UPF: wavefunction(s)  6S 6P 5D renormalized
     file I.pbe-dn-kjpaw_psl.1.0.0.UPF: wavefunction(s)  5S 5P renormalized

     IMPORTANT: XC functional enforced from input :
     Exchange-correlation= BEEF-VDW
                           (   1   4  43  14   2   0   0)
     Any further DFT definition will be discarded
     Please, verify this is what you really want

     K-points division:     npool     =       2
     R & G space division:  proc/nbgrp/npool/nimage =      64
     Subspace diagonalization in iterative solution of the eigenvalue problem:
     a serial algorithm will be used

     Using Slab Decomposition

     bravais-lattice index     =            4
     lattice parameter (alat)  =      26.7090  a.u.
     unit-cell volume          =   17226.5091 (a.u.)^3
     number of atoms/cell      =           53
     number of atomic types    =            2
     number of electrons       =       847.00
     number of Kohn-Sham states=          509
     kinetic-energy cutoff     =      70.0000  Ry
     charge density cutoff     =     350.0000  Ry
     scf convergence threshold =      1.0E-07
     mixing beta               =       0.7000
     number of iterations used =            8  plain     mixing
     Exchange-correlation= BEEF-VDW
                           (   1   4  43  14   2   0   0)

     celldm(1)=  26.709025  celldm(2)=   0.000000  celldm(3)=   1.043981
     celldm(4)=   0.000000  celldm(5)=   0.000000  celldm(6)=   0.000000

     crystal axes: (cart. coord. in units of alat)
               a(1) = (   1.000000   0.000000   0.000000 )
               a(2) = (  -0.500000   0.866025   0.000000 )
               a(3) = (   0.000000   0.000000   1.043981 )

     reciprocal axes: (cart. coord. in units 2 pi/alat)
               b(1) = (  1.000000  0.577350 -0.000000 )
               b(2) = (  0.000000  1.154701  0.000000 )
               b(3) = (  0.000000 -0.000000  0.957872 )

     PseudoPot. # 1 for Pb read from file:
     /trace/group/acmegroup/atimmins/packages/espresso/pseudo/psl_1.0.0/pslibrary.1.0.0/pbe/PSEUDOPOTENTIALS/Pb.pbe-dn-kjpaw_psl.1.0.0.UPF
     MD5 check sum: 39ab5b8a6bbd56b7735ad9f188aac93a
     Pseudo is Projector augmented-wave + core cor, Zval = 14.0
     Generated using 'atomic' code by A. Dal Corso  v.7.1
     Shape of augmentation charge: PSQ
     Using radial grid of 1281 points,  6 beta functions with:
                l(1) =   0
                l(2) =   0
                l(3) =   1
                l(4) =   1
                l(5) =   2
                l(6) =   2
     Q(r) pseudized with 0 coefficients

     PseudoPot. # 2 for I  read from file:
     /trace/group/acmegroup/atimmins/packages/espresso/pseudo/psl_1.0.0/pslibrary.1.0.0/pbe/PSEUDOPOTENTIALS/I.pbe-dn-kjpaw_psl.1.0.0.UPF
     MD5 check sum: bfa8781bc1224d19af3f3980e3fab11e
     Pseudo is Projector augmented-wave + core cor, Zval = 17.0
     Generated using 'atomic' code by A. Dal Corso  v.7.1
     Shape of augmentation charge: PSQ
     Using radial grid of 1247 points,  6 beta functions with:
                l(1) =   0
                l(2) =   0
                l(3) =   1
                l(4) =   1
                l(5) =   2
                l(6) =   2
     Q(r) pseudized with 0 coefficients

     atomic species   valence    mass     pseudopotential
        Pb            14.00   207.20000     Pb( 1.00)
        I             17.00   126.90447     I ( 1.00)

     No symmetry found

                                    s                        frac. trans.

      isym =  1     identity

 cryst.   s( 1) = (     1          0          0      )
                  (     0          1          0      )
                  (     0          0          1      )

 cart.    s( 1) = (  1.0000000  0.0000000  0.0000000 )
                  (  0.0000000  1.0000000  0.0000000 )
                  (  0.0000000  0.0000000  1.0000000 )

     point group C_1 (1)
     there are  1 classes
     the character table:

       E
A      1.00

     the symmetry operations in each class and the name of the first element:

     E        1
          identity

   Cartesian axes

     site n.     atom                  positions (alat units)
         1           Pb  tau(   1) = (   0.1666780   0.2886497   1.0439767  )
         2           Pb  tau(   2) = (   0.1666712   0.2886557   0.5219862  )
         3           Pb  tau(   3) = (   0.0000102   0.5773235   1.0439712  )
         4           Pb  tau(   4) = (   0.0000034   0.5773295   0.5219807  )
         5           Pb  tau(   5) = (  -0.1666576   0.8659973   1.0439657  )
         6           Pb  tau(   6) = (  -0.1666644   0.8660033   0.5219752  )
         7           Pb  tau(   7) = (   0.5000113   0.2886484   1.0439810  )
         8           Pb  tau(   8) = (   0.5000045   0.2886544   0.5219905  )
         9           Pb  tau(   9) = (   0.3333436   0.5773222   1.0439755  )
        10           Pb  tau(  10) = (   0.3333367   0.5773282   0.5219850  )
        11           Pb  tau(  11) = (   0.1666758   0.8659960   1.0439700  )
        12           Pb  tau(  12) = (   0.1666690   0.8660020   0.5219795  )
        13           Pb  tau(  13) = (   0.8333447   0.2886471   1.0439853  )
        14           Pb  tau(  14) = (   0.8333379   0.2886531   0.5219949  )
        15           Pb  tau(  15) = (   0.6666769   0.5773209   1.0439798  )
        16           Pb  tau(  16) = (   0.6666701   0.5773269   0.5219894  )
        17           Pb  tau(  17) = (   0.5000091   0.8659947   1.0439743  )
        18           Pb  tau(  18) = (   0.5000023   0.8660007   0.5219839  )
        19           I   tau(  19) = (   0.1666806   0.0962006   0.9099004  )
        20           I   tau(  20) = (   0.0000060   0.3848804   0.3879044  )
        21           I   tau(  21) = (   0.0000129   0.3848744   0.9098949  )
        22           I   tau(  22) = (  -0.1666617   0.6735542   0.3878990  )
        23           I   tau(  23) = (  -0.1666549   0.6735482   0.9098894  )
        24           I   tau(  24) = (   0.5000071   0.0962053   0.3879143  )
        25           I   tau(  25) = (   0.5000140   0.0961993   0.9099047  )
        26           I   tau(  26) = (   0.3333394   0.3848792   0.3879088  )
        27           I   tau(  27) = (   0.3333462   0.3848731   0.9098993  )
        28           I   tau(  28) = (   0.1666716   0.6735530   0.3879033  )
        29           I   tau(  29) = (   0.1666784   0.6735469   0.9098938  )
        30           I   tau(  30) = (   0.8333405   0.0962041   0.3879186  )
        31           I   tau(  31) = (   0.8333473   0.0961980   0.9099091  )
        32           I   tau(  32) = (   0.6666727   0.3848779   0.3879131  )
        33           I   tau(  33) = (   0.6666795   0.3848718   0.9099036  )
        34           I   tau(  34) = (   0.5000049   0.6735517   0.3879076  )
        35           I   tau(  35) = (   0.5000117   0.6735457   0.9098981  )
        36           I   tau(  36) = (  -0.0000023   0.1924396   0.1340740  )
        37           I   tau(  37) = (   0.0000045   0.1924336   0.6560644  )
        38           I   tau(  38) = (  -0.1666701   0.4811134   0.1340685  )
        39           I   tau(  39) = (  -0.1666632   0.4811074   0.6560589  )
        40           I   tau(  40) = (  -0.3333378   0.7697873   0.1340630  )
        41           I   tau(  41) = (  -0.3333310   0.7697812   0.6560534  )
        42           I   tau(  42) = (   0.3333311   0.1924384   0.1340783  )
        43           I   tau(  43) = (   0.3333379   0.1924323   0.6560688  )
        44           I   tau(  44) = (   0.1666633   0.4811122   0.1340728  )
        45           I   tau(  45) = (   0.1666701   0.4811061   0.6560633  )
        46           I   tau(  46) = (  -0.0000045   0.7697860   0.1340673  )
        47           I   tau(  47) = (   0.0000023   0.7697799   0.6560578  )
        48           I   tau(  48) = (   0.6666644   0.1924371   0.1340827  )
        49           I   tau(  49) = (   0.6666712   0.1924310   0.6560731  )
        50           I   tau(  50) = (   0.4999966   0.4811109   0.1340772  )
        51           I   tau(  51) = (   0.5000034   0.4811049   0.6560676  )
        52           I   tau(  52) = (   0.3333288   0.7697847   0.1340717  )
        53           I   tau(  53) = (   0.3333356   0.7697787   0.6560621  )

   Crystallographic axes

     site n.     atom                  positions (cryst. coord.)
         1           Pb  tau(   1) = (  0.3333300  0.3333039  0.9999959  )
         2           Pb  tau(   2) = (  0.3333266  0.3333109  0.4999959  )
         3           Pb  tau(   3) = (  0.3333281  0.6666357  0.9999906  )
         4           Pb  tau(   4) = (  0.3333248  0.6666427  0.4999906  )
         5           Pb  tau(   5) = (  0.3333262  0.9999675  0.9999854  )
         6           Pb  tau(   6) = (  0.3333229  0.9999745  0.4999854  )
         7           Pb  tau(   7) = (  0.6666626  0.3333025  1.0000001  )
         8           Pb  tau(   8) = (  0.6666592  0.3333094  0.5000001  )
         9           Pb  tau(   9) = (  0.6666607  0.6666343  0.9999948  )
        10           Pb  tau(  10) = (  0.6666573  0.6666412  0.4999948  )
        11           Pb  tau(  11) = (  0.6666588  0.9999661  0.9999895  )
        12           Pb  tau(  12) = (  0.6666555  0.9999730  0.4999895  )
        13           Pb  tau(  13) = (  0.9999951  0.3333010  1.0000042  )
        14           Pb  tau(  14) = (  0.9999918  0.3333079  0.5000042  )
        15           Pb  tau(  15) = (  0.9999933  0.6666328  0.9999990  )
        16           Pb  tau(  16) = (  0.9999899  0.6666397  0.4999990  )
        17           Pb  tau(  17) = (  0.9999914  0.9999646  0.9999937  )
        18           Pb  tau(  18) = (  0.9999881  0.9999715  0.4999937  )
        19           I   tau(  19) = (  0.2222221  0.1110829  0.8715680  )
        20           I   tau(  20) = (  0.2222169  0.4444217  0.3715628  )
        21           I   tau(  21) = (  0.2222202  0.4444147  0.8715628  )
        22           I   tau(  22) = (  0.2222150  0.7777534  0.3715575  )
        23           I   tau(  23) = (  0.2222183  0.7777465  0.8715575  )
        24           I   tau(  24) = (  0.5555513  0.1110884  0.3715722  )
        25           I   tau(  25) = (  0.5555547  0.1110814  0.8715722  )
        26           I   tau(  26) = (  0.5555495  0.4444202  0.3715669  )
        27           I   tau(  27) = (  0.5555528  0.4444132  0.8715669  )
        28           I   tau(  28) = (  0.5555476  0.7777520  0.3715617  )
        29           I   tau(  29) = (  0.5555509  0.7777450  0.8715617  )
        30           I   tau(  30) = (  0.8888839  0.1110869  0.3715764  )
        31           I   tau(  31) = (  0.8888873  0.1110799  0.8715764  )
[...]
     atom   35 type  2   force =    -0.00002408   -0.00015950   -0.00518554
     atom   36 type  2   force =    -0.00000523   -0.00005274    0.00524531
     atom   37 type  2   force =    -0.00032729    0.00033301    0.00543394
     atom   38 type  2   force =     0.00010400    0.00006433    0.00524696
     atom   39 type  2   force =     0.00009156    0.00005610    0.00506590
     atom   40 type  2   force =    -0.00004463    0.00001488    0.00524471
     atom   41 type  2   force =     0.00013074   -0.00045359    0.00543381
     atom   42 type  2   force =     0.00012399    0.00006675    0.00521279
     atom   43 type  2   force =     0.00029813    0.00015533    0.00539934
     atom   44 type  2   force =    -0.00011216    0.00006331    0.00522276
     atom   45 type  2   force =     0.00001449   -0.00047617    0.00473494
     atom   46 type  2   force =    -0.00000434   -0.00012557    0.00522151
     atom   47 type  2   force =    -0.00040103    0.00025379    0.00473366
     atom   48 type  2   force =    -0.00000043   -0.00006138    0.00527129
     atom   49 type  2   force =     0.00003601    0.00003999    0.00510833
     atom   50 type  2   force =    -0.00004704    0.00003303    0.00527646
     atom   51 type  2   force =     0.00005492    0.00001335    0.00511140
     atom   52 type  2   force =    -0.00017400   -0.00009849    0.00520080
     atom   53 type  2   force =     0.00051772    0.00030246    0.00472052
     The Hubbard contrib.    to forces
     atom    1 type  1   force =     0.00000000    0.00000000    0.00000000
     atom    2 type  1   force =     0.00000000    0.00000000    0.00000000
     atom    3 type  1   force =     0.00000000    0.00000000    0.00000000
     atom    4 type  1   force =     0.00000000    0.00000000    0.00000000
     atom    5 type  1   force =     0.00000000    0.00000000    0.00000000
     atom    6 type  1   force =     0.00000000    0.00000000    0.00000000
     atom    7 type  1   force =     0.00000000    0.00000000    0.00000000
     atom    8 type  1   force =     0.00000000    0.00000000    0.00000000
     atom    9 type  1   force =     0.00000000    0.00000000    0.00000000
     atom   10 type  1   force =     0.00000000    0.00000000    0.00000000
     atom   11 type  1   force =     0.00000000    0.00000000    0.00000000
     atom   12 type  1   force =     0.00000000    0.00000000    0.00000000
     atom   13 type  1   force =     0.00000000    0.00000000    0.00000000
     atom   14 type  1   force =     0.00000000    0.00000000    0.00000000
     atom   15 type  1   force =     0.00000000    0.00000000    0.00000000
     atom   16 type  1   force =     0.00000000    0.00000000    0.00000000
     atom   17 type  1   force =     0.00000000    0.00000000    0.00000000
     atom   18 type  1   force =     0.00000000    0.00000000    0.00000000
     atom   19 type  2   force =     0.00000000    0.00000000    0.00000000
     atom   20 type  2   force =     0.00000000    0.00000000    0.00000000
     atom   21 type  2   force =     0.00000000    0.00000000    0.00000000
     atom   22 type  2   force =     0.00000000    0.00000000    0.00000000
     atom   23 type  2   force =     0.00000000    0.00000000    0.00000000
     atom   24 type  2   force =     0.00000000    0.00000000    0.00000000
     atom   25 type  2   force =     0.00000000    0.00000000    0.00000000
     atom   26 type  2   force =     0.00000000    0.00000000    0.00000000
     atom   27 type  2   force =     0.00000000    0.00000000    0.00000000
     atom   28 type  2   force =     0.00000000    0.00000000    0.00000000
     atom   29 type  2   force =     0.00000000    0.00000000    0.00000000
     atom   30 type  2   force =     0.00000000    0.00000000    0.00000000
     atom   31 type  2   force =     0.00000000    0.00000000    0.00000000
     atom   32 type  2   force =     0.00000000    0.00000000    0.00000000
     atom   33 type  2   force =     0.00000000    0.00000000    0.00000000
     atom   34 type  2   force =     0.00000000    0.00000000    0.00000000
     atom   35 type  2   force =     0.00000000    0.00000000    0.00000000
     atom   36 type  2   force =     0.00000000    0.00000000    0.00000000
     atom   37 type  2   force =     0.00000000    0.00000000    0.00000000
     atom   38 type  2   force =     0.00000000    0.00000000    0.00000000
     atom   39 type  2   force =     0.00000000    0.00000000    0.00000000
     atom   40 type  2   force =     0.00000000    0.00000000    0.00000000
     atom   41 type  2   force =     0.00000000    0.00000000    0.00000000
     atom   42 type  2   force =     0.00000000    0.00000000    0.00000000
     atom   43 type  2   force =     0.00000000    0.00000000    0.00000000
     atom   44 type  2   force =     0.00000000    0.00000000    0.00000000
     atom   45 type  2   force =     0.00000000    0.00000000    0.00000000
     atom   46 type  2   force =     0.00000000    0.00000000    0.00000000
     atom   47 type  2   force =     0.00000000    0.00000000    0.00000000
     atom   48 type  2   force =     0.00000000    0.00000000    0.00000000
     atom   49 type  2   force =     0.00000000    0.00000000    0.00000000
     atom   50 type  2   force =     0.00000000    0.00000000    0.00000000
     atom   51 type  2   force =     0.00000000    0.00000000    0.00000000
     atom   52 type  2   force =     0.00000000    0.00000000    0.00000000
     atom   53 type  2   force =     0.00000000    0.00000000    0.00000000
     The SCF correction term to forces
     atom    1 type  1   force =     0.00002366   -0.00003790    0.00001262
     atom    2 type  1   force =     0.00003679   -0.00003695    0.00000205
     atom    3 type  1   force =    -0.00002435   -0.00001269   -0.00000045
     atom    4 type  1   force =    -0.00003605   -0.00001826    0.00000811
     atom    5 type  1   force =    -0.00001991    0.00003860    0.00001242
     atom    6 type  1   force =    -0.00001155    0.00004821    0.00000256
     atom    7 type  1   force =    -0.00002226   -0.00001404    0.00001269
     atom    8 type  1   force =    -0.00003069   -0.00001948   -0.00000726
     atom    9 type  1   force =     0.00002307   -0.00004039    0.00000145
     atom   10 type  1   force =     0.00002516   -0.00006337    0.00000072
     atom   11 type  1   force =    -0.00002463    0.00004070    0.00000127
     atom   12 type  1   force =    -0.00004460    0.00005393    0.00000109
     atom   13 type  1   force =    -0.00000072    0.00000081    0.00001185
     atom   14 type  1   force =    -0.00000242    0.00001125   -0.00000501
     atom   15 type  1   force =     0.00000138   -0.00000032    0.00001190
     atom   16 type  1   force =     0.00000996   -0.00000616   -0.00000512
     atom   17 type  1   force =     0.00004572    0.00002625    0.00001446
     atom   18 type  1   force =     0.00006706    0.00003774   -0.00001065
     atom   19 type  2   force =     0.00003457    0.00001858    0.00001844
     atom   20 type  2   force =     0.00000260   -0.00005369    0.00000710
     atom   21 type  2   force =     0.00001372   -0.00003139   -0.00000371
     atom   22 type  2   force =    -0.00004489    0.00003170    0.00000860
     atom   23 type  2   force =    -0.00001990    0.00002918   -0.00000387
     atom   24 type  2   force =    -0.00006894    0.00006225    0.00001758
     atom   25 type  2   force =    -0.00004797    0.00003116    0.00000383
     atom   26 type  2   force =     0.00002168   -0.00009171    0.00001605
     atom   27 type  2   force =     0.00000414   -0.00005820    0.00000406
     atom   28 type  2   force =    -0.00002041   -0.00000969   -0.00001240
     atom   29 type  2   force =    -0.00001335   -0.00000602   -0.00001207
     atom   30 type  2   force =     0.00001532    0.00006505   -0.00001541
     atom   31 type  2   force =     0.00001246    0.00002949    0.00000446
     atom   32 type  2   force =    -0.00002219   -0.00001303    0.00001173
     atom   33 type  2   force =    -0.00001866   -0.00001127   -0.00000071
     atom   34 type  2   force =     0.00006564   -0.00001803   -0.00001533
     atom   35 type  2   force =     0.00003291   -0.00000277    0.00000451
     atom   36 type  2   force =     0.00004297   -0.00000236    0.00000782
     atom   37 type  2   force =     0.00004618    0.00002612   -0.00001597
     atom   38 type  2   force =    -0.00002058   -0.00001112    0.00001008
     atom   39 type  2   force =    -0.00002156   -0.00001108   -0.00001883
     atom   40 type  2   force =     0.00002087    0.00003843    0.00000809
     atom   41 type  2   force =     0.00004845    0.00002725   -0.00001720
     atom   42 type  2   force =    -0.00001235   -0.00000880    0.00000509
     atom   43 type  2   force =    -0.00000604   -0.00000674   -0.00004523
     atom   44 type  2   force =     0.00000909   -0.00007297    0.00000141
     atom   45 type  2   force =     0.00000576   -0.00008388   -0.00000340
     atom   46 type  2   force =    -0.00005945    0.00004568    0.00000143
     atom   47 type  2   force =    -0.00007174    0.00004921   -0.00000493
     atom   48 type  2   force =    -0.00002989    0.00002781    0.00001006
     atom   49 type  2   force =    -0.00004055    0.00004079   -0.00001959
     atom   50 type  2   force =     0.00001053   -0.00003988    0.00001035
     atom   51 type  2   force =     0.00001733   -0.00005543   -0.00001938
     atom   52 type  2   force =     0.00003697    0.00002225    0.00000420
     atom   53 type  2   force =     0.00002256    0.00001410    0.00002373

     Total force =     0.003252     Total SCF correction =     0.000376
     SCF correction compared to forces is large: reduce conv_thr to get better values

     Computing stress (Cartesian axis) and pressure

[...]

          total   stress  (Ry/bohr**3)                   (kbar)     P=        0.27
  -0.00000111  -0.00000005   0.00000009           -0.16       -0.01        0.01
  -0.00000005  -0.00000104   0.00000006           -0.01       -0.15        0.01
   0.00000009   0.00000006   0.00000757            0.01        0.01        1.11

     kinetic stress (kbar)  14755.39     -0.01      0.02
                               -0.01  14755.40      0.01
                                0.02      0.01  14769.24

     local   stress (kbar)  -8042.28     -0.08     -1.17
                               -0.08  -8042.40     -0.84
                               -1.17     -0.84   1642.74

     nonloc. stress (kbar)  -1117.87     -0.01      0.01
                               -0.01  -1117.86      0.01
                                0.01      0.01  -1121.59

     hartree stress (kbar)  12088.91      0.08      0.51
                                0.08  12088.88      0.35
                                0.51      0.35   7721.15

     exc-cor stress (kbar)   6796.60     -0.00      0.00
                               -0.00   6796.60      0.00
                                0.00      0.00   6795.26

     corecor stress (kbar) -11070.00     -0.00     -0.00
                               -0.00 -11069.99     -0.00
                               -0.00     -0.00 -11069.95

     ewald   stress (kbar) -13492.32      0.01      0.64
                                0.01 -13492.18      0.47
                                0.64      0.47 -18818.62

     hubbard stress (kbar)      0.00      0.00      0.00
                                0.00      0.00      0.00
                                0.00      0.00      0.00

     DFT-D   stress (kbar)      0.00      0.00      0.00
                                0.00      0.00      0.00
                                0.00      0.00      0.00

     XDM     stress (kbar)      0.00      0.00      0.00
                                0.00      0.00      0.00
                                0.00      0.00      0.00

     dft-nl  stress (kbar)     81.40      0.00     -0.00
                                0.00     81.40     -0.00
                               -0.00     -0.00     82.88

     TS-vdW  stress (kbar)      0.00      0.00      0.00
                                0.00      0.00      0.00
                                0.00      0.00      0.00

     MDB     stress (kbar)      0.00      0.00      0.00
                                0.00      0.00      0.00
                                0.00      0.00      0.00

     3D-RISM stress (kbar)      0.00      0.00      0.00
                                0.00      0.00      0.00
                                0.00      0.00      0.00

[...]

     Non-local corr. energy    =      25.32926632 Ry

 BEEFens 2000 ensemble energies
             -0.213054937027875E+02
             -0.214298102017069E+03
             -0.974968796608918E+02
              0.748480132969868E+02
             -0.163803920059599E+03
             -0.200544048155584E+03
              0.102948460945960E+03
              0.410349041033442E+00
              0.173437477117028E+03
             -0.109827532231479E+02
              0.888633086727803E+02
              0.903556306326902E+01
             -0.680911413945933E+01
             -0.552818915696002E+01
              0.110661329637293E+03
             -0.834072834219277E+02
             -0.163678752552247E+03
             -0.528301750453040E+02
              0.472898107454211E+02
             -0.103325470671189E+01
              0.241322907024639E+03
              0.201416539951922E+03
             -0.124058915118692E+03
              0.428833798608587E+02
             -0.258504683342673E+03
              0.212170482094364E+03
              0.725695855786254E+02
              0.191568206118517E+03
              0.129097972946487E+03
             -0.599499553983153E+02
              0.472519854596170E+02
             -0.844315533934015E+02
              0.352839017143894E+02
              0.128463392876042E+03
              0.138274895633456E+03
             -0.600741415294939E+02
              0.304936181034149E+03
             -0.122758384309896E+03
             -0.817296649872834E+02
              0.121971194804790E+03
              0.537982335019688E+02
              0.927193378923859E+02
             -0.179014441711973E+03
             -0.116581173289355E+02
              0.171737256780647E+03
              0.224480448586393E+03
             -0.227949138664332E+03
              0.145971442441365E+02
              0.790493113194513E+02
              0.510449898118804E+02
              0.891061100893477E+02
              0.195703841300841E+03
             -0.127152433971382E+03
             -0.123392544677210E+03
             -0.171841315273444E+03
             -0.248930761150154E+02
             -0.146590277629386E+03
              0.189189579047110E+02
             -0.211443432877284E+02
             -0.116312492513476E+03
[...]
              0.145243229211838E+03
              0.930135374440222E+02
              0.948270522084586E+02
             -0.175527811690362E+03
             -0.181250338879423E+03
             -0.408788871593269E+02
             -0.162031996362030E+03
              0.257239985833262E+03
              0.216653310845426E+03
              0.102203763842736E+03
              0.281712899931014E+03
             -0.140736073399831E+03
             -0.606504488540409E+02
             -0.874344528090738E+02
              0.243728910707601E+03

 BEEF-vdW xc energy contributions
            1 :    -2203.103677100276
            2 :     2018.587829807208
            3 :    -1704.104122336569
            4 :     1343.610777869469
            5 :    -1016.026267340812
            6 :     769.8276478494654
            7 :    -615.2036346944979
            8 :     531.3890415267092
            9 :    -482.3524859447812
           10 :     434.1283827267659
           11 :    -367.7916728416626
           12 :     283.5324239284560
           13 :    -195.2223995723425
           14 :     119.7714490293351
           15 :    -67.68681214594835
           16 :     39.15267827995103
           17 :    -25.97206036954867
           18 :     16.93205422001120
           19 :    -3.496749671376165
           20 :    -16.65738894795822
           21 :     39.60507556992980
           22 :    -58.38561091461042
           23 :     67.55734626356934
           24 :    -66.47143529650612
           25 :     59.52909896127176
           26 :    -53.57232425987468
           27 :     54.11061994260899
           28 :    -62.46260339514720
           29 :     75.19613306387146
           30 :    -86.04344626391321
           31 :    -189.8566334142938
           32 :    -136.5998929896073

     Writing all to output data dir ./PbI2.save/

     General routines

     Parallel routines

     PAW routines

   This run was terminated on:  23:30:50  23Mar2024

   JOB DONE.