     Program PWSCF v.7.1 starts on 20Mar2024 at  9:28: 5

     Reading input from espresso.pwi
Warning: card &CELL ignored
Warning: card    CELL_DYNAMICS    = 'BFGS' ignored
Warning: card / ignored

     Current dimensions of program PWSCF are:
     Max number of different atomic species (ntypx) = 10
     Max number of k-points (npk) =  40000
     Max angular momentum in pseudopotentials (lmaxx) =  4
     file Pb.pbe-dn-kjpaw_psl.1.0.0.UPF: wavefunction(s)  6S 6P 5D renormalized
     file I.pbe-dn-kjpaw_psl.1.0.0.UPF: wavefunction(s)  5S 5P renormalized

     IMPORTANT: XC functional enforced from input :
     Exchange-correlation= BEEF-VDW
                           (   1   4  43  14   2   0   0)
     Any further DFT definition will be discarded
     Please, verify this is what you really want

     K-points division:     npool     =       2
     R & G space division:  proc/nbgrp/npool/nimage =      64
     Subspace diagonalization in iterative solution of the eigenvalue problem:
     a serial algorithm will be used

     Using Slab Decomposition

     bravais-lattice index     =            4
     lattice parameter (alat)  =      26.7090  a.u.
     unit-cell volume          =   17226.5091 (a.u.)^3
     number of atoms/cell      =           53
     number of atomic types    =            2
     number of electrons       =       847.00
     number of Kohn-Sham states=          509
     kinetic-energy cutoff     =      70.0000  Ry
     charge density cutoff     =     350.0000  Ry
     scf convergence threshold =      1.0E-07
     mixing beta               =       0.7000
     number of iterations used =            8  plain     mixing
     energy convergence thresh.=      1.0E-04
     force convergence thresh. =      1.0E-03
     Exchange-correlation= BEEF-VDW
                           (   1   4  43  14   2   0   0)
     nstep                     =           50

     celldm(1)=  26.709025  celldm(2)=   0.000000  celldm(3)=   1.043981
     celldm(4)=   0.000000  celldm(5)=   0.000000  celldm(6)=   0.000000

     crystal axes: (cart. coord. in units of alat)
               a(1) = (   1.000000   0.000000   0.000000 )
               a(2) = (  -0.500000   0.866025   0.000000 )
               a(3) = (   0.000000   0.000000   1.043981 )

     reciprocal axes: (cart. coord. in units 2 pi/alat)
               b(1) = (  1.000000  0.577350 -0.000000 )
               b(2) = (  0.000000  1.154701  0.000000 )
               b(3) = (  0.000000 -0.000000  0.957872 )

     PseudoPot. # 1 for Pb read from file:
     /trace/group/acmegroup/atimmins/packages/espresso/pseudo/psl_1.0.0/pslibrary.1.0.0/pbe/PSEUDOPOTENTIALS/Pb.pbe-dn-kjpaw_psl.1.0.0.UPF
     MD5 check sum: 39ab5b8a6bbd56b7735ad9f188aac93a
     Pseudo is Projector augmented-wave + core cor, Zval = 14.0
     Generated using 'atomic' code by A. Dal Corso  v.7.1
     Shape of augmentation charge: PSQ
     Using radial grid of 1281 points,  6 beta functions with:
                l(1) =   0
                l(2) =   0
                l(3) =   1
                l(4) =   1
                l(5) =   2
                l(6) =   2
     Q(r) pseudized with 0 coefficients

     PseudoPot. # 2 for I  read from file:
     /trace/group/acmegroup/atimmins/packages/espresso/pseudo/psl_1.0.0/pslibrary.1.0.0/pbe/PSEUDOPOTENTIALS/I.pbe-dn-kjpaw_psl.1.0.0.UPF
     MD5 check sum: bfa8781bc1224d19af3f3980e3fab11e
     Pseudo is Projector augmented-wave + core cor, Zval = 17.0
     Generated using 'atomic' code by A. Dal Corso  v.7.1
     Shape of augmentation charge: PSQ
     Using radial grid of 1247 points,  6 beta functions with:
                l(1) =   0
                l(2) =   0
                l(3) =   1
                l(4) =   1
                l(5) =   2
                l(6) =   2
     Q(r) pseudized with 0 coefficients

     atomic species   valence    mass     pseudopotential
        Pb            14.00   207.20000     Pb( 1.00)
        I             17.00   126.90447     I ( 1.00)

     No symmetry found

                                    s                        frac. trans.

      isym =  1     identity

 cryst.   s( 1) = (     1          0          0      )
                  (     0          1          0      )
                  (     0          0          1      )

 cart.    s( 1) = (  1.0000000  0.0000000  0.0000000 )
                  (  0.0000000  1.0000000  0.0000000 )
                  (  0.0000000  0.0000000  1.0000000 )

     point group C_1 (1)
     there are  1 classes
     the character table:

       E
A      1.00

     the symmetry operations in each class and the name of the first element:

     E        1
          identity

   Cartesian axes

     site n.     atom                  positions (alat units)
         1           Pb  tau(   1) = (   0.1666780   0.2886497   1.0439767  )
         2           Pb  tau(   2) = (   0.1666712   0.2886557   0.5219862  )
         3           Pb  tau(   3) = (   0.0000102   0.5773235   1.0439712  )
         4           Pb  tau(   4) = (   0.0000034   0.5773295   0.5219807  )
         5           Pb  tau(   5) = (  -0.1666576   0.8659973   1.0439657  )
         6           Pb  tau(   6) = (  -0.1666644   0.8660033   0.5219752  )
         7           Pb  tau(   7) = (   0.5000113   0.2886484   1.0439810  )
         8           Pb  tau(   8) = (   0.5000045   0.2886544   0.5219905  )
         9           Pb  tau(   9) = (   0.3333436   0.5773222   1.0439755  )
        10           Pb  tau(  10) = (   0.3333367   0.5773282   0.5219850  )
        11           Pb  tau(  11) = (   0.1666758   0.8659960   1.0439700  )
        12           Pb  tau(  12) = (   0.1666690   0.8660020   0.5219795  )
        13           Pb  tau(  13) = (   0.8333447   0.2886471   1.0439853  )
        14           Pb  tau(  14) = (   0.8333379   0.2886531   0.5219949  )
        15           Pb  tau(  15) = (   0.6666769   0.5773209   1.0439798  )
        16           Pb  tau(  16) = (   0.6666701   0.5773269   0.5219894  )
        17           Pb  tau(  17) = (   0.5000091   0.8659947   1.0439743  )
        18           Pb  tau(  18) = (   0.5000023   0.8660007   0.5219839  )
        19           I   tau(  19) = (   0.1666806   0.0962006   0.9099004  )
        20           I   tau(  20) = (   0.0000060   0.3848804   0.3879044  )
        21           I   tau(  21) = (   0.0000129   0.3848744   0.9098949  )
        22           I   tau(  22) = (  -0.1666617   0.6735542   0.3878990  )
        23           I   tau(  23) = (  -0.1666549   0.6735482   0.9098894  )
        24           I   tau(  24) = (   0.5000071   0.0962053   0.3879143  )
        25           I   tau(  25) = (   0.5000140   0.0961993   0.9099047  )
        26           I   tau(  26) = (   0.3333394   0.3848792   0.3879088  )
        27           I   tau(  27) = (   0.3333462   0.3848731   0.9098993  )
        28           I   tau(  28) = (   0.1666716   0.6735530   0.3879033  )
        29           I   tau(  29) = (   0.1666784   0.6735469   0.9098938  )
        30           I   tau(  30) = (   0.8333405   0.0962041   0.3879186  )
        31           I   tau(  31) = (   0.8333473   0.0961980   0.9099091  )
        32           I   tau(  32) = (   0.6666727   0.3848779   0.3879131  )
        33           I   tau(  33) = (   0.6666795   0.3848718   0.9099036  )
        34           I   tau(  34) = (   0.5000049   0.6735517   0.3879076  )
        35           I   tau(  35) = (   0.5000117   0.6735457   0.9098981  )
        36           I   tau(  36) = (  -0.0000023   0.1924396   0.1340740  )
        37           I   tau(  37) = (   0.0000045   0.1924336   0.6560644  )
        38           I   tau(  38) = (  -0.1666701   0.4811134   0.1340685  )
        39           I   tau(  39) = (  -0.1666632   0.4811074   0.6560589  )
        40           I   tau(  40) = (  -0.3333378   0.7697873   0.1340630  )
        41           I   tau(  41) = (  -0.3333310   0.7697812   0.6560534  )
        42           I   tau(  42) = (   0.3333311   0.1924384   0.1340783  )
        43           I   tau(  43) = (   0.3333379   0.1924323   0.6560688  )
        44           I   tau(  44) = (   0.1666633   0.4811122   0.1340728  )
        45           I   tau(  45) = (   0.1666701   0.4811061   0.6560633  )
        46           I   tau(  46) = (  -0.0000045   0.7697860   0.1340673  )
        47           I   tau(  47) = (   0.0000023   0.7697799   0.6560578  )
        48           I   tau(  48) = (   0.6666644   0.1924371   0.1340827  )
        49           I   tau(  49) = (   0.6666712   0.1924310   0.6560731  )
        50           I   tau(  50) = (   0.4999966   0.4811109   0.1340772  )
        51           I   tau(  51) = (   0.5000034   0.4811049   0.6560676  )
        52           I   tau(  52) = (   0.3333288   0.7697847   0.1340717  )
        53           I   tau(  53) = (   0.3333356   0.7697787   0.6560621  )

   Crystallographic axes

     site n.     atom                  positions (cryst. coord.)
         1           Pb  tau(   1) = (  0.3333300  0.3333039  0.9999959  )
         2           Pb  tau(   2) = (  0.3333266  0.3333109  0.4999959  )
         3           Pb  tau(   3) = (  0.3333281  0.6666357  0.9999906  )
         4           Pb  tau(   4) = (  0.3333248  0.6666427  0.4999906  )
         5           Pb  tau(   5) = (  0.3333262  0.9999675  0.9999854  )
         6           Pb  tau(   6) = (  0.3333229  0.9999745  0.4999854  )
         7           Pb  tau(   7) = (  0.6666626  0.3333025  1.0000001  )
         8           Pb  tau(   8) = (  0.6666592  0.3333094  0.5000001  )
         9           Pb  tau(   9) = (  0.6666607  0.6666343  0.9999948  )
        10           Pb  tau(  10) = (  0.6666573  0.6666412  0.4999948  )
        11           Pb  tau(  11) = (  0.6666588  0.9999661  0.9999895  )
        12           Pb  tau(  12) = (  0.6666555  0.9999730  0.4999895  )
        13           Pb  tau(  13) = (  0.9999951  0.3333010  1.0000042  )
        14           Pb  tau(  14) = (  0.9999918  0.3333079  0.5000042  )
        15           Pb  tau(  15) = (  0.9999933  0.6666328  0.9999990  )
        16           Pb  tau(  16) = (  0.9999899  0.6666397  0.4999990  )
        17           Pb  tau(  17) = (  0.9999914  0.9999646  0.9999937  )
        18           Pb  tau(  18) = (  0.9999881  0.9999715  0.4999937  )
        19           I   tau(  19) = (  0.2222221  0.1110829  0.8715680  )
        20           I   tau(  20) = (  0.2222169  0.4444217  0.3715628  )
        21           I   tau(  21) = (  0.2222202  0.4444147  0.8715628  )
        22           I   tau(  22) = (  0.2222150  0.7777534  0.3715575  )
        23           I   tau(  23) = (  0.2222183  0.7777465  0.8715575  )
        24           I   tau(  24) = (  0.5555513  0.1110884  0.3715722  )
        25           I   tau(  25) = (  0.5555547  0.1110814  0.8715722  )
        26           I   tau(  26) = (  0.5555495  0.4444202  0.3715669  )
        27           I   tau(  27) = (  0.5555528  0.4444132  0.8715669  )
        28           I   tau(  28) = (  0.5555476  0.7777520  0.3715617  )
        29           I   tau(  29) = (  0.5555509  0.7777450  0.8715617  )
[...]
     atom   34 type  2   force =    -0.00007361    0.00017293   -0.00488912
     atom   35 type  2   force =    -0.00002405   -0.00015950   -0.00518563
     atom   36 type  2   force =    -0.00000507   -0.00005289    0.00524531
     atom   37 type  2   force =    -0.00032725    0.00033298    0.00543395
     atom   38 type  2   force =     0.00010392    0.00006428    0.00524702
     atom   39 type  2   force =     0.00009153    0.00005608    0.00506578
     atom   40 type  2   force =    -0.00004468    0.00001510    0.00524472
     atom   41 type  2   force =     0.00013074   -0.00045353    0.00543380
     atom   42 type  2   force =     0.00012386    0.00006667    0.00521270
     atom   43 type  2   force =     0.00029816    0.00015534    0.00539915
     atom   44 type  2   force =    -0.00011211    0.00006299    0.00522277
     atom   45 type  2   force =     0.00001456   -0.00047658    0.00473498
     atom   46 type  2   force =    -0.00000460   -0.00012536    0.00522151
     atom   47 type  2   force =    -0.00040136    0.00025406    0.00473368
     atom   48 type  2   force =    -0.00000049   -0.00006136    0.00527133
     atom   49 type  2   force =     0.00003596    0.00003999    0.00510824
     atom   50 type  2   force =    -0.00004704    0.00003297    0.00527650
     atom   51 type  2   force =     0.00005490    0.00001331    0.00511132
     atom   52 type  2   force =    -0.00017376   -0.00009835    0.00520092
     atom   53 type  2   force =     0.00051798    0.00030261    0.00472087
     The Hubbard contrib.    to forces
     atom    1 type  1   force =     0.00000000    0.00000000    0.00000000
     atom    2 type  1   force =     0.00000000    0.00000000    0.00000000
     atom    3 type  1   force =     0.00000000    0.00000000    0.00000000
     atom    4 type  1   force =     0.00000000    0.00000000    0.00000000
     atom    5 type  1   force =     0.00000000    0.00000000    0.00000000
     atom    6 type  1   force =     0.00000000    0.00000000    0.00000000
     atom    7 type  1   force =     0.00000000    0.00000000    0.00000000
     atom    8 type  1   force =     0.00000000    0.00000000    0.00000000
     atom    9 type  1   force =     0.00000000    0.00000000    0.00000000
     atom   10 type  1   force =     0.00000000    0.00000000    0.00000000
     atom   11 type  1   force =     0.00000000    0.00000000    0.00000000
     atom   12 type  1   force =     0.00000000    0.00000000    0.00000000
     atom   13 type  1   force =     0.00000000    0.00000000    0.00000000
     atom   14 type  1   force =     0.00000000    0.00000000    0.00000000
     atom   15 type  1   force =     0.00000000    0.00000000    0.00000000
     atom   16 type  1   force =     0.00000000    0.00000000    0.00000000
     atom   17 type  1   force =     0.00000000    0.00000000    0.00000000
     atom   18 type  1   force =     0.00000000    0.00000000    0.00000000
     atom   19 type  2   force =     0.00000000    0.00000000    0.00000000
     atom   20 type  2   force =     0.00000000    0.00000000    0.00000000
     atom   21 type  2   force =     0.00000000    0.00000000    0.00000000
     atom   22 type  2   force =     0.00000000    0.00000000    0.00000000
     atom   23 type  2   force =     0.00000000    0.00000000    0.00000000
     atom   24 type  2   force =     0.00000000    0.00000000    0.00000000
     atom   25 type  2   force =     0.00000000    0.00000000    0.00000000
     atom   26 type  2   force =     0.00000000    0.00000000    0.00000000
     atom   27 type  2   force =     0.00000000    0.00000000    0.00000000
     atom   28 type  2   force =     0.00000000    0.00000000    0.00000000
     atom   29 type  2   force =     0.00000000    0.00000000    0.00000000
     atom   30 type  2   force =     0.00000000    0.00000000    0.00000000
     atom   31 type  2   force =     0.00000000    0.00000000    0.00000000
     atom   32 type  2   force =     0.00000000    0.00000000    0.00000000
     atom   33 type  2   force =     0.00000000    0.00000000    0.00000000
     atom   34 type  2   force =     0.00000000    0.00000000    0.00000000
     atom   35 type  2   force =     0.00000000    0.00000000    0.00000000
     atom   36 type  2   force =     0.00000000    0.00000000    0.00000000
     atom   37 type  2   force =     0.00000000    0.00000000    0.00000000
     atom   38 type  2   force =     0.00000000    0.00000000    0.00000000
     atom   39 type  2   force =     0.00000000    0.00000000    0.00000000
     atom   40 type  2   force =     0.00000000    0.00000000    0.00000000
     atom   41 type  2   force =     0.00000000    0.00000000    0.00000000
     atom   42 type  2   force =     0.00000000    0.00000000    0.00000000
     atom   43 type  2   force =     0.00000000    0.00000000    0.00000000
     atom   44 type  2   force =     0.00000000    0.00000000    0.00000000
     atom   45 type  2   force =     0.00000000    0.00000000    0.00000000
     atom   46 type  2   force =     0.00000000    0.00000000    0.00000000
     atom   47 type  2   force =     0.00000000    0.00000000    0.00000000
     atom   48 type  2   force =     0.00000000    0.00000000    0.00000000
     atom   49 type  2   force =     0.00000000    0.00000000    0.00000000
     atom   50 type  2   force =     0.00000000    0.00000000    0.00000000
     atom   51 type  2   force =     0.00000000    0.00000000    0.00000000
     atom   52 type  2   force =     0.00000000    0.00000000    0.00000000
     atom   53 type  2   force =     0.00000000    0.00000000    0.00000000
     The SCF correction term to forces
     atom    1 type  1   force =    -0.00000652    0.00000965   -0.00000414
     atom    2 type  1   force =    -0.00000969    0.00000895   -0.00000354
     atom    3 type  1   force =     0.00000733    0.00000388    0.00000158
     atom    4 type  1   force =     0.00000881    0.00000442   -0.00000539
     atom    5 type  1   force =     0.00000480   -0.00001023   -0.00000405
     atom    6 type  1   force =     0.00000234   -0.00001230   -0.00000373
     atom    7 type  1   force =     0.00000526    0.00000333   -0.00000284
     atom    8 type  1   force =     0.00000805    0.00000511    0.00000202
     atom    9 type  1   force =    -0.00000726    0.00001109    0.00000061
     atom   10 type  1   force =    -0.00000567    0.00001620   -0.00000414
     atom   11 type  1   force =     0.00000629   -0.00001198    0.00000067
     atom   12 type  1   force =     0.00001182   -0.00001314   -0.00000426
     atom   13 type  1   force =     0.00000074   -0.00000021   -0.00000201
     atom   14 type  1   force =     0.00000055   -0.00000251    0.00000124
     atom   15 type  1   force =    -0.00000007    0.00000062   -0.00000204
     atom   16 type  1   force =    -0.00000224    0.00000134    0.00000124
     atom   17 type  1   force =    -0.00001185   -0.00000682   -0.00000433
     atom   18 type  1   force =    -0.00001624   -0.00000915    0.00000023
     atom   19 type  2   force =    -0.00000860   -0.00000465   -0.00000564
     atom   20 type  2   force =     0.00000217    0.00001781   -0.00000104
     atom   21 type  2   force =    -0.00000415    0.00000851    0.00000220
     atom   22 type  2   force =     0.00001640   -0.00000754   -0.00000140
     atom   23 type  2   force =     0.00000520   -0.00000821    0.00000225
     atom   24 type  2   force =     0.00001819   -0.00002145   -0.00000365
     atom   25 type  2   force =     0.00001182   -0.00000705   -0.00000007
     atom   26 type  2   force =    -0.00000988    0.00002672   -0.00000322
     atom   27 type  2   force =    -0.00000037    0.00001400   -0.00000009
     atom   28 type  2   force =     0.00000376    0.00000171    0.00000197
     atom   29 type  2   force =     0.00000145    0.00000052    0.00000755
     atom   30 type  2   force =    -0.00000534   -0.00001937    0.00000450
     atom   31 type  2   force =    -0.00000248   -0.00000572    0.00000056
     atom   32 type  2   force =     0.00000600    0.00000356   -0.00000314
     atom   33 type  2   force =     0.00000551    0.00000337   -0.00000201
     atom   34 type  2   force =    -0.00001978    0.00000471    0.00000452
     atom   35 type  2   force =    -0.00000646    0.00000038    0.00000053
     atom   36 type  2   force =    -0.00001136    0.00000296   -0.00000249
     atom   37 type  2   force =    -0.00000968   -0.00000587    0.00000264
     atom   38 type  2   force =     0.00000581    0.00000319   -0.00000378
     atom   39 type  2   force =     0.00000547    0.00000286    0.00000443
     atom   40 type  2   force =    -0.00000339   -0.00001128   -0.00000254
     atom   41 type  2   force =    -0.00001049   -0.00000558    0.00000296
     atom   42 type  2   force =     0.00000467    0.00000304   -0.00000158
     atom   43 type  2   force =     0.00000001    0.00000075    0.00001040
     atom   44 type  2   force =    -0.00000251    0.00002154    0.00000156
     atom   45 type  2   force =    -0.00000250    0.00002329   -0.00000035
     atom   46 type  2   force =     0.00001755   -0.00001324    0.00000160
     atom   47 type  2   force =     0.00001947   -0.00001442    0.00000001
     atom   48 type  2   force =     0.00000722   -0.00000644   -0.00000331
     atom   49 type  2   force =     0.00000919   -0.00000931    0.00000470
     atom   50 type  2   force =    -0.00000226    0.00000950   -0.00000336
     atom   51 type  2   force =    -0.00000404    0.00001266    0.00000466
     atom   52 type  2   force =    -0.00001244   -0.00000743    0.00000048
     atom   53 type  2   force =    -0.00000898   -0.00000541   -0.00000646

     Total force =     0.003237     Total SCF correction =     0.000103

     Computing stress (Cartesian axis) and pressure

     Non-local corr. energy    =      25.32926577 Ry

          total   stress  (Ry/bohr**3)                   (kbar)     P=        0.27
  -0.00000110  -0.00000005   0.00000009           -0.16       -0.01        0.01
  -0.00000005  -0.00000102   0.00000006           -0.01       -0.15        0.01
   0.00000009   0.00000006   0.00000759            0.01        0.01        1.12

     kinetic stress (kbar)  14755.39     -0.01      0.02
                               -0.01  14755.40      0.01
                                0.02      0.01  14769.24

     local   stress (kbar)  -8042.28     -0.08     -1.17
                               -0.08  -8042.40     -0.84
                               -1.17     -0.84   1642.74

     nonloc. stress (kbar)  -1117.87     -0.01      0.01
                               -0.01  -1117.86      0.01
                                0.01      0.01  -1121.59

     hartree stress (kbar)  12088.91      0.08      0.51
                                0.08  12088.88      0.35
                                0.51      0.35   7721.15

     exc-cor stress (kbar)   6796.60     -0.00      0.00
                               -0.00   6796.60      0.00
                                0.00      0.00   6795.26

     corecor stress (kbar) -11070.00     -0.00     -0.00
                               -0.00 -11069.99     -0.00
                               -0.00     -0.00 -11069.95

     ewald   stress (kbar) -13492.32      0.01      0.64
                                0.01 -13492.18      0.47
                                0.64      0.47 -18818.62

     hubbard stress (kbar)      0.00      0.00      0.00
                                0.00      0.00      0.00
                                0.00      0.00      0.00

     DFT-D   stress (kbar)      0.00      0.00      0.00
                                0.00      0.00      0.00
                                0.00      0.00      0.00

     XDM     stress (kbar)      0.00      0.00      0.00
                                0.00      0.00      0.00
                                0.00      0.00      0.00

     dft-nl  stress (kbar)     81.40      0.00     -0.00
                                0.00     81.40     -0.00
                               -0.00     -0.00     82.88

     TS-vdW  stress (kbar)      0.00      0.00      0.00
                                0.00      0.00      0.00
                                0.00      0.00      0.00

     MDB     stress (kbar)      0.00      0.00      0.00
                                0.00      0.00      0.00
                                0.00      0.00      0.00

     3D-RISM stress (kbar)      0.00      0.00      0.00
                                0.00      0.00      0.00
                                0.00      0.00      0.00

     Energy error            =      5.1E-05 Ry
     Gradient error          =      8.4E-04 Ry/Bohr

     bfgs converged in  18 scf cycles and  17 bfgs steps
     (criteria: energy <  1.0E-04 Ry, force <  1.0E-03 Ry/Bohr)

     End of BFGS Geometry Optimization

     Final energy             =  -35861.6467177786 Ry

     File ./PbI2.bfgs deleted, as requested
Begin final coordinates

ATOMIC_POSITIONS (angstrom)
Pb            2.3560724901        4.0765311558       14.7629148700
Pb            2.3563757805        3.8790442517        7.3468780363
Pb            0.0012378339        8.1606496567       14.7431591178
Pb            0.0016371860        8.1608213384        7.3729507300
Pb           -2.3583467445       12.2419357022       14.7627527561
Pb           -2.5293139534       12.3406482949        7.3464831303
Pb            7.0578688599        4.0746674177       14.7725160885
Pb            7.0663977422        4.0795963448        7.3742481829
Pb            4.7072872740        8.1584490541       14.7491675132
Pb            4.7090482340        8.1592895122        7.3776756011
Pb            2.3524008636       12.2369827771       14.7489515497
Pb            2.3540528044       12.2382584018        7.3775069244
Pb           11.7846037369        4.0762486161       14.7671973995
Pb           11.7763784846        4.0816803809        7.3677366114
Pb            9.4225281134        8.1672847680       14.7673534881
Pb            9.4231003763        8.1574313803        7.3678237963
Pb            7.0695598261       12.2413803097       14.7617136115
Pb            7.2402548589       12.3398732934        7.3493806190
I             2.3592349859        1.3619143797       12.8774717018
I             0.0261380600        5.3965428565        5.5125263898
I            -0.0029396371        5.4308641405       12.8729241854
I            -2.3801290823        9.5637816405        5.5123947304
I            -2.3651627048        9.5215288228       12.8728947954
I             7.0222866276        1.3672152900        5.5142012053
I             7.0629252687        1.3688285839       12.8754211748
I             4.6953376153        5.3974588572        5.5141775794
I             4.7171187825        5.4318707849       12.8752535494
I             2.3585914504        9.5213101177        5.4835570306
I             2.3584892929        9.5209723547       12.8501152787
I            11.8289408097        1.3647541218        5.5161286742
I            11.7755276715        1.3658697013       12.8773424259
I             9.4163514538        5.4362419484        5.4860914731
I             9.4165645962        5.4364058137       12.8974892223
I             7.0964267766        9.5611895406        5.5160034720
I             7.0708113468        9.5143897323       12.8771484128
I             0.0246151444        2.7025683699        1.9107611598
I             0.0058876054        2.7208198745        9.3016278556
I            -2.3472405719        6.8046285949        1.8860104235
I            -2.3504648315        6.8028414975        9.2567439714
I            -4.7136310287       10.9095133901        1.9109839383
I            -4.7071882811       10.8842981087        9.3017534735
I             4.6853473069        2.7045947070        1.9154590813
I             4.7018413994        2.7136257608        9.3050645036
I             2.3488257249        6.8042543180        1.8807845617
I             2.3556670611        6.6994596563        9.1800501631
I             0.0003780076       10.8720291969        1.8807028986
I            -0.0866831064       10.9300235038        9.1799683604
I             9.4250577325        2.7142741717        1.8878977235
I             9.4268455508        2.7197094494        9.2588165427
I             7.0636329042        6.8045364759        1.8883237407
I             7.0689875505        6.8035397322        9.2590668839
I             4.7038125913       10.8756986740        1.8785293380
I             4.8021645557       10.9324087110        9.1795164735
End final coordinates

     Writing all to output data dir ./PbI2.save/

     General routines

     Parallel routines

     PAW routines

   This run was terminated on:  15:39:30  20Mar2024

   JOB DONE.