     Program PWSCF v.7.1 starts on 18Feb2024 at 12:26:59

     Reading input from espresso.pwi
Warning: card &CELL ignored
Warning: card    CELL_DYNAMICS    = 'BFGS' ignored
Warning: card / ignored

     Current dimensions of program PWSCF are:
     Max number of different atomic species (ntypx) = 10
     Max number of k-points (npk) =  40000
     Max angular momentum in pseudopotentials (lmaxx) =  4
     file Pb.pbe-dn-kjpaw_psl.1.0.0.UPF: wavefunction(s)  6S 6P 5D renormalized
     file I.pbe-dn-kjpaw_psl.1.0.0.UPF: wavefunction(s)  5S 5P renormalized

     IMPORTANT: XC functional enforced from input :
     Exchange-correlation= BEEF-VDW
                           (   1   4  43  14   2   0   0)
     Any further DFT definition will be discarded
     Please, verify this is what you really want

     R & G space division:  proc/nbgrp/npool/nimage =     128
     Subspace diagonalization in iterative solution of the eigenvalue problem:
     a serial algorithm will be used

     Using Slab Decomposition

     bravais-lattice index     =            4
     lattice parameter (alat)  =      35.6073  a.u.
     unit-cell volume          =   30614.2220 (a.u.)^3
     number of atoms/cell      =           96
     number of atomic types    =            2
     number of electrons       =      1541.00
     number of Kohn-Sham states=          925
     kinetic-energy cutoff     =      70.0000  Ry
     charge density cutoff     =     350.0000  Ry
     scf convergence threshold =      1.0E-07
     mixing beta               =       0.7000
     number of iterations used =            8  plain     mixing
     Exchange-correlation= BEEF-VDW
                           (   1   4  43  14   2   0   0)

     celldm(1)=  35.607290  celldm(2)=   0.000000  celldm(3)=   0.783025
     celldm(4)=   0.000000  celldm(5)=   0.000000  celldm(6)=   0.000000

     crystal axes: (cart. coord. in units of alat)
               a(1) = (   1.000000   0.000000   0.000000 )
               a(2) = (  -0.500000   0.866025   0.000000 )
               a(3) = (   0.000000   0.000000   0.783025 )

     reciprocal axes: (cart. coord. in units 2 pi/alat)
               b(1) = (  1.000000  0.577350 -0.000000 )
               b(2) = (  0.000000  1.154701  0.000000 )
               b(3) = (  0.000000 -0.000000  1.277098 )

     PseudoPot. # 1 for Pb read from file:
     //group///packages/espresso/pseudo/psl_1.0.0/pslibrary.1.0.0/pbe/PSEUDOPOTENTIALS/Pb.pbe-dn-kjpaw_psl.1.0.0.UPF
     MD5 check sum: 39ab5b8a6bbd56b7735ad9f188aac93a
     Pseudo is Projector augmented-wave + core cor, Zval = 14.0
     Generated using 'atomic' code by A. Dal Corso  v.7.1
     Shape of augmentation charge: PSQ
     Using radial grid of 1281 points,  6 beta functions with:
                l(1) =   0
                l(2) =   0
                l(3) =   1
                l(4) =   1
                l(5) =   2
                l(6) =   2
     Q(r) pseudized with 0 coefficients

     PseudoPot. # 2 for I  read from file:
     //group///packages/espresso/pseudo/psl_1.0.0/pslibrary.1.0.0/pbe/PSEUDOPOTENTIALS/I.pbe-dn-kjpaw_psl.1.0.0.UPF
     MD5 check sum: bfa8781bc1224d19af3f3980e3fab11e
     Pseudo is Projector augmented-wave + core cor, Zval = 17.0
     Generated using 'atomic' code by A. Dal Corso  v.7.1
     Shape of augmentation charge: PSQ
     Using radial grid of 1247 points,  6 beta functions with:
                l(1) =   0
                l(2) =   0
                l(3) =   1
                l(4) =   1
                l(5) =   2
                l(6) =   2
     Q(r) pseudized with 0 coefficients

     atomic species   valence    mass     pseudopotential
        Pb            14.00   207.20000     Pb( 1.00)
        I             17.00   126.90447     I ( 1.00)

     No symmetry found

                                    s                        frac. trans.

      isym =  1     identity

 cryst.   s( 1) = (     1          0          0      )
                  (     0          1          0      )
                  (     0          0          1      )

 cart.    s( 1) = (  1.0000000  0.0000000  0.0000000 )
                  (  0.0000000  1.0000000  0.0000000 )
                  (  0.0000000  0.0000000  1.0000000 )

     point group C_1 (1)
     there are  1 classes
     the character table:

       E
A      1.00

     the symmetry operations in each class and the name of the first element:

     E        1
          identity

   Cartesian axes

     site n.     atom                  positions (alat units)
         1           Pb  tau(   1) = (   0.1250034   0.2164916   0.3915076  )
         2           Pb  tau(   2) = (   0.0000077   0.4329922   0.7830161  )
         3           Pb  tau(   3) = (   0.0000025   0.4329968   0.3915034  )
         4           Pb  tau(   4) = (  -0.1249932   0.6494975   0.7830119  )
         5           Pb  tau(   5) = (  -0.1249984   0.6495021   0.3914992  )
         6           Pb  tau(   6) = (  -0.2499941   0.8660028   0.7830077  )
         7           Pb  tau(   7) = (  -0.2499993   0.8660074   0.3914950  )
         8           Pb  tau(   8) = (   0.3750086   0.2164859   0.7830237  )
         9           Pb  tau(   9) = (   0.3750034   0.2164905   0.3915110  )
        10           Pb  tau(  10) = (   0.2500077   0.4329912   0.7830194  )
        11           Pb  tau(  11) = (   0.2500025   0.4329958   0.3915068  )
        12           Pb  tau(  12) = (   0.1250068   0.6494965   0.7830152  )
        13           Pb  tau(  13) = (   0.1250016   0.6495011   0.3915026  )
        14           Pb  tau(  14) = (   0.0000059   0.8660017   0.7830110  )
        15           Pb  tau(  15) = (   0.0000007   0.8660063   0.3914983  )
        16           Pb  tau(  16) = (   0.6250086   0.2164849   0.7830270  )
        17           Pb  tau(  17) = (   0.6250034   0.2164895   0.3915143  )
        18           Pb  tau(  18) = (   0.5000077   0.4329901   0.7830228  )
        19           Pb  tau(  19) = (   0.5000025   0.4329947   0.3915101  )
        20           Pb  tau(  20) = (   0.3750068   0.6494954   0.7830186  )
        21           Pb  tau(  21) = (   0.3750016   0.6495000   0.3915059  )
        22           Pb  tau(  22) = (   0.2500059   0.8660007   0.7830144  )
        23           Pb  tau(  23) = (   0.2500007   0.8660053   0.3915017  )
        24           Pb  tau(  24) = (   0.8750086   0.2164838   0.7830303  )
        25           Pb  tau(  25) = (   0.8750034   0.2164884   0.3915177  )
        26           Pb  tau(  26) = (   0.7500077   0.4329891   0.7830261  )
        27           Pb  tau(  27) = (   0.7500025   0.4329937   0.3915135  )
        28           Pb  tau(  28) = (   0.6250068   0.6494944   0.7830219  )
        29           Pb  tau(  29) = (   0.6250016   0.6494990   0.3915092  )
        30           Pb  tau(  30) = (   0.5000059   0.8659996   0.7830177  )
        31           Pb  tau(  31) = (   0.5000007   0.8660042   0.3915050  )
        32           I   tau(  32) = (   0.1250056   0.0721546   0.2909163  )
        33           I   tau(  33) = (   0.1250108   0.0721500   0.6824290  )
        34           I   tau(  34) = (   0.0000047   0.2886599   0.2909121  )
        35           I   tau(  35) = (   0.0000099   0.2886553   0.6824248  )
        36           I   tau(  36) = (  -0.1249962   0.5051652   0.2909079  )
        37           I   tau(  37) = (  -0.1249910   0.5051606   0.6824206  )
        38           I   tau(  38) = (  -0.2499972   0.7216704   0.2909037  )
        39           I   tau(  39) = (  -0.2499919   0.7216658   0.6824164  )
        40           I   tau(  40) = (   0.3750056   0.0721536   0.2909197  )
        41           I   tau(  41) = (   0.3750108   0.0721490   0.6824324  )
        42           I   tau(  42) = (   0.2500047   0.2886589   0.2909155  )
        43           I   tau(  43) = (   0.2500099   0.2886543   0.6824282  )
        44           I   tau(  44) = (   0.1250038   0.5051641   0.2909113  )
        45           I   tau(  45) = (   0.1250090   0.5051595   0.6824240  )
        46           I   tau(  46) = (   0.0000028   0.7216694   0.2909071  )
        47           I   tau(  47) = (   0.0000081   0.7216648   0.6824197  )
        48           I   tau(  48) = (   0.6250056   0.0721525   0.2909230  )
        49           I   tau(  49) = (   0.6250108   0.0721479   0.6824357  )
        50           I   tau(  50) = (   0.5000047   0.2886578   0.2909188  )
        51           I   tau(  51) = (   0.5000099   0.2886532   0.6824315  )
        52           I   tau(  52) = (   0.3750038   0.5051631   0.2909146  )
        53           I   tau(  53) = (   0.3750090   0.5051585   0.6824273  )
        54           I   tau(  54) = (   0.2500028   0.7216683   0.2909104  )
        55           I   tau(  55) = (   0.2500081   0.7216637   0.6824231  )
        56           I   tau(  56) = (   0.8750056   0.0721515   0.2909264  )
        57           I   tau(  57) = (   0.8750108   0.0721469   0.6824391  )
        58           I   tau(  58) = (   0.7500047   0.2886567   0.2909222  )
        59           I   tau(  59) = (   0.7500099   0.2886521   0.6824348  )
        60           I   tau(  60) = (   0.6250038   0.5051620   0.2909180  )
[...]
        82           I   tau(  82) = (   0.3749973   0.3608329   0.1005958  )
        83           I   tau(  83) = (   0.3750025   0.3608283   0.4921084  )
        84           I   tau(  84) = (   0.2499964   0.5773382   0.1005915  )
        85           I   tau(  85) = (   0.2500016   0.5773336   0.4921042  )
        86           I   tau(  86) = (   0.1249955   0.7938434   0.1005873  )
        87           I   tau(  87) = (   0.1250007   0.7938388   0.4921000  )
        88           I   tau(  88) = (   0.7499982   0.1443266   0.1006033  )
        89           I   tau(  89) = (   0.7500034   0.1443220   0.4921160  )
        90           I   tau(  90) = (   0.6249973   0.3608319   0.1005991  )
        91           I   tau(  91) = (   0.6250025   0.3608273   0.4921118  )
        92           I   tau(  92) = (   0.4999964   0.5773371   0.1005949  )
        93           I   tau(  93) = (   0.5000016   0.5773325   0.4921076  )
        94           I   tau(  94) = (   0.3749955   0.7938424   0.1005907  )
        95           I   tau(  95) = (   0.3750007   0.7938378   0.4921034  )
        96           I   tau(  96) = (   0.1250086   0.2164870   0.7830203  )

   Crystallographic axes

     site n.     atom                  positions (cryst. coord.)
         1           Pb  tau(   1) = (  0.2499949  0.2499829  0.4999935  )
         2           Pb  tau(   2) = (  0.2499959  0.4999764  0.9999882  )
         3           Pb  tau(   3) = (  0.2499933  0.4999817  0.4999882  )
         4           Pb  tau(   4) = (  0.2499944  0.7499751  0.9999828  )
         5           Pb  tau(   5) = (  0.2499918  0.7499804  0.4999828  )
         6           Pb  tau(   6) = (  0.2499928  0.9999739  0.9999774  )
         7           Pb  tau(   7) = (  0.2499903  0.9999792  0.4999774  )
         8           Pb  tau(   8) = (  0.4999968  0.2499764  0.9999978  )
         9           Pb  tau(   9) = (  0.4999943  0.2499817  0.4999978  )
[...]
     atom   25 type  1   force =     0.00000000    0.00000000    0.00000000
     atom   26 type  1   force =     0.00000000    0.00000000    0.00000000
     atom   27 type  1   force =     0.00000000    0.00000000    0.00000000
     atom   28 type  1   force =     0.00000000    0.00000000    0.00000000
     atom   29 type  1   force =     0.00000000    0.00000000    0.00000000
     atom   30 type  1   force =     0.00000000    0.00000000    0.00000000
     atom   31 type  1   force =     0.00000000    0.00000000    0.00000000
     atom   32 type  2   force =     0.00000000    0.00000000    0.00000000
     atom   33 type  2   force =     0.00000000    0.00000000    0.00000000
     atom   34 type  2   force =     0.00000000    0.00000000    0.00000000
     atom   35 type  2   force =     0.00000000    0.00000000    0.00000000
     atom   36 type  2   force =     0.00000000    0.00000000    0.00000000
     atom   37 type  2   force =     0.00000000    0.00000000    0.00000000
     atom   38 type  2   force =     0.00000000    0.00000000    0.00000000
     atom   39 type  2   force =     0.00000000    0.00000000    0.00000000
     atom   40 type  2   force =     0.00000000    0.00000000    0.00000000
     atom   41 type  2   force =     0.00000000    0.00000000    0.00000000
     atom   42 type  2   force =     0.00000000    0.00000000    0.00000000
     atom   43 type  2   force =     0.00000000    0.00000000    0.00000000
     atom   44 type  2   force =     0.00000000    0.00000000    0.00000000
     atom   45 type  2   force =     0.00000000    0.00000000    0.00000000
     atom   46 type  2   force =     0.00000000    0.00000000    0.00000000
     atom   47 type  2   force =     0.00000000    0.00000000    0.00000000
     atom   48 type  2   force =     0.00000000    0.00000000    0.00000000
     atom   49 type  2   force =     0.00000000    0.00000000    0.00000000
     atom   50 type  2   force =     0.00000000    0.00000000    0.00000000
     atom   51 type  2   force =     0.00000000    0.00000000    0.00000000
     atom   52 type  2   force =     0.00000000    0.00000000    0.00000000
     atom   53 type  2   force =     0.00000000    0.00000000    0.00000000
     atom   54 type  2   force =     0.00000000    0.00000000    0.00000000
     atom   55 type  2   force =     0.00000000    0.00000000    0.00000000
     atom   56 type  2   force =     0.00000000    0.00000000    0.00000000
     atom   57 type  2   force =     0.00000000    0.00000000    0.00000000
     atom   58 type  2   force =     0.00000000    0.00000000    0.00000000
     atom   59 type  2   force =     0.00000000    0.00000000    0.00000000
     atom   60 type  2   force =     0.00000000    0.00000000    0.00000000
[...]
     atom   82 type  2   force =     0.00000000    0.00000000    0.00000000
     atom   83 type  2   force =     0.00000000    0.00000000    0.00000000
     atom   84 type  2   force =     0.00000000    0.00000000    0.00000000
     atom   85 type  2   force =     0.00000000    0.00000000    0.00000000
     atom   86 type  2   force =     0.00000000    0.00000000    0.00000000
     atom   87 type  2   force =     0.00000000    0.00000000    0.00000000
     atom   88 type  2   force =     0.00000000    0.00000000    0.00000000
     atom   89 type  2   force =     0.00000000    0.00000000    0.00000000
     atom   90 type  2   force =     0.00000000    0.00000000    0.00000000
     atom   91 type  2   force =     0.00000000    0.00000000    0.00000000
     atom   92 type  2   force =     0.00000000    0.00000000    0.00000000
     atom   93 type  2   force =     0.00000000    0.00000000    0.00000000
     atom   94 type  2   force =     0.00000000    0.00000000    0.00000000
     atom   95 type  2   force =     0.00000000    0.00000000    0.00000000
     atom   96 type  2   force =     0.00000000    0.00000000    0.00000000
     The SCF correction term to forces
     atom    1 type  1   force =     0.00000124   -0.00000003    0.00003264
     atom    2 type  1   force =    -0.00001159    0.00000213   -0.00004227
     atom    3 type  1   force =    -0.00000524    0.00000206    0.00003697
     atom    4 type  1   force =     0.00000009    0.00000035   -0.00002876
     atom    5 type  1   force =     0.00000030    0.00000057    0.00002925
     atom    6 type  1   force =     0.00001027   -0.00000250   -0.00002239
     atom    7 type  1   force =     0.00000581   -0.00000147    0.00002669
     atom    8 type  1   force =    -0.00000057    0.00001086   -0.00004691
     atom    9 type  1   force =     0.00000502    0.00000148    0.00003765
     atom   10 type  1   force =     0.00001640   -0.00000974   -0.00005679
     atom   11 type  1   force =     0.00000571   -0.00000251    0.00004281
     atom   12 type  1   force =    -0.00000126    0.00000089   -0.00003793
     atom   13 type  1   force =    -0.00000240    0.00000414    0.00003303
     atom   14 type  1   force =    -0.00000248    0.00000446   -0.00003346
     atom   15 type  1   force =     0.00000069    0.00000174    0.00002933
     atom   16 type  1   force =    -0.00000090    0.00000004   -0.00002938
     atom   17 type  1   force =    -0.00000105    0.00000015    0.00002980
     atom   18 type  1   force =    -0.00000740   -0.00000871   -0.00002979
     atom   19 type  1   force =     0.00000106   -0.00000429    0.00003330
     atom   20 type  1   force =     0.00000034   -0.00000044   -0.00002919
     atom   21 type  1   force =     0.00000045   -0.00000067    0.00002974
     atom   22 type  1   force =     0.00000599    0.00000783   -0.00002867
     atom   23 type  1   force =    -0.00000216    0.00000349    0.00002604
     atom   24 type  1   force =     0.00000088   -0.00000865   -0.00001819
     atom   25 type  1   force =    -0.00000518   -0.00000075    0.00002621
     atom   26 type  1   force =     0.00000298   -0.00000483   -0.00002476
     atom   27 type  1   force =    -0.00000114   -0.00000149    0.00003069
     atom   28 type  1   force =     0.00000087    0.00000007   -0.00002030
     atom   29 type  1   force =     0.00000230   -0.00000374    0.00002656
     atom   30 type  1   force =    -0.00001419    0.00000832   -0.00000837
     atom   31 type  1   force =    -0.00000398    0.00000105    0.00002120
     atom   32 type  2   force =    -0.00000642   -0.00001070    0.00001334
     atom   33 type  2   force =     0.00000108   -0.00000527   -0.00002811
     atom   34 type  2   force =    -0.00001884   -0.00000657    0.00002015
     atom   35 type  2   force =    -0.00001005    0.00000499   -0.00003063
     atom   36 type  2   force =    -0.00001090    0.00000294    0.00003185
     atom   37 type  2   force =     0.00000563   -0.00000844   -0.00003442
     atom   38 type  2   force =     0.00000149   -0.00000571    0.00002748
     atom   39 type  2   force =     0.00000542    0.00000181   -0.00003088
     atom   40 type  2   force =     0.00001213   -0.00000481    0.00002658
     atom   41 type  2   force =     0.00000452    0.00001274   -0.00003051
     atom   42 type  2   force =     0.00001603   -0.00000084    0.00003012
     atom   43 type  2   force =     0.00001568    0.00000675   -0.00003409
     atom   44 type  2   force =    -0.00000194    0.00001536    0.00003732
     atom   45 type  2   force =     0.00000537   -0.00000705   -0.00003999
     atom   46 type  2   force =    -0.00000143    0.00000586    0.00003532
     atom   47 type  2   force =     0.00000375    0.00000416   -0.00003676
     atom   48 type  2   force =     0.00000075    0.00000106    0.00003287
     atom   49 type  2   force =    -0.00000208   -0.00000030   -0.00003509
     atom   50 type  2   force =     0.00000705    0.00000061    0.00003209
     atom   51 type  2   force =    -0.00002227   -0.00000126   -0.00003642
     atom   52 type  2   force =     0.00001109   -0.00000003    0.00003236
     atom   53 type  2   force =    -0.00001012   -0.00002481   -0.00003791
     atom   54 type  2   force =    -0.00000100    0.00000844    0.00003285
     atom   55 type  2   force =    -0.00000569    0.00000299   -0.00003628
     atom   56 type  2   force =    -0.00000573    0.00000047    0.00001092
     atom   57 type  2   force =    -0.00000392    0.00000655   -0.00001804
     atom   58 type  2   force =    -0.00000431   -0.00000074    0.00002755
     atom   59 type  2   force =     0.00000676   -0.00000359   -0.00003176
     atom   60 type  2   force =     0.00000152   -0.00000275    0.00002874
[...]
     atom   82 type  2   force =     0.00000685   -0.00000540   -0.00002911
     atom   83 type  2   force =     0.00000254   -0.00000320    0.00003886
     atom   84 type  2   force =     0.00000557    0.00000010   -0.00001761
     atom   85 type  2   force =    -0.00000112   -0.00000205    0.00002294
     atom   86 type  2   force =    -0.00000014    0.00000682   -0.00001174
     atom   87 type  2   force =    -0.00000321    0.00000276    0.00001463
     atom   88 type  2   force =     0.00001750    0.00000117   -0.00001055
     atom   89 type  2   force =    -0.00000673   -0.00000003    0.00001506
     atom   90 type  2   force =    -0.00000009    0.00000060   -0.00000936
     atom   91 type  2   force =    -0.00000308   -0.00000221    0.00001290
     atom   92 type  2   force =     0.00000531   -0.00000393   -0.00000822
     atom   93 type  2   force =    -0.00000051   -0.00000884    0.00001269
     atom   94 type  2   force =     0.00000886    0.00002057   -0.00000930
     atom   95 type  2   force =    -0.00000917    0.00000017    0.00001409
     atom   96 type  2   force =     0.00000048   -0.00000019   -0.00003814

     Total force =     0.004094     Total SCF correction =     0.000288

     Computing stress (Cartesian axis) and pressure

[...]

          total   stress  (Ry/bohr**3)                   (kbar)     P=        9.68
   0.00006560   0.00000001  -0.00000001            9.65        0.00       -0.00
   0.00000001   0.00006560   0.00000000            0.00        9.65        0.00
  -0.00000001   0.00000000   0.00006615           -0.00        0.00        9.73

     kinetic stress (kbar)  14927.97      0.01     -0.01
                                0.01  14927.98      0.00
                               -0.01      0.00  14936.07

     local   stress (kbar)  -7243.34      0.41     -0.15
                                0.41  -7243.02      0.06
                               -0.15      0.06   1009.53

     nonloc. stress (kbar)   -961.36      0.01     -0.01
                                0.01   -961.35      0.00
                               -0.01      0.00   -967.54

     hartree stress (kbar)  11983.44     -0.16      0.06
                               -0.16  11983.32     -0.03
                                0.06     -0.03   8248.91

     exc-cor stress (kbar)   6983.61     -0.00     -0.00
                               -0.00   6983.61      0.00
                               -0.00      0.00   6982.87

     corecor stress (kbar) -11365.79     -0.00      0.00
                               -0.00 -11365.79     -0.00
                                0.00     -0.00 -11365.73

     ewald   stress (kbar) -14398.85     -0.27      0.11
                               -0.27 -14399.06     -0.04
                                0.11     -0.04 -18919.46

     hubbard stress (kbar)      0.00      0.00      0.00
                                0.00      0.00      0.00
                                0.00      0.00      0.00

     DFT-D   stress (kbar)      0.00      0.00      0.00
                                0.00      0.00      0.00
                                0.00      0.00      0.00

     XDM     stress (kbar)      0.00      0.00      0.00
                                0.00      0.00      0.00
                                0.00      0.00      0.00

     dft-nl  stress (kbar)     83.96      0.00      0.00
                                0.00     83.96     -0.00
                                0.00     -0.00     85.09

     TS-vdW  stress (kbar)      0.00      0.00      0.00
                                0.00      0.00      0.00
                                0.00      0.00      0.00

     MDB     stress (kbar)      0.00      0.00      0.00
                                0.00      0.00      0.00
                                0.00      0.00      0.00

     3D-RISM stress (kbar)      0.00      0.00      0.00
                                0.00      0.00      0.00
                                0.00      0.00      0.00

[...]

     Non-local corr. energy    =      46.32236388 Ry

 BEEFens 2000 ensemble energies
             -0.388589019219048E+02
             -0.391161743031669E+03
             -0.177936869863824E+03
              0.136594354032525E+03
             -0.298926452891741E+03
             -0.366061274420050E+03
              0.187844047712539E+03
              0.821424821904429E+00
              0.316699062135943E+03
             -0.200264912405310E+02
              0.162035765051002E+03
              0.166117129926522E+02
             -0.124103353027922E+02
             -0.100096434010397E+02
              0.202179489609613E+03
             -0.152079291016115E+03
             -0.298810217942196E+03
             -0.963862092498255E+02
              0.864659008760201E+02
             -0.178386429594866E+01
              0.440470465035855E+03
              0.367690184763317E+03
             -0.226496302345183E+03
              0.783039762631624E+02
             -0.471840895199121E+03
              0.387328104427687E+03
              0.132419979831561E+03
              0.349798161572200E+03
              0.235794558833060E+03
             -0.109491619550220E+03
              0.862554421781535E+02
             -0.154305055279065E+03
              0.643546396435780E+02
              0.234467336981845E+03
              0.252259226668357E+03
             -0.109612925589171E+03
              0.556706611432718E+03
             -0.223933967974647E+03
             -0.149246886285626E+03
              0.222650918125124E+03
              0.981681093097191E+02
              0.169122987843190E+03
             -0.326731706559252E+03
             -0.212010185979088E+02
              0.313499589970192E+03
              0.409689933448842E+03
             -0.415905382427090E+03
              0.267619649067328E+02
              0.144343021528829E+03
              0.931310341529947E+02
              0.162724870666002E+03
              0.357244573276532E+03
             -0.231978176398399E+03
             -0.225176220525542E+03
             -0.313704031803958E+03
             -0.456095149385460E+02
             -0.267619695224640E+03
              0.346075701450065E+02
             -0.386160350339969E+02
             -0.212280326543645E+03
[...]
              0.265068469812820E+03
              0.169795163443138E+03
              0.173201871475529E+03
             -0.320367742249450E+03
             -0.330862920752374E+03
             -0.746070933136799E+02
             -0.295748676530020E+03
              0.469588950200105E+03
              0.395573820106901E+03
              0.186511277566771E+03
              0.514279783018444E+03
             -0.257046940477129E+03
             -0.110697568077077E+03
             -0.159484976327610E+03
              0.444843096830841E+03

 BEEF-vdW xc energy contributions
            1 :    -4021.674389099642
            2 :     3685.484717806856
            3 :    -3111.927367264128
            4 :     2453.558598876612
            5 :    -1854.403045679846
            6 :     1403.450937104929
            7 :    -1119.880818923337
            8 :     966.2275866515456
            9 :    -876.9595679090162
           10 :     789.9649583371429
           11 :    -670.1526234706444
           12 :     517.1694674575233
           13 :    -355.9839242950948
           14 :     217.7019796930708
           15 :    -122.0946830755920
           16 :     69.98231599745122
           17 :    -46.50423505818799
           18 :     30.95237035731225
           19 :    -7.365395539450219
           20 :    -28.81950724128455
           21 :     70.55423250682361
           22 :    -104.9765672021740
           23 :     121.7970860577134
           24 :    -119.4929048063623
           25 :     105.9987404349868
           26 :    -94.00164131739712
           27 :     93.92986176594968
           28 :    -108.5582019887679
           29 :     131.8669561010074
           30 :    -152.4810127532764
           31 :    -345.6966650830973
           32 :    -248.6898874444387

     Writing all to output data dir ./PbI2.save/

     General routines

     Parallel routines

     PAW routines

   This run was terminated on:  12:33:33  18Feb2024

   JOB DONE.