     Program PWSCF v.7.1 starts on 19Feb2024 at 15:29: 7

     Reading input from espresso.pwi
Warning: card &CELL ignored
Warning: card    CELL_DYNAMICS    = 'BFGS' ignored
Warning: card / ignored

     Current dimensions of program PWSCF are:
     Max number of different atomic species (ntypx) = 10
     Max number of k-points (npk) =  40000
     Max angular momentum in pseudopotentials (lmaxx) =  4
     file Ga.pbe-dn-kjpaw_psl.1.0.0.UPF: wavefunction(s)  4S renormalized
     file N.pbe-n-kjpaw_psl.1.0.0.UPF: wavefunction(s)  2S renormalized

     IMPORTANT: XC functional enforced from input :
     Exchange-correlation= BEEF-VDW
                           (   1   4  43  14   2   0   0)
     Any further DFT definition will be discarded
     Please, verify this is what you really want

     Found identity + (  0.0000  0.0000  0.3333) symmetry
     This is a supercell, fractional translations are disabled

     K-points division:     npool     =       4
     R & G space division:  proc/nbgrp/npool/nimage =      64
     Subspace diagonalization in iterative solution of the eigenvalue problem:
     a serial algorithm will be used

     Using Slab Decomposition

     bravais-lattice index     =            4
     lattice parameter (alat)  =      24.5252  a.u.
     unit-cell volume          =   15616.6055 (a.u.)^3
     number of atoms/cell      =          192
     number of atomic types    =            2
     number of electrons       =      1728.00
     number of Kohn-Sham states=         1037
     kinetic-energy cutoff     =      70.0000  Ry
     charge density cutoff     =     350.0000  Ry
     scf convergence threshold =      1.0E-07
     mixing beta               =       0.7000
     number of iterations used =            8  plain     mixing
     Exchange-correlation= BEEF-VDW
                           (   1   4  43  14   2   0   0)

     celldm(1)=  24.525232  celldm(2)=   0.000000  celldm(3)=   1.222409
     celldm(4)=   0.000000  celldm(5)=   0.000000  celldm(6)=   0.000000

     crystal axes: (cart. coord. in units of alat)
               a(1) = (   1.000000   0.000000   0.000000 )
               a(2) = (  -0.500000   0.866025   0.000000 )
               a(3) = (   0.000000   0.000000   1.222409 )

     reciprocal axes: (cart. coord. in units 2 pi/alat)
               b(1) = (  1.000000  0.577350 -0.000000 )
               b(2) = (  0.000000  1.154701  0.000000 )
               b(3) = (  0.000000 -0.000000  0.818057 )

     PseudoPot. # 1 for Ga read from file:
     //group///packages/espresso/pseudo/psl_1.0.0/pslibrary.1.0.0/pbe/PSEUDOPOTENTIALS/Ga.pbe-dn-kjpaw_psl.1.0.0.UPF
     MD5 check sum: cd2a01e492f15b435d17032472d8505c
     Pseudo is Projector augmented-wave + core cor, Zval = 13.0
     Generated using 'atomic' code by A. Dal Corso  v.7.1
     Shape of augmentation charge: PSQ
     Using radial grid of 1205 points,  6 beta functions with:
                l(1) =   0
                l(2) =   0
                l(3) =   1
                l(4) =   1
                l(5) =   2
                l(6) =   2
     Q(r) pseudized with 0 coefficients

     PseudoPot. # 2 for N  read from file:
     //group///packages/espresso/pseudo/psl_1.0.0/pslibrary.1.0.0/pbe/PSEUDOPOTENTIALS/N.pbe-n-kjpaw_psl.1.0.0.UPF
     MD5 check sum: f77f775694dac7e2c3fe1c82443d1a16
     Pseudo is Projector augmented-wave + core cor, Zval =  5.0
     Generated using 'atomic' code by A. Dal Corso  v.7.1
     Shape of augmentation charge: PSQ
     Using radial grid of 1085 points,  4 beta functions with:
                l(1) =   0
                l(2) =   0
                l(3) =   1
                l(4) =   1
     Q(r) pseudized with 0 coefficients

     atomic species   valence    mass     pseudopotential
        Ga            13.00    69.72300     Ga( 1.00)
        N              5.00    14.00700     N ( 1.00)

      6 Sym. Ops. (no inversion) found

                                    s                        frac. trans.

      isym =  1     identity

 cryst.   s( 1) = (     1          0          0      )
                  (     0          1          0      )
                  (     0          0          1      )

 cart.    s( 1) = (  1.0000000  0.0000000  0.0000000 )
                  (  0.0000000  1.0000000  0.0000000 )
                  (  0.0000000  0.0000000  1.0000000 )

      isym =  2     120 deg rotation - cryst. axis [0,0,1]

[...]

      isym =  3     120 deg rotation - cryst. axis [0,0,-1]

[...]

      isym =  4     inv. 180 deg rotation - cart. axis [1,0,0]

[...]

      isym =  5     inv. 180 deg rotation - cryst. axis [0,1,0]

[...]

      isym =  6     inv. 180 deg rotation - cryst. axis [1,1,0]

 cryst.   s( 6) = (     0         -1          0      )
                  (    -1          0          0      )
                  (     0          0          1      )

 cart.    s( 6) = (  0.5000000 -0.8660254  0.0000000 )
                  ( -0.8660254 -0.5000000  0.0000000 )
                  (  0.0000000  0.0000000  1.0000000 )

     point group C_3v (3m)
     there are  3 classes
     the character table:

       E     2C3   3s_v
A_1    1.00  1.00  1.00
A_2    1.00  1.00 -1.00
E      2.00 -1.00  0.00

     the symmetry operations in each class and the name of the first element:

     E        1
          identity
     2C3      2    3
          120 deg rotation - cryst. axis [0,0,1]
     3s_v     4    5    6
          inv. 180 deg rotation - cart. axis [1,0,0]

   Cartesian axes

     site n.     atom                  positions (alat units)
         1           Ga  tau(   1) = (   0.1250001   0.0721687   0.2033935  )
         2           Ga  tau(   2) = (   0.1250001   0.0721687   0.6108633  )
         3           Ga  tau(   3) = (   0.1250001   0.0721687   1.0183331  )
         4           Ga  tau(   4) = (   0.0000001   0.2886751   0.2033935  )
         5           Ga  tau(   5) = (   0.0000001   0.2886751   0.6108633  )
         6           Ga  tau(   6) = (   0.0000001   0.2886751   1.0183331  )
         7           Ga  tau(   7) = (  -0.1249999   0.5051814   0.2033935  )
         8           Ga  tau(   8) = (  -0.1249999   0.5051814   0.6108633  )
         9           Ga  tau(   9) = (  -0.1249999   0.5051814   1.0183331  )
        10           Ga  tau(  10) = (  -0.2499999   0.7216878   0.2033935  )
        11           Ga  tau(  11) = (  -0.2499999   0.7216878   0.6108633  )
        12           Ga  tau(  12) = (  -0.2499999   0.7216878   1.0183331  )
        13           Ga  tau(  13) = (   0.3750001   0.0721687   0.2033935  )
        14           Ga  tau(  14) = (   0.3750001   0.0721687   0.6108633  )
        15           Ga  tau(  15) = (   0.3750001   0.0721687   1.0183331  )
        16           Ga  tau(  16) = (   0.2500001   0.2886751   0.2033935  )
        17           Ga  tau(  17) = (   0.2500001   0.2886751   0.6108633  )
        18           Ga  tau(  18) = (   0.2500001   0.2886751   1.0183331  )
        19           Ga  tau(  19) = (   0.1250001   0.5051814   0.2033935  )
        20           Ga  tau(  20) = (   0.1250001   0.5051814   0.6108633  )
        21           Ga  tau(  21) = (   0.1250001   0.5051814   1.0183331  )
        22           Ga  tau(  22) = (   0.0000001   0.7216878   0.2033935  )
        23           Ga  tau(  23) = (   0.0000001   0.7216878   0.6108633  )
        24           Ga  tau(  24) = (   0.0000001   0.7216878   1.0183331  )
        25           Ga  tau(  25) = (   0.6250001   0.0721687   0.2033935  )
        26           Ga  tau(  26) = (   0.6250001   0.0721687   0.6108633  )
        27           Ga  tau(  27) = (   0.6250001   0.0721687   1.0183331  )
        28           Ga  tau(  28) = (   0.5000001   0.2886751   0.2033935  )
        29           Ga  tau(  29) = (   0.5000001   0.2886751   0.6108633  )
        30           Ga  tau(  30) = (   0.5000001   0.2886751   1.0183331  )
        31           Ga  tau(  31) = (   0.3750001   0.5051814   0.2033935  )
        32           Ga  tau(  32) = (   0.3750001   0.5051814   0.6108633  )
        33           Ga  tau(  33) = (   0.3750001   0.5051814   1.0183331  )
        34           Ga  tau(  34) = (   0.2500001   0.7216878   0.2033935  )
        35           Ga  tau(  35) = (   0.2500001   0.7216878   0.6108633  )
        36           Ga  tau(  36) = (   0.2500001   0.7216878   1.0183331  )
        37           Ga  tau(  37) = (   0.8750001   0.0721687   0.2033935  )
        38           Ga  tau(  38) = (   0.8750001   0.0721687   0.6108633  )
        39           Ga  tau(  39) = (   0.8750001   0.0721687   1.0183331  )
        40           Ga  tau(  40) = (   0.7500001   0.2886751   0.2033935  )
        41           Ga  tau(  41) = (   0.7500001   0.2886751   0.6108633  )
        42           Ga  tau(  42) = (   0.7500001   0.2886751   1.0183331  )
        43           Ga  tau(  43) = (   0.6250001   0.5051814   0.2033935  )
        44           Ga  tau(  44) = (   0.6250001   0.5051814   0.6108633  )
        45           Ga  tau(  45) = (   0.6250001   0.5051814   1.0183331  )
        46           Ga  tau(  46) = (   0.5000001   0.7216878   0.2033935  )
        47           Ga  tau(  47) = (   0.5000001   0.7216878   0.6108633  )
        48           Ga  tau(  48) = (   0.5000001   0.7216878   1.0183331  )
        49           Ga  tau(  49) = (  -0.0000002   0.1443377   0.4071284  )
        50           Ga  tau(  50) = (  -0.0000002   0.1443377   0.8145982  )
        51           Ga  tau(  51) = (  -0.0000002   0.1443377   1.2220680  )
        52           Ga  tau(  52) = (  -0.1250002   0.3608440   0.4071284  )
        53           Ga  tau(  53) = (  -0.1250002   0.3608440   0.8145982  )
        54           Ga  tau(  54) = (  -0.1250002   0.3608440   1.2220680  )
        55           Ga  tau(  55) = (  -0.2500002   0.5773504   0.4071284  )
        56           Ga  tau(  56) = (  -0.2500002   0.5773504   0.8145982  )
        57           Ga  tau(  57) = (  -0.2500002   0.5773504   1.2220680  )
        58           Ga  tau(  58) = (  -0.3750001   0.7938567   0.4071284  )
        59           Ga  tau(  59) = (  -0.3750001   0.7938567   0.8145982  )
        60           Ga  tau(  60) = (  -0.3750001   0.7938567   1.2220680  )
[...]
       178           N   tau( 178) = (   0.1249998   0.7938567   0.1531425  )
       179           N   tau( 179) = (   0.1249998   0.7938567   0.5606123  )
       180           N   tau( 180) = (   0.1249998   0.7938567   0.9680820  )
       181           N   tau( 181) = (   0.7499998   0.1443377   0.1531425  )
       182           N   tau( 182) = (   0.7499998   0.1443377   0.5606123  )
       183           N   tau( 183) = (   0.7499998   0.1443377   0.9680820  )
       184           N   tau( 184) = (   0.6249998   0.3608440   0.1531425  )
       185           N   tau( 185) = (   0.6249998   0.3608440   0.5606123  )
       186           N   tau( 186) = (   0.6249998   0.3608440   0.9680820  )
       187           N   tau( 187) = (   0.4999998   0.5773504   0.1531425  )
       188           N   tau( 188) = (   0.4999998   0.5773504   0.5606123  )
       189           N   tau( 189) = (   0.4999998   0.5773504   0.9680820  )
[...]
     atom   26 type  1   force =     0.00000000    0.00000000    0.00000000
     atom   27 type  1   force =     0.00000000    0.00000000    0.00000000
     atom   28 type  1   force =     0.00000000    0.00000000    0.00000000
     atom   29 type  1   force =     0.00000000    0.00000000    0.00000000
     atom   30 type  1   force =     0.00000000    0.00000000    0.00000000
     atom   31 type  1   force =     0.00000000    0.00000000    0.00000000
     atom   32 type  1   force =     0.00000000    0.00000000    0.00000000
     atom   33 type  1   force =     0.00000000    0.00000000    0.00000000
     atom   34 type  1   force =     0.00000000    0.00000000    0.00000000
     atom   35 type  1   force =     0.00000000    0.00000000    0.00000000
     atom   36 type  1   force =     0.00000000    0.00000000    0.00000000
     atom   37 type  1   force =     0.00000000    0.00000000    0.00000000
     atom   38 type  1   force =     0.00000000    0.00000000    0.00000000
     atom   39 type  1   force =     0.00000000    0.00000000    0.00000000
     atom   40 type  1   force =     0.00000000    0.00000000    0.00000000
     atom   41 type  1   force =     0.00000000    0.00000000    0.00000000
     atom   42 type  1   force =     0.00000000    0.00000000    0.00000000
     atom   43 type  1   force =     0.00000000    0.00000000    0.00000000
     atom   44 type  1   force =     0.00000000    0.00000000    0.00000000
     atom   45 type  1   force =     0.00000000    0.00000000    0.00000000
     atom   46 type  1   force =     0.00000000    0.00000000    0.00000000
     atom   47 type  1   force =     0.00000000    0.00000000    0.00000000
     atom   48 type  1   force =     0.00000000    0.00000000    0.00000000
     atom   49 type  1   force =     0.00000000    0.00000000    0.00000000
     atom   50 type  1   force =     0.00000000    0.00000000    0.00000000
     atom   51 type  1   force =     0.00000000    0.00000000    0.00000000
     atom   52 type  1   force =     0.00000000    0.00000000    0.00000000
     atom   53 type  1   force =     0.00000000    0.00000000    0.00000000
     atom   54 type  1   force =     0.00000000    0.00000000    0.00000000
     atom   55 type  1   force =     0.00000000    0.00000000    0.00000000
     atom   56 type  1   force =     0.00000000    0.00000000    0.00000000
     atom   57 type  1   force =     0.00000000    0.00000000    0.00000000
     atom   58 type  1   force =     0.00000000    0.00000000    0.00000000
     atom   59 type  1   force =     0.00000000    0.00000000    0.00000000
     atom   60 type  1   force =     0.00000000    0.00000000    0.00000000
[...]
     atom  178 type  2   force =     0.00000000    0.00000000    0.00000000
     atom  179 type  2   force =     0.00000000    0.00000000    0.00000000
     atom  180 type  2   force =     0.00000000    0.00000000    0.00000000
     atom  181 type  2   force =     0.00000000    0.00000000    0.00000000
     atom  182 type  2   force =     0.00000000    0.00000000    0.00000000
     atom  183 type  2   force =     0.00000000    0.00000000    0.00000000
     atom  184 type  2   force =     0.00000000    0.00000000    0.00000000
     atom  185 type  2   force =     0.00000000    0.00000000    0.00000000
     atom  186 type  2   force =     0.00000000    0.00000000    0.00000000
     atom  187 type  2   force =     0.00000000    0.00000000    0.00000000
     atom  188 type  2   force =     0.00000000    0.00000000    0.00000000
     atom  189 type  2   force =     0.00000000    0.00000000    0.00000000
     atom  190 type  2   force =     0.00000000    0.00000000    0.00000000
     atom  191 type  2   force =     0.00000000    0.00000000    0.00000000
     atom  192 type  2   force =     0.00000000    0.00000000    0.00000000
     The SCF correction term to forces
     atom    1 type  1   force =    -0.00001841   -0.00001063   -0.00003694
     atom    2 type  1   force =    -0.00001569   -0.00000906   -0.00004705
     atom    3 type  1   force =    -0.00001309   -0.00000756    0.00006971
     atom    4 type  1   force =    -0.00000000   -0.00006155   -0.00002025
     atom    5 type  1   force =    -0.00000000   -0.00004481   -0.00005183
     atom    6 type  1   force =    -0.00000000   -0.00004714    0.00006524
     atom    7 type  1   force =    -0.00003769   -0.00002176   -0.00000390
     atom    8 type  1   force =    -0.00002105   -0.00001215   -0.00005115
     atom    9 type  1   force =    -0.00003274   -0.00001890    0.00006492
     atom   10 type  1   force =    -0.00005330    0.00003077   -0.00002025
     atom   11 type  1   force =    -0.00003880    0.00002240   -0.00005183
     atom   12 type  1   force =    -0.00004083    0.00002357    0.00006524
     atom   13 type  1   force =    -0.00002014    0.00002675   -0.00002392
     atom   14 type  1   force =    -0.00001834    0.00001410   -0.00004704
     atom   15 type  1   force =    -0.00001833    0.00001992    0.00006569
     atom   16 type  1   force =     0.00001310   -0.00003081   -0.00002392
     atom   17 type  1   force =     0.00000304   -0.00002293   -0.00004704
     atom   18 type  1   force =     0.00000809   -0.00002583    0.00006569
     atom   19 type  1   force =     0.00003769   -0.00002176   -0.00000390
     atom   20 type  1   force =     0.00002105   -0.00001215   -0.00005115
     atom   21 type  1   force =     0.00003274   -0.00001890    0.00006492
     atom   22 type  1   force =    -0.00000000    0.00004352   -0.00000390
     atom   23 type  1   force =    -0.00000000    0.00002431   -0.00005115
     atom   24 type  1   force =    -0.00000000    0.00003780    0.00006492
     atom   25 type  1   force =     0.00002013    0.00002675   -0.00002392
     atom   26 type  1   force =     0.00001834    0.00001410   -0.00004704
     atom   27 type  1   force =     0.00001833    0.00001992    0.00006569
     atom   28 type  1   force =    -0.00000000    0.00000000   -0.00002605
     atom   29 type  1   force =    -0.00000000    0.00000000   -0.00004085
     atom   30 type  1   force =    -0.00000000    0.00000000    0.00006798
     atom   31 type  1   force =     0.00003323    0.00000406   -0.00002392
     atom   32 type  1   force =     0.00002138    0.00000883   -0.00004704
     atom   33 type  1   force =     0.00002642    0.00000591    0.00006569
     atom   34 type  1   force =     0.00005330    0.00003077   -0.00002025
     atom   35 type  1   force =     0.00003880    0.00002240   -0.00005183
     atom   36 type  1   force =     0.00004083    0.00002357    0.00006524
     atom   37 type  1   force =     0.00001841   -0.00001063   -0.00003694
     atom   38 type  1   force =     0.00001569   -0.00000906   -0.00004705
     atom   39 type  1   force =     0.00001309   -0.00000756    0.00006971
     atom   40 type  1   force =    -0.00001310   -0.00003081   -0.00002392
     atom   41 type  1   force =    -0.00000304   -0.00002293   -0.00004704
     atom   42 type  1   force =    -0.00000809   -0.00002583    0.00006569
     atom   43 type  1   force =    -0.00003323    0.00000406   -0.00002392
     atom   44 type  1   force =    -0.00002138    0.00000883   -0.00004704
     atom   45 type  1   force =    -0.00002642    0.00000591    0.00006569
     atom   46 type  1   force =    -0.00000000    0.00002126   -0.00003694
     atom   47 type  1   force =    -0.00000000    0.00001812   -0.00004705
     atom   48 type  1   force =    -0.00000000    0.00001511    0.00006971
     atom   49 type  1   force =     0.00000000   -0.00002136   -0.00006492
     atom   50 type  1   force =     0.00000000   -0.00002926    0.00001266
     atom   51 type  1   force =     0.00000000   -0.00003596    0.00005155
     atom   52 type  1   force =    -0.00001845   -0.00003379   -0.00005855
     atom   53 type  1   force =    -0.00002121   -0.00003723    0.00002206
     atom   54 type  1   force =    -0.00002587   -0.00004894    0.00004282
     atom   55 type  1   force =    -0.00003849    0.00000092   -0.00005855
     atom   56 type  1   force =    -0.00004285    0.00000024    0.00002206
     atom   57 type  1   force =    -0.00005532    0.00000206    0.00004282
     atom   58 type  1   force =    -0.00001850    0.00001068   -0.00006492
     atom   59 type  1   force =    -0.00002534    0.00001463    0.00001266
     atom   60 type  1   force =    -0.00003114    0.00001798    0.00005155
[...]
     atom  178 type  2   force =     0.00001420    0.00002160   -0.00000519
     atom  179 type  2   force =     0.00001048    0.00001431   -0.00002259
     atom  180 type  2   force =     0.00001063    0.00001543    0.00002659
     atom  181 type  2   force =     0.00000346   -0.00000200   -0.00000662
     atom  182 type  2   force =     0.00000424   -0.00000245   -0.00002053
     atom  183 type  2   force =     0.00000357   -0.00000206    0.00002824
     atom  184 type  2   force =    -0.00001096   -0.00000633   -0.00000564
     atom  185 type  2   force =    -0.00000522   -0.00000301   -0.00001980
     atom  186 type  2   force =    -0.00000671   -0.00000388    0.00002712
     atom  187 type  2   force =     0.00000000    0.00000400   -0.00000662
     atom  188 type  2   force =     0.00000000    0.00000489   -0.00002053
     atom  189 type  2   force =     0.00000000    0.00000412    0.00002824
     atom  190 type  2   force =     0.00001435    0.00000828   -0.00000927
     atom  191 type  2   force =     0.00001036    0.00000598   -0.00002024
     atom  192 type  2   force =     0.00001072    0.00000619    0.00002892

     Total force =     0.001929     Total SCF correction =     0.000625
     SCF correction compared to forces is large: reduce conv_thr to get better values

     Computing stress (Cartesian axis) and pressure

[...]

          total   stress  (Ry/bohr**3)                   (kbar)     P=        1.05
   0.00000367   0.00000000   0.00000000            0.54        0.00        0.00
   0.00000000   0.00000367  -0.00000000            0.00        0.54       -0.00
   0.00000000   0.00000000   0.00001398            0.00        0.00        2.06

     kinetic stress (kbar)  18449.40     -0.00      0.00
                                0.00  18449.40     -0.00
                                0.00     -0.00  18443.62

     local   stress (kbar)   5446.88     -0.07     -0.00
                               -0.07   5446.78      0.00
                               -0.00      0.00   3812.11

     nonloc. stress (kbar)     61.24      0.00      0.00
                                0.00     61.24      0.00
                                0.00      0.00     73.29

     hartree stress (kbar)  19596.18      0.00     -0.00
                                0.00  19596.18     -0.00
                               -0.00     -0.00  20346.05

     exc-cor stress (kbar)   5218.05      0.00      0.00
                                0.00   5218.05     -0.00
                                0.00     -0.00   5218.26

     corecor stress (kbar) -14110.27     -0.00     -0.00
                               -0.00 -14110.27      0.00
                               -0.00      0.00 -14109.68

     ewald   stress (kbar) -34823.05      0.10      0.00
                                0.10 -34822.93     -0.00
                                0.00     -0.00 -33942.83

     hubbard stress (kbar)      0.00      0.00      0.00
                                0.00      0.00      0.00
                                0.00      0.00      0.00

     DFT-D   stress (kbar)      0.00      0.00      0.00
                                0.00      0.00      0.00
                                0.00      0.00      0.00

     XDM     stress (kbar)      0.00      0.00      0.00
                                0.00      0.00      0.00
                                0.00      0.00      0.00

     dft-nl  stress (kbar)    162.09     -0.00     -0.00
                               -0.00    162.09      0.00
                               -0.00      0.00    161.24

     TS-vdW  stress (kbar)      0.00      0.00      0.00
                                0.00      0.00      0.00
                                0.00      0.00      0.00

     MDB     stress (kbar)      0.00      0.00      0.00
                                0.00      0.00      0.00
                                0.00      0.00      0.00

     3D-RISM stress (kbar)      0.00      0.00      0.00
                                0.00      0.00      0.00
                                0.00      0.00      0.00

[...]

     Non-local corr. energy    =      52.32437150 Ry

 BEEFens 2000 ensemble energies
             -0.423400096006203E+02
             -0.381207883379936E+03
             -0.163959015683434E+03
              0.134147735391767E+03
             -0.274081663701167E+03
             -0.352501261565804E+03
              0.181128604972841E+03
             -0.190829860189228E+02
              0.301950921006172E+03
             -0.130437872640962E+02
              0.148121860241567E+03
              0.614775175530076E+01
              0.608314828014386E+01
             -0.129347278093737E+02
              0.197623721047710E+03
             -0.143891912759675E+03
             -0.296571803253773E+03
             -0.969115693403116E+02
              0.724168070601361E+02
             -0.649911234584260E+01
              0.432870685640230E+03
              0.368410099476726E+03
             -0.210892808801577E+03
              0.763655603695918E+02
             -0.462390574703816E+03
              0.370757961587155E+03
              0.121082792552140E+03
              0.360447129378789E+03
              0.236842552377600E+03
             -0.115279624643389E+03
              0.872561027215691E+02
             -0.170325289315470E+03
              0.476610710905110E+02
              0.231729545959458E+03
              0.245732470281506E+03
             -0.887628306373883E+02
              0.545868092797707E+03
             -0.207182087246868E+03
             -0.149145835584304E+03
              0.218769451130697E+03
              0.978535466010023E+02
              0.163749031639648E+03
             -0.312095032490895E+03
             -0.875498904334609E+01
              0.306361064638907E+03
              0.397944167594190E+03
             -0.396165793466680E+03
              0.282177989474548E+02
              0.149370547776093E+03
              0.727308143623432E+02
              0.165658593509579E+03
              0.350894591437888E+03
             -0.212116509642197E+03
             -0.232534862097605E+03
             -0.302343634605714E+03
             -0.467859948153730E+02
             -0.275783140981975E+03
              0.270068600139928E+02
             -0.510469254487293E+02
             -0.214932449989680E+03
[...]
              0.268230413071862E+03
              0.148187341492602E+03
              0.188282700577638E+03
             -0.304292576591526E+03
             -0.291322347190916E+03
             -0.736920609955519E+02
             -0.285535984847934E+03
              0.457128457139173E+03
              0.391778691041329E+03
              0.187215990133791E+03
              0.506983757150174E+03
             -0.263853658892748E+03
             -0.107516875407457E+03
             -0.149596357535374E+03
              0.419351696255327E+03

 BEEF-vdW xc energy contributions
            1 :    -3843.178257036475
            2 :     3461.619592443854
            3 :    -2822.358316407386
            4 :     2112.497428525892
            5 :    -1496.688751285890
            6 :     1054.509588546781
            7 :    -771.5608218630969
            8 :     580.1208414853727
            9 :    -416.6088022711192
           10 :     258.4890017242005
           11 :    -122.9143157366398
           12 :     37.44633916975454
           13 :    -9.785402185350904
           14 :     18.92776399144350
           15 :    -30.69733324282242
           16 :     22.08484788429814
           17 :     5.514657350469861
           18 :    -32.96149363213044
           19 :     42.39645661177201
           20 :    -32.47988407004959
           21 :     18.44324981333921
           22 :    -18.57817149493440
           23 :     39.20388010024362
           24 :    -70.17142792936738
           25 :     93.57563322698525
           26 :    -97.74514967937739
           27 :     85.15299012856894
           28 :    -68.67422680870004
           29 :     60.26591505303895
           30 :    -61.73345429300571
           31 :    -329.2863872795724
           32 :    -225.6474919644916

     Writing all to output data dir ./GaN.save/

     General routines

     Parallel routines

     PAW routines

   This run was terminated on:  16:20:18  19Feb2024

   JOB DONE.