     Program PWSCF v.7.1 starts on 27Mar2024 at 19:36:36

     Reading input from espresso.pwi
Warning: card &CELL ignored
Warning: card    CELL_DYNAMICS    = 'BFGS' ignored
Warning: card / ignored

     Current dimensions of program PWSCF are:
     Max number of different atomic species (ntypx) = 10
     Max number of k-points (npk) =  40000
     Max angular momentum in pseudopotentials (lmaxx) =  4
     file Ga.pbe-dn-kjpaw_psl.1.0.0.UPF: wavefunction(s)  4S renormalized
     file N.pbe-n-kjpaw_psl.1.0.0.UPF: wavefunction(s)  2S renormalized

     IMPORTANT: XC functional enforced from input :
     Exchange-correlation= BEEF-VDW
                           (   1   4  43  14   2   0   0)
     Any further DFT definition will be discarded
     Please, verify this is what you really want

     R & G space division:  proc/nbgrp/npool/nimage =      27
     Subspace diagonalization in iterative solution of the eigenvalue problem:
     a serial algorithm will be used

     Using Slab Decomposition

     bravais-lattice index     =            4
     lattice parameter (alat)  =      12.2626  a.u.
     unit-cell volume          =    2602.7676 (a.u.)^3
     number of atoms/cell      =           32
     number of atomic types    =            2
     number of electrons       =       296.00
     number of Kohn-Sham states=          178
     kinetic-energy cutoff     =      70.0000  Ry
     charge density cutoff     =     350.0000  Ry
     scf convergence threshold =      1.0E-07
     mixing beta               =       0.7000
     number of iterations used =            8  plain     mixing
     energy convergence thresh.=      1.0E-04
     force convergence thresh. =      1.0E-03
     Exchange-correlation= BEEF-VDW
                           (   1   4  43  14   2   0   0)
     nstep                     =           50

     celldm(1)=  12.262616  celldm(2)=   0.000000  celldm(3)=   1.629879
     celldm(4)=   0.000000  celldm(5)=   0.000000  celldm(6)=   0.000000

     crystal axes: (cart. coord. in units of alat)
               a(1) = (   1.000000   0.000000   0.000000 )
               a(2) = (  -0.500000   0.866025   0.000000 )
               a(3) = (   0.000000   0.000000   1.629879 )

     reciprocal axes: (cart. coord. in units 2 pi/alat)
               b(1) = (  1.000000  0.577350 -0.000000 )
               b(2) = (  0.000000  1.154701  0.000000 )
               b(3) = (  0.000000 -0.000000  0.613542 )

     PseudoPot. # 1 for Ga read from file:
     /trace/group/acmegroup/atimmins/packages/espresso/pseudo/psl_1.0.0/pslibrary.1.0.0/pbe/PSEUDOPOTENTIALS/Ga.pbe-dn-kjpaw_psl.1.0.0.UPF
     MD5 check sum: cd2a01e492f15b435d17032472d8505c
     Pseudo is Projector augmented-wave + core cor, Zval = 13.0
     Generated using 'atomic' code by A. Dal Corso  v.7.1
     Shape of augmentation charge: PSQ
     Using radial grid of 1205 points,  6 beta functions with:
                l(1) =   0
                l(2) =   0
                l(3) =   1
                l(4) =   1
                l(5) =   2
                l(6) =   2
     Q(r) pseudized with 0 coefficients

     PseudoPot. # 2 for N  read from file:
     /trace/group/acmegroup/atimmins/packages/espresso/pseudo/psl_1.0.0/pslibrary.1.0.0/pbe/PSEUDOPOTENTIALS/N.pbe-n-kjpaw_psl.1.0.0.UPF
     MD5 check sum: f77f775694dac7e2c3fe1c82443d1a16
     Pseudo is Projector augmented-wave + core cor, Zval =  5.0
     Generated using 'atomic' code by A. Dal Corso  v.7.1
     Shape of augmentation charge: PSQ
     Using radial grid of 1085 points,  4 beta functions with:
                l(1) =   0
                l(2) =   0
                l(3) =   1
                l(4) =   1
     Q(r) pseudized with 0 coefficients

     atomic species   valence    mass     pseudopotential
        Ga            13.00    69.72300     Ga( 1.00)
        N              5.00    14.00700     N ( 1.00)

      6 Sym. Ops. (no inversion) found ( 4 have fractional translation)

                                    s                        frac. trans.

      isym =  1     identity

 cryst.   s( 1) = (     1          0          0      )
                  (     0          1          0      )
                  (     0          0          1      )

 cart.    s( 1) = (  1.0000000  0.0000000  0.0000000 )
                  (  0.0000000  1.0000000  0.0000000 )
                  (  0.0000000  0.0000000  1.0000000 )

      isym =  2     120 deg rotation - cryst. axis [0,0,1]

 cryst.   s( 2) = (     0          1          0      )    f =(  0.4999999 )
                  (    -1         -1          0      )       (  0.0000004 )
                  (     0          0          1      )       (  0.0000000 )

 cart.    s( 2) = ( -0.5000000 -0.8660254  0.0000000 )    f =(  0.4999998 )
                  (  0.8660254 -0.5000000  0.0000000 )       (  0.0000003 )
                  (  0.0000000  0.0000000  1.0000000 )       (  0.0000000 )

      isym =  3     120 deg rotation - cryst. axis [0,0,-1]

[...]

      isym =  4     inv. 180 deg rotation - cart. axis [1,0,0]

[...]

      isym =  5     inv. 180 deg rotation - cryst. axis [0,1,0]

 cryst.   s( 5) = (     1          1          0      )
                  (     0         -1          0      )
                  (     0          0          1      )

 cart.    s( 5) = (  0.5000000  0.8660254  0.0000000 )
                  (  0.8660254 -0.5000000  0.0000000 )
                  (  0.0000000  0.0000000  1.0000000 )

      isym =  6     inv. 180 deg rotation - cryst. axis [1,1,0]

 cryst.   s( 6) = (     0         -1          0      )    f =(  0.4999999 )
                  (    -1          0          0      )       (  0.4999999 )
                  (     0          0          1      )       (  0.0000000 )

 cart.    s( 6) = (  0.5000000 -0.8660254  0.0000000 )    f =(  0.2500000 )
                  ( -0.8660254 -0.5000000  0.0000000 )       (  0.4330127 )
                  (  0.0000000  0.0000000  1.0000000 )       (  0.0000000 )

     point group C_3v (3m)
     there are  3 classes
     the character table:

       E     2C3   3s_v
A_1    1.00  1.00  1.00
A_2    1.00  1.00 -1.00
E      2.00 -1.00  0.00

     the symmetry operations in each class and the name of the first element:

     E        1
          identity
     2C3      2    3
          120 deg rotation - cryst. axis [0,0,1]
     3s_v     4    5    6
          inv. 180 deg rotation - cart. axis [1,0,0]

   Cartesian axes

     site n.     atom                  positions (alat units)
         1           Ga  tau(   1) = (   0.2500002   0.1443375   0.4067871  )
         2           Ga  tau(   2) = (   0.2500002   0.1443375   1.2217266  )
         3           Ga  tau(   3) = (   0.0000002   0.5773502   0.4067871  )
         4           Ga  tau(   4) = (   0.0000002   0.5773502   1.2217266  )
         5           Ga  tau(   5) = (   0.7500002   0.1443375   0.4067871  )
         6           Ga  tau(   6) = (   0.7500002   0.1443375   1.2217266  )
         7           Ga  tau(   7) = (   0.5000002   0.5773502   0.4067871  )
         8           Ga  tau(   8) = (   0.5000002   0.5773502   1.2217266  )
         9           Ga  tau(   9) = (  -0.0000003   0.2886754   0.8142568  )
        10           Ga  tau(  10) = (  -0.0000003   0.2886754   1.6291964  )
        11           Ga  tau(  11) = (  -0.2500003   0.7216881   0.8142568  )
        12           Ga  tau(  12) = (  -0.2500003   0.7216881   1.6291964  )
        13           Ga  tau(  13) = (   0.4999997   0.2886754   0.8142568  )
        14           Ga  tau(  14) = (   0.4999997   0.2886754   1.6291964  )
        15           Ga  tau(  15) = (   0.2499997   0.7216881   0.8142568  )
        16           Ga  tau(  16) = (   0.2499997   0.7216881   1.6291964  )
        17           N   tau(  17) = (   0.2500002   0.1443375   1.5286943  )
        18           N   tau(  18) = (   0.0000002   0.5773502   0.7137548  )
        19           N   tau(  19) = (   0.0000002   0.5773502   1.5286943  )
        20           N   tau(  20) = (   0.7500002   0.1443375   0.7137548  )
        21           N   tau(  21) = (   0.7500002   0.1443375   1.5286943  )
        22           N   tau(  22) = (   0.5000002   0.5773502   0.7137548  )
        23           N   tau(  23) = (   0.5000002   0.5773502   1.5286943  )
        24           N   tau(  24) = (  -0.0000003   0.2886754   0.3062850  )
        25           N   tau(  25) = (  -0.0000003   0.2886754   1.1212245  )
        26           N   tau(  26) = (  -0.2500003   0.7216881   0.3062850  )
        27           N   tau(  27) = (  -0.2500003   0.7216881   1.1212245  )
        28           N   tau(  28) = (   0.4999997   0.2886754   0.3062850  )
        29           N   tau(  29) = (   0.4999997   0.2886754   1.1212245  )
        30           N   tau(  30) = (   0.2499997   0.7216881   0.3062850  )
        31           N   tau(  31) = (   0.2499997   0.7216881   1.1212245  )
        32           Ga  tau(  32) = (   0.2500002   0.1443375   0.7137548  )

   Crystallographic axes

     site n.     atom                  positions (cryst. coord.)
         1           Ga  tau(   1) = (  0.3333335  0.1666666  0.2495811  )
         2           Ga  tau(   2) = (  0.3333335  0.1666666  0.7495811  )
         3           Ga  tau(   3) = (  0.3333335  0.6666666  0.2495811  )
         4           Ga  tau(   4) = (  0.3333335  0.6666666  0.7495811  )
         5           Ga  tau(   5) = (  0.8333335  0.1666666  0.2495811  )
         6           Ga  tau(   6) = (  0.8333335  0.1666666  0.7495811  )
         7           Ga  tau(   7) = (  0.8333335  0.6666666  0.2495811  )
         8           Ga  tau(   8) = (  0.8333335  0.6666666  0.7495811  )
         9           Ga  tau(   9) = (  0.1666665  0.3333336  0.4995811  )
        10           Ga  tau(  10) = (  0.1666665  0.3333336  0.9995811  )
        11           Ga  tau(  11) = (  0.1666665  0.8333336  0.4995811  )
        12           Ga  tau(  12) = (  0.1666665  0.8333336  0.9995811  )
        13           Ga  tau(  13) = (  0.6666665  0.3333336  0.4995811  )
        14           Ga  tau(  14) = (  0.6666665  0.3333336  0.9995811  )
        15           Ga  tau(  15) = (  0.6666665  0.8333336  0.4995811  )
        16           Ga  tau(  16) = (  0.6666665  0.8333336  0.9995811  )
        17           N   tau(  17) = (  0.3333335  0.1666666  0.9379189  )
        18           N   tau(  18) = (  0.3333335  0.6666666  0.4379189  )
        19           N   tau(  19) = (  0.3333335  0.6666666  0.9379189  )
        20           N   tau(  20) = (  0.8333335  0.1666666  0.4379189  )
        21           N   tau(  21) = (  0.8333335  0.1666666  0.9379189  )
        22           N   tau(  22) = (  0.8333335  0.6666666  0.4379189  )
        23           N   tau(  23) = (  0.8333335  0.6666666  0.9379189  )
        24           N   tau(  24) = (  0.1666665  0.3333336  0.1879189  )
        25           N   tau(  25) = (  0.1666665  0.3333336  0.6879189  )
        26           N   tau(  26) = (  0.1666665  0.8333336  0.1879189  )
        27           N   tau(  27) = (  0.1666665  0.8333336  0.6879189  )
        28           N   tau(  28) = (  0.6666665  0.3333336  0.1879189  )
[...]
     atom   17 type  2   force =    -0.00003138    0.00001952    0.10040705
     atom   18 type  2   force =     0.90692943    0.52363737   -2.04189331
     atom   19 type  2   force =     0.47452971    0.27400564    0.74961906
     atom   20 type  2   force =    -0.00001731   -1.04723971   -2.04189247
     atom   21 type  2   force =    -0.00002913   -0.54795488    0.74961909
     atom   22 type  2   force =    -0.90698981    0.52365232   -2.04190479
     atom   23 type  2   force =    -0.47459265    0.27400843    0.74962292
     atom   24 type  2   force =    -0.55540669    0.32066213    1.00507426
     atom   25 type  2   force =     0.49864064   -0.28789286    0.60931915
     atom   26 type  2   force =     0.00002697   -0.64138524    1.00508208
     atom   27 type  2   force =     0.00003469    0.57572919    0.60932392
     atom   28 type  2   force =     0.55546798    0.32066646    1.00508149
     atom   29 type  2   force =    -0.49857975   -0.28789771    0.60932349
     atom   30 type  2   force =     0.00003317   -0.00002067    1.02309640
     atom   31 type  2   force =     0.00002817   -0.00001748   -1.08679691
     atom   32 type  1   force =    -0.00005229    0.00003240   -2.21464911
     The local contribution  to forces
     atom    1 type  1   force =    -0.00007772    0.00022818    2.56057240
     atom    2 type  1   force =    -0.00007750    0.00024384    0.94014587
     atom    3 type  1   force =    -0.59536779   -0.34346670   -2.15638789
     atom    4 type  1   force =    -1.22472401   -0.70679734    0.50782253
     atom    5 type  1   force =    -0.00007913    0.68763721   -2.15638656
     atom    6 type  1   force =    -0.00007116    1.41433950    0.50782303
     atom    7 type  1   force =     0.59522445   -0.34344076   -2.15638878
     atom    8 type  1   force =     1.22456881   -0.70679720    0.50782267
     atom    9 type  1   force =     0.56972182   -0.32882739    0.41785376
     atom   10 type  1   force =    -0.16254173    0.09397471    0.01850436
     atom   11 type  1   force =     0.00111921    0.65606255    0.41784241
     atom   12 type  1   force =     0.00108928   -0.18944886    0.01850868
     atom   13 type  1   force =    -0.56754024   -0.32879530    0.41783754
     atom   14 type  1   force =     0.16473891    0.09397155    0.01850991
     atom   15 type  1   force =     0.00108823   -0.00050265    1.70302771
     atom   16 type  1   force =     0.00109692   -0.00049788   -1.86452194
     atom   17 type  2   force =    -0.00001027    0.00002243   -0.08129629
     atom   18 type  2   force =    -0.85282122   -0.49228678    1.90087921
     atom   19 type  2   force =    -0.44856237   -0.25895012   -0.68328579
     atom   20 type  2   force =     0.00000866    0.98473415    1.90087849
     atom   21 type  2   force =    -0.00000983    0.51796634   -0.68328736
     atom   22 type  2   force =     0.85278605   -0.49235150    1.90087946
     atom   23 type  2   force =     0.44853923   -0.25894719   -0.68328346
     atom   24 type  2   force =     0.54319681   -0.31360433   -0.94300860
     atom   25 type  2   force =    -0.48143235    0.27796523   -0.51922218
     atom   26 type  2   force =     0.00008777    0.62708267   -0.94301655
     atom   27 type  2   force =     0.00008119   -0.55605096   -0.51922350
     atom   28 type  2   force =    -0.54302323   -0.31359600   -0.94301596
     atom   29 type  2   force =     0.48160390    0.27797070   -0.51922226
     atom   30 type  2   force =     0.00007956   -0.00003726   -0.95482193
     atom   31 type  2   force =     0.00008661   -0.00003835    1.00759643
     atom   32 type  1   force =    -0.00007625    0.00018944    1.89182422
     The core correction contribution to forces
     atom    1 type  1   force =    -0.00000624    0.00001634    0.01910209
     atom    2 type  1   force =    -0.00000631    0.00001814    0.00160684
     atom    3 type  1   force =    -0.00056807   -0.00030924   -0.00240703
     atom    4 type  1   force =     0.00009457    0.00007683    0.00151530
     atom    5 type  1   force =    -0.00000678    0.00066823   -0.00240701
     atom    6 type  1   force =    -0.00000570   -0.00009869    0.00151533
     atom    7 type  1   force =     0.00055668   -0.00030550   -0.00240714
     atom    8 type  1   force =    -0.00010717    0.00007677    0.00151533
     atom    9 type  1   force =     0.01047544   -0.00604141   -0.00470872
     atom   10 type  1   force =    -0.00077299    0.00045572    0.00249018
     atom   11 type  1   force =     0.00008230    0.01196264   -0.00470932
     atom   12 type  1   force =     0.00008018   -0.00102228    0.00249028
     atom   13 type  1   force =    -0.01031541   -0.00603776   -0.00470931
     atom   14 type  1   force =     0.00093449    0.00045521    0.00249029
     atom   15 type  1   force =     0.00008011   -0.00003739    0.00036208
     atom   16 type  1   force =     0.00008069   -0.00003697    0.00017673
     atom   17 type  2   force =     0.00000023   -0.00000033    0.00032664
     atom   18 type  2   force =     0.00089353    0.00051571   -0.00228476
     atom   19 type  2   force =     0.00041329    0.00023815    0.00102702
     atom   20 type  2   force =     0.00000050   -0.00103192   -0.00228474
     atom   21 type  2   force =     0.00000024   -0.00047725    0.00102699
     atom   22 type  2   force =    -0.00089360    0.00051577   -0.00228478
     atom   23 type  2   force =    -0.00041283    0.00023816    0.00102708
     atom   24 type  2   force =    -0.00016866    0.00009725    0.00096894
     atom   25 type  2   force =     0.00025762   -0.00014878    0.00140857
     atom   26 type  2   force =    -0.00000232   -0.00019079    0.00096910
     atom   27 type  2   force =    -0.00000232    0.00030147    0.00140831
     atom   28 type  2   force =     0.00016393    0.00009746    0.00096926
     atom   29 type  2   force =    -0.00026228   -0.00014875    0.00140835
     atom   30 type  2   force =    -0.00000243    0.00000165    0.00110475
     atom   31 type  2   force =    -0.00000235    0.00000132   -0.00128727
     atom   32 type  1   force =    -0.00000583    0.00001335   -0.00447740
     The Hubbard contrib.    to forces
     atom    1 type  1   force =     0.00000000    0.00000000    0.00000000
     atom    2 type  1   force =     0.00000000    0.00000000    0.00000000
     atom    3 type  1   force =     0.00000000    0.00000000    0.00000000
     atom    4 type  1   force =     0.00000000    0.00000000    0.00000000
     atom    5 type  1   force =     0.00000000    0.00000000    0.00000000
     atom    6 type  1   force =     0.00000000    0.00000000    0.00000000
     atom    7 type  1   force =     0.00000000    0.00000000    0.00000000
     atom    8 type  1   force =     0.00000000    0.00000000    0.00000000
     atom    9 type  1   force =     0.00000000    0.00000000    0.00000000
     atom   10 type  1   force =     0.00000000    0.00000000    0.00000000
     atom   11 type  1   force =     0.00000000    0.00000000    0.00000000
     atom   12 type  1   force =     0.00000000    0.00000000    0.00000000
     atom   13 type  1   force =     0.00000000    0.00000000    0.00000000
     atom   14 type  1   force =     0.00000000    0.00000000    0.00000000
     atom   15 type  1   force =     0.00000000    0.00000000    0.00000000
     atom   16 type  1   force =     0.00000000    0.00000000    0.00000000
     atom   17 type  2   force =     0.00000000    0.00000000    0.00000000
     atom   18 type  2   force =     0.00000000    0.00000000    0.00000000
     atom   19 type  2   force =     0.00000000    0.00000000    0.00000000
     atom   20 type  2   force =     0.00000000    0.00000000    0.00000000
     atom   21 type  2   force =     0.00000000    0.00000000    0.00000000
     atom   22 type  2   force =     0.00000000    0.00000000    0.00000000
     atom   23 type  2   force =     0.00000000    0.00000000    0.00000000
     atom   24 type  2   force =     0.00000000    0.00000000    0.00000000
     atom   25 type  2   force =     0.00000000    0.00000000    0.00000000
     atom   26 type  2   force =     0.00000000    0.00000000    0.00000000
     atom   27 type  2   force =     0.00000000    0.00000000    0.00000000
     atom   28 type  2   force =     0.00000000    0.00000000    0.00000000
     atom   29 type  2   force =     0.00000000    0.00000000    0.00000000
     atom   30 type  2   force =     0.00000000    0.00000000    0.00000000
     atom   31 type  2   force =     0.00000000    0.00000000    0.00000000
     atom   32 type  1   force =     0.00000000    0.00000000    0.00000000
     The SCF correction term to forces
     atom    1 type  1   force =     0.00000000   -0.00000000    0.00004501
     atom    2 type  1   force =    -0.00000000    0.00000000   -0.00010216
     atom    3 type  1   force =    -0.00002083   -0.00001202    0.00001755
     atom    4 type  1   force =    -0.00000126   -0.00000073   -0.00001048
     atom    5 type  1   force =    -0.00000000    0.00002405    0.00001755
     atom    6 type  1   force =    -0.00000000    0.00000146   -0.00001048
     atom    7 type  1   force =     0.00002083   -0.00001202    0.00001755
     atom    8 type  1   force =     0.00000126   -0.00000073   -0.00001048
     atom    9 type  1   force =    -0.00004206    0.00002428    0.00002066
     atom   10 type  1   force =     0.00000329   -0.00000190   -0.00001855
     atom   11 type  1   force =     0.00000000   -0.00004857    0.00002066
     atom   12 type  1   force =     0.00000000    0.00000379   -0.00001856
     atom   13 type  1   force =     0.00004206    0.00002428    0.00002066
     atom   14 type  1   force =    -0.00000329   -0.00000190   -0.00001856
     atom   15 type  1   force =    -0.00000000    0.00000000   -0.00002742
     atom   16 type  1   force =    -0.00000000    0.00000000    0.00003400
     atom   17 type  2   force =    -0.00000000    0.00000000   -0.00000579
     atom   18 type  2   force =    -0.00000636   -0.00000367   -0.00000226
     atom   19 type  2   force =    -0.00001239   -0.00000716   -0.00000646
     atom   20 type  2   force =    -0.00000000    0.00000734   -0.00000226
     atom   21 type  2   force =     0.00000000    0.00001431   -0.00000646
     atom   22 type  2   force =     0.00000636   -0.00000367   -0.00000226
     atom   23 type  2   force =     0.00001239   -0.00000716   -0.00000646
     atom   24 type  2   force =    -0.00001216    0.00000702    0.00001049
     atom   25 type  2   force =    -0.00000614    0.00000355   -0.00000571
     atom   26 type  2   force =     0.00000000   -0.00001404    0.00001049
     atom   27 type  2   force =     0.00000000   -0.00000709   -0.00000571
     atom   28 type  2   force =     0.00001216    0.00000702    0.00001049
     atom   29 type  2   force =     0.00000614    0.00000355   -0.00000571
     atom   30 type  2   force =     0.00000000   -0.00000000    0.00001843
     atom   31 type  2   force =     0.00000000   -0.00000000   -0.00000507
     atom   32 type  1   force =     0.00000000   -0.00000000    0.00005184

     Total force =     0.002929     Total SCF correction =     0.000179

     Computing stress (Cartesian axis) and pressure

     Non-local corr. energy    =       9.08828323 Ry

          total   stress  (Ry/bohr**3)                   (kbar)     P=       87.91
   0.00046762   0.00000000   0.00000000           68.79        0.00        0.00
   0.00000000   0.00046762  -0.00000000            0.00       68.79       -0.00
   0.00000000  -0.00000000   0.00085759            0.00       -0.00      126.16

     kinetic stress (kbar)  18615.58     -0.00      0.00
                               -0.00  18615.58     -0.00
                                0.00     -0.00  18731.06

     local   stress (kbar)   7052.98     -0.08     -0.00
                               -0.08   7052.88      0.00
                               -0.00      0.00   2961.13

     nonloc. stress (kbar)    237.48      0.00      0.00
                                0.00    237.48      0.00
                                0.00      0.00    204.40

     hartree stress (kbar)  20275.16     -0.00      0.00
                               -0.00  20275.16     -0.00
                                0.00     -0.00  21941.72

     exc-cor stress (kbar)   5663.63      0.00     -0.00
                                0.00   5663.63      0.00
                               -0.00      0.00   5670.43

     corecor stress (kbar) -14916.24      0.00     -0.00
                                0.00 -14916.24     -0.00
                               -0.00     -0.00 -14918.00

     ewald   stress (kbar) -37030.12      0.10      0.00
                                0.10 -37029.99     -0.00
                                0.00     -0.00 -34632.14

     hubbard stress (kbar)      0.00      0.00      0.00
                                0.00      0.00      0.00
                                0.00      0.00      0.00

     DFT-D   stress (kbar)      0.00      0.00      0.00
                                0.00      0.00      0.00
                                0.00      0.00      0.00

     XDM     stress (kbar)      0.00      0.00      0.00
                                0.00      0.00      0.00
                                0.00      0.00      0.00

     dft-nl  stress (kbar)    170.30     -0.00      0.00
                               -0.00    170.30     -0.00
                                0.00     -0.00    167.56

     TS-vdW  stress (kbar)      0.00      0.00      0.00
                                0.00      0.00      0.00
                                0.00      0.00      0.00

     MDB     stress (kbar)      0.00      0.00      0.00
                                0.00      0.00      0.00
                                0.00      0.00      0.00

     3D-RISM stress (kbar)      0.00      0.00      0.00
                                0.00      0.00      0.00
                                0.00      0.00      0.00

     Energy error            =      1.9E-05 Ry
     Gradient error          =      1.0E-03 Ry/Bohr

     bfgs converged in  16 scf cycles and  15 bfgs steps
     (criteria: energy <  1.0E-04 Ry, force <  1.0E-03 Ry/Bohr)

     End of BFGS Geometry Optimization

     Final energy             =   -5250.6020075338 Ry

     File ./GaN.bfgs deleted, as requested
Begin final coordinates

ATOMIC_POSITIONS (angstrom)
Ga            1.6222756606        0.9366198184        2.2591781257
Ga            1.6222756606        0.9366198184        7.9152639985
Ga           -0.0238009852        3.7327388279        2.6145634480
Ga            0.0357015031        3.7670926055        7.9943337872
Ga            4.8668240777        0.9641045056        2.6145634480
Ga            4.8668240777        0.8953969503        7.9943337872
Ga            3.2683523064        3.7327388279        2.6145634480
Ga            3.2088498181        3.7670926055        7.9943337872
Ga           -0.1442898443        1.9565470926        5.4633995856
Ga           -0.0259103719        1.8882006723       10.5012162785
Ga           -1.6222761733        4.5164945075        5.4633995856
Ga           -1.6222761733        4.6531873479       10.5012162785
Ga            3.3888343318        1.9565470926        5.4633995856
Ga            3.2704548594        1.8882006723       10.5012162785
Ga            1.6222722437        4.6831037996        5.2701270747
Ga            1.6222722437        4.6831037996       10.6420727355
N             1.6222756606        0.9366198184        9.9056516783
N            -0.0072442158        3.7422978832        4.6349146446
N             0.0349660454        3.7666679888        9.9276613740
N             4.8668240777        0.9449863950        4.6349146446
N             4.8668240777        0.8962461837        9.9276613740
N             3.2517955370        3.7422978832        4.6349146446
N             3.2095852758        3.7666679888        9.9276613740
N            -0.0605487121        1.9081991273        1.8601636394
N            -0.0411915457        1.8970232621        7.4034106023
N            -1.6222761733        4.6131904379        1.8601636394
N            -1.6222761733        4.6355421683        7.4034106023
N             3.3050931996        1.9081991273        1.8601636394
N             3.2857360332        1.8970232621        7.4034106023
N             1.6222722437        4.6831037996        2.0454177690
N             1.6222722437        4.6831037996        7.2556537680
Ga            1.6222756606        0.9366198184        4.4600651599
End final coordinates

     Writing all to output data dir ./GaN.save/

     General routines

     Parallel routines

     PAW routines

   This run was terminated on:  20:23:14  27Mar2024

   JOB DONE.