     Program PWSCF v.7.1 starts on 28Mar2024 at  5:59:15

     Reading input from espresso.pwi
Warning: card &CELL ignored
Warning: card    CELL_DYNAMICS    = 'BFGS' ignored
Warning: card / ignored

     Current dimensions of program PWSCF are:
     Max number of different atomic species (ntypx) = 10
     Max number of k-points (npk) =  40000
     Max angular momentum in pseudopotentials (lmaxx) =  4
     file Ga.pbe-dn-kjpaw_psl.1.0.0.UPF: wavefunction(s)  4S renormalized
     file N.pbe-n-kjpaw_psl.1.0.0.UPF: wavefunction(s)  2S renormalized

     IMPORTANT: XC functional enforced from input :
     Exchange-correlation= BEEF-VDW
                           (   1   4  43  14   2   0   0)
     Any further DFT definition will be discarded
     Please, verify this is what you really want

     R & G space division:  proc/nbgrp/npool/nimage =      27
     Subspace diagonalization in iterative solution of the eigenvalue problem:
     a serial algorithm will be used

     Using Slab Decomposition

     bravais-lattice index     =            4
     lattice parameter (alat)  =      12.2626  a.u.
     unit-cell volume          =    2602.7676 (a.u.)^3
     number of atoms/cell      =           32
     number of atomic types    =            2
     number of electrons       =       296.00
     number of Kohn-Sham states=          178
     kinetic-energy cutoff     =      70.0000  Ry
     charge density cutoff     =     350.0000  Ry
     scf convergence threshold =      1.0E-07
     mixing beta               =       0.7000
     number of iterations used =            8  plain     mixing
     Exchange-correlation= BEEF-VDW
                           (   1   4  43  14   2   0   0)

     celldm(1)=  12.262616  celldm(2)=   0.000000  celldm(3)=   1.629879
     celldm(4)=   0.000000  celldm(5)=   0.000000  celldm(6)=   0.000000

     crystal axes: (cart. coord. in units of alat)
               a(1) = (   1.000000   0.000000   0.000000 )
               a(2) = (  -0.500000   0.866025   0.000000 )
               a(3) = (   0.000000   0.000000   1.629879 )

     reciprocal axes: (cart. coord. in units 2 pi/alat)
               b(1) = (  1.000000  0.577350 -0.000000 )
               b(2) = (  0.000000  1.154701  0.000000 )
               b(3) = (  0.000000 -0.000000  0.613542 )

     PseudoPot. # 1 for Ga read from file:
     /trace/group/acmegroup/atimmins/packages/espresso/pseudo/psl_1.0.0/pslibrary.1.0.0/pbe/PSEUDOPOTENTIALS/Ga.pbe-dn-kjpaw_psl.1.0.0.UPF
     MD5 check sum: cd2a01e492f15b435d17032472d8505c
     Pseudo is Projector augmented-wave + core cor, Zval = 13.0
     Generated using 'atomic' code by A. Dal Corso  v.7.1
     Shape of augmentation charge: PSQ
     Using radial grid of 1205 points,  6 beta functions with:
                l(1) =   0
                l(2) =   0
                l(3) =   1
                l(4) =   1
                l(5) =   2
                l(6) =   2
     Q(r) pseudized with 0 coefficients

     PseudoPot. # 2 for N  read from file:
     /trace/group/acmegroup/atimmins/packages/espresso/pseudo/psl_1.0.0/pslibrary.1.0.0/pbe/PSEUDOPOTENTIALS/N.pbe-n-kjpaw_psl.1.0.0.UPF
     MD5 check sum: f77f775694dac7e2c3fe1c82443d1a16
     Pseudo is Projector augmented-wave + core cor, Zval =  5.0
     Generated using 'atomic' code by A. Dal Corso  v.7.1
     Shape of augmentation charge: PSQ
     Using radial grid of 1085 points,  4 beta functions with:
                l(1) =   0
                l(2) =   0
                l(3) =   1
                l(4) =   1
     Q(r) pseudized with 0 coefficients

     atomic species   valence    mass     pseudopotential
        Ga            13.00    69.72300     Ga( 1.00)
        N              5.00    14.00700     N ( 1.00)

      6 Sym. Ops. (no inversion) found ( 4 have fractional translation)

                                    s                        frac. trans.

      isym =  1     identity

 cryst.   s( 1) = (     1          0          0      )
                  (     0          1          0      )
                  (     0          0          1      )

 cart.    s( 1) = (  1.0000000  0.0000000  0.0000000 )
                  (  0.0000000  1.0000000  0.0000000 )
                  (  0.0000000  0.0000000  1.0000000 )

      isym =  2     120 deg rotation - cryst. axis [0,0,1]

 cryst.   s( 2) = (     0          1          0      )    f =(  0.4999999 )
                  (    -1         -1          0      )       (  0.0000004 )
                  (     0          0          1      )       (  0.0000000 )

 cart.    s( 2) = ( -0.5000000 -0.8660254  0.0000000 )    f =(  0.4999998 )
                  (  0.8660254 -0.5000000  0.0000000 )       (  0.0000003 )
                  (  0.0000000  0.0000000  1.0000000 )       (  0.0000000 )

      isym =  3     120 deg rotation - cryst. axis [0,0,-1]

[...]

      isym =  4     inv. 180 deg rotation - cart. axis [1,0,0]

[...]

      isym =  5     inv. 180 deg rotation - cryst. axis [0,1,0]

 cryst.   s( 5) = (     1          1          0      )
                  (     0         -1          0      )
                  (     0          0          1      )

 cart.    s( 5) = (  0.5000000  0.8660254  0.0000000 )
                  (  0.8660254 -0.5000000  0.0000000 )
                  (  0.0000000  0.0000000  1.0000000 )

      isym =  6     inv. 180 deg rotation - cryst. axis [1,1,0]

 cryst.   s( 6) = (     0         -1          0      )    f =(  0.4999999 )
                  (    -1          0          0      )       (  0.4999999 )
                  (     0          0          1      )       (  0.0000000 )

 cart.    s( 6) = (  0.5000000 -0.8660254  0.0000000 )    f =(  0.2500000 )
                  ( -0.8660254 -0.5000000  0.0000000 )       (  0.4330127 )
                  (  0.0000000  0.0000000  1.0000000 )       (  0.0000000 )

     point group C_3v (3m)
     there are  3 classes
     the character table:

       E     2C3   3s_v
A_1    1.00  1.00  1.00
A_2    1.00  1.00 -1.00
E      2.00 -1.00  0.00

     the symmetry operations in each class and the name of the first element:

     E        1
          identity
     2C3      2    3
          120 deg rotation - cryst. axis [0,0,1]
     3s_v     4    5    6
          inv. 180 deg rotation - cart. axis [1,0,0]

   Cartesian axes

     site n.     atom                  positions (alat units)
         1           Ga  tau(   1) = (   0.2500002   0.1443375   0.4067871  )
         2           Ga  tau(   2) = (   0.2500002   0.1443375   1.2217266  )
         3           Ga  tau(   3) = (   0.0000002   0.5773502   0.4067871  )
         4           Ga  tau(   4) = (   0.0000002   0.5773502   1.2217266  )
         5           Ga  tau(   5) = (   0.7500002   0.1443375   0.4067871  )
         6           Ga  tau(   6) = (   0.7500002   0.1443375   1.2217266  )
         7           Ga  tau(   7) = (   0.5000002   0.5773502   0.4067871  )
         8           Ga  tau(   8) = (   0.5000002   0.5773502   1.2217266  )
         9           Ga  tau(   9) = (  -0.0000003   0.2886754   0.8142568  )
        10           Ga  tau(  10) = (  -0.0000003   0.2886754   1.6291964  )
        11           Ga  tau(  11) = (  -0.2500003   0.7216881   0.8142568  )
        12           Ga  tau(  12) = (  -0.2500003   0.7216881   1.6291964  )
        13           Ga  tau(  13) = (   0.4999997   0.2886754   0.8142568  )
        14           Ga  tau(  14) = (   0.4999997   0.2886754   1.6291964  )
        15           Ga  tau(  15) = (   0.2499997   0.7216881   0.8142568  )
        16           Ga  tau(  16) = (   0.2499997   0.7216881   1.6291964  )
        17           N   tau(  17) = (   0.2500002   0.1443375   1.5286943  )
        18           N   tau(  18) = (   0.0000002   0.5773502   0.7137548  )
        19           N   tau(  19) = (   0.0000002   0.5773502   1.5286943  )
        20           N   tau(  20) = (   0.7500002   0.1443375   0.7137548  )
        21           N   tau(  21) = (   0.7500002   0.1443375   1.5286943  )
        22           N   tau(  22) = (   0.5000002   0.5773502   0.7137548  )
        23           N   tau(  23) = (   0.5000002   0.5773502   1.5286943  )
        24           N   tau(  24) = (  -0.0000003   0.2886754   0.3062850  )
        25           N   tau(  25) = (  -0.0000003   0.2886754   1.1212245  )
        26           N   tau(  26) = (  -0.2500003   0.7216881   0.3062850  )
        27           N   tau(  27) = (  -0.2500003   0.7216881   1.1212245  )
        28           N   tau(  28) = (   0.4999997   0.2886754   0.3062850  )
        29           N   tau(  29) = (   0.4999997   0.2886754   1.1212245  )
        30           N   tau(  30) = (   0.2499997   0.7216881   0.3062850  )
        31           N   tau(  31) = (   0.2499997   0.7216881   1.1212245  )
        32           Ga  tau(  32) = (   0.2500002   0.1443375   0.7137548  )

   Crystallographic axes

     site n.     atom                  positions (cryst. coord.)
         1           Ga  tau(   1) = (  0.3333335  0.1666666  0.2495811  )
         2           Ga  tau(   2) = (  0.3333335  0.1666666  0.7495811  )
         3           Ga  tau(   3) = (  0.3333335  0.6666666  0.2495811  )
         4           Ga  tau(   4) = (  0.3333335  0.6666666  0.7495811  )
         5           Ga  tau(   5) = (  0.8333335  0.1666666  0.2495811  )
         6           Ga  tau(   6) = (  0.8333335  0.1666666  0.7495811  )
         7           Ga  tau(   7) = (  0.8333335  0.6666666  0.2495811  )
         8           Ga  tau(   8) = (  0.8333335  0.6666666  0.7495811  )
         9           Ga  tau(   9) = (  0.1666665  0.3333336  0.4995811  )
        10           Ga  tau(  10) = (  0.1666665  0.3333336  0.9995811  )
        11           Ga  tau(  11) = (  0.1666665  0.8333336  0.4995811  )
        12           Ga  tau(  12) = (  0.1666665  0.8333336  0.9995811  )
        13           Ga  tau(  13) = (  0.6666665  0.3333336  0.4995811  )
        14           Ga  tau(  14) = (  0.6666665  0.3333336  0.9995811  )
        15           Ga  tau(  15) = (  0.6666665  0.8333336  0.4995811  )
        16           Ga  tau(  16) = (  0.6666665  0.8333336  0.9995811  )
        17           N   tau(  17) = (  0.3333335  0.1666666  0.9379189  )
        18           N   tau(  18) = (  0.3333335  0.6666666  0.4379189  )
        19           N   tau(  19) = (  0.3333335  0.6666666  0.9379189  )
        20           N   tau(  20) = (  0.8333335  0.1666666  0.4379189  )
        21           N   tau(  21) = (  0.8333335  0.1666666  0.9379189  )
        22           N   tau(  22) = (  0.8333335  0.6666666  0.4379189  )
        23           N   tau(  23) = (  0.8333335  0.6666666  0.9379189  )
        24           N   tau(  24) = (  0.1666665  0.3333336  0.1879189  )
        25           N   tau(  25) = (  0.1666665  0.3333336  0.6879189  )
        26           N   tau(  26) = (  0.1666665  0.8333336  0.1879189  )
        27           N   tau(  27) = (  0.1666665  0.8333336  0.6879189  )
        28           N   tau(  28) = (  0.6666665  0.3333336  0.1879189  )
        29           N   tau(  29) = (  0.6666665  0.3333336  0.6879189  )
        30           N   tau(  30) = (  0.6666665  0.8333336  0.1879189  )
[...]
     atom    3 type  1   force =    -0.59538320   -0.34347559   -2.15634823
     atom    4 type  1   force =    -1.22475782   -0.70681687    0.50774892
     atom    5 type  1   force =    -0.00007913    0.68765500   -2.15634690
     atom    6 type  1   force =    -0.00007116    1.41437854    0.50774943
     atom    7 type  1   force =     0.59523986   -0.34344966   -2.15634912
     atom    8 type  1   force =     1.22460263   -0.70681673    0.50774906
     atom    9 type  1   force =     0.56969279   -0.32881063    0.41787814
     atom   10 type  1   force =    -0.16257866    0.09399603    0.01849040
     atom   11 type  1   force =     0.00111920    0.65602904    0.41786678
     atom   12 type  1   force =     0.00108928   -0.18949150    0.01849473
     atom   13 type  1   force =    -0.56751122   -0.32877855    0.41786191
     atom   14 type  1   force =     0.16477583    0.09399287    0.01849595
     atom   15 type  1   force =     0.00108822   -0.00050264    1.70306267
     atom   16 type  1   force =     0.00109691   -0.00049788   -1.86449804
     atom   17 type  2   force =    -0.00001027    0.00002243   -0.08131728
     atom   18 type  2   force =    -0.85283024   -0.49229199    1.90088937
     atom   19 type  2   force =    -0.44859140   -0.25896688   -0.68329724
     atom   20 type  2   force =     0.00000866    0.98474455    1.90088866
     atom   21 type  2   force =    -0.00000983    0.51799986   -0.68329881
     atom   22 type  2   force =     0.85279506   -0.49235670    1.90088963
     atom   23 type  2   force =     0.44856826   -0.25896395   -0.68329492
     atom   24 type  2   force =     0.54316301   -0.31358481   -0.94296779
     atom   25 type  2   force =    -0.48144089    0.27797017   -0.51922833
     atom   26 type  2   force =     0.00008777    0.62704364   -0.94297574
     atom   27 type  2   force =     0.00008119   -0.55606083   -0.51922965
     atom   28 type  2   force =    -0.54298942   -0.31357648   -0.94297515
     atom   29 type  2   force =     0.48161245    0.27797564   -0.51922840
     atom   30 type  2   force =     0.00007956   -0.00003726   -0.95475769
     atom   31 type  2   force =     0.00008661   -0.00003835    1.00758284
     atom   32 type  1   force =    -0.00007625    0.00018944    1.89189693
     The core correction contribution to forces
     atom    1 type  1   force =    -0.00000624    0.00001634    0.01910225
     atom    2 type  1   force =    -0.00000631    0.00001814    0.00160598
     atom    3 type  1   force =    -0.00056857   -0.00030953   -0.00240588
     atom    4 type  1   force =     0.00009409    0.00007656    0.00151612
     atom    5 type  1   force =    -0.00000678    0.00066881   -0.00240586
     atom    6 type  1   force =    -0.00000570   -0.00009814    0.00151615
     atom    7 type  1   force =     0.00055718   -0.00030579   -0.00240599
     atom    8 type  1   force =    -0.00010669    0.00007650    0.00151615
     atom    9 type  1   force =     0.01047527   -0.00604131   -0.00470776
     atom   10 type  1   force =    -0.00077339    0.00045596    0.00248960
     atom   11 type  1   force =     0.00008230    0.01196244   -0.00470837
     atom   12 type  1   force =     0.00008018   -0.00102275    0.00248970
     atom   13 type  1   force =    -0.01031524   -0.00603766   -0.00470836
     atom   14 type  1   force =     0.00093489    0.00045544    0.00248972
     atom   15 type  1   force =     0.00008011   -0.00003739    0.00036225
     atom   16 type  1   force =     0.00008069   -0.00003697    0.00017719
     atom   17 type  2   force =     0.00000023   -0.00000033    0.00032672
     atom   18 type  2   force =     0.00089372    0.00051583   -0.00228456
     atom   19 type  2   force =     0.00041340    0.00023821    0.00102694
     atom   20 type  2   force =     0.00000050   -0.00103214   -0.00228454
     atom   21 type  2   force =     0.00000024   -0.00047738    0.00102691
     atom   22 type  2   force =    -0.00089379    0.00051588   -0.00228458
     atom   23 type  2   force =    -0.00041294    0.00023822    0.00102699
     atom   24 type  2   force =    -0.00016837    0.00009709    0.00096875
     atom   25 type  2   force =     0.00025786   -0.00014892    0.00140878
     atom   26 type  2   force =    -0.00000232   -0.00019045    0.00096891
     atom   27 type  2   force =    -0.00000232    0.00030175    0.00140852
     atom   28 type  2   force =     0.00016364    0.00009729    0.00096907
     atom   29 type  2   force =    -0.00026252   -0.00014889    0.00140856
     atom   30 type  2   force =    -0.00000243    0.00000165    0.00110489
     atom   31 type  2   force =    -0.00000235    0.00000132   -0.00128689
     atom   32 type  1   force =    -0.00000583    0.00001335   -0.00447531
     The Hubbard contrib.    to forces
     atom    1 type  1   force =     0.00000000    0.00000000    0.00000000
     atom    2 type  1   force =     0.00000000    0.00000000    0.00000000
     atom    3 type  1   force =     0.00000000    0.00000000    0.00000000
     atom    4 type  1   force =     0.00000000    0.00000000    0.00000000
     atom    5 type  1   force =     0.00000000    0.00000000    0.00000000
     atom    6 type  1   force =     0.00000000    0.00000000    0.00000000
     atom    7 type  1   force =     0.00000000    0.00000000    0.00000000
     atom    8 type  1   force =     0.00000000    0.00000000    0.00000000
     atom    9 type  1   force =     0.00000000    0.00000000    0.00000000
     atom   10 type  1   force =     0.00000000    0.00000000    0.00000000
     atom   11 type  1   force =     0.00000000    0.00000000    0.00000000
     atom   12 type  1   force =     0.00000000    0.00000000    0.00000000
     atom   13 type  1   force =     0.00000000    0.00000000    0.00000000
     atom   14 type  1   force =     0.00000000    0.00000000    0.00000000
     atom   15 type  1   force =     0.00000000    0.00000000    0.00000000
     atom   16 type  1   force =     0.00000000    0.00000000    0.00000000
     atom   17 type  2   force =     0.00000000    0.00000000    0.00000000
     atom   18 type  2   force =     0.00000000    0.00000000    0.00000000
     atom   19 type  2   force =     0.00000000    0.00000000    0.00000000
     atom   20 type  2   force =     0.00000000    0.00000000    0.00000000
     atom   21 type  2   force =     0.00000000    0.00000000    0.00000000
     atom   22 type  2   force =     0.00000000    0.00000000    0.00000000
     atom   23 type  2   force =     0.00000000    0.00000000    0.00000000
     atom   24 type  2   force =     0.00000000    0.00000000    0.00000000
     atom   25 type  2   force =     0.00000000    0.00000000    0.00000000
     atom   26 type  2   force =     0.00000000    0.00000000    0.00000000
     atom   27 type  2   force =     0.00000000    0.00000000    0.00000000
     atom   28 type  2   force =     0.00000000    0.00000000    0.00000000
     atom   29 type  2   force =     0.00000000    0.00000000    0.00000000
     atom   30 type  2   force =     0.00000000    0.00000000    0.00000000
     atom   31 type  2   force =     0.00000000    0.00000000    0.00000000
     atom   32 type  1   force =     0.00000000    0.00000000    0.00000000
     The SCF correction term to forces
     atom    1 type  1   force =    -0.00000000    0.00000000   -0.00003873
     atom    2 type  1   force =    -0.00000000    0.00000000    0.00000411
     atom    3 type  1   force =     0.00001058    0.00000611   -0.00003079
     atom    4 type  1   force =     0.00002935    0.00001694    0.00007461
     atom    5 type  1   force =    -0.00000000   -0.00001222   -0.00003079
     atom    6 type  1   force =    -0.00000000   -0.00003389    0.00007461
     atom    7 type  1   force =    -0.00001059    0.00000611   -0.00003079
     atom    8 type  1   force =    -0.00002935    0.00001694    0.00007461
     atom    9 type  1   force =     0.00002298   -0.00001327   -0.00001642
     atom   10 type  1   force =     0.00003156   -0.00001822    0.00000449
     atom   11 type  1   force =     0.00000000    0.00002653   -0.00001642
     atom   12 type  1   force =     0.00000000    0.00003644    0.00000449
     atom   13 type  1   force =    -0.00002297   -0.00001327   -0.00001642
     atom   14 type  1   force =    -0.00003155   -0.00001822    0.00000449
     atom   15 type  1   force =     0.00000001   -0.00000000   -0.00003197
     atom   16 type  1   force =     0.00000000   -0.00000000   -0.00002057
     atom   17 type  2   force =     0.00000000   -0.00000000    0.00002004
     atom   18 type  2   force =     0.00000959    0.00000554   -0.00000564
     atom   19 type  2   force =     0.00002076    0.00001199    0.00001215
     atom   20 type  2   force =     0.00000000   -0.00001108   -0.00000564
     atom   21 type  2   force =     0.00000000   -0.00002397    0.00001215
     atom   22 type  2   force =    -0.00000959    0.00000554   -0.00000564
     atom   23 type  2   force =    -0.00002076    0.00001199    0.00001215
     atom   24 type  2   force =     0.00002712   -0.00001566   -0.00002951
     atom   25 type  2   force =     0.00000831   -0.00000480    0.00001624
     atom   26 type  2   force =    -0.00000000    0.00003131   -0.00002951
     atom   27 type  2   force =    -0.00000000    0.00000960    0.00001624
     atom   28 type  2   force =    -0.00002712   -0.00001566   -0.00002951
     atom   29 type  2   force =    -0.00000831   -0.00000480    0.00001624
     atom   30 type  2   force =    -0.00000000    0.00000000   -0.00004416
     atom   31 type  2   force =    -0.00000000    0.00000000    0.00001967
     atom   32 type  1   force =     0.00000000   -0.00000000   -0.00004850

     Total force =     0.002956     Total SCF correction =     0.000218

     Computing stress (Cartesian axis) and pressure

[...]

          total   stress  (Ry/bohr**3)                   (kbar)     P=       87.96
   0.00046797   0.00000000   0.00000000           68.84        0.00        0.00
   0.00000000   0.00046797  -0.00000000            0.00       68.84       -0.00
   0.00000000   0.00000000   0.00085795            0.00        0.00      126.21

     kinetic stress (kbar)  18614.74      0.00      0.00
                                0.00  18614.74     -0.00
                                0.00      0.00  18730.19

     local   stress (kbar)   7052.89     -0.08     -0.00
                               -0.08   7052.80      0.00
                               -0.00      0.00   2961.10

     nonloc. stress (kbar)    238.50     -0.00      0.00
                                0.00    238.50     -0.00
                                0.00     -0.00    205.42

     hartree stress (kbar)  20275.14     -0.00      0.00
                               -0.00  20275.14     -0.00
                                0.00     -0.00  21941.66

     exc-cor stress (kbar)   5663.63      0.00     -0.00
                                0.00   5663.63      0.00
                               -0.00      0.00   5670.43

     corecor stress (kbar) -14916.26      0.00     -0.00
                                0.00 -14916.26     -0.00
                               -0.00     -0.00 -14918.01

     ewald   stress (kbar) -37030.12      0.10      0.00
                                0.10 -37029.99     -0.00
                                0.00     -0.00 -34632.14

     hubbard stress (kbar)      0.00      0.00      0.00
                                0.00      0.00      0.00
                                0.00      0.00      0.00

     DFT-D   stress (kbar)      0.00      0.00      0.00
                                0.00      0.00      0.00
                                0.00      0.00      0.00

     XDM     stress (kbar)      0.00      0.00      0.00
                                0.00      0.00      0.00
                                0.00      0.00      0.00

     dft-nl  stress (kbar)    170.30     -0.00      0.00
                               -0.00    170.30     -0.00
                                0.00     -0.00    167.56

     TS-vdW  stress (kbar)      0.00      0.00      0.00
                                0.00      0.00      0.00
                                0.00      0.00      0.00

     MDB     stress (kbar)      0.00      0.00      0.00
                                0.00      0.00      0.00
                                0.00      0.00      0.00

     3D-RISM stress (kbar)      0.00      0.00      0.00
                                0.00      0.00      0.00
                                0.00      0.00      0.00

[...]

     Non-local corr. energy    =       9.08823956 Ry

 BEEFens 2000 ensemble energies
             -0.733676872073724E+01
             -0.664536410650534E+02
             -0.286124093832684E+02
              0.233631363551070E+02
             -0.479132095505757E+02
             -0.615115332067862E+02
              0.314783722204809E+02
             -0.319602896988394E+01
              0.526939314359508E+02
             -0.228048167651366E+01
              0.259005665404794E+02
              0.112624257298084E+01
              0.948184832846493E+00
             -0.221012356962405E+01
              0.344216436452799E+02
             -0.250768322525939E+02
             -0.515832261510675E+02
             -0.167919069459254E+02
              0.126802050358621E+02
             -0.116432583210792E+01
              0.754936971056875E+02
              0.641374575879516E+02
             -0.369119551162825E+02
              0.132329965460658E+02
             -0.806322407779794E+02
              0.646693781274770E+02
              0.210925655571996E+02
              0.626835405134837E+02
              0.412544509606471E+02
             -0.199780101638668E+02
              0.151653578034987E+02
             -0.295553735227186E+02
              0.842276259295970E+01
              0.404835792824199E+02
              0.427813030652701E+02
             -0.155210331276477E+02
              0.951770329663437E+02
             -0.362411995139080E+02
             -0.260023847881477E+02
              0.381530139016309E+02
              0.171268460294464E+02
              0.285296576679388E+02
             -0.544309412327469E+02
             -0.155978573671905E+01
              0.533366105334532E+02
              0.693702886913001E+02
             -0.691744381662448E+02
              0.489741615734257E+01
              0.260178366775121E+02
              0.128811975748883E+02
              0.287756589426552E+02
              0.611824574987524E+02
             -0.370007014275127E+02
             -0.405952041163442E+02
             -0.527630745456693E+02
             -0.805540026135293E+01
             -0.481048806415262E+02
              0.476533541579789E+01
             -0.878727012914783E+01
             -0.374649468454086E+02
[...]
              0.466623617344689E+02
              0.259166709813425E+02
              0.327724433928097E+02
             -0.530907424620559E+02
             -0.510311625543561E+02
             -0.127756373725886E+02
             -0.498800248394305E+02
              0.796846411097030E+02
              0.682502985309072E+02
              0.326264620217349E+02
              0.884691264149698E+02
             -0.459435018856967E+02
             -0.187044503409067E+02
             -0.261745896029888E+02
              0.732383512642977E+02

 BEEF-vdW xc energy contributions
            1 :    -670.7711934027340
            2 :     604.7918406747561
            3 :    -494.0719059080524
            4 :     370.8026794288834
            5 :    -263.5160958702701
            6 :     186.2733640472092
            7 :    -136.9130034649809
            8 :     103.8047383476120
            9 :    -75.68545835875000
           10 :     48.22149482057398
           11 :    -24.10920975702754
           12 :     8.235849660536019
           13 :    -2.369612619621989
           14 :     3.304352429638698
           15 :    -5.223398326120900
           16 :     3.848778956945580
           17 :     1.015711036806238
           18 :    -6.269810075953615
           19 :     8.622410686800890
           20 :    -7.375080856672298
           21 :     4.796373297179798
           22 :    -4.078357770805837
           23 :     6.726429376908641
           24 :    -11.47944897355717
           25 :     15.46483529507384
           26 :    -16.49318126385208
           27 :     14.61535332217773
           28 :    -11.81035029499606
           29 :     10.22720442613468
           30 :    -10.48921266170885
           31 :    -57.06847754462717
           32 :    -39.19129753730886

     Writing all to output data dir ./GaN.save/

     General routines

     Parallel routines

     PAW routines

   This run was terminated on:   6: 0:39  28Mar2024

   JOB DONE.