     Program PWSCF v.7.1 starts on 21Mar2024 at 12: 8:38

     Reading input from espresso.pwi
Warning: card &CELL ignored
Warning: card    CELL_DYNAMICS    = 'BFGS' ignored
Warning: card / ignored

     Current dimensions of program PWSCF are:
     Max number of different atomic species (ntypx) = 10
     Max number of k-points (npk) =  40000
     Max angular momentum in pseudopotentials (lmaxx) =  4
     file Pb.pbe-dn-kjpaw_psl.1.0.0.UPF: wavefunction(s)  6S 6P 5D renormalized
     file I.pbe-dn-kjpaw_psl.1.0.0.UPF: wavefunction(s)  5S 5P renormalized

     IMPORTANT: XC functional enforced from input :
     Exchange-correlation= BEEF-VDW
                           (   1   4  43  14   2   0   0)
     Any further DFT definition will be discarded
     Please, verify this is what you really want

     K-points division:     npool     =       2
     R & G space division:  proc/nbgrp/npool/nimage =      64
     Subspace diagonalization in iterative solution of the eigenvalue problem:
     a serial algorithm will be used

     Using Slab Decomposition

     bravais-lattice index     =            4
     lattice parameter (alat)  =      26.7090  a.u.
     unit-cell volume          =   17226.5091 (a.u.)^3
     number of atoms/cell      =           53
     number of atomic types    =            2
     number of electrons       =       846.00
     number of Kohn-Sham states=          508
     kinetic-energy cutoff     =      70.0000  Ry
     charge density cutoff     =     350.0000  Ry
     scf convergence threshold =      1.0E-07
     mixing beta               =       0.7000
     number of iterations used =            8  plain     mixing
     Exchange-correlation= BEEF-VDW
                           (   1   4  43  14   2   0   0)

     celldm(1)=  26.709025  celldm(2)=   0.000000  celldm(3)=   1.043981
     celldm(4)=   0.000000  celldm(5)=   0.000000  celldm(6)=   0.000000

     crystal axes: (cart. coord. in units of alat)
               a(1) = (   1.000000   0.000000   0.000000 )
               a(2) = (  -0.500000   0.866025   0.000000 )
               a(3) = (   0.000000   0.000000   1.043981 )

     reciprocal axes: (cart. coord. in units 2 pi/alat)
               b(1) = (  1.000000  0.577350 -0.000000 )
               b(2) = (  0.000000  1.154701  0.000000 )
               b(3) = (  0.000000 -0.000000  0.957872 )

     PseudoPot. # 1 for Pb read from file:
     //group///packages/espresso/pseudo/psl_1.0.0/pslibrary.1.0.0/pbe/PSEUDOPOTENTIALS/Pb.pbe-dn-kjpaw_psl.1.0.0.UPF
     MD5 check sum: 39ab5b8a6bbd56b7735ad9f188aac93a
     Pseudo is Projector augmented-wave + core cor, Zval = 14.0
     Generated using 'atomic' code by A. Dal Corso  v.7.1
     Shape of augmentation charge: PSQ
     Using radial grid of 1281 points,  6 beta functions with:
                l(1) =   0
                l(2) =   0
                l(3) =   1
                l(4) =   1
                l(5) =   2
                l(6) =   2
     Q(r) pseudized with 0 coefficients

     PseudoPot. # 2 for I  read from file:
     //group///packages/espresso/pseudo/psl_1.0.0/pslibrary.1.0.0/pbe/PSEUDOPOTENTIALS/I.pbe-dn-kjpaw_psl.1.0.0.UPF
     MD5 check sum: bfa8781bc1224d19af3f3980e3fab11e
     Pseudo is Projector augmented-wave + core cor, Zval = 17.0
     Generated using 'atomic' code by A. Dal Corso  v.7.1
     Shape of augmentation charge: PSQ
     Using radial grid of 1247 points,  6 beta functions with:
                l(1) =   0
                l(2) =   0
                l(3) =   1
                l(4) =   1
                l(5) =   2
                l(6) =   2
     Q(r) pseudized with 0 coefficients

     atomic species   valence    mass     pseudopotential
        Pb            14.00   207.20000     Pb( 1.00)
        I             17.00   126.90447     I ( 1.00)

     No symmetry found

                                    s                        frac. trans.

      isym =  1     identity

 cryst.   s( 1) = (     1          0          0      )
                  (     0          1          0      )
                  (     0          0          1      )

 cart.    s( 1) = (  1.0000000  0.0000000  0.0000000 )
                  (  0.0000000  1.0000000  0.0000000 )
                  (  0.0000000  0.0000000  1.0000000 )

     point group C_1 (1)
     there are  1 classes
     the character table:

       E
A      1.00

     the symmetry operations in each class and the name of the first element:

     E        1
          identity

   Cartesian axes

     site n.     atom                  positions (alat units)
         1           Pb  tau(   1) = (   0.1666780   0.2886497   1.0439767  )
         2           Pb  tau(   2) = (   0.1666712   0.2886557   0.5219862  )
         3           Pb  tau(   3) = (   0.0000102   0.5773235   1.0439712  )
         4           Pb  tau(   4) = (   0.0000034   0.5773295   0.5219807  )
         5           Pb  tau(   5) = (  -0.1666576   0.8659973   1.0439657  )
         6           Pb  tau(   6) = (  -0.1666644   0.8660033   0.5219752  )
         7           Pb  tau(   7) = (   0.5000113   0.2886484   1.0439810  )
         8           Pb  tau(   8) = (   0.5000045   0.2886544   0.5219905  )
         9           Pb  tau(   9) = (   0.3333436   0.5773222   1.0439755  )
        10           Pb  tau(  10) = (   0.3333367   0.5773282   0.5219850  )
        11           Pb  tau(  11) = (   0.1666758   0.8659960   1.0439700  )
        12           Pb  tau(  12) = (   0.1666690   0.8660020   0.5219795  )
        13           Pb  tau(  13) = (   0.8333447   0.2886471   1.0439853  )
        14           Pb  tau(  14) = (   0.8333379   0.2886531   0.5219949  )
        15           Pb  tau(  15) = (   0.6666769   0.5773209   1.0439798  )
        16           Pb  tau(  16) = (   0.6666701   0.5773269   0.5219894  )
        17           Pb  tau(  17) = (   0.5000091   0.8659947   1.0439743  )
        18           Pb  tau(  18) = (   0.5000023   0.8660007   0.5219839  )
        19           I   tau(  19) = (   0.1666806   0.0962006   0.9099004  )
        20           I   tau(  20) = (   0.0000060   0.3848804   0.3879044  )
        21           I   tau(  21) = (   0.0000129   0.3848744   0.9098949  )
        22           I   tau(  22) = (  -0.1666617   0.6735542   0.3878990  )
        23           I   tau(  23) = (  -0.1666549   0.6735482   0.9098894  )
        24           I   tau(  24) = (   0.5000071   0.0962053   0.3879143  )
        25           I   tau(  25) = (   0.5000140   0.0961993   0.9099047  )
        26           I   tau(  26) = (   0.3333394   0.3848792   0.3879088  )
        27           I   tau(  27) = (   0.3333462   0.3848731   0.9098993  )
        28           I   tau(  28) = (   0.1666716   0.6735530   0.3879033  )
        29           I   tau(  29) = (   0.1666784   0.6735469   0.9098938  )
        30           I   tau(  30) = (   0.8333405   0.0962041   0.3879186  )
        31           I   tau(  31) = (   0.8333473   0.0961980   0.9099091  )
        32           I   tau(  32) = (   0.6666727   0.3848779   0.3879131  )
        33           I   tau(  33) = (   0.6666795   0.3848718   0.9099036  )
        34           I   tau(  34) = (   0.5000049   0.6735517   0.3879076  )
        35           I   tau(  35) = (   0.5000117   0.6735457   0.9098981  )
        36           I   tau(  36) = (  -0.0000023   0.1924396   0.1340740  )
        37           I   tau(  37) = (   0.0000045   0.1924336   0.6560644  )
        38           I   tau(  38) = (  -0.1666701   0.4811134   0.1340685  )
        39           I   tau(  39) = (  -0.1666632   0.4811074   0.6560589  )
        40           I   tau(  40) = (  -0.3333378   0.7697873   0.1340630  )
        41           I   tau(  41) = (  -0.3333310   0.7697812   0.6560534  )
        42           I   tau(  42) = (   0.3333311   0.1924384   0.1340783  )
        43           I   tau(  43) = (   0.3333379   0.1924323   0.6560688  )
        44           I   tau(  44) = (   0.1666633   0.4811122   0.1340728  )
        45           I   tau(  45) = (   0.1666701   0.4811061   0.6560633  )
        46           I   tau(  46) = (  -0.0000045   0.7697860   0.1340673  )
        47           I   tau(  47) = (   0.0000023   0.7697799   0.6560578  )
        48           I   tau(  48) = (   0.6666644   0.1924371   0.1340827  )
        49           I   tau(  49) = (   0.6666712   0.1924310   0.6560731  )
        50           I   tau(  50) = (   0.4999966   0.4811109   0.1340772  )
        51           I   tau(  51) = (   0.5000034   0.4811049   0.6560676  )
        52           I   tau(  52) = (   0.3333288   0.7697847   0.1340717  )
        53           I   tau(  53) = (   0.3333356   0.7697787   0.6560621  )

   Crystallographic axes

     site n.     atom                  positions (cryst. coord.)
         1           Pb  tau(   1) = (  0.3333300  0.3333039  0.9999959  )
         2           Pb  tau(   2) = (  0.3333266  0.3333109  0.4999959  )
         3           Pb  tau(   3) = (  0.3333281  0.6666357  0.9999906  )
         4           Pb  tau(   4) = (  0.3333248  0.6666427  0.4999906  )
         5           Pb  tau(   5) = (  0.3333262  0.9999675  0.9999854  )
         6           Pb  tau(   6) = (  0.3333229  0.9999745  0.4999854  )
         7           Pb  tau(   7) = (  0.6666626  0.3333025  1.0000001  )
         8           Pb  tau(   8) = (  0.6666592  0.3333094  0.5000001  )
         9           Pb  tau(   9) = (  0.6666607  0.6666343  0.9999948  )
        10           Pb  tau(  10) = (  0.6666573  0.6666412  0.4999948  )
        11           Pb  tau(  11) = (  0.6666588  0.9999661  0.9999895  )
        12           Pb  tau(  12) = (  0.6666555  0.9999730  0.4999895  )
        13           Pb  tau(  13) = (  0.9999951  0.3333010  1.0000042  )
        14           Pb  tau(  14) = (  0.9999918  0.3333079  0.5000042  )
        15           Pb  tau(  15) = (  0.9999933  0.6666328  0.9999990  )
        16           Pb  tau(  16) = (  0.9999899  0.6666397  0.4999990  )
        17           Pb  tau(  17) = (  0.9999914  0.9999646  0.9999937  )
        18           Pb  tau(  18) = (  0.9999881  0.9999715  0.4999937  )
        19           I   tau(  19) = (  0.2222221  0.1110829  0.8715680  )
        20           I   tau(  20) = (  0.2222169  0.4444217  0.3715628  )
        21           I   tau(  21) = (  0.2222202  0.4444147  0.8715628  )
        22           I   tau(  22) = (  0.2222150  0.7777534  0.3715575  )
        23           I   tau(  23) = (  0.2222183  0.7777465  0.8715575  )
        24           I   tau(  24) = (  0.5555513  0.1110884  0.3715722  )
        25           I   tau(  25) = (  0.5555547  0.1110814  0.8715722  )
        26           I   tau(  26) = (  0.5555495  0.4444202  0.3715669  )
        27           I   tau(  27) = (  0.5555528  0.4444132  0.8715669  )
        28           I   tau(  28) = (  0.5555476  0.7777520  0.3715617  )
        29           I   tau(  29) = (  0.5555509  0.7777450  0.8715617  )
        30           I   tau(  30) = (  0.8888839  0.1110869  0.3715764  )
        31           I   tau(  31) = (  0.8888873  0.1110799  0.8715764  )
        32           I   tau(  32) = (  0.8888820  0.4444187  0.3715711  )
[...]
     atom   34 type  2   force =     0.00055867    0.00009319   -0.00568786
     atom   35 type  2   force =    -0.00002494   -0.00018761   -0.00504928
     atom   36 type  2   force =    -0.00008270    0.00008378    0.00492308
     atom   37 type  2   force =     0.00017463   -0.00013042    0.00512884
     atom   38 type  2   force =     0.00005754    0.00003700    0.00512005
     atom   39 type  2   force =     0.00030044    0.00017710    0.00552634
     atom   40 type  2   force =     0.00003764   -0.00012485    0.00492316
     atom   41 type  2   force =    -0.00002082    0.00020667    0.00512901
     atom   42 type  2   force =     0.00016222    0.00008568    0.00490409
     atom   43 type  2   force =    -0.00006469   -0.00004347    0.00510888
     atom   44 type  2   force =    -0.00012807    0.00002853    0.00505429
     atom   45 type  2   force =     0.00003477    0.00178478    0.00623373
     atom   46 type  2   force =    -0.00004288   -0.00012099    0.00505311
     atom   47 type  2   force =     0.00156644   -0.00086067    0.00623322
     atom   48 type  2   force =    -0.00000725    0.00000746    0.00512386
     atom   49 type  2   force =    -0.00001780   -0.00026188    0.00556506
     atom   50 type  2   force =     0.00000919   -0.00000764    0.00512377
     atom   51 type  2   force =    -0.00023020    0.00011772    0.00556531
     atom   52 type  2   force =    -0.00017584   -0.00009976    0.00504818
     atom   53 type  2   force =    -0.00141287   -0.00081329    0.00624148
     The Hubbard contrib.    to forces
     atom    1 type  1   force =     0.00000000    0.00000000    0.00000000
     atom    2 type  1   force =     0.00000000    0.00000000    0.00000000
     atom    3 type  1   force =     0.00000000    0.00000000    0.00000000
     atom    4 type  1   force =     0.00000000    0.00000000    0.00000000
     atom    5 type  1   force =     0.00000000    0.00000000    0.00000000
     atom    6 type  1   force =     0.00000000    0.00000000    0.00000000
     atom    7 type  1   force =     0.00000000    0.00000000    0.00000000
     atom    8 type  1   force =     0.00000000    0.00000000    0.00000000
     atom    9 type  1   force =     0.00000000    0.00000000    0.00000000
     atom   10 type  1   force =     0.00000000    0.00000000    0.00000000
     atom   11 type  1   force =     0.00000000    0.00000000    0.00000000
     atom   12 type  1   force =     0.00000000    0.00000000    0.00000000
     atom   13 type  1   force =     0.00000000    0.00000000    0.00000000
     atom   14 type  1   force =     0.00000000    0.00000000    0.00000000
     atom   15 type  1   force =     0.00000000    0.00000000    0.00000000
     atom   16 type  1   force =     0.00000000    0.00000000    0.00000000
     atom   17 type  1   force =     0.00000000    0.00000000    0.00000000
     atom   18 type  1   force =     0.00000000    0.00000000    0.00000000
     atom   19 type  2   force =     0.00000000    0.00000000    0.00000000
     atom   20 type  2   force =     0.00000000    0.00000000    0.00000000
     atom   21 type  2   force =     0.00000000    0.00000000    0.00000000
     atom   22 type  2   force =     0.00000000    0.00000000    0.00000000
     atom   23 type  2   force =     0.00000000    0.00000000    0.00000000
     atom   24 type  2   force =     0.00000000    0.00000000    0.00000000
     atom   25 type  2   force =     0.00000000    0.00000000    0.00000000
     atom   26 type  2   force =     0.00000000    0.00000000    0.00000000
     atom   27 type  2   force =     0.00000000    0.00000000    0.00000000
     atom   28 type  2   force =     0.00000000    0.00000000    0.00000000
     atom   29 type  2   force =     0.00000000    0.00000000    0.00000000
     atom   30 type  2   force =     0.00000000    0.00000000    0.00000000
     atom   31 type  2   force =     0.00000000    0.00000000    0.00000000
     atom   32 type  2   force =     0.00000000    0.00000000    0.00000000
     atom   33 type  2   force =     0.00000000    0.00000000    0.00000000
     atom   34 type  2   force =     0.00000000    0.00000000    0.00000000
     atom   35 type  2   force =     0.00000000    0.00000000    0.00000000
     atom   36 type  2   force =     0.00000000    0.00000000    0.00000000
     atom   37 type  2   force =     0.00000000    0.00000000    0.00000000
     atom   38 type  2   force =     0.00000000    0.00000000    0.00000000
     atom   39 type  2   force =     0.00000000    0.00000000    0.00000000
     atom   40 type  2   force =     0.00000000    0.00000000    0.00000000
     atom   41 type  2   force =     0.00000000    0.00000000    0.00000000
     atom   42 type  2   force =     0.00000000    0.00000000    0.00000000
     atom   43 type  2   force =     0.00000000    0.00000000    0.00000000
     atom   44 type  2   force =     0.00000000    0.00000000    0.00000000
     atom   45 type  2   force =     0.00000000    0.00000000    0.00000000
     atom   46 type  2   force =     0.00000000    0.00000000    0.00000000
     atom   47 type  2   force =     0.00000000    0.00000000    0.00000000
     atom   48 type  2   force =     0.00000000    0.00000000    0.00000000
     atom   49 type  2   force =     0.00000000    0.00000000    0.00000000
     atom   50 type  2   force =     0.00000000    0.00000000    0.00000000
     atom   51 type  2   force =     0.00000000    0.00000000    0.00000000
     atom   52 type  2   force =     0.00000000    0.00000000    0.00000000
     atom   53 type  2   force =     0.00000000    0.00000000    0.00000000
     The SCF correction term to forces
     atom    1 type  1   force =    -0.00000147   -0.00001659   -0.00003770
     atom    2 type  1   force =    -0.00002069   -0.00000551    0.00000413
     atom    3 type  1   force =     0.00002168    0.00001179   -0.00001881
     atom    4 type  1   force =     0.00002982    0.00001684    0.00001260
     atom    5 type  1   force =    -0.00001439    0.00000801   -0.00003794
     atom    6 type  1   force =    -0.00001497   -0.00001469    0.00000404
     atom    7 type  1   force =    -0.00003144   -0.00001852   -0.00001377
     atom    8 type  1   force =    -0.00002559   -0.00001482   -0.00001703
     atom    9 type  1   force =    -0.00002937    0.00000980   -0.00001836
     atom   10 type  1   force =    -0.00005216    0.00002373    0.00000688
     atom   11 type  1   force =    -0.00000555   -0.00002957   -0.00001808
     atom   12 type  1   force =    -0.00000514   -0.00005671    0.00000664
     atom   13 type  1   force =     0.00003257   -0.00001141   -0.00002528
     atom   14 type  1   force =     0.00004557   -0.00000000   -0.00000067
     atom   15 type  1   force =     0.00000689    0.00003266   -0.00002563
     atom   16 type  1   force =     0.00002291    0.00003883   -0.00000037
     atom   17 type  1   force =     0.00002039    0.00001329   -0.00004595
     atom   18 type  1   force =     0.00001997    0.00001208    0.00001681
     atom   19 type  2   force =    -0.00000293   -0.00000061   -0.00000948
     atom   20 type  2   force =     0.00003479    0.00002274    0.00002099
     atom   21 type  2   force =     0.00004797   -0.00001125   -0.00001066
     atom   22 type  2   force =     0.00003815    0.00001841    0.00002109
     atom   23 type  2   force =     0.00001463    0.00004645   -0.00001105
     atom   24 type  2   force =    -0.00002246   -0.00004755   -0.00000775
     atom   25 type  2   force =    -0.00004312   -0.00004283    0.00000898
     atom   26 type  2   force =    -0.00005287    0.00000419   -0.00000761
     atom   27 type  2   force =    -0.00005924   -0.00001608    0.00000867
     atom   28 type  2   force =    -0.00002521   -0.00001468    0.00004439
     atom   29 type  2   force =    -0.00000985   -0.00000595   -0.00001360
     atom   30 type  2   force =     0.00001793   -0.00002399    0.00000890
     atom   31 type  2   force =     0.00004558   -0.00002993   -0.00000616
     atom   32 type  2   force =     0.00001745    0.00000930   -0.00001754
     atom   33 type  2   force =     0.00001143    0.00000562    0.00001057
     atom   34 type  2   force =    -0.00001302    0.00002764    0.00000947
     atom   35 type  2   force =    -0.00000447    0.00005470   -0.00000722
     atom   36 type  2   force =     0.00004664   -0.00001591   -0.00002493
     atom   37 type  2   force =     0.00005081   -0.00001652    0.00001909
     atom   38 type  2   force =     0.00003385    0.00001804    0.00000329
     atom   39 type  2   force =     0.00006875    0.00003897    0.00000076
     atom   40 type  2   force =     0.00000945    0.00004911   -0.00002533
     atom   41 type  2   force =     0.00001076    0.00005283    0.00001926
     atom   42 type  2   force =    -0.00004132   -0.00002350   -0.00001815
     atom   43 type  2   force =    -0.00007083   -0.00004044    0.00002251
     atom   44 type  2   force =    -0.00000745    0.00000019   -0.00001189
     atom   45 type  2   force =    -0.00003348    0.00002667   -0.00000049
     atom   46 type  2   force =    -0.00000246   -0.00000620   -0.00001170
     atom   47 type  2   force =     0.00000680   -0.00004242   -0.00000043
     atom   48 type  2   force =    -0.00000502   -0.00002688   -0.00000096
     atom   49 type  2   force =     0.00002063   -0.00005113    0.00001759
     atom   50 type  2   force =    -0.00002660    0.00000770   -0.00000039
     atom   51 type  2   force =    -0.00003464    0.00004294    0.00001752
     atom   52 type  2   force =    -0.00000783   -0.00000359   -0.00002146
     atom   53 type  2   force =    -0.00001588   -0.00000904    0.00001172

     Total force =     0.003740     Total SCF correction =     0.000329

     Computing stress (Cartesian axis) and pressure

[...]

          total   stress  (Ry/bohr**3)                   (kbar)     P=       -4.91
  -0.00003253   0.00000006  -0.00000000           -4.79        0.01       -0.00
   0.00000006  -0.00003259   0.00000000            0.01       -4.79        0.00
  -0.00000000   0.00000000  -0.00003499           -0.00        0.00       -5.15

     kinetic stress (kbar)  14753.58      0.01      0.00
                                0.01  14753.57      0.00
                                0.00      0.00  14765.37

     local   stress (kbar)  -8008.57      1.34     -0.73
                                1.34  -8010.17     -0.44
                               -0.73     -0.44   1244.50

     nonloc. stress (kbar)  -1119.31      0.00     -0.00
                                0.00  -1119.31     -0.00
                               -0.00     -0.00  -1124.45

     hartree stress (kbar)  12077.00     -0.66      0.37
                               -0.66  12077.79      0.22
                                0.37      0.22   7905.63

     exc-cor stress (kbar)   6797.83     -0.00     -0.00
                               -0.00   6797.83     -0.00
                               -0.00     -0.00   6796.68

     corecor stress (kbar) -11069.94      0.00      0.00
                                0.00 -11069.94      0.00
                                0.00      0.00 -11069.87

     ewald   stress (kbar) -13516.82     -0.67      0.36
                               -0.67 -13516.01      0.22
                                0.36      0.22 -18605.82

     hubbard stress (kbar)      0.00      0.00      0.00
                                0.00      0.00      0.00
                                0.00      0.00      0.00

     DFT-D   stress (kbar)      0.00      0.00      0.00
                                0.00      0.00      0.00
                                0.00      0.00      0.00

     XDM     stress (kbar)      0.00      0.00      0.00
                                0.00      0.00      0.00
                                0.00      0.00      0.00

     dft-nl  stress (kbar)     81.44     -0.00     -0.00
                               -0.00     81.44     -0.00
                               -0.00     -0.00     82.82

     TS-vdW  stress (kbar)      0.00      0.00      0.00
                                0.00      0.00      0.00
                                0.00      0.00      0.00

     MDB     stress (kbar)      0.00      0.00      0.00
                                0.00      0.00      0.00
                                0.00      0.00      0.00

     3D-RISM stress (kbar)      0.00      0.00      0.00
                                0.00      0.00      0.00
                                0.00      0.00      0.00

[...]

     Non-local corr. energy    =      25.33578375 Ry

 BEEFens 2000 ensemble energies
             -0.212943206594991E+02
             -0.214263205274676E+03
             -0.975064675146235E+02
              0.748164171680679E+02
             -0.163769091898485E+03
             -0.200496743733560E+03
              0.102909810968574E+03
              0.444212271877632E+00
              0.173399900780174E+03
             -0.109968231525143E+02
              0.888562106670477E+02
              0.903984388326370E+01
             -0.680135282876756E+01
             -0.550639351886673E+01
              0.110642349952552E+03
             -0.833876981286299E+02
             -0.163616441509600E+03
             -0.528295092109807E+02
              0.472853462331536E+02
             -0.103168820438350E+01
              0.241276225487465E+03
              0.201382217437457E+03
             -0.124042175484770E+03
              0.428669955235667E+02
             -0.258448845851786E+03
              0.212135985768744E+03
              0.725496568895604E+02
              0.191514195641227E+03
              0.129066675319069E+03
             -0.599131563664646E+02
              0.472337092846531E+02
             -0.844232995321169E+02
              0.353052874522057E+02
              0.128459498564959E+03
              0.138228621138916E+03
             -0.601109322946489E+02
              0.304878429846794E+03
             -0.122730615679737E+03
             -0.817392267466981E+02
              0.121951184833103E+03
              0.537971152835178E+02
              0.926750426808563E+02
             -0.178963976404294E+03
             -0.116584044236884E+02
              0.171694631893910E+03
              0.224435764817065E+03
             -0.227919099221968E+03
              0.145979453207070E+02
              0.790386729940367E+02
              0.510504559922420E+02
              0.890784956499953E+02
              0.195652706349196E+03
             -0.127097231824790E+03
             -0.123314298331040E+03
             -0.171790511979944E+03
             -0.248718737793001E+02
             -0.146579965475268E+03
              0.189135424021490E+02
             -0.211344889765057E+02
             -0.116259945924988E+03
[...]
              0.145189265963000E+03
              0.930220180667447E+02
              0.947813340712751E+02
             -0.175482346959958E+03
             -0.181235709166478E+03
             -0.408515003245511E+02
             -0.162000044813984E+03
              0.257167984647112E+03
              0.216602564172248E+03
              0.102199529277011E+03
              0.281662745320124E+03
             -0.140722001741915E+03
             -0.606286922814338E+02
             -0.874136116779741E+02
              0.243699660184426E+03

 BEEF-vdW xc energy contributions
            1 :    -2202.645152264408
            2 :     2018.129115655709
            3 :    -1703.763015924627
            4 :     1343.530359028816
            5 :    -1016.210148904248
            6 :     770.1295443823365
            7 :    -615.4537517582057
            8 :     531.5000855651499
            9 :    -482.3335943348829
           10 :     434.0407369035968
           11 :    -367.6959895841346
           12 :     283.4559521770716
           13 :    -195.1573114620487
           14 :     119.7012553731711
           15 :    -67.61796260235724
           16 :     39.12195999503638
           17 :    -26.02049865041681
           18 :     17.06759879948595
           19 :    -3.679725624349885
           20 :    -16.49239787530405
           21 :     39.50971448581822
           22 :    -58.37293872147393
           23 :     67.60792915900629
           24 :    -66.55968851433681
           25 :     59.64653900521671
           26 :    -53.73048113431287
           27 :     54.32023234497865
           28 :    -62.70111911924596
           29 :     75.38868542807450
           30 :    -86.08084298366293
           31 :    -189.7723223593007
           32 :    -136.5329984388127

     Writing all to output data dir ./PbI2.save/

     General routines

     Parallel routines

     PAW routines

   This run was terminated on:  12:12:19  21Mar2024

   JOB DONE.