     Program PWSCF v.7.1 starts on 20Feb2024 at 16:51:58

     Reading input from espresso.pwi
Warning: card &CELL ignored
Warning: card    CELL_DYNAMICS    = 'BFGS' ignored
Warning: card / ignored

     Current dimensions of program PWSCF are:
     Max number of different atomic species (ntypx) = 10
     Max number of k-points (npk) =  40000
     Max angular momentum in pseudopotentials (lmaxx) =  4
     file Pb.pbe-dn-kjpaw_psl.1.0.0.UPF: wavefunction(s)  6S 6P 5D renormalized
     file I.pbe-dn-kjpaw_psl.1.0.0.UPF: wavefunction(s)  5S 5P renormalized

     IMPORTANT: XC functional enforced from input :
     Exchange-correlation= BEEF-VDW
                           (   1   4  43  14   2   0   0)
     Any further DFT definition will be discarded
     Please, verify this is what you really want

     K-points division:     npool     =       2
     R & G space division:  proc/nbgrp/npool/nimage =      64
     Subspace diagonalization in iterative solution of the eigenvalue problem:
     a serial algorithm will be used

     Using Slab Decomposition

     bravais-lattice index     =            4
     lattice parameter (alat)  =       8.9202  a.u.
     unit-cell volume          =    1928.4816 (a.u.)^3
     number of atoms/cell      =            6
     number of atomic types    =            2
     number of electrons       =        96.00
     number of Kohn-Sham states=           58
     kinetic-energy cutoff     =      70.0000  Ry
     charge density cutoff     =     350.0000  Ry
     scf convergence threshold =      1.0E-07
     mixing beta               =       0.7000
     number of iterations used =            8  plain     mixing
     Exchange-correlation= BEEF-VDW
                           (   1   4  43  14   2   0   0)

     celldm(1)=   8.920157  celldm(2)=   0.000000  celldm(3)=   3.137382
     celldm(4)=   0.000000  celldm(5)=   0.000000  celldm(6)=   0.000000

     crystal axes: (cart. coord. in units of alat)
               a(1) = (   1.000000   0.000000   0.000000 )
               a(2) = (  -0.500000   0.866025   0.000000 )
               a(3) = (   0.000000   0.000000   3.137382 )

     reciprocal axes: (cart. coord. in units 2 pi/alat)
               b(1) = (  1.000000  0.577350 -0.000000 )
               b(2) = (  0.000000  1.154701  0.000000 )
               b(3) = (  0.000000 -0.000000  0.318737 )

     PseudoPot. # 1 for Pb read from file:
     //group///packages/espresso/pseudo/psl_1.0.0/pslibrary.1.0.0/pbe/PSEUDOPOTENTIALS/Pb.pbe-dn-kjpaw_psl.1.0.0.UPF
     MD5 check sum: 39ab5b8a6bbd56b7735ad9f188aac93a
     Pseudo is Projector augmented-wave + core cor, Zval = 14.0
     Generated using 'atomic' code by A. Dal Corso  v.7.1
     Shape of augmentation charge: PSQ
     Using radial grid of 1281 points,  6 beta functions with:
                l(1) =   0
                l(2) =   0
                l(3) =   1
                l(4) =   1
                l(5) =   2
                l(6) =   2
     Q(r) pseudized with 0 coefficients

     PseudoPot. # 2 for I  read from file:
     //group///packages/espresso/pseudo/psl_1.0.0/pslibrary.1.0.0/pbe/PSEUDOPOTENTIALS/I.pbe-dn-kjpaw_psl.1.0.0.UPF
     MD5 check sum: bfa8781bc1224d19af3f3980e3fab11e
     Pseudo is Projector augmented-wave + core cor, Zval = 17.0
     Generated using 'atomic' code by A. Dal Corso  v.7.1
     Shape of augmentation charge: PSQ
     Using radial grid of 1247 points,  6 beta functions with:
                l(1) =   0
                l(2) =   0
                l(3) =   1
                l(4) =   1
                l(5) =   2
                l(6) =   2
     Q(r) pseudized with 0 coefficients

     atomic species   valence    mass     pseudopotential
        Pb            14.00   207.20000     Pb( 1.00)
        I             17.00   126.90447     I ( 1.00)

     12 Sym. Ops. (no inversion) found ( 6 have fractional translation)

                                    s                        frac. trans.

      isym =  1     identity

 cryst.   s( 1) = (     1          0          0      )
                  (     0          1          0      )
                  (     0          0          1      )

 cart.    s( 1) = (  1.0000000  0.0000000  0.0000000 )
                  (  0.0000000  1.0000000  0.0000000 )
                  (  0.0000000  0.0000000  1.0000000 )

      isym =  2     180 deg rotation - cart. axis [0,0,1]

 cryst.   s( 2) = (    -1          0          0      )    f =( -0.0000001 )
                  (     0         -1          0      )       ( -0.0000001 )
                  (     0          0          1      )       (  0.5000000 )

 cart.    s( 2) = ( -1.0000000  0.0000000  0.0000000 )    f =(  0.0000000 )
                  (  0.0000000 -1.0000000  0.0000000 )       ( -0.0000001 )
                  (  0.0000000  0.0000000  1.0000000 )       (  1.5686910 )

      isym =  3      60 deg rotation - cryst. axis [0,0,1]

[...]

      isym =  6     120 deg rotation - cryst. axis [0,0,-1]

[...]

      isym =  7     inv. 180 deg rotation - cart. axis [0,1,0]

[...]

      isym =  8     inv. 180 deg rotation - cart. axis [1,0,0]

 cryst.   s( 8) = (    -1          0          0      )
                  (     1          1          0      )
                  (     0          0          1      )

 cart.    s( 8) = ( -1.0000000  0.0000000  0.0000000 )
                  (  0.0000000  1.0000000  0.0000000 )
                  (  0.0000000  0.0000000  1.0000000 )

      isym =  9     inv. 180 deg rotation - cryst. axis [1,-1,0]

 cryst.   s( 9) = (     0          1          0      )    f =(  0.0000001 )
                  (     1          0          0      )       ( -0.0000000 )
                  (     0          0          1      )       (  0.5000000 )

 cart.    s( 9) = ( -0.5000000  0.8660254  0.0000000 )    f =(  0.0000001 )
                  (  0.8660254  0.5000000  0.0000000 )       ( -0.0000000 )
                  (  0.0000000  0.0000000  1.0000000 )       (  1.5686910 )

[...]

 cryst.   s(10) = (    -1         -1          0      )    f =( -0.0000001 )
                  (     0          1          0      )       (  0.0000010 )
                  (     0          0          1      )       (  0.5000000 )

 cart.    s(10) = ( -0.5000000 -0.8660254  0.0000000 )    f =( -0.0000006 )
                  ( -0.8660254  0.5000000  0.0000000 )       (  0.0000009 )
                  (  0.0000000  0.0000000  1.0000000 )       (  1.5686910 )

[...]

 cryst.   s(11) = (     1          1          0      )
                  (     0         -1          0      )
                  (     0          0          1      )

 cart.    s(11) = (  0.5000000  0.8660254  0.0000000 )
                  (  0.8660254 -0.5000000  0.0000000 )
                  (  0.0000000  0.0000000  1.0000000 )

      isym = 12     inv. 180 deg rotation - cryst. axis [1,1,0]

 cryst.   s(12) = (     0         -1          0      )
                  (    -1          0          0      )
                  (     0          0          1      )

 cart.    s(12) = (  0.5000000 -0.8660254  0.0000000 )
                  ( -0.8660254 -0.5000000  0.0000000 )
                  (  0.0000000  0.0000000  1.0000000 )

     point group C_6v (6mm)
     there are  6 classes
     the character table:

       E     2C6   2C3   C2    3s_v  3s_d
A_1    1.00  1.00  1.00  1.00  1.00  1.00
A_2    1.00  1.00  1.00  1.00 -1.00 -1.00
B_1    1.00 -1.00  1.00 -1.00  1.00 -1.00
B_2    1.00 -1.00  1.00 -1.00 -1.00  1.00
E_1    2.00  1.00 -1.00 -2.00  0.00  0.00
E_2    2.00 -1.00 -1.00  2.00  0.00  0.00

     the symmetry operations in each class and the name of the first element:

     E        1
          identity
     2C6      3    4
           60 deg rotation - cryst. axis [0,0,1]
     2C3      5    6
          120 deg rotation - cryst. axis [0,0,1]
     C2       2
          180 deg rotation - cart. axis [0,0,1]
     3s_v     8   12   11
          inv. 180 deg rotation - cart. axis [1,0,0]
     3s_d     7    9   10
          inv. 180 deg rotation - cart. axis [0,1,0]

   Cartesian axes

     site n.     atom                  positions (alat units)
         1           Pb  tau(   1) = (   0.5000005   0.2886749   1.5685072  )
         2           Pb  tau(   2) = (  -0.0000005   0.5773506   3.1371982  )
         3           I   tau(   3) = (   0.5000005   0.2886749   2.7388111  )
         4           I   tau(   4) = (   0.0000000   0.0000000   0.3987577  )
         5           I   tau(   5) = (   0.0000000   0.0000000   1.9674487  )
         6           I   tau(   6) = (  -0.0000005   0.5773506   1.1701201  )

   Crystallographic axes

     site n.     atom                  positions (cryst. coord.)
         1           Pb  tau(   1) = (  0.6666670  0.3333330  0.4999414  )
         2           Pb  tau(   2) = (  0.3333330  0.6666671  0.9999414  )
         3           I   tau(   3) = (  0.6666670  0.3333330  0.8729607  )
         4           I   tau(   4) = (  0.0000000  0.0000000  0.1270989  )
         5           I   tau(   5) = (  0.0000000  0.0000000  0.6270989  )
         6           I   tau(   6) = (  0.3333330  0.6666671  0.3729607  )

     number of k points=     4  Gaussian smearing, width (Ry)=  0.0100
                       cart. coord. in units 2pi/alat
        k(    1) = (   0.0000000   0.0000000   0.0000000), wk =   0.1250000
        k(    2) = (   0.0000000   0.2886751   0.0000000), wk =   0.7500000
        k(    3) = (   0.0000000  -0.5773503   0.0000000), wk =   0.3750000
        k(    4) = (   0.2500000   0.4330127   0.0000000), wk =   0.7500000

                       cryst. coord.
        k(    1) = (   0.0000000   0.0000000   0.0000000), wk =   0.1250000
        k(    2) = (   0.0000000   0.2500000   0.0000000), wk =   0.7500000
        k(    3) = (   0.0000000  -0.5000000   0.0000000), wk =   0.3750000
        k(    4) = (   0.2500000   0.2500000   0.0000000), wk =   0.7500000

     Atomic positions and unit cell read from directory:
     ./PbI2.save/

     Check: negative core charge=   -0.000001

     The initial density is read from file :
     ./PbI2.save/charge-density

     %%%%%%%%%%%%%%%%%%%%%%%%%%%%%%%%%%%%%%%%%%%%%%%%%%%%%%%%%%%%%%%%%%%%%%%%
     %                                                                      %
     % You are using vdW-DF, which was implemented by the Thonhauser group. %
     % Please cite the following two papers that made this development      %
     % possible and the two reviews that describe the various versions:     %
     %                                                                      %
     %   T. Thonhauser et al., PRL 115, 136402 (2015).                      %
     %   T. Thonhauser et al., PRB 76, 125112 (2007).                       %
     %   K. Berland et al., Rep. Prog. Phys. 78, 066501 (2015).             %
     %   D.C. Langreth et al., J. Phys.: Condens. Matter 21, 084203 (2009). %
     %                                                                      %
     % If you are calculating stress with vdW-DF, please also cite:         %
     %                                                                      %
     %   R. Sabatini et al., J. Phys.: Condens. Matter 24, 424209 (2012).   %
     %                                                                      %
     %%%%%%%%%%%%%%%%%%%%%%%%%%%%%%%%%%%%%%%%%%%%%%%%%%%%%%%%%%%%%%%%%%%%%%%%

     %%%%%%%%%%%%%%%%%%%%%%%%%%%%%%%%%%%%%%%%%%%%%%%%%%%%%%%%%%%%%%%%%%%%%%%%
     %                                                                      %
     %  vdW-DF NEWS:                                                        %
     %                                                                      %
     %  * vdW-DF3 is now available. DOI: 10.1021/acs.jctc.0c00471           %
     %    use with input_dft = 'vdW-DF3-opt1' or 'vdW-DF3-opt2'             %
     %                                                                      %
     %  * Unscreened and range-separated vdW-DF hybrid functionals          %
     %    DOI: 10.1063/1.4986522 and 10.1088/1361-648X/ac2ad2               %
     %    use with input_dft = 'vdW-DF-cx0' (etc) and 'vdW-DF-ahcx'         %
     %                                                                      %
     %%%%%%%%%%%%%%%%%%%%%%%%%%%%%%%%%%%%%%%%%%%%%%%%%%%%%%%%%%%%%%%%%%%%%%%%

     Carrying out vdW-DF run using the following parameters:
     Nqs    =  20  Npoints =  1024  r_max =  100.000
     q_mesh =  0.00001000  0.04494208  0.09755937  0.15916263
               0.23128650  0.31572767  0.41458969  0.53033537
               0.66584808  0.82450364  1.01025438  1.22772762
               1.48234092  1.78043706  2.12944203  2.53805004
               3.01644009  3.57652955  4.23227104  5.00000000

     Non-local corr. energy    =       2.87805468 Ry

     Starting wfcs from file
     Checking if some PAW data can be deallocated...

     Self-consistent Calculation

     iteration #  1     ecut=    70.00 Ry     beta= 0.70
     Davidson diagonalization with overlap

     ethr =  1.00E-05,  avg # of iterations =  1.0

     Threshold (ethr) on eigenvalues was too large:
     Diagonalizing with lowered threshold

     Davidson diagonalization with overlap

     ethr =  1.22E-11,  avg # of iterations = 12.3

[...]

     End of self-consistent calculation

          k = 0.0000 0.0000 0.0000 ( 19029 PWs)   bands (ev):

   -40.8452 -40.8452 -40.8452 -40.8452 -40.8441 -40.8441 -40.8440 -40.8440
   -40.8436 -40.8436 -40.8368 -40.8368 -40.8368 -40.8368 -40.8362 -40.8362
   -40.8362 -40.8362 -40.8361 -40.8361 -13.0031 -13.0031 -13.0031 -13.0031
   -13.0013 -13.0012 -12.9945 -12.9945 -12.9945 -12.9945  -8.1696  -8.0855
    -7.7559  -7.6473  -3.2568  -3.1866   2.1520   2.5756   2.6105   2.6106
     2.6919   2.6919   2.8101   2.8101   2.9040   2.9040   2.9259   3.3789
     5.8547   6.0339   6.7378   6.7378   6.7889   6.7889   9.7038  10.3535
    11.1619  11.2539

     occupation numbers
     1.0000   1.0000   1.0000   1.0000   1.0000   1.0000   1.0000   1.0000
     1.0000   1.0000   1.0000   1.0000   1.0000   1.0000   1.0000   1.0000
     1.0000   1.0000   1.0000   1.0000   1.0000   1.0000   1.0000   1.0000
     1.0000   1.0000   1.0000   1.0000   1.0000   1.0000   1.0000   1.0000
     1.0000   1.0000   1.0000   1.0000   1.0000   1.0000   1.0000   1.0000
     1.0000   1.0000   1.0000   1.0000   1.0000   1.0000   1.0000   1.0000
     0.0000   0.0000   0.0000   0.0000   0.0000   0.0000   0.0000   0.0000
     0.0000   0.0000

[...]

          k = 0.2500 0.4330 0.0000 ( 19112 PWs)   bands (ev):

   -40.8452 -40.8452 -40.8452 -40.8451 -40.8441 -40.8441 -40.8441 -40.8440
   -40.8436 -40.8435 -40.8368 -40.8368 -40.8368 -40.8367 -40.8362 -40.8362
   -40.8362 -40.8362 -40.8361 -40.8360 -13.0174 -13.0174 -13.0059 -13.0058
   -12.9953 -12.9953 -12.9949 -12.9949 -12.9888 -12.9887  -7.7077  -7.6716
    -7.5743  -7.5379  -3.7048  -3.6967   1.1248   1.3094   1.3517   1.3619
     1.8182   1.9277   2.2841   2.6485   2.7426   2.7762   3.1694   3.3447
     6.9446   7.1636   7.2797   7.3505   7.5606   7.6204  10.2274  10.2519
    10.5265  10.7269

     occupation numbers
     1.0000   1.0000   1.0000   1.0000   1.0000   1.0000   1.0000   1.0000
     1.0000   1.0000   1.0000   1.0000   1.0000   1.0000   1.0000   1.0000
     1.0000   1.0000   1.0000   1.0000   1.0000   1.0000   1.0000   1.0000
     1.0000   1.0000   1.0000   1.0000   1.0000   1.0000   1.0000   1.0000
     1.0000   1.0000   1.0000   1.0000   1.0000   1.0000   1.0000   1.0000
     1.0000   1.0000   1.0000   1.0000   1.0000   1.0000   1.0000   1.0000
     0.0000   0.0000   0.0000   0.0000   0.0000   0.0000   0.0000   0.0000
     0.0000   0.0000

     the Fermi energy is     4.0949 ev

!    total energy              =   -4047.26567138 Ry
     total all-electron energy =   -140560.646556 Ry
     estimated scf accuracy    <       0.00000006 Ry
     smearing contrib. (-TS)   =      -0.00000000 Ry
     internal energy E=F+TS    =   -4047.26567138 Ry

     The total energy is F=E-TS. E is the sum of the following terms:
     one-electron contribution =    -751.40898507 Ry
     hartree contribution      =     419.24569710 Ry
     xc contribution           =    -283.53485014 Ry
     ewald contribution        =    -614.65435328 Ry
     one-center paw contrib.   =   -2816.91318000 Ry
      -> PAW hartree energy AE =      95.89515853 Ry
      -> PAW hartree energy PS =     -96.13173670 Ry
      -> PAW xc energy AE      =    -798.42950651 Ry
      -> PAW xc energy PS      =      33.30941627 Ry
      -> total E_H with PAW    =     419.00911893 Ry
      -> total E_XC with PAW   =   -1048.65494038 Ry

     convergence has been achieved in   1 iterations

[...]

     Forces acting on atoms (cartesian axes, Ry/au):

     atom    1 type  1   force =    -0.00000000   -0.00000000    0.00004182
     atom    2 type  1   force =     0.00000000    0.00000000    0.00004182
     atom    3 type  2   force =    -0.00000000   -0.00000000    0.00057391
     atom    4 type  2   force =     0.00000000    0.00000000   -0.00061573
     atom    5 type  2   force =     0.00000000    0.00000000   -0.00061573
     atom    6 type  2   force =     0.00000000    0.00000000    0.00057391
     The non-local contrib.  to forces
     atom    1 type  1   force =     0.00000000   -0.00000000   -0.00042947
     atom    2 type  1   force =    -0.00000000    0.00000000   -0.00042947
     atom    3 type  2   force =     0.00000000   -0.00000000    0.24530654
     atom    4 type  2   force =     0.00000000    0.00000000   -0.24555300
     atom    5 type  2   force =     0.00000000   -0.00000000   -0.24555300
     atom    6 type  2   force =     0.00000000    0.00000000    0.24530654
     The ionic contribution  to forces
     atom    1 type  1   force =    -0.00002824    0.00001637   -0.07031551
     atom    2 type  1   force =     0.00002830   -0.00001828   -0.07031481
     atom    3 type  2   force =    -0.00002069    0.00001249  -14.55857647
     atom    4 type  2   force =    -0.00000954    0.00000697   14.62889196
     atom    5 type  2   force =     0.00000947   -0.00000468   14.62889289
     atom    6 type  2   force =     0.00002070   -0.00001287  -14.55857805
     The local contribution  to forces
     atom    1 type  1   force =    -0.00012221    0.00006266    0.07064365
     atom    2 type  1   force =     0.00036799   -0.00023771    0.07060821
     atom    3 type  2   force =    -0.00034951    0.00017921   14.31849108
     atom    4 type  2   force =     0.00034945   -0.00017918  -14.38886269
     atom    5 type  2   force =     0.00034945   -0.00017918  -14.38883541
     atom    6 type  2   force =     0.00105240   -0.00067982   14.31849796
     The core correction contribution to forces
     atom    1 type  1   force =    -0.00000822    0.00000422   -0.00002502
     atom    2 type  1   force =     0.00002476   -0.00001600   -0.00002500
     atom    3 type  2   force =    -0.00002879    0.00001476   -0.00518848
     atom    4 type  2   force =     0.00002877   -0.00001475    0.00520385
     atom    5 type  2   force =     0.00002877   -0.00001475    0.00520489
     atom    6 type  2   force =     0.00008664   -0.00005597   -0.00518941
     The Hubbard contrib.    to forces
     atom    1 type  1   force =     0.00000000    0.00000000    0.00000000
     atom    2 type  1   force =     0.00000000    0.00000000    0.00000000
     atom    3 type  2   force =     0.00000000    0.00000000    0.00000000
     atom    4 type  2   force =     0.00000000    0.00000000    0.00000000
     atom    5 type  2   force =     0.00000000    0.00000000    0.00000000
     atom    6 type  2   force =     0.00000000    0.00000000    0.00000000
     The SCF correction term to forces
     atom    1 type  1   force =     0.00000000   -0.00000000    0.00024436
     atom    2 type  1   force =    -0.00000000    0.00000000    0.00024436
     atom    3 type  2   force =     0.00000000   -0.00000000    0.00059788
     atom    4 type  2   force =     0.00000000   -0.00000000   -0.00025166
     atom    5 type  2   force =     0.00000000   -0.00000000   -0.00025166
     atom    6 type  2   force =    -0.00000001    0.00000001    0.00059788

     Total force =     0.001192     Total SCF correction =     0.000980
     SCF correction compared to forces is large: reduce conv_thr to get better values

     Computing stress (Cartesian axis) and pressure

[...]

          total   stress  (Ry/bohr**3)                   (kbar)     P=        0.93
   0.00000469  -0.00000000   0.00000000            0.69       -0.00        0.00
  -0.00000000   0.00000469  -0.00000000           -0.00        0.69       -0.00
   0.00000000   0.00000000   0.00000950            0.00        0.00        1.40

     kinetic stress (kbar)  14878.25     -0.00      0.00
                               -0.00  14878.25      0.00
                                0.00      0.00  14890.13

     local   stress (kbar)  -7696.87     -0.00      0.00
                               -0.00  -7696.87     -0.00
                                0.00     -0.00   1599.07

     nonloc. stress (kbar)  -1064.55      0.00      0.00
                                0.00  -1064.55     -0.00
                                0.00     -0.00  -1070.12

     hartree stress (kbar)  12058.06     -0.00      0.00
                               -0.00  12058.06     -0.00
                                0.00     -0.00   7864.05

     exc-cor stress (kbar)   6894.63      0.00     -0.00
                                0.00   6894.63      0.00
                               -0.00      0.00   6893.44

     corecor stress (kbar) -11225.42     -0.00      0.00
                               -0.00 -11225.42      0.00
                                0.00      0.00 -11225.40

     ewald   stress (kbar) -13926.10      0.01     -0.00
                                0.01 -13926.09      0.00
                               -0.00      0.00 -19033.81

     hubbard stress (kbar)      0.00      0.00      0.00
                                0.00      0.00      0.00
                                0.00      0.00      0.00

     DFT-D   stress (kbar)      0.00      0.00      0.00
                                0.00      0.00      0.00
                                0.00      0.00      0.00

     XDM     stress (kbar)      0.00      0.00      0.00
                                0.00      0.00      0.00
                                0.00      0.00      0.00

     dft-nl  stress (kbar)     82.68     -0.00      0.00
                               -0.00     82.68     -0.00
                                0.00     -0.00     84.04

     TS-vdW  stress (kbar)      0.00      0.00      0.00
                                0.00      0.00      0.00
                                0.00      0.00      0.00

     MDB     stress (kbar)      0.00      0.00      0.00
                                0.00      0.00      0.00
                                0.00      0.00      0.00

     3D-RISM stress (kbar)      0.00      0.00      0.00
                                0.00      0.00      0.00
                                0.00      0.00      0.00

[...]

     Non-local corr. energy    =       2.87805266 Ry

 BEEFens 2000 ensemble energies
             -0.241771170767511E+01
             -0.243293822362299E+02
             -0.110705889883616E+02
              0.849621759365645E+01
             -0.185942293478886E+02
             -0.227659961912632E+02
              0.116851109256673E+02
              0.497373560735497E-01
              0.196933900905404E+02
             -0.124709303177366E+01
              0.100848523475303E+02
              0.102865852018935E+01
             -0.771962043404969E+00
             -0.623947740263063E+00
              0.125676807904582E+02
             -0.946525481566648E+01
             -0.185802900363526E+02
             -0.599767374756870E+01
              0.537203078497394E+01
             -0.114655822989761E+00
              0.273971707487560E+02
              0.228684873578540E+02
             -0.140852149434241E+02
              0.486843376891183E+01
             -0.293463548409718E+02
              0.240886061030053E+02
              0.823782404571256E+01
              0.217507938957140E+02
              0.146593471887799E+02
             -0.680622639275015E+01
              0.536379513321731E+01
             -0.959048239553683E+01
              0.400650422316978E+01
              0.145852450652933E+02
              0.156937817039640E+02
             -0.682212879441380E+01
              0.346212366095966E+02
             -0.139319481337234E+02
             -0.928094008581634E+01
              0.138481631291158E+02
              0.610693649824904E+01
              0.105212106455574E+02
             -0.203229365434803E+02
             -0.132201118644926E+01
              0.194969606633735E+02
              0.254838467344653E+02
             -0.258754936344514E+02
              0.166056589036631E+01
              0.897629999937456E+01
              0.579508982183097E+01
              0.101180187667226E+02
              0.222184108956612E+02
             -0.144298032113515E+02
             -0.140031621248918E+02
             -0.195082194528839E+02
             -0.282879937343431E+01
             -0.166438359137635E+02
              0.214955565749592E+01
             -0.240051896910126E+01
             -0.132023353152074E+02
[...]
              0.164863675070376E+02
              0.105614789074229E+02
              0.107663910015673E+02
             -0.199258380156120E+02
             -0.205778155717045E+02
             -0.463940115269245E+01
             -0.183945012101931E+02
              0.292032182696252E+02
              0.245991997906766E+02
              0.116034664795499E+02
              0.319846711424917E+02
             -0.159823890546976E+02
             -0.688448868897563E+01
             -0.992416967701760E+01
              0.276706328581071E+02

 BEEF-vdW xc energy contributions
            1 :    -250.1187829880315
            2 :     229.1812459310573
            3 :    -193.4908780972369
            4 :     152.5677061750046
            5 :    -115.3629134352026
            6 :     87.38104384386421
            7 :    -69.79032002851039
            8 :     60.24943846211113
            9 :    -54.67884667489687
           10 :     49.22195681316765
           11 :    -41.71927605070840
           12 :     32.17785857939023
           13 :    -22.16228148980605
           14 :     13.59123736810810
           15 :    -7.665733161263233
           16 :     4.418857370242620
           17 :    -2.928475533354685
           18 :     1.920716539321518
           19 :   -0.4168871688105469
           20 :    -1.858342525543947
           21 :     4.464516592727023
           22 :    -6.606341644916085
           23 :     7.653667128582981
           24 :    -7.520372805570901
           25 :     6.700373955581142
           26 :    -5.974402916748772
           27 :     5.980666421715512
           28 :    -6.887129116137771
           29 :     8.323490078154293
           30 :    -9.592538569377268
           31 :    -21.53172567371286
           32 :    -15.49032962933705

     Writing all to output data dir ./PbI2.save/

     General routines

     Parallel routines

     PAW routines

   This run was terminated on:  16:52: 9  20Feb2024

   JOB DONE.