     Program PWSCF v.7.1 starts on 25Feb2024 at 18:57: 7

     Reading input from espresso.pwi
Warning: card &CELL ignored
Warning: card    CELL_DYNAMICS    = 'BFGS' ignored
Warning: card / ignored

     Current dimensions of program PWSCF are:
     Max number of different atomic species (ntypx) = 10
     Max number of k-points (npk) =  40000
     Max angular momentum in pseudopotentials (lmaxx) =  4
     file Pb.pbe-dn-kjpaw_psl.1.0.0.UPF: wavefunction(s)  6S 6P 5D renormalized
     file I.pbe-dn-kjpaw_psl.1.0.0.UPF: wavefunction(s)  5S 5P renormalized

     IMPORTANT: XC functional enforced from input :
     Exchange-correlation= BEEF-VDW
                           (   1   4  43  14   2   0   0)
     Any further DFT definition will be discarded
     Please, verify this is what you really want

     R & G space division:  proc/nbgrp/npool/nimage =     256
     wavefunctions fft division:  task group distribution
                                  #TG    x Z-proc =       8     32
     Subspace diagonalization in iterative solution of the eigenvalue problem:
     a serial algorithm will be used

     Using Pencil Decomposition

     bravais-lattice index     =            4
     lattice parameter (alat)  =      35.6120  a.u.
     unit-cell volume          =   45937.3577 (a.u.)^3
     number of atoms/cell      =          144
     number of atomic types    =            2
     number of electrons       =      2306.00
     number of Kohn-Sham states=         1384
     kinetic-energy cutoff     =      70.0000  Ry
     charge density cutoff     =     350.0000  Ry
     scf convergence threshold =      1.0E-07
     mixing beta               =       0.7000
     number of iterations used =            8  plain     mixing
     Exchange-correlation= BEEF-VDW
                           (   1   4  43  14   2   0   0)

     celldm(1)=  35.612033  celldm(2)=   0.000000  celldm(3)=   1.174479
     celldm(4)=   0.000000  celldm(5)=   0.000000  celldm(6)=   0.000000

     crystal axes: (cart. coord. in units of alat)
               a(1) = (   1.000000   0.000000   0.000000 )
               a(2) = (  -0.500000   0.866025   0.000000 )
               a(3) = (   0.000000   0.000000   1.174479 )

     reciprocal axes: (cart. coord. in units 2 pi/alat)
               b(1) = (  1.000000  0.577350 -0.000000 )
               b(2) = (  0.000000  1.154701  0.000000 )
               b(3) = (  0.000000 -0.000000  0.851442 )

     PseudoPot. # 1 for Pb read from file:
     //group///packages/espresso/pseudo/psl_1.0.0/pslibrary.1.0.0/pbe/PSEUDOPOTENTIALS/Pb.pbe-dn-kjpaw_psl.1.0.0.UPF
     MD5 check sum: 39ab5b8a6bbd56b7735ad9f188aac93a
     Pseudo is Projector augmented-wave + core cor, Zval = 14.0
     Generated using 'atomic' code by A. Dal Corso  v.7.1
     Shape of augmentation charge: PSQ
     Using radial grid of 1281 points,  6 beta functions with:
                l(1) =   0
                l(2) =   0
                l(3) =   1
                l(4) =   1
                l(5) =   2
                l(6) =   2
     Q(r) pseudized with 0 coefficients

     PseudoPot. # 2 for I  read from file:
     //group///packages/espresso/pseudo/psl_1.0.0/pslibrary.1.0.0/pbe/PSEUDOPOTENTIALS/I.pbe-dn-kjpaw_psl.1.0.0.UPF
     MD5 check sum: bfa8781bc1224d19af3f3980e3fab11e
     Pseudo is Projector augmented-wave + core cor, Zval = 17.0
     Generated using 'atomic' code by A. Dal Corso  v.7.1
     Shape of augmentation charge: PSQ
     Using radial grid of 1247 points,  6 beta functions with:
                l(1) =   0
                l(2) =   0
                l(3) =   1
                l(4) =   1
                l(5) =   2
                l(6) =   2
     Q(r) pseudized with 0 coefficients

     atomic species   valence    mass     pseudopotential
        Pb            14.00   207.20000     Pb( 1.00)
        I             17.00   126.90447     I ( 1.00)

     No symmetry found

                                    s                        frac. trans.

      isym =  1     identity

 cryst.   s( 1) = (     1          0          0      )
                  (     0          1          0      )
                  (     0          0          1      )

 cart.    s( 1) = (  1.0000000  0.0000000  0.0000000 )
                  (  0.0000000  1.0000000  0.0000000 )
                  (  0.0000000  0.0000000  1.0000000 )

     point group C_1 (1)
     there are  1 classes
     the character table:

       E
A      1.00

     the symmetry operations in each class and the name of the first element:

     E        1
          identity

   Cartesian axes

     site n.     atom                  positions (alat units)
         1           Pb  tau(   1) = (   0.1250034   0.2164918   0.3914896  )
         2           Pb  tau(   2) = (   0.1250085   0.2164873   0.7829825  )
         3           Pb  tau(   3) = (   0.0000128   0.4329881   1.1744712  )
         4           Pb  tau(   4) = (   0.0000026   0.4329971   0.3914855  )
         5           Pb  tau(   5) = (   0.0000077   0.4329926   0.7829784  )
         6           Pb  tau(   6) = (  -0.1249881   0.6494934   1.1744671  )
         7           Pb  tau(   7) = (  -0.1249983   0.6495025   0.3914814  )
         8           Pb  tau(   8) = (  -0.1249932   0.6494980   0.7829742  )
         9           Pb  tau(   9) = (  -0.2499889   0.8659988   1.1744630  )
        10           Pb  tau(  10) = (  -0.2499991   0.8660078   0.3914773  )
        11           Pb  tau(  11) = (  -0.2499940   0.8660033   0.7829701  )
        12           Pb  tau(  12) = (   0.3750136   0.2164818   1.1744786  )
        13           Pb  tau(  13) = (   0.3750034   0.2164908   0.3914929  )
        14           Pb  tau(  14) = (   0.3750085   0.2164863   0.7829857  )
        15           Pb  tau(  15) = (   0.2500128   0.4329871   1.1744745  )
        16           Pb  tau(  16) = (   0.2500026   0.4329962   0.3914888  )
        17           Pb  tau(  17) = (   0.2500077   0.4329916   0.7829816  )
        18           Pb  tau(  18) = (   0.1250119   0.6494925   1.1744703  )
        19           Pb  tau(  19) = (   0.1250017   0.6495015   0.3914847  )
        20           Pb  tau(  20) = (   0.1250068   0.6494970   0.7829775  )
        21           Pb  tau(  21) = (   0.0000111   0.8659978   1.1744662  )
        22           Pb  tau(  22) = (   0.0000009   0.8660069   0.3914805  )
        23           Pb  tau(  23) = (   0.0000060   0.8660024   0.7829734  )
        24           Pb  tau(  24) = (   0.6250136   0.2164808   1.1744818  )
        25           Pb  tau(  25) = (   0.6250034   0.2164898   0.3914962  )
        26           Pb  tau(  26) = (   0.6250085   0.2164853   0.7829890  )
        27           Pb  tau(  27) = (   0.5000128   0.4329862   1.1744777  )
        28           Pb  tau(  28) = (   0.5000026   0.4329952   0.3914920  )
        29           Pb  tau(  29) = (   0.5000077   0.4329907   0.7829849  )
        30           Pb  tau(  30) = (   0.3750119   0.6494915   1.1744736  )
        31           Pb  tau(  31) = (   0.3750017   0.6495006   0.3914879  )
        32           Pb  tau(  32) = (   0.3750068   0.6494960   0.7829808  )
        33           Pb  tau(  33) = (   0.2500111   0.8659969   1.1744695  )
        34           Pb  tau(  34) = (   0.2500009   0.8660059   0.3914838  )
        35           Pb  tau(  35) = (   0.2500060   0.8660014   0.7829766  )
        36           Pb  tau(  36) = (   0.8750136   0.2164798   1.1744851  )
        37           Pb  tau(  37) = (   0.8750034   0.2164889   0.3914994  )
        38           Pb  tau(  38) = (   0.8750085   0.2164844   0.7829923  )
        39           Pb  tau(  39) = (   0.7500128   0.4329852   1.1744810  )
        40           Pb  tau(  40) = (   0.7500026   0.4329942   0.3914953  )
        41           Pb  tau(  41) = (   0.7500077   0.4329897   0.7829881  )
        42           Pb  tau(  42) = (   0.6250119   0.6494906   1.1744769  )
        43           Pb  tau(  43) = (   0.6250017   0.6494996   0.3914912  )
        44           Pb  tau(  44) = (   0.6250068   0.6494951   0.7829840  )
        45           Pb  tau(  45) = (   0.5000111   0.8659959   1.1744727  )
        46           Pb  tau(  46) = (   0.5000009   0.8660050   0.3914870  )
        47           Pb  tau(  47) = (   0.5000060   0.8660004   0.7829799  )
        48           I   tau(  48) = (   0.1250054   0.0721550   0.2909325  )
        49           I   tau(  49) = (   0.1250105   0.0721505   0.6824253  )
        50           I   tau(  50) = (   0.1250156   0.0721459   1.0739182  )
        51           I   tau(  51) = (   0.0000045   0.2886603   0.2909283  )
        52           I   tau(  52) = (   0.0000096   0.2886558   0.6824212  )
        53           I   tau(  53) = (   0.0000147   0.2886513   1.0739140  )
        54           I   tau(  54) = (  -0.1249963   0.5051657   0.2909242  )
        55           I   tau(  55) = (  -0.1249912   0.5051612   0.6824171  )
        56           I   tau(  56) = (  -0.1249861   0.5051566   1.0739099  )
        57           I   tau(  57) = (  -0.2499971   0.7216710   0.2909201  )
        58           I   tau(  58) = (  -0.2499920   0.7216665   0.6824129  )
        59           I   tau(  59) = (  -0.2499869   0.7216620   1.0739058  )
        60           I   tau(  60) = (   0.3750054   0.0721540   0.2909357  )
[...]
       130           I   tau( 130) = (   0.1250009   0.7938394   0.4920425  )
       131           I   tau( 131) = (   0.1250060   0.7938348   0.8835353  )
       132           I   tau( 132) = (   0.7499983   0.1443268   0.1005653  )
       133           I   tau( 133) = (   0.7500034   0.1443223   0.4920581  )
       134           I   tau( 134) = (   0.7500085   0.1443178   0.8835509  )
       135           I   tau( 135) = (   0.6249975   0.3608322   0.1005611  )
       136           I   tau( 136) = (   0.6250026   0.3608277   0.4920540  )
       137           I   tau( 137) = (   0.6250077   0.3608232   0.8835468  )
       138           I   tau( 138) = (   0.4999966   0.5773376   0.1005570  )
       139           I   tau( 139) = (   0.5000017   0.5773330   0.4920499  )
       140           I   tau( 140) = (   0.5000068   0.5773285   0.8835427  )
       141           I   tau( 141) = (   0.3749958   0.7938429   0.1005529  )
       142           I   tau( 142) = (   0.3750009   0.7938384   0.4920457  )
       143           I   tau( 143) = (   0.3750060   0.7938339   0.8835386  )
       144           I   tau( 144) = (   0.1250136   0.2164827   1.1744753  )

   Crystallographic axes

     site n.     atom                  positions (cryst. coord.)
         1           Pb  tau(   1) = (  0.2499950  0.2499832  0.3333306  )
         2           Pb  tau(   2) = (  0.2499975  0.2499780  0.6666639  )
         3           Pb  tau(   3) = (  0.2499986  0.4999716  0.9999938  )
         4           Pb  tau(   4) = (  0.2499936  0.4999820  0.3333271  )
         5           Pb  tau(   5) = (  0.2499961  0.4999768  0.6666604  )
         6           Pb  tau(   6) = (  0.2499972  0.7499704  0.9999902  )
         7           Pb  tau(   7) = (  0.2499922  0.7499809  0.3333236  )
         8           Pb  tau(   8) = (  0.2499947  0.7499757  0.6666569  )
[...]
     atom   26 type  1   force =     0.00000000    0.00000000    0.00000000
     atom   27 type  1   force =     0.00000000    0.00000000    0.00000000
     atom   28 type  1   force =     0.00000000    0.00000000    0.00000000
     atom   29 type  1   force =     0.00000000    0.00000000    0.00000000
     atom   30 type  1   force =     0.00000000    0.00000000    0.00000000
     atom   31 type  1   force =     0.00000000    0.00000000    0.00000000
     atom   32 type  1   force =     0.00000000    0.00000000    0.00000000
     atom   33 type  1   force =     0.00000000    0.00000000    0.00000000
     atom   34 type  1   force =     0.00000000    0.00000000    0.00000000
     atom   35 type  1   force =     0.00000000    0.00000000    0.00000000
     atom   36 type  1   force =     0.00000000    0.00000000    0.00000000
     atom   37 type  1   force =     0.00000000    0.00000000    0.00000000
     atom   38 type  1   force =     0.00000000    0.00000000    0.00000000
     atom   39 type  1   force =     0.00000000    0.00000000    0.00000000
     atom   40 type  1   force =     0.00000000    0.00000000    0.00000000
     atom   41 type  1   force =     0.00000000    0.00000000    0.00000000
     atom   42 type  1   force =     0.00000000    0.00000000    0.00000000
     atom   43 type  1   force =     0.00000000    0.00000000    0.00000000
     atom   44 type  1   force =     0.00000000    0.00000000    0.00000000
     atom   45 type  1   force =     0.00000000    0.00000000    0.00000000
     atom   46 type  1   force =     0.00000000    0.00000000    0.00000000
     atom   47 type  1   force =     0.00000000    0.00000000    0.00000000
     atom   48 type  2   force =     0.00000000    0.00000000    0.00000000
     atom   49 type  2   force =     0.00000000    0.00000000    0.00000000
     atom   50 type  2   force =     0.00000000    0.00000000    0.00000000
     atom   51 type  2   force =     0.00000000    0.00000000    0.00000000
     atom   52 type  2   force =     0.00000000    0.00000000    0.00000000
     atom   53 type  2   force =     0.00000000    0.00000000    0.00000000
     atom   54 type  2   force =     0.00000000    0.00000000    0.00000000
     atom   55 type  2   force =     0.00000000    0.00000000    0.00000000
     atom   56 type  2   force =     0.00000000    0.00000000    0.00000000
     atom   57 type  2   force =     0.00000000    0.00000000    0.00000000
     atom   58 type  2   force =     0.00000000    0.00000000    0.00000000
     atom   59 type  2   force =     0.00000000    0.00000000    0.00000000
     atom   60 type  2   force =     0.00000000    0.00000000    0.00000000
[...]
     atom  130 type  2   force =     0.00000000    0.00000000    0.00000000
     atom  131 type  2   force =     0.00000000    0.00000000    0.00000000
     atom  132 type  2   force =     0.00000000    0.00000000    0.00000000
     atom  133 type  2   force =     0.00000000    0.00000000    0.00000000
     atom  134 type  2   force =     0.00000000    0.00000000    0.00000000
     atom  135 type  2   force =     0.00000000    0.00000000    0.00000000
     atom  136 type  2   force =     0.00000000    0.00000000    0.00000000
     atom  137 type  2   force =     0.00000000    0.00000000    0.00000000
     atom  138 type  2   force =     0.00000000    0.00000000    0.00000000
     atom  139 type  2   force =     0.00000000    0.00000000    0.00000000
     atom  140 type  2   force =     0.00000000    0.00000000    0.00000000
     atom  141 type  2   force =     0.00000000    0.00000000    0.00000000
     atom  142 type  2   force =     0.00000000    0.00000000    0.00000000
     atom  143 type  2   force =     0.00000000    0.00000000    0.00000000
     atom  144 type  2   force =     0.00000000    0.00000000    0.00000000
     The SCF correction term to forces
     atom    1 type  1   force =     0.00001193    0.00000418   -0.00001778
     atom    2 type  1   force =    -0.00000856   -0.00000318   -0.00015330
     atom    3 type  1   force =     0.00005122   -0.00002911    0.00016380
     atom    4 type  1   force =     0.00007191   -0.00003250   -0.00004997
     atom    5 type  1   force =    -0.00000175   -0.00004730   -0.00008755
     atom    6 type  1   force =     0.00001596    0.00001008    0.00011468
     atom    7 type  1   force =     0.00004698    0.00002819   -0.00007752
     atom    8 type  1   force =    -0.00003052   -0.00001814   -0.00003221
     atom    9 type  1   force =     0.00001084    0.00006661    0.00018426
     atom   10 type  1   force =     0.00000642    0.00007909   -0.00005444
     atom   11 type  1   force =    -0.00004256    0.00002087   -0.00009096
     atom   12 type  1   force =    -0.00004140   -0.00006509    0.00021801
     atom   13 type  1   force =    -0.00006963   -0.00004099   -0.00005732
     atom   14 type  1   force =    -0.00003982    0.00001524   -0.00010312
     atom   15 type  1   force =    -0.00006581   -0.00000058    0.00020608
     atom   16 type  1   force =    -0.00006777   -0.00003785   -0.00005345
     atom   17 type  1   force =    -0.00000703   -0.00003968   -0.00010270
     atom   18 type  1   force =    -0.00000568   -0.00001026    0.00013373
     atom   19 type  1   force =    -0.00000143   -0.00001751   -0.00010094
     atom   20 type  1   force =    -0.00000133   -0.00002498   -0.00004735
     atom   21 type  1   force =    -0.00001617    0.00000074    0.00013662
     atom   22 type  1   force =    -0.00001726    0.00000597   -0.00010223
     atom   23 type  1   force =    -0.00002189    0.00000899   -0.00004768
     atom   24 type  1   force =    -0.00000266   -0.00001747    0.00011369
     atom   25 type  1   force =    -0.00000703   -0.00005175   -0.00007348
     atom   26 type  1   force =     0.00000464    0.00003343   -0.00003592
     atom   27 type  1   force =    -0.00000040    0.00000155    0.00010938
     atom   28 type  1   force =    -0.00004196   -0.00002206   -0.00005807
     atom   29 type  1   force =     0.00000123    0.00000299   -0.00002608
     atom   30 type  1   force =    -0.00001614    0.00000669    0.00011341
     atom   31 type  1   force =    -0.00004733    0.00002025   -0.00007365
     atom   32 type  1   force =     0.00003059   -0.00001298   -0.00003555
     atom   33 type  1   force =    -0.00000582   -0.00000538    0.00011910
     atom   34 type  1   force =     0.00000553    0.00000096   -0.00009238
     atom   35 type  1   force =     0.00002403    0.00001171   -0.00004599
     atom   36 type  1   force =     0.00003711    0.00000068    0.00012488
     atom   37 type  1   force =     0.00006480   -0.00003179   -0.00003554
     atom   38 type  1   force =     0.00004384    0.00002311   -0.00008535
     atom   39 type  1   force =     0.00001561   -0.00000068    0.00009414
     atom   40 type  1   force =     0.00003802   -0.00001758   -0.00005545
     atom   41 type  1   force =     0.00000743   -0.00000089   -0.00001747
     atom   42 type  1   force =     0.00000587    0.00001134    0.00009713
     atom   43 type  1   force =     0.00000185    0.00004373   -0.00005610
     atom   44 type  1   force =     0.00000111    0.00000715   -0.00001838
     atom   45 type  1   force =     0.00001127    0.00002927    0.00013494
     atom   46 type  1   force =     0.00000566    0.00006932   -0.00003628
     atom   47 type  1   force =     0.00004031    0.00002430   -0.00008843
     atom   48 type  2   force =     0.00003608    0.00007777   -0.00004292
     atom   49 type  2   force =    -0.00000087    0.00005920   -0.00010111
     atom   50 type  2   force =     0.00000399    0.00003334    0.00015293
     atom   51 type  2   force =     0.00008406   -0.00001388   -0.00003658
     atom   52 type  2   force =     0.00005256   -0.00003010   -0.00009939
     atom   53 type  2   force =     0.00002318   -0.00000934    0.00014741
     atom   54 type  2   force =     0.00007836   -0.00000048   -0.00005975
     atom   55 type  2   force =     0.00002014   -0.00004404   -0.00003025
     atom   56 type  2   force =     0.00000850   -0.00000809    0.00007449
     atom   57 type  2   force =     0.00003671    0.00007248   -0.00006222
     atom   58 type  2   force =    -0.00002952    0.00003916   -0.00003085
     atom   59 type  2   force =     0.00000190    0.00000587    0.00007841
     atom   60 type  2   force =    -0.00004391    0.00002466   -0.00006870
[...]
     atom  130 type  2   force =    -0.00000310   -0.00000376   -0.00013251
     atom  131 type  2   force =     0.00000013   -0.00000220    0.00002148
     atom  132 type  2   force =     0.00001435   -0.00002132    0.00010563
     atom  133 type  2   force =     0.00005280   -0.00001885   -0.00008007
     atom  134 type  2   force =     0.00001598    0.00002948   -0.00001184
     atom  135 type  2   force =    -0.00000218   -0.00001483    0.00007926
     atom  136 type  2   force =    -0.00000233   -0.00003486   -0.00003438
     atom  137 type  2   force =     0.00001184    0.00002808   -0.00003613
     atom  138 type  2   force =    -0.00001570    0.00000758    0.00007979
     atom  139 type  2   force =    -0.00003302    0.00001797   -0.00003538
     atom  140 type  2   force =     0.00002747   -0.00000317   -0.00003699
     atom  141 type  2   force =    -0.00001089    0.00002147    0.00010836
     atom  142 type  2   force =     0.00001146    0.00005262   -0.00008075
     atom  143 type  2   force =     0.00003157   -0.00000458   -0.00001389
     atom  144 type  2   force =     0.00001006    0.00000244    0.00032969

     Total force =     0.004026     Total SCF correction =     0.001242
     SCF correction compared to forces is large: reduce conv_thr to get better values

     Computing stress (Cartesian axis) and pressure

[...]

          total   stress  (Ry/bohr**3)                   (kbar)     P=       -0.94
  -0.00000693   0.00000001  -0.00000001           -1.02        0.00       -0.00
   0.00000001  -0.00000691   0.00000001            0.00       -1.02        0.00
  -0.00000001   0.00000001  -0.00000539           -0.00        0.00       -0.79

     kinetic stress (kbar)  14941.60      0.00     -0.01
                                0.00  14941.61      0.01
                               -0.01      0.01  14951.95

     local   stress (kbar)  -7505.56      0.08     -0.08
                                0.08  -7505.41      0.08
                               -0.08      0.08   1497.77

     nonloc. stress (kbar)  -1002.28      0.00     -0.01
                                0.00  -1002.28      0.00
                               -0.01      0.00  -1008.62

     hartree stress (kbar)  12071.86     -0.03      0.03
                               -0.03  12071.80     -0.03
                                0.03     -0.03   8011.76

     exc-cor stress (kbar)   6971.80      0.00     -0.00
                                0.00   6971.80      0.00
                               -0.00      0.00   6970.68

     corecor stress (kbar) -11344.45     -0.00      0.00
                               -0.00 -11344.46     -0.00
                                0.00     -0.00 -11344.36

     ewald   stress (kbar) -14217.65     -0.06      0.06
                               -0.06 -14217.76     -0.06
                                0.06     -0.06 -19164.97

     hubbard stress (kbar)      0.00      0.00      0.00
                                0.00      0.00      0.00
                                0.00      0.00      0.00

     DFT-D   stress (kbar)      0.00      0.00      0.00
                                0.00      0.00      0.00
                                0.00      0.00      0.00

     XDM     stress (kbar)      0.00      0.00      0.00
                                0.00      0.00      0.00
                                0.00      0.00      0.00

     dft-nl  stress (kbar)     83.67      0.00      0.00
                                0.00     83.67     -0.00
                                0.00     -0.00     84.99

     TS-vdW  stress (kbar)      0.00      0.00      0.00
                                0.00      0.00      0.00
                                0.00      0.00      0.00

     MDB     stress (kbar)      0.00      0.00      0.00
                                0.00      0.00      0.00
                                0.00      0.00      0.00

     3D-RISM stress (kbar)      0.00      0.00      0.00
                                0.00      0.00      0.00
                                0.00      0.00      0.00

[...]

     Non-local corr. energy    =      69.34206971 Ry

 BEEFens 2000 ensemble energies
             -0.581664105819107E+02
             -0.585588564399972E+03
             -0.266514617790487E+03
              0.204505806596504E+03
             -0.447594527517469E+03
             -0.548039517681489E+03
              0.281293847380754E+03
              0.121218806771913E+01
              0.474073166994182E+03
             -0.300222281023803E+02
              0.242717365868187E+03
              0.248435886111297E+02
             -0.186497512028600E+02
             -0.150538060775093E+02
              0.302623334007435E+03
             -0.227771000732143E+03
             -0.447215598224290E+03
             -0.144342859502196E+03
              0.129397754797509E+03
             -0.271800547472958E+01
              0.659495410312185E+03
              0.550458262751292E+03
             -0.339105780414646E+03
              0.117170817013505E+03
             -0.706408040388389E+03
              0.579879720379917E+03
              0.198285331502818E+03
              0.523641074423497E+03
              0.352921567351019E+03
             -0.163856710638742E+03
              0.129158255818766E+03
             -0.230897425358735E+03
              0.964179302277075E+02
              0.351094482892268E+03
              0.377723381487499E+03
             -0.164182754529658E+03
              0.833417497913756E+03
             -0.335339168308946E+03
             -0.223401623141812E+03
              0.333320719492845E+03
              0.146927661893511E+03
              0.253245178588628E+03
             -0.489193054796476E+03
             -0.317390956080362E+02
              0.469378018097809E+03
              0.613472695609945E+03
             -0.622825077915467E+03
              0.400006814500925E+02
              0.216029019578811E+03
              0.139514846919514E+03
              0.243565186332125E+03
              0.534815001964581E+03
             -0.347288908904635E+03
             -0.337084573433200E+03
             -0.469650408085827E+03
             -0.681663544169451E+02
             -0.400670259905915E+03
              0.517722573388123E+02
             -0.577467983259521E+02
             -0.317775576541660E+03
[...]
              0.396793567643858E+03
              0.254232011573394E+03
              0.259192845537038E+03
             -0.479633376426894E+03
             -0.495401827818309E+03
             -0.111661514403302E+03
             -0.442764103095209E+03
              0.702999700486615E+03
              0.592195136754368E+03
              0.279273837987080E+03
              0.769942362924471E+03
             -0.384833545472689E+03
             -0.165697693688836E+03
             -0.238831233010652E+03
              0.666092091230661E+03

 BEEF-vdW xc energy contributions
            1 :    -6020.650335185988
            2 :     5516.921174038470
            3 :    -4657.985362772000
            4 :     3672.746461939474
            5 :    -2776.767770220940
            6 :     2102.798780955036
            7 :    -1679.110613461309
            8 :     1449.411059816575
            9 :    -1315.536765443811
           10 :     1184.553615096849
           11 :    -1004.182613068517
           12 :     774.3141070762640
           13 :    -532.6373191436815
           14 :     325.6926305738434
           15 :    -182.8018519137522
           16 :     104.9535356733959
           17 :    -69.85156453933541
           18 :     46.54468460007593
           19 :    -11.14703512597225
           20 :    -43.20544857641380
           21 :     105.9591281855246
           22 :    -157.8090501673651
           23 :     183.2991142684796
           24 :    -180.0856507333856
           25 :     159.9223542574182
           26 :    -141.6558433209011
           27 :     140.8817499313818
           28 :    -161.9814368100288
           29 :     196.3590130621933
           30 :    -227.4141269952042
           31 :    -517.6501181754429
           32 :    -372.3471313878654

     Writing all to output data dir ./PbI2.save/

     General routines

     Parallel routines

     PAW routines

   This run was terminated on:  19:11:57  25Feb2024

   JOB DONE.