     Program PWSCF v.7.1 starts on  3Mar2024 at  7:42:45

     Reading input from espresso.pwi
Warning: card &CELL ignored
Warning: card    CELL_DYNAMICS    = 'BFGS' ignored
Warning: card / ignored

     Current dimensions of program PWSCF are:
     Max number of different atomic species (ntypx) = 10
     Max number of k-points (npk) =  40000
     Max angular momentum in pseudopotentials (lmaxx) =  4
     file C.pbe-n-kjpaw_psl.1.0.0.UPF: wavefunction(s)  2S 2P renormalized

     IMPORTANT: XC functional enforced from input :
     Exchange-correlation= BEEF-VDW
                           (   1   4  43  14   2   0   0)
     Any further DFT definition will be discarded
     Please, verify this is what you really want

     R & G space division:  proc/nbgrp/npool/nimage =     256
     wavefunctions fft division:  task group distribution
                                  #TG    x Z-proc =       8     32
     Subspace diagonalization in iterative solution of the eigenvalue problem:
     a serial algorithm will be used

     Using Pencil Decomposition

     bravais-lattice index     =            1
     lattice parameter (alat)  =      33.7534  a.u.
     unit-cell volume          =   38454.8879 (a.u.)^3
     number of atoms/cell      =          999
     number of atomic types    =            1
     number of electrons       =      3994.00
     number of Kohn-Sham states=         2396
     kinetic-energy cutoff     =      70.0000  Ry
     charge density cutoff     =     350.0000  Ry
     scf convergence threshold =      1.0E-07
     mixing beta               =       0.7000
     number of iterations used =            8  plain     mixing
     Exchange-correlation= BEEF-VDW
                           (   1   4  43  14   2   0   0)

     celldm(1)=  33.753373  celldm(2)=   0.000000  celldm(3)=   0.000000
     celldm(4)=   0.000000  celldm(5)=   0.000000  celldm(6)=   0.000000

     crystal axes: (cart. coord. in units of alat)
               a(1) = (   1.000000   0.000000   0.000000 )
               a(2) = (   0.000000   1.000000   0.000000 )
               a(3) = (   0.000000   0.000000   1.000000 )

     reciprocal axes: (cart. coord. in units 2 pi/alat)
               b(1) = (  1.000000  0.000000  0.000000 )
               b(2) = (  0.000000  1.000000  0.000000 )
               b(3) = (  0.000000  0.000000  1.000000 )

     PseudoPot. # 1 for C  read from file:
     /trace/group/acmegroup/atimmins/packages/espresso/pseudo/psl_1.0.0/pslibrary.1.0.0/pbe/PSEUDOPOTENTIALS/C.pbe-n-kjpaw_psl.1.0.0.UPF
     MD5 check sum: 5459cf7f2c8c37df2f7cde8914797f4d
     Pseudo is Projector augmented-wave + core cor, Zval =  4.0
     Generated using 'atomic' code by A. Dal Corso  v.7.1
     Shape of augmentation charge: PSQ
     Using radial grid of 1073 points,  4 beta functions with:
                l(1) =   0
                l(2) =   0
                l(3) =   1
                l(4) =   1
     Q(r) pseudized with 0 coefficients

     atomic species   valence    mass     pseudopotential
        C              4.00    12.01100     C ( 1.00)

      2 Sym. Ops. (no inversion) found

                                    s                        frac. trans.

      isym =  1     identity

 cryst.   s( 1) = (     1          0          0      )
                  (     0          1          0      )
                  (     0          0          1      )

 cart.    s( 1) = (  1.0000000  0.0000000  0.0000000 )
                  (  0.0000000  1.0000000  0.0000000 )
                  (  0.0000000  0.0000000  1.0000000 )

      isym =  2     inv. 180 deg rotation - cart. axis [-1,0,1]

 cryst.   s( 2) = (     0          0          1      )
                  (     0          1          0      )
                  (     1          0          0      )

 cart.    s( 2) = (  0.0000000  0.0000000  1.0000000 )
                  (  0.0000000  1.0000000  0.0000000 )
                  (  1.0000000  0.0000000  0.0000000 )

     point group C_s (m)
     there are  2 classes
     the character table:

       E     s
A'     1.00  1.00
A''    1.00 -1.00

     the symmetry operations in each class and the name of the first element:

     E        1
          identity
     s        2
          inv. 180 deg rotation - cart. axis [-1,0,1]

   Cartesian axes

     site n.     atom                  positions (alat units)
         1           C   tau(   1) = (   0.0500012   0.1499988   0.2500012  )
         2           C   tau(   2) = (   0.0500012   0.1499988   0.4500012  )
         3           C   tau(   3) = (   0.0500012   0.1499988   0.6500012  )
         4           C   tau(   4) = (   0.0500012   0.1499988   0.8500012  )
         5           C   tau(   5) = (   0.0500012   0.3499988   0.0500012  )
         6           C   tau(   6) = (   0.0500012   0.3499988   0.2500012  )
         7           C   tau(   7) = (   0.0500012   0.3499988   0.4500012  )
         8           C   tau(   8) = (   0.0500012   0.3499988   0.6500012  )
         9           C   tau(   9) = (   0.0500012   0.3499988   0.8500012  )
        10           C   tau(  10) = (   0.0500012   0.5499988   0.0500012  )
        11           C   tau(  11) = (   0.0500012   0.5499988   0.2500012  )
        12           C   tau(  12) = (   0.0500012   0.5499988   0.4500012  )
        13           C   tau(  13) = (   0.0500012   0.5499988   0.6500012  )
        14           C   tau(  14) = (   0.0500012   0.5499988   0.8500012  )
        15           C   tau(  15) = (   0.0500012   0.7499988   0.0500012  )
        16           C   tau(  16) = (   0.0500012   0.7499988   0.2500012  )
        17           C   tau(  17) = (   0.0500012   0.7499988   0.4500012  )
        18           C   tau(  18) = (   0.0500012   0.7499988   0.6500012  )
        19           C   tau(  19) = (   0.0500012   0.7499988   0.8500012  )
        20           C   tau(  20) = (   0.0500012   0.9499988   0.0500012  )
        21           C   tau(  21) = (   0.0500012   0.9499988   0.2500012  )
        22           C   tau(  22) = (   0.0500012   0.9499988   0.4500012  )
        23           C   tau(  23) = (   0.0500012   0.9499988   0.6500012  )
        24           C   tau(  24) = (   0.0500012   0.9499988   0.8500012  )
        25           C   tau(  25) = (   0.2500012   0.1499988   0.0500012  )
        26           C   tau(  26) = (   0.2500012   0.1499988   0.2500012  )
        27           C   tau(  27) = (   0.2500012   0.1499988   0.4500012  )
        28           C   tau(  28) = (   0.2500012   0.1499988   0.6500012  )
        29           C   tau(  29) = (   0.2500012   0.1499988   0.8500012  )
        30           C   tau(  30) = (   0.2500012   0.3499988   0.0500012  )
        31           C   tau(  31) = (   0.2500012   0.3499988   0.2500012  )
        32           C   tau(  32) = (   0.2500012   0.3499988   0.4500012  )
        33           C   tau(  33) = (   0.2500012   0.3499988   0.6500012  )
        34           C   tau(  34) = (   0.2500012   0.3499988   0.8500012  )
        35           C   tau(  35) = (   0.2500012   0.5499988   0.0500012  )
        36           C   tau(  36) = (   0.2500012   0.5499988   0.2500012  )
        37           C   tau(  37) = (   0.2500012   0.5499988   0.4500012  )
        38           C   tau(  38) = (   0.2500012   0.5499988   0.6500012  )
        39           C   tau(  39) = (   0.2500012   0.5499988   0.8500012  )
        40           C   tau(  40) = (   0.2500012   0.7499988   0.0500012  )
        41           C   tau(  41) = (   0.2500012   0.7499988   0.2500012  )
        42           C   tau(  42) = (   0.2500012   0.7499988   0.4500012  )
        43           C   tau(  43) = (   0.2500012   0.7499988   0.6500012  )
        44           C   tau(  44) = (   0.2500012   0.7499988   0.8500012  )
        45           C   tau(  45) = (   0.2500012   0.9499988   0.0500012  )
        46           C   tau(  46) = (   0.2500012   0.9499988   0.2500012  )
        47           C   tau(  47) = (   0.2500012   0.9499988   0.4500012  )
        48           C   tau(  48) = (   0.2500012   0.9499988   0.6500012  )
        49           C   tau(  49) = (   0.2500012   0.9499988   0.8500012  )
        50           C   tau(  50) = (   0.4500012   0.1499988   0.0500012  )
        51           C   tau(  51) = (   0.4500012   0.1499988   0.2500012  )
        52           C   tau(  52) = (   0.4500012   0.1499988   0.4500012  )
        53           C   tau(  53) = (   0.4500012   0.1499988   0.6500012  )
        54           C   tau(  54) = (   0.4500012   0.1499988   0.8500012  )
        55           C   tau(  55) = (   0.4500012   0.3499988   0.0500012  )
        56           C   tau(  56) = (   0.4500012   0.3499988   0.2500012  )
        57           C   tau(  57) = (   0.4500012   0.3499988   0.4500012  )
        58           C   tau(  58) = (   0.4500012   0.3499988   0.6500012  )
        59           C   tau(  59) = (   0.4500012   0.3499988   0.8500012  )
        60           C   tau(  60) = (   0.4500012   0.5499988   0.0500012  )
[...]
       985           C   tau( 985) = (   0.9000000   0.5000000   0.1000000  )
       986           C   tau( 986) = (   0.9000000   0.5000000   0.3000000  )
       987           C   tau( 987) = (   0.9000000   0.5000000   0.5000000  )
       988           C   tau( 988) = (   0.9000000   0.5000000   0.7000000  )
       989           C   tau( 989) = (   0.9000000   0.5000000   0.9000000  )
       990           C   tau( 990) = (   0.9000000   0.7000000   0.1000000  )
       991           C   tau( 991) = (   0.9000000   0.7000000   0.3000000  )
       992           C   tau( 992) = (   0.9000000   0.7000000   0.5000000  )
       993           C   tau( 993) = (   0.9000000   0.7000000   0.7000000  )
       994           C   tau( 994) = (   0.9000000   0.7000000   0.9000000  )
       995           C   tau( 995) = (   0.9000000   0.9000000   0.1000000  )
       996           C   tau( 996) = (   0.9000000   0.9000000   0.3000000  )
       997           C   tau( 997) = (   0.9000000   0.9000000   0.5000000  )
       998           C   tau( 998) = (   0.9000000   0.9000000   0.7000000  )
       999           C   tau( 999) = (   0.9000000   0.9000000   0.9000000  )

   Crystallographic axes

     site n.     atom                  positions (cryst. coord.)
         1           C   tau(   1) = (  0.0500012  0.1499988  0.2500012  )
         2           C   tau(   2) = (  0.0500012  0.1499988  0.4500012  )
         3           C   tau(   3) = (  0.0500012  0.1499988  0.6500012  )
         4           C   tau(   4) = (  0.0500012  0.1499988  0.8500012  )
         5           C   tau(   5) = (  0.0500012  0.3499988  0.0500012  )
         6           C   tau(   6) = (  0.0500012  0.3499988  0.2500012  )
         7           C   tau(   7) = (  0.0500012  0.3499988  0.4500012  )
         8           C   tau(   8) = (  0.0500012  0.3499988  0.6500012  )
         9           C   tau(   9) = (  0.0500012  0.3499988  0.8500012  )
        10           C   tau(  10) = (  0.0500012  0.5499988  0.0500012  )
        11           C   tau(  11) = (  0.0500012  0.5499988  0.2500012  )
        12           C   tau(  12) = (  0.0500012  0.5499988  0.4500012  )
[...]
     atom   25 type  1   force =     0.00000000    0.00000000    0.00000000
     atom   26 type  1   force =     0.00000000    0.00000000    0.00000000
     atom   27 type  1   force =     0.00000000    0.00000000    0.00000000
     atom   28 type  1   force =     0.00000000    0.00000000    0.00000000
     atom   29 type  1   force =     0.00000000    0.00000000    0.00000000
     atom   30 type  1   force =     0.00000000    0.00000000    0.00000000
     atom   31 type  1   force =     0.00000000    0.00000000    0.00000000
     atom   32 type  1   force =     0.00000000    0.00000000    0.00000000
     atom   33 type  1   force =     0.00000000    0.00000000    0.00000000
     atom   34 type  1   force =     0.00000000    0.00000000    0.00000000
     atom   35 type  1   force =     0.00000000    0.00000000    0.00000000
     atom   36 type  1   force =     0.00000000    0.00000000    0.00000000
     atom   37 type  1   force =     0.00000000    0.00000000    0.00000000
     atom   38 type  1   force =     0.00000000    0.00000000    0.00000000
     atom   39 type  1   force =     0.00000000    0.00000000    0.00000000
     atom   40 type  1   force =     0.00000000    0.00000000    0.00000000
     atom   41 type  1   force =     0.00000000    0.00000000    0.00000000
     atom   42 type  1   force =     0.00000000    0.00000000    0.00000000
     atom   43 type  1   force =     0.00000000    0.00000000    0.00000000
     atom   44 type  1   force =     0.00000000    0.00000000    0.00000000
     atom   45 type  1   force =     0.00000000    0.00000000    0.00000000
     atom   46 type  1   force =     0.00000000    0.00000000    0.00000000
     atom   47 type  1   force =     0.00000000    0.00000000    0.00000000
     atom   48 type  1   force =     0.00000000    0.00000000    0.00000000
     atom   49 type  1   force =     0.00000000    0.00000000    0.00000000
     atom   50 type  1   force =     0.00000000    0.00000000    0.00000000
     atom   51 type  1   force =     0.00000000    0.00000000    0.00000000
     atom   52 type  1   force =     0.00000000    0.00000000    0.00000000
     atom   53 type  1   force =     0.00000000    0.00000000    0.00000000
     atom   54 type  1   force =     0.00000000    0.00000000    0.00000000
     atom   55 type  1   force =     0.00000000    0.00000000    0.00000000
     atom   56 type  1   force =     0.00000000    0.00000000    0.00000000
     atom   57 type  1   force =     0.00000000    0.00000000    0.00000000
     atom   58 type  1   force =     0.00000000    0.00000000    0.00000000
     atom   59 type  1   force =     0.00000000    0.00000000    0.00000000
     atom   60 type  1   force =     0.00000000    0.00000000    0.00000000
[...]
     atom  985 type  1   force =     0.00000000    0.00000000    0.00000000
     atom  986 type  1   force =     0.00000000    0.00000000    0.00000000
     atom  987 type  1   force =     0.00000000    0.00000000    0.00000000
     atom  988 type  1   force =     0.00000000    0.00000000    0.00000000
     atom  989 type  1   force =     0.00000000    0.00000000    0.00000000
     atom  990 type  1   force =     0.00000000    0.00000000    0.00000000
     atom  991 type  1   force =     0.00000000    0.00000000    0.00000000
     atom  992 type  1   force =     0.00000000    0.00000000    0.00000000
     atom  993 type  1   force =     0.00000000    0.00000000    0.00000000
     atom  994 type  1   force =     0.00000000    0.00000000    0.00000000
     atom  995 type  1   force =     0.00000000    0.00000000    0.00000000
     atom  996 type  1   force =     0.00000000    0.00000000    0.00000000
     atom  997 type  1   force =     0.00000000    0.00000000    0.00000000
     atom  998 type  1   force =     0.00000000    0.00000000    0.00000000
     atom  999 type  1   force =     0.00000000    0.00000000    0.00000000
     The SCF correction term to forces
     atom    1 type  1   force =    -0.00000477    0.00000529    0.00000454
     atom    2 type  1   force =    -0.00000742    0.00000869    0.00000788
     atom    3 type  1   force =    -0.00000564    0.00000705    0.00000514
     atom    4 type  1   force =    -0.00000766    0.00000949   -0.00001175
     atom    5 type  1   force =    -0.00000845    0.00001269   -0.00000845
     atom    6 type  1   force =    -0.00002572    0.00001086    0.00000487
     atom    7 type  1   force =    -0.00000672    0.00000594    0.00000511
     atom    8 type  1   force =    -0.00000397    0.00000628    0.00000469
     atom    9 type  1   force =     0.00001341    0.00000739   -0.00000640
     atom   10 type  1   force =    -0.00000566   -0.00000507   -0.00000566
     atom   11 type  1   force =    -0.00000695   -0.00000808    0.00000005
     atom   12 type  1   force =    -0.00000448   -0.00000773    0.00000562
     atom   13 type  1   force =    -0.00000658   -0.00000554    0.00000483
     atom   14 type  1   force =    -0.00000398   -0.00000570   -0.00000499
     atom   15 type  1   force =    -0.00000729   -0.00000752   -0.00000729
     atom   16 type  1   force =    -0.00000763   -0.00000682   -0.00000267
     atom   17 type  1   force =    -0.00001050   -0.00000919    0.00000687
     atom   18 type  1   force =    -0.00000432   -0.00000778    0.00000733
     atom   19 type  1   force =    -0.00000627   -0.00000498   -0.00000407
     atom   20 type  1   force =    -0.00000434   -0.00000437   -0.00000434
     atom   21 type  1   force =     0.00001163   -0.00000191   -0.00000009
     atom   22 type  1   force =    -0.00000739    0.00000229    0.00000510
     atom   23 type  1   force =    -0.00000721    0.00000005    0.00000918
     atom   24 type  1   force =    -0.00002669   -0.00000636   -0.00000912
     atom   25 type  1   force =     0.00000454    0.00000529   -0.00000477
     atom   26 type  1   force =     0.00000171   -0.00001031    0.00000171
     atom   27 type  1   force =    -0.00000252    0.00000922    0.00000601
     atom   28 type  1   force =     0.00000013    0.00000935    0.00000779
     atom   29 type  1   force =     0.00000496    0.00002745   -0.00000984
     atom   30 type  1   force =     0.00000487    0.00001086   -0.00002572
     atom   31 type  1   force =     0.00001218    0.00001927    0.00001218
     atom   32 type  1   force =     0.00000156    0.00000939    0.00000414
     atom   33 type  1   force =    -0.00000506    0.00000084    0.00000996
     atom   34 type  1   force =    -0.00000309    0.00000284   -0.00000215
     atom   35 type  1   force =     0.00000005   -0.00000808   -0.00000695
     atom   36 type  1   force =     0.00000131   -0.00001047    0.00000131
     atom   37 type  1   force =     0.00000064   -0.00001316    0.00000256
     atom   38 type  1   force =    -0.00000276   -0.00000372    0.00000322
     atom   39 type  1   force =    -0.00000511   -0.00000987   -0.00000024
     atom   40 type  1   force =    -0.00000267   -0.00000682   -0.00000763
     atom   41 type  1   force =    -0.00000687   -0.00000366   -0.00000687
     atom   42 type  1   force =    -0.00000377   -0.00001174    0.00000967
     atom   43 type  1   force =     0.00000068   -0.00000491    0.00001243
     atom   44 type  1   force =     0.00000154   -0.00000594   -0.00000760
     atom   45 type  1   force =    -0.00000009   -0.00000191    0.00001163
     atom   46 type  1   force =    -0.00000540    0.00000458   -0.00000540
     atom   47 type  1   force =    -0.00000728    0.00000635    0.00000214
     atom   48 type  1   force =     0.00000095   -0.00000127    0.00000921
     atom   49 type  1   force =     0.00001125   -0.00001294   -0.00001674
     atom   50 type  1   force =     0.00000788    0.00000869   -0.00000742
     atom   51 type  1   force =     0.00000601    0.00000922   -0.00000252
     atom   52 type  1   force =     0.00000729    0.00001251    0.00000729
     atom   53 type  1   force =     0.00000528    0.00000686    0.00000754
     atom   54 type  1   force =     0.00000448    0.00000871   -0.00000446
     atom   55 type  1   force =     0.00000511    0.00000594   -0.00000672
     atom   56 type  1   force =     0.00000414    0.00000939    0.00000156
     atom   57 type  1   force =     0.00000190    0.00000911    0.00000190
     atom   58 type  1   force =     0.00000905    0.00000395    0.00000227
     atom   59 type  1   force =     0.00000304   -0.00000006    0.00000098
     atom   60 type  1   force =     0.00000562   -0.00000773   -0.00000448
[...]
     atom  985 type  1   force =    -0.00000666   -0.00000597   -0.00000021
     atom  986 type  1   force =    -0.00000059   -0.00001104   -0.00000360
     atom  987 type  1   force =    -0.00000304   -0.00000314    0.00000959
     atom  988 type  1   force =    -0.00001111   -0.00000301    0.00000282
     atom  989 type  1   force =    -0.00000892    0.00000575   -0.00000892
     atom  990 type  1   force =    -0.00000616   -0.00000484   -0.00000431
     atom  991 type  1   force =    -0.00000914   -0.00000229    0.00000186
     atom  992 type  1   force =    -0.00000649   -0.00000675    0.00000407
     atom  993 type  1   force =    -0.00000237   -0.00001236    0.00000231
     atom  994 type  1   force =    -0.00000301   -0.00000524   -0.00000301
     atom  995 type  1   force =    -0.00001037   -0.00001170   -0.00001863
     atom  996 type  1   force =    -0.00001366   -0.00001477    0.00001295
     atom  997 type  1   force =    -0.00000846   -0.00000277   -0.00000089
     atom  998 type  1   force =     0.00000166    0.00000434    0.00001359
     atom  999 type  1   force =    -0.00000938    0.00000128   -0.00000938

     Total force =     0.004606     Total SCF correction =     0.000415

     Computing stress (Cartesian axis) and pressure

[...]

          total   stress  (Ry/bohr**3)                   (kbar)     P=       -9.70
  -0.00006592   0.00000001   0.00000002           -9.70        0.00        0.00
   0.00000001  -0.00006598   0.00000001            0.00       -9.71        0.00
   0.00000002   0.00000001  -0.00006592            0.00        0.00       -9.70

     kinetic stress (kbar)  18964.02      0.01      0.00
                                0.01  18964.02      0.01
                                0.00      0.01  18964.02

     local   stress (kbar)  -3511.02      0.01     -0.01
                                0.01  -3511.01      0.01
                               -0.01      0.01  -3511.02

     nonloc. stress (kbar)   4320.25     -0.00     -0.00
                               -0.00   4320.25     -0.00
                               -0.00     -0.00   4320.25

     hartree stress (kbar)   1277.73      0.01      0.01
                                0.01   1277.74      0.01
                                0.01      0.01   1277.73

     exc-cor stress (kbar)   -410.98     -0.00     -0.00
                               -0.00   -410.98     -0.00
                               -0.00     -0.00   -410.98

     corecor stress (kbar)  -4430.33      0.00      0.00
                                0.00  -4430.33      0.00
                                0.00      0.00  -4430.33

     ewald   stress (kbar) -16244.16     -0.01      0.00
                               -0.01 -16244.18     -0.01
                                0.00     -0.01 -16244.16

     hubbard stress (kbar)      0.00      0.00      0.00
                                0.00      0.00      0.00
                                0.00      0.00      0.00

     DFT-D   stress (kbar)      0.00      0.00      0.00
                                0.00      0.00      0.00
                                0.00      0.00      0.00

     XDM     stress (kbar)      0.00      0.00      0.00
                                0.00      0.00      0.00
                                0.00      0.00      0.00

     dft-nl  stress (kbar)     24.79      0.00      0.00
                                0.00     24.79      0.00
                                0.00      0.00     24.79

     TS-vdW  stress (kbar)      0.00      0.00      0.00
                                0.00      0.00      0.00
                                0.00      0.00      0.00

     MDB     stress (kbar)      0.00      0.00      0.00
                                0.00      0.00      0.00
                                0.00      0.00      0.00

     3D-RISM stress (kbar)      0.00      0.00      0.00
                                0.00      0.00      0.00
                                0.00      0.00      0.00

[...]

     Non-local corr. energy    =      34.15726794 Ry

 BEEFens 2000 ensemble energies
             -0.604503246424777E+02
             -0.420925943055221E+03
             -0.149413156191892E+03
              0.165305577848029E+03
             -0.278414648818615E+03
             -0.389517468477240E+03
              0.230630485308971E+03
             -0.478704232386033E+02
              0.319940010549542E+03
             -0.526757822020909E+01
              0.130113752336143E+03
              0.649020622499302E+01
              0.179990449810834E+02
             -0.380123788839760E+02
              0.216609115679957E+03
             -0.162012436988421E+03
             -0.371688086393540E+03
             -0.103033580242188E+03
              0.839375296765979E+02
              0.900820968508015E+01
              0.444782783622190E+03
              0.403345354312639E+03
             -0.198161223015566E+03
              0.111262448694122E+03
             -0.505353160253311E+03
              0.406981217948460E+03
              0.145677342929052E+03
              0.428514306013122E+03
              0.270287653359384E+03
             -0.168857666743505E+03
              0.105481960943534E+03
             -0.219306551506460E+03
              0.644220313961972E+01
              0.215600491836882E+03
              0.278250473082037E+03
             -0.684401258199482E+02
              0.599706935825729E+03
             -0.210015322027171E+03
             -0.151800857603707E+03
              0.232410553920848E+03
              0.800356110402399E+02
              0.195675413711175E+03
             -0.341781140246527E+03
             -0.140209428491007E+02
              0.362268048168530E+03
              0.441893474675708E+03
             -0.400473609167230E+03
              0.331180970090350E+02
              0.157845842183678E+03
              0.368435217734541E+02
              0.193044019903826E+03
              0.387371252773062E+03
             -0.259567895517288E+03
             -0.273136242073598E+03
             -0.346132061617057E+03
             -0.953897976811588E+02
             -0.289002213625246E+03
              0.154100184406179E+02
             -0.768250897115595E+02
             -0.262180956782665E+03
[...]
              0.340022397708326E+03
              0.139018941583737E+03
              0.237055477883159E+03
             -0.339384108331536E+03
             -0.264445179729579E+03
             -0.107659178068470E+03
             -0.290861715134942E+03
              0.524240751859409E+03
              0.449645042612126E+03
              0.195416487137665E+03
              0.530121141307553E+03
             -0.284371771681037E+03
             -0.136782341591130E+03
             -0.141211315919388E+03
              0.418289729925615E+03

 BEEF-vdW xc energy contributions
            1 :    -4087.970517186559
            2 :     3606.753089356823
            3 :    -2776.986603082882
            4 :     1813.915753714675
            5 :    -937.2495740787053
            6 :     298.5458596873104
            7 :     56.78423637746710
            8 :    -181.2044787571167
            9 :     180.3508460414823
           10 :    -156.6745484530074
           11 :     167.9964112500820
           12 :    -216.6026828035801
           13 :     267.5809377733767
           14 :    -281.2402455732781
           15 :     240.2209840829910
           16 :    -158.1405164548360
           17 :     68.66788125134099
           18 :    -4.632636572181582
           19 :    -19.37123821068963
           20 :     11.53834972840195
           21 :     6.088643889856030
           22 :    -12.90360079908532
           23 :     1.592601354617727
           24 :     19.84758662150489
           25 :    -35.69477296237528
           26 :     33.80960174457141
           27 :    -13.32124328373629
           28 :    -15.56887485972948
           29 :     38.64621755204462
           30 :    -46.51790723025442
           31 :    -534.8272816354311
           32 :    -388.0465081944894

     Writing all to output data dir ./diamond.save/

     General routines

     Parallel routines

     PAW routines

   This run was terminated on:  12:42:17   3Mar2024

   JOB DONE.