     Program PWSCF v.7.2 starts on 27Mar2024 at 22:23:59

     Reading input from espresso.pwi
Warning: card &CELL ignored
Warning: card    CELL_DYNAMICS    = 'BFGS' ignored
Warning: card / ignored

     Current dimensions of program PWSCF are:
     Max number of different atomic species (ntypx) = 10
     Max number of k-points (npk) =  40000
     Max angular momentum in pseudopotentials (lmaxx) =  4
     file C.pbe-n-kjpaw_psl.1.0.0.UPF: wavefunction(s)  2S 2P renormalized

     IMPORTANT: XC functional enforced from input :
     Exchange-correlation= BEEF-VDW
                           (   1   4  43  14   2   0   0)
     Any further DFT definition will be discarded
     Please, verify this is what you really want

     R & G space division:  proc/nbgrp/npool/nimage =      10
     Subspace diagonalization in iterative solution of the eigenvalue problem:
     a serial algorithm will be used

     Using Slab Decomposition

     bravais-lattice index     =            1
     lattice parameter (alat)  =       6.7507  a.u.
     unit-cell volume          =     307.6390 (a.u.)^3
     number of atoms/cell      =            7
     number of atomic types    =            1
     number of electrons       =        30.00
     number of Kohn-Sham states=           19
     kinetic-energy cutoff     =      70.0000  Ry
     charge density cutoff     =     350.0000  Ry
     scf convergence threshold =      1.0E-07
     mixing beta               =       0.7000
     number of iterations used =            8  plain     mixing
     Exchange-correlation= BEEF-VDW
                           (   1   4  43  14   2   0   0)

     celldm(1)=   6.750674  celldm(2)=   0.000000  celldm(3)=   0.000000
     celldm(4)=   0.000000  celldm(5)=   0.000000  celldm(6)=   0.000000

     crystal axes: (cart. coord. in units of alat)
               a(1) = (   1.000000   0.000000   0.000000 )
               a(2) = (   0.000000   1.000000   0.000000 )
               a(3) = (   0.000000   0.000000   1.000000 )

     reciprocal axes: (cart. coord. in units 2 pi/alat)
               b(1) = (  1.000000  0.000000  0.000000 )
               b(2) = (  0.000000  1.000000  0.000000 )
               b(3) = (  0.000000  0.000000  1.000000 )

     PseudoPot. # 1 for C  read from file:
     /trace/group/acmegroup/atimmins/packages/espresso/pseudo/psl_1.0.0/pslibrary.1.0.0/pbe/PSEUDOPOTENTIALS/C.pbe-n-kjpaw_psl.1.0.0.UPF
     MD5 check sum: 5459cf7f2c8c37df2f7cde8914797f4d
     Pseudo is Projector augmented-wave + core cor, Zval =  4.0
     Generated using 'atomic' code by A. Dal Corso  v.7.1
     Shape of augmentation charge: PSQ
     Using radial grid of 1073 points,  4 beta functions with:
                l(1) =   0
                l(2) =   0
                l(3) =   1
                l(4) =   1
     Q(r) pseudized with 0 coefficients

     atomic species   valence    mass     pseudopotential
        C              4.00    12.01100     C ( 1.00)

      6 Sym. Ops. (no inversion) found

                                    s                        frac. trans.

      isym =  1     identity

 cryst.   s( 1) = (     1          0          0      )
                  (     0          1          0      )
                  (     0          0          1      )

 cart.    s( 1) = (  1.0000000  0.0000000  0.0000000 )
                  (  0.0000000  1.0000000  0.0000000 )
                  (  0.0000000  0.0000000  1.0000000 )

      isym =  2     120 deg rotation - cart. axis [1,-1,1]

[...]

      isym =  3     120 deg rotation - cart. axis [-1,1,-1]

[...]

      isym =  4     inv. 180 deg rotation - cart. axis [1,1,0]

[...]

      isym =  6     inv. 180 deg rotation - cart. axis [0,1,1]

 cryst.   s( 6) = (     1          0          0      )
                  (     0          0         -1      )
                  (     0         -1          0      )

 cart.    s( 6) = (  1.0000000  0.0000000  0.0000000 )
                  (  0.0000000  0.0000000 -1.0000000 )
                  (  0.0000000 -1.0000000  0.0000000 )

     point group C_3v (3m)
     there are  3 classes
     the character table:

       E     2C3   3s_v
A_1    1.00  1.00  1.00
A_2    1.00  1.00 -1.00
E      2.00 -1.00  0.00

     the symmetry operations in each class and the name of the first element:

     E        1
          identity
     2C3      2    3
          120 deg rotation - cart. axis [1,-1,1]
     3s_v     4    5    6
          inv. 180 deg rotation - cart. axis [1,1,0]

   Cartesian axes

     site n.     atom                  positions (alat units)
         1           C   tau(   1) = (   0.0000000   0.0000000   0.5000000  )
         2           C   tau(   2) = (   0.2500061   0.2500061   0.7499939  )
         3           C   tau(   3) = (   0.0000000   0.5000000   0.0000000  )
         4           C   tau(   4) = (   0.7499939   0.7499939   0.7499939  )
         5           C   tau(   5) = (   0.5000000   0.0000000   0.0000000  )
         6           C   tau(   6) = (   0.7499939   0.2500061   0.2500061  )
         7           C   tau(   7) = (   0.5000000   0.5000000   0.5000000  )

   Crystallographic axes

     site n.     atom                  positions (cryst. coord.)
         1           C   tau(   1) = (  0.0000000  0.0000000  0.5000000  )
         2           C   tau(   2) = (  0.2500061  0.2500061  0.7499939  )
         3           C   tau(   3) = (  0.0000000  0.5000000  0.0000000  )
         4           C   tau(   4) = (  0.7499939  0.7499939  0.7499939  )
         5           C   tau(   5) = (  0.5000000  0.0000000  0.0000000  )
         6           C   tau(   6) = (  0.7499939  0.2500061  0.2500061  )
         7           C   tau(   7) = (  0.5000000  0.5000000  0.5000000  )

     number of k points=    13  Gaussian smearing, width (Ry)=  0.0100
                       cart. coord. in units 2pi/alat
        k(    1) = (   0.0000000   0.0000000   0.0000000), wk =   0.0312500
        k(    2) = (   0.0000000   0.0000000   0.2500000), wk =   0.1875000
        k(    3) = (   0.0000000   0.0000000  -0.5000000), wk =   0.0937500
        k(    4) = (   0.0000000   0.2500000   0.2500000), wk =   0.1875000
        k(    5) = (   0.0000000   0.2500000  -0.5000000), wk =   0.3750000
        k(    6) = (   0.0000000  -0.5000000  -0.5000000), wk =   0.0937500
        k(    7) = (   0.2500000   0.2500000   0.2500000), wk =   0.1875000
        k(    8) = (   0.2500000   0.2500000  -0.5000000), wk =   0.1875000
        k(    9) = (   0.2500000  -0.5000000  -0.5000000), wk =   0.1875000
        k(   10) = (  -0.5000000  -0.5000000  -0.5000000), wk =   0.0312500
        k(   11) = (   0.2500000   0.0000000   0.2500000), wk =   0.1875000
        k(   12) = (   0.2500000  -0.2500000   0.2500000), wk =   0.0625000
        k(   13) = (   0.2500000  -0.2500000  -0.5000000), wk =   0.1875000

                       cryst. coord.
        k(    1) = (   0.0000000   0.0000000   0.0000000), wk =   0.0312500
        k(    2) = (   0.0000000   0.0000000   0.2500000), wk =   0.1875000
        k(    3) = (   0.0000000   0.0000000  -0.5000000), wk =   0.0937500
        k(    4) = (   0.0000000   0.2500000   0.2500000), wk =   0.1875000
        k(    5) = (   0.0000000   0.2500000  -0.5000000), wk =   0.3750000
        k(    6) = (   0.0000000  -0.5000000  -0.5000000), wk =   0.0937500
        k(    7) = (   0.2500000   0.2500000   0.2500000), wk =   0.1875000
        k(    8) = (   0.2500000   0.2500000  -0.5000000), wk =   0.1875000
        k(    9) = (   0.2500000  -0.5000000  -0.5000000), wk =   0.1875000
        k(   10) = (  -0.5000000  -0.5000000  -0.5000000), wk =   0.0312500
        k(   11) = (   0.2500000   0.0000000   0.2500000), wk =   0.1875000
        k(   12) = (   0.2500000  -0.2500000   0.2500000), wk =   0.0625000
        k(   13) = (   0.2500000  -0.2500000  -0.5000000), wk =   0.1875000

     Atomic positions and unit cell read from directory:
     ./diamond.save/
     Atomic positions from file used, from input discarded

     Check: negative core charge=   -0.000014

     The initial density is read from file :
     ./diamond.save/charge-density

     %%%%%%%%%%%%%%%%%%%%%%%%%%%%%%%%%%%%%%%%%%%%%%%%%%%%%%%%%%%%%%%%%%%%%%%%
     %                                                                      %
     % You are using vdW-DF, which was implemented by the Thonhauser group. %
     % Please cite the following two papers that made this development      %
     % possible and the two reviews that describe the various versions:     %
     %                                                                      %
     %   T. Thonhauser et al., PRL 115, 136402 (2015).                      %
     %   T. Thonhauser et al., PRB 76, 125112 (2007).                       %
     %   K. Berland et al., Rep. Prog. Phys. 78, 066501 (2015).             %
     %   D.C. Langreth et al., J. Phys.: Condens. Matter 21, 084203 (2009). %
     %                                                                      %
     % If you are calculating stress with vdW-DF, please also cite:         %
     %                                                                      %
     %   R. Sabatini et al., J. Phys.: Condens. Matter 24, 424209 (2012).   %
     %                                                                      %
     %%%%%%%%%%%%%%%%%%%%%%%%%%%%%%%%%%%%%%%%%%%%%%%%%%%%%%%%%%%%%%%%%%%%%%%%

     %%%%%%%%%%%%%%%%%%%%%%%%%%%%%%%%%%%%%%%%%%%%%%%%%%%%%%%%%%%%%%%%%%%%%%%%
     %                                                                      %
     %  vdW-DF NEWS:                                                        %
     %                                                                      %
     %  * vdW-DF3 is now available. DOI: 10.1021/acs.jctc.0c00471           %
     %    use with input_dft = 'vdW-DF3-opt1' or 'vdW-DF3-opt2'             %
     %                                                                      %
     %  * Unscreened and range-separated hybrid vdW-DF-cx functionals       %
     %    DOI: 10.1063/1.4986522 and 10.1088/1361-648X/ac2ad2               %
     %    use with input_dft = 'vdW-DF-cx0'    and 'vdW-DF-ahcx'            %
     %  * Unscreened and range-separated hybrid vdW-DF2-b86r functionals    %
     %    DOI: 10.1063/1.4986522 and DOI: 10.1103/PhysRevX.12.041003        %
     %    use with input_dft = 'vdW-DF2-br0' and 'vdW-DF2-ahbr'             %
     %                                                                      %
     %%%%%%%%%%%%%%%%%%%%%%%%%%%%%%%%%%%%%%%%%%%%%%%%%%%%%%%%%%%%%%%%%%%%%%%%

     Carrying out vdW-DF run using the following parameters:
     Nqs    =  20  Npoints =  1024  r_max =  100.000
     q_mesh =  0.00001000  0.04494208  0.09755937  0.15916263
               0.23128650  0.31572767  0.41458969  0.53033537
               0.66584808  0.82450364  1.01025438  1.22772762
               1.48234092  1.78043706  2.12944203  2.53805004
               3.01644009  3.57652955  4.23227104  5.00000000

     Non-local corr. energy    =       0.24968155 Ry

     Starting wfcs from file
     Checking if some PAW data can be deallocated...

     Self-consistent Calculation

     iteration #  1     ecut=    70.00 Ry     beta= 0.70
     Davidson diagonalization with overlap

     ethr =  1.00E-05,  avg # of iterations =  1.0

     Threshold (ethr) on eigenvalues was too large:
     Diagonalizing with lowered threshold

     Davidson diagonalization with overlap

     ethr =  6.18E-12,  avg # of iterations =  3.2

[...]

     End of self-consistent calculation

          k = 0.0000 0.0000 0.0000 (  2969 PWs)   bands (ev):

   -10.1943  -2.4499  -2.4499  -1.5183  -1.5176  -1.5176   4.2942   4.2945
     4.2945   4.9683   6.7568   6.7569   6.7581  14.0022  14.0022  14.0025
    15.6442  15.6442  15.6458

     occupation numbers
     1.0000   1.0000   1.0000   1.0000   1.0000   1.0000   1.0000   1.0000
     1.0000   1.0000   1.0000   1.0000   1.0000   0.0000   0.0000   0.0000
     0.0000   0.0000   0.0000

[...]

          k =-0.5000-0.5000-0.5000 (  3112 PWs)   bands (ev):

[...]

          k = 0.2500-0.2500-0.5000 (  3050 PWs)   bands (ev):

    -7.6573  -6.2961  -4.2993  -2.4362  -0.4522   0.1706   1.7242   3.9790
     5.8216   6.1961   6.4812   6.8656   7.0381  11.1857  12.3483  12.8897
    17.9696  19.5599  19.6818

     occupation numbers
     1.0000   1.0000   1.0000   1.0000   1.0000   1.0000   1.0000   1.0000
     1.0000   1.0000   1.0000   1.0000   1.0000   1.0000   1.0000   0.3575
     0.0000   0.0000   0.0000

     the Fermi energy is    12.8546 ev

!    total energy              =    -130.73693422 Ry
     total all-electron energy =      -535.085614 Ry
     estimated scf accuracy    <          2.2E-09 Ry
     smearing contrib. (-TS)   =      -0.00188755 Ry
     internal energy E=F+TS    =    -130.73504667 Ry

     The total energy is F=E-TS. E is the sum of the following terms:
     one-electron contribution =      22.94343707 Ry
     hartree contribution      =      10.10970138 Ry
     xc contribution           =     -35.75449221 Ry
     ewald contribution        =     -82.19812830 Ry
     one-center paw contrib.   =     -45.83556461 Ry
      -> PAW hartree energy AE =       9.28221042 Ry
      -> PAW hartree energy PS =      -9.27292999 Ry
      -> PAW xc energy AE      =     -11.20021732 Ry
      -> PAW xc energy PS      =       4.64033221 Ry
      -> total E_H with PAW    =      10.11898182 Ry
      -> total E_XC with PAW   =     -42.31437732 Ry

     convergence has been achieved in   1 iterations

[...]

     Forces acting on atoms (cartesian axes, Ry/au):

     atom    1 type  1   force =    -0.00001196    0.00001196   -0.00001358
     atom    2 type  1   force =    -0.00000892    0.00000203   -0.00000203
     atom    3 type  1   force =    -0.00001196    0.00001358   -0.00001196
     atom    4 type  1   force =    -0.00000203    0.00000892   -0.00000203
     atom    5 type  1   force =    -0.00001358    0.00001196   -0.00001196
     atom    6 type  1   force =    -0.00000203    0.00000203   -0.00000892
     atom    7 type  1   force =     0.00005048   -0.00005048    0.00005048
     The non-local contrib.  to forces
     atom    1 type  1   force =    -0.35507476    0.35507476    0.35491067
     atom    2 type  1   force =     0.00011365    0.00011374   -0.00011374
     atom    3 type  1   force =    -0.35507476   -0.35491067   -0.35507476
     atom    4 type  1   force =    -0.00011374   -0.00011365   -0.00011374
     atom    5 type  1   force =     0.35491067    0.35507476   -0.35507476
     atom    6 type  1   force =    -0.00011374    0.00011374    0.00011365
     atom    7 type  1   force =     0.35464506   -0.35464506    0.35464506
     The ionic contribution  to forces
     atom    1 type  1   force =     1.79427529   -1.79427544   -1.79444806
     atom    2 type  1   force =    -0.00025006   -0.00035675    0.00035678
     atom    3 type  1   force =     1.79427533    1.79444816    1.79427533
     atom    4 type  1   force =     0.00035678    0.00025010    0.00035678
     atom    5 type  1   force =    -1.79444806   -1.79427544    1.79427529
     atom    6 type  1   force =     0.00035678   -0.00035675   -0.00025006
     atom    7 type  1   force =    -1.79456606    1.79456612   -1.79456606
     The local contribution  to forces
     atom    1 type  1   force =    -1.44392887    1.44392887    1.44420396
     atom    2 type  1   force =     0.00003971    0.00014905   -0.00014886
     atom    3 type  1   force =    -1.44392884   -1.44420379   -1.44392884
     atom    4 type  1   force =    -0.00014886   -0.00003959   -0.00014886
     atom    5 type  1   force =     1.44420396    1.44392887   -1.44392887
     atom    6 type  1   force =    -0.00014886    0.00014905    0.00003971
     atom    7 type  1   force =     1.44463648   -1.44463633    1.44463648
     The core correction contribution to forces
     atom    1 type  1   force =     0.00475082   -0.00475082   -0.00466029
     atom    2 type  1   force =     0.00013796    0.00008815   -0.00008816
     atom    3 type  1   force =     0.00475082    0.00466028    0.00475082
     atom    4 type  1   force =    -0.00008816   -0.00013797   -0.00008816
     atom    5 type  1   force =    -0.00466029   -0.00475082    0.00475082
     atom    6 type  1   force =    -0.00008816    0.00008815    0.00013796
     atom    7 type  1   force =    -0.00464963    0.00464962   -0.00464963
     The Hubbard contrib.    to forces
     atom    1 type  1   force =     0.00000000    0.00000000    0.00000000
     atom    2 type  1   force =     0.00000000    0.00000000    0.00000000
     atom    3 type  1   force =     0.00000000    0.00000000    0.00000000
     atom    4 type  1   force =     0.00000000    0.00000000    0.00000000
     atom    5 type  1   force =     0.00000000    0.00000000    0.00000000
     atom    6 type  1   force =     0.00000000    0.00000000    0.00000000
     atom    7 type  1   force =     0.00000000    0.00000000    0.00000000
     The SCF correction term to forces
     atom    1 type  1   force =    -0.00000629    0.00000629    0.00000845
     atom    2 type  1   force =    -0.00002191   -0.00002025    0.00002025
     atom    3 type  1   force =    -0.00000629   -0.00000845   -0.00000629
     atom    4 type  1   force =     0.00002025    0.00002191    0.00002025
     atom    5 type  1   force =     0.00000845    0.00000629   -0.00000629
     atom    6 type  1   force =     0.00002025   -0.00002025   -0.00002191
     atom    7 type  1   force =     0.00001292   -0.00001292    0.00001292

     Total force =     0.000097     Total SCF correction =     0.000070
     SCF correction compared to forces is large: reduce conv_thr to get better values

     Computing stress (Cartesian axis) and pressure

[...]

          total   stress  (Ry/bohr**3)                   (kbar)     P=     1092.81
   0.00742877  -0.00000020   0.00000020         1092.81       -0.03        0.03
  -0.00000020   0.00742877  -0.00000020           -0.03     1092.81       -0.03
   0.00000020  -0.00000020   0.00742877            0.03       -0.03     1092.81

     kinetic stress (kbar)  17620.45     -0.09      0.09
                               -0.09  17620.45     -0.09
                                0.09     -0.09  17620.45

     local   stress (kbar)  -4572.44     -0.92      0.92
                               -0.92  -4572.44     -0.92
                                0.92     -0.92  -4572.44

     nonloc. stress (kbar)   4004.60      0.04     -0.04
                                0.04   4004.60      0.04
                               -0.04      0.04   4004.60

     hartree stress (kbar)   1611.40      0.15     -0.15
                                0.15   1611.40      0.15
                               -0.15      0.15   1611.40

     exc-cor stress (kbar)   -595.25      0.04     -0.04
                                0.04   -595.25      0.04
                               -0.04      0.04   -595.25

     corecor stress (kbar)  -3898.77     -0.06      0.06
                               -0.06  -3898.77     -0.06
                                0.06     -0.06  -3898.77

     ewald   stress (kbar) -13101.68      0.82     -0.82
                                0.82 -13101.68      0.82
                               -0.82      0.82 -13101.68

     hubbard stress (kbar)      0.00      0.00      0.00
                                0.00      0.00      0.00
                                0.00      0.00      0.00

     DFT-D   stress (kbar)      0.00      0.00      0.00
                                0.00      0.00      0.00
                                0.00      0.00      0.00

     XDM     stress (kbar)      0.00      0.00      0.00
                                0.00      0.00      0.00
                                0.00      0.00      0.00

     dft-nl  stress (kbar)     24.51     -0.00      0.00
                               -0.00     24.51     -0.00
                                0.00     -0.00     24.51

     TS-vdW  stress (kbar)      0.00      0.00      0.00
                                0.00      0.00      0.00
                                0.00      0.00      0.00

     MDB     stress (kbar)      0.00      0.00      0.00
                                0.00      0.00      0.00
                                0.00      0.00      0.00

     3D-RISM stress (kbar)      0.00      0.00      0.00
                                0.00      0.00      0.00
                                0.00      0.00      0.00

[...]

     Non-local corr. energy    =       0.24968153 Ry

 BEEFens 2000 ensemble energies
             -0.262349574923206E+01
             -0.163626122787046E+00
             -0.596702956884797E+00
              0.175735501502857E+01
             -0.775642777404847E+00
             -0.674901524735480E+00
             -0.181636356717340E+01
             -0.390822662962637E+01
             -0.147844022395512E+01
             -0.149114297653097E+01
             -0.152729502630855E+01
              0.209480241331349E+00
              0.248606933842549E+00
             -0.195182073224151E+00
              0.174853226849296E+00
              0.191200302030493E+01
             -0.783710983036142E+00
             -0.523756597651210E+00
              0.985345883582674E+00
             -0.445263649935490E+01
              0.230521359300396E+01
             -0.785149397855534E+00
             -0.226417381158216E+00
             -0.298947320124433E+00
             -0.724773184348848E-02
             -0.269964861873524E+00
              0.350805560945571E+01
             -0.886737226330526E+00
             -0.391376643161944E+00
             -0.234254173549449E+01
              0.284294620690773E+01
             -0.283738302408852E+00
             -0.169604779443741E+01
              0.820091095317071E+00
             -0.730930549491902E-01
              0.114600206942162E+01
              0.992027972292959E-01
              0.268220722878709E-02
              0.147587043302937E+01
             -0.407158330253225E+01
              0.213926588381262E+01
              0.521411036746812E+00
             -0.394262854145769E+00
             -0.132975501985895E+01
              0.460470448560198E+00
             -0.630479203323517E+00
              0.202382149678284E+01
              0.141044511062197E+01
             -0.779623315168465E+00
             -0.134632402029610E+01
             -0.127897749616723E+01
             -0.145095469518617E+01
              0.775200084865187E+00
             -0.216427119435587E+01
              0.617319727247626E+00
              0.249660181792879E+01
              0.301352800874334E+01
              0.121177851017272E+01
              0.673681886729662E+00
              0.126756363167835E+01
[...]
             -0.303084731718159E+01
              0.538090975377692E-01
              0.500328877209472E-01
             -0.454848294416184E+00
              0.216926408455901E+00
             -0.260635705429656E+01
             -0.450531711413023E+00
              0.476556530666606E+00
              0.486106008883519E+00
              0.202180711258697E+01
             -0.176068475815559E+01
              0.216255020160522E+01
             -0.157510534648866E+01
              0.104665651437608E+01
              0.175501090358387E+01

 BEEF-vdW xc energy contributions
            1 :    -30.04389036136513
            2 :     26.60749683532002
            3 :    -20.63358582714338
            4 :     13.59957669528971
            5 :    -7.054264496417773
            6 :     2.129801453887321
            7 :    0.7411020024731272
            8 :    -1.816151975756796
            9 :     1.785511833874867
           10 :    -1.406514681965533
           11 :     1.198362444622958
           12 :    -1.312329531518778
           13 :     1.596257017603449
           14 :    -1.781132819691209
           15 :     1.674610482516044
           16 :    -1.265347886529042
           17 :    0.7047215450487414
           18 :   -0.2010867838287851
           19 :   -9.9329325777283373E-002
           20 :    0.1771042947970116
           21 :   -0.1233757759888050
           22 :    6.5226370076274520E-002
           23 :   -8.4327460637119600E-002
           24 :    0.1764710055772909
           25 :   -0.2693270464055004
           26 :    0.2797073742269234
           27 :   -0.1709916546599857
           28 :   -2.3912255607910993E-002
           29 :    0.2243443039294064
           30 :   -0.3510037122978531
           31 :    -3.957508370342943
           32 :    -2.894377354603314

     Writing all to output data dir ./diamond.save/

     General routines

     Parallel routines

     PAW routines

   This run was terminated on:  22:24: 4  27Mar2024

   JOB DONE.