     Program PWSCF v.7.1 starts on 21Feb2024 at  8:40:37

     Reading input from espresso.pwi

     Current dimensions of program PWSCF are:
     Max number of different atomic species (ntypx) = 10
     Max number of k-points (npk) =  40000
     Max angular momentum in pseudopotentials (lmaxx) =  4
     file Ga.pbe-dn-kjpaw_psl.1.0.0.UPF: wavefunction(s)  4S renormalized

     IMPORTANT: XC functional enforced from input :
     Exchange-correlation= BEEF-VDW
                           (   1   4  43  14   2   0   0)
     Any further DFT definition will be discarded
     Please, verify this is what you really want

     Found identity + (  0.5000  0.5000  0.0000) symmetry
     This is a supercell, fractional translations are disabled

     K-points division:     npool     =       8
     R & G space division:  proc/nbgrp/npool/nimage =      16
     Subspace diagonalization in iterative solution of the eigenvalue problem:
     a serial algorithm will be used

     Using Slab Decomposition

     bravais-lattice index     =            8
     lattice parameter (alat)  =       8.3754  a.u.
     unit-cell volume          =    1035.2272 (a.u.)^3
     number of atoms/cell      =            8
     number of atomic types    =            1
     number of electrons       =       104.00
     number of Kohn-Sham states=           62
     kinetic-energy cutoff     =      70.0000  Ry
     charge density cutoff     =     350.0000  Ry
     scf convergence threshold =      1.0E-07
     mixing beta               =       0.7000
     number of iterations used =            8  plain     mixing
     energy convergence thresh.=      1.0E-04
     force convergence thresh. =      1.0E-03
     press convergence thresh. =      5.0E-01
     Exchange-correlation= BEEF-VDW
                           (   1   4  43  14   2   0   0)
     nstep                     =           50

     celldm(1)=   8.375354  celldm(2)=   1.714328  celldm(3)=   1.027855
     celldm(4)=   0.000000  celldm(5)=   0.000000  celldm(6)=   0.000000

     crystal axes: (cart. coord. in units of alat)
               a(1) = (   1.000000   0.000000   0.000000 )
               a(2) = (   0.000000   1.714328   0.000000 )
               a(3) = (   0.000000   0.000000   1.027855 )

     reciprocal axes: (cart. coord. in units 2 pi/alat)
               b(1) = (  1.000000  0.000000  0.000000 )
               b(2) = (  0.000000  0.583319  0.000000 )
               b(3) = (  0.000000  0.000000  0.972899 )

     PseudoPot. # 1 for Ga read from file:
     /trace/group/acmegroup/atimmins/packages/espresso/pseudo/psl_1.0.0/pslibrary.1.0.0/pbe/PSEUDOPOTENTIALS/Ga.pbe-dn-kjpaw_psl.1.0.0.UPF
     MD5 check sum: cd2a01e492f15b435d17032472d8505c
     Pseudo is Projector augmented-wave + core cor, Zval = 13.0
     Generated using 'atomic' code by A. Dal Corso  v.7.1
     Shape of augmentation charge: PSQ
     Using radial grid of 1205 points,  6 beta functions with:
                l(1) =   0
                l(2) =   0
                l(3) =   1
                l(4) =   1
                l(5) =   2
                l(6) =   2
     Q(r) pseudized with 0 coefficients

     atomic species   valence    mass     pseudopotential
        Ga            13.00    69.72300     Ga( 1.00)

      4 Sym. Ops., with inversion, found

                                    s                        frac. trans.

      isym =  1     identity

 cryst.   s( 1) = (     1          0          0      )
                  (     0          1          0      )
                  (     0          0          1      )

 cart.    s( 1) = (  1.0000000  0.0000000  0.0000000 )
                  (  0.0000000  1.0000000  0.0000000 )
                  (  0.0000000  0.0000000  1.0000000 )

      isym =  2     180 deg rotation - cart. axis [1,0,0]

[...]

      isym =  3     inversion

[...]

      isym =  4     inv. 180 deg rotation - cart. axis [1,0,0]

[...]

     point group C_2h (2/m)
     there are  4 classes
     the character table:

       E     C2    i     s_h
A_g    1.00  1.00  1.00  1.00
B_g    1.00 -1.00  1.00 -1.00
A_u    1.00  1.00 -1.00 -1.00
B_u    1.00 -1.00 -1.00  1.00

     the symmetry operations in each class and the name of the first element:

     E        1
          identity
     C2       2
          180 deg rotation - cart. axis [1,0,0]
     i        3
          inversion
     s_h      4
          inv. 180 deg rotation - cart. axis [1,0,0]

   Cartesian axes

     site n.     atom                  positions (alat units)
         1           Ga  tau(   1) = (   0.0000000   0.5902506   0.4269726  )
         2           Ga  tau(   2) = (   0.0000000   0.2669136   0.9409003  )
         3           Ga  tau(   3) = (   0.0000000   1.1240778   0.6008829  )
         4           Ga  tau(   4) = (   0.0000000   1.4474148   0.0869551  )
         5           Ga  tau(   5) = (   0.5000000   1.4474148   0.4269726  )
         6           Ga  tau(   6) = (   0.5000000   1.1240778   0.9409003  )
         7           Ga  tau(   7) = (   0.5000000   0.2669136   0.6008829  )
         8           Ga  tau(   8) = (   0.5000000   0.5902506   0.0869551  )

   Crystallographic axes

     site n.     atom                  positions (cryst. coord.)
         1           Ga  tau(   1) = (  0.0000000  0.3443043  0.4154014  )
         2           Ga  tau(   2) = (  0.0000000  0.1556957  0.9154014  )
         3           Ga  tau(   3) = (  0.0000000  0.6556957  0.5845986  )
         4           Ga  tau(   4) = (  0.0000000  0.8443043  0.0845986  )
         5           Ga  tau(   5) = (  0.5000000  0.8443043  0.4154014  )
         6           Ga  tau(   6) = (  0.5000000  0.6556957  0.9154014  )
         7           Ga  tau(   7) = (  0.5000000  0.1556957  0.5845986  )
         8           Ga  tau(   8) = (  0.5000000  0.3443043  0.0845986  )

     number of k points=    18  Gaussian smearing, width (Ry)=  0.0100
                       cart. coord. in units 2pi/alat
        k(    1) = (   0.0000000   0.0000000   0.0000000), wk =   0.0625000
        k(    2) = (   0.0000000   0.0000000   0.2432249), wk =   0.1250000
        k(    3) = (   0.0000000   0.0000000  -0.4864497), wk =   0.0625000
        k(    4) = (   0.0000000  -0.2916594   0.0000000), wk =   0.0625000
        k(    5) = (   0.0000000  -0.2916594   0.2432249), wk =   0.1250000
        k(    6) = (   0.0000000  -0.2916594  -0.4864497), wk =   0.0625000
        k(    7) = (   0.2500000   0.0000000   0.0000000), wk =   0.1250000
        k(    8) = (   0.2500000   0.0000000   0.2432249), wk =   0.2500000
        k(    9) = (   0.2500000   0.0000000  -0.4864497), wk =   0.1250000
        k(   10) = (   0.2500000  -0.2916594   0.0000000), wk =   0.1250000
        k(   11) = (   0.2500000  -0.2916594   0.2432249), wk =   0.2500000
        k(   12) = (   0.2500000  -0.2916594  -0.4864497), wk =   0.1250000
        k(   13) = (  -0.5000000   0.0000000   0.0000000), wk =   0.0625000
        k(   14) = (  -0.5000000   0.0000000   0.2432249), wk =   0.1250000
        k(   15) = (  -0.5000000   0.0000000  -0.4864497), wk =   0.0625000
        k(   16) = (  -0.5000000  -0.2916594   0.0000000), wk =   0.0625000
        k(   17) = (  -0.5000000  -0.2916594   0.2432249), wk =   0.1250000
        k(   18) = (  -0.5000000  -0.2916594  -0.4864497), wk =   0.0625000

                       cryst. coord.
        k(    1) = (   0.0000000   0.0000000   0.0000000), wk =   0.0625000
        k(    2) = (   0.0000000   0.0000000   0.2500000), wk =   0.1250000
        k(    3) = (   0.0000000   0.0000000  -0.5000000), wk =   0.0625000
        k(    4) = (   0.0000000  -0.5000000   0.0000000), wk =   0.0625000
        k(    5) = (   0.0000000  -0.5000000   0.2500000), wk =   0.1250000
        k(    6) = (   0.0000000  -0.5000000  -0.5000000), wk =   0.0625000
        k(    7) = (   0.2500000   0.0000000   0.0000000), wk =   0.1250000
        k(    8) = (   0.2500000   0.0000000   0.2500000), wk =   0.2500000
        k(    9) = (   0.2500000   0.0000000  -0.5000000), wk =   0.1250000
        k(   10) = (   0.2500000  -0.5000000   0.0000000), wk =   0.1250000
        k(   11) = (   0.2500000  -0.5000000   0.2500000), wk =   0.2500000
        k(   12) = (   0.2500000  -0.5000000  -0.5000000), wk =   0.1250000
        k(   13) = (  -0.5000000   0.0000000   0.0000000), wk =   0.0625000
        k(   14) = (  -0.5000000   0.0000000   0.2500000), wk =   0.1250000
        k(   15) = (  -0.5000000   0.0000000  -0.5000000), wk =   0.0625000
        k(   16) = (  -0.5000000  -0.5000000   0.0000000), wk =   0.0625000
        k(   17) = (  -0.5000000  -0.5000000   0.2500000), wk =   0.1250000
        k(   18) = (  -0.5000000  -0.5000000  -0.5000000), wk =   0.0625000

     Initial potential from superposition of free atoms

     starting charge     103.9764, renormalised to     104.0000

     %%%%%%%%%%%%%%%%%%%%%%%%%%%%%%%%%%%%%%%%%%%%%%%%%%%%%%%%%%%%%%%%%%%%%%%%
     %                                                                      %
     % You are using vdW-DF, which was implemented by the Thonhauser group. %
     % Please cite the following two papers that made this development      %
     % possible and the two reviews that describe the various versions:     %
     %                                                                      %
     %   T. Thonhauser et al., PRL 115, 136402 (2015).                      %
     %   T. Thonhauser et al., PRB 76, 125112 (2007).                       %
     %   K. Berland et al., Rep. Prog. Phys. 78, 066501 (2015).             %
     %   D.C. Langreth et al., J. Phys.: Condens. Matter 21, 084203 (2009). %
     %                                                                      %
     % If you are calculating stress with vdW-DF, please also cite:         %
     %                                                                      %
     %   R. Sabatini et al., J. Phys.: Condens. Matter 24, 424209 (2012).   %
     %                                                                      %
     %%%%%%%%%%%%%%%%%%%%%%%%%%%%%%%%%%%%%%%%%%%%%%%%%%%%%%%%%%%%%%%%%%%%%%%%

     %%%%%%%%%%%%%%%%%%%%%%%%%%%%%%%%%%%%%%%%%%%%%%%%%%%%%%%%%%%%%%%%%%%%%%%%
     %                                                                      %
     %  vdW-DF NEWS:                                                        %
     %                                                                      %
     %  * vdW-DF3 is now available. DOI: 10.1021/acs.jctc.0c00471           %
     %    use with input_dft = 'vdW-DF3-opt1' or 'vdW-DF3-opt2'             %
     %                                                                      %
     %  * Unscreened and range-separated vdW-DF hybrid functionals          %
     %    DOI: 10.1063/1.4986522 and 10.1088/1361-648X/ac2ad2               %
     %    use with input_dft = 'vdW-DF-cx0' (etc) and 'vdW-DF-ahcx'         %
     %                                                                      %
     %%%%%%%%%%%%%%%%%%%%%%%%%%%%%%%%%%%%%%%%%%%%%%%%%%%%%%%%%%%%%%%%%%%%%%%%

     Carrying out vdW-DF run using the following parameters:
     Nqs    =  20  Npoints =  1024  r_max =  100.000
[...]
     /trace/group/acmegroup/atimmins/packages/espresso/pseudo/psl_1.0.0/pslibrary.1.0.0/pbe/PSEUDOPOTENTIALS/Ga.pbe-dn-kjpaw_psl.1.0.0.UPF
     MD5 check sum: cd2a01e492f15b435d17032472d8505c
     Pseudo is Projector augmented-wave + core cor, Zval = 13.0
     Generated using 'atomic' code by A. Dal Corso  v.7.1
     Shape of augmentation charge: PSQ
     Using radial grid of 1205 points,  6 beta functions with:
                l(1) =   0
                l(2) =   0
                l(3) =   1
                l(4) =   1
                l(5) =   2
                l(6) =   2
     Q(r) pseudized with 0 coefficients

     atomic species   valence    mass     pseudopotential
        Ga            13.00    69.72300     Ga( 1.00)

      4 Sym. Ops., with inversion, found

                                    s                        frac. trans.

      isym =  1     identity

[...]

      isym =  2     180 deg rotation - cart. axis [1,0,0]

[...]

      isym =  3     inversion

[...]

      isym =  4     inv. 180 deg rotation - cart. axis [1,0,0]

 cryst.   s( 4) = (    -1          0          0      )
                  (     0          1          0      )
                  (     0          0          1      )

 cart.    s( 4) = ( -1.0000000  0.0000000  0.0000000 )
                  (  0.0000000  1.0000000  0.0000000 )
                  (  0.0000000  0.0000000  1.0000000 )

     point group C_2h (2/m)
     there are  4 classes
     the character table:

       E     C2    i     s_h
A_g    1.00  1.00  1.00  1.00
B_g    1.00 -1.00  1.00 -1.00
A_u    1.00  1.00 -1.00 -1.00
B_u    1.00 -1.00 -1.00  1.00

     the symmetry operations in each class and the name of the first element:

     E        1
          identity
     C2       2
          180 deg rotation - cart. axis [1,0,0]
     i        3
          inversion
     s_h      4
          inv. 180 deg rotation - cart. axis [1,0,0]

   Cartesian axes

     site n.     atom                  positions (alat units)
         1           Ga  tau(   1) = (  -0.0000000   0.6049250   0.4354362  )
         2           Ga  tau(   2) = (   0.0000000   0.2773428   0.9584437  )
         3           Ga  tau(   3) = (  -0.0000000   1.1596130   0.6105790  )
         4           Ga  tau(   4) = (   0.0000000   1.4871952   0.0875715  )
         5           Ga  tau(   5) = (   0.5316491   1.4871961   0.4354370  )
         6           Ga  tau(   6) = (   0.5316491   1.1596125   0.9584445  )
         7           Ga  tau(   7) = (   0.5316491   0.2773419   0.6105782  )
         8           Ga  tau(   8) = (   0.5316491   0.6049255   0.0875707  )

   Crystallographic axes

     site n.     atom                  positions (cryst. coord.)
         1           Ga  tau(   1) = ( -0.0000000  0.3428234  0.4162810  )
         2           Ga  tau(   2) = (  0.0000000  0.1571757  0.9162813  )
         3           Ga  tau(   3) = ( -0.0000000  0.6571766  0.5837190  )
         4           Ga  tau(   4) = (  0.0000000  0.8428243  0.0837187  )
         5           Ga  tau(   5) = (  0.5000000  0.8428247  0.4162814  )
         6           Ga  tau(   6) = (  0.5000000  0.6571762  0.9162818  )
         7           Ga  tau(   7) = (  0.5000000  0.1571753  0.5837186  )
         8           Ga  tau(   8) = (  0.5000000  0.3428238  0.0837182  )

     number of k points=    18  Gaussian smearing, width (Ry)=  0.0100
                       cart. coord. in units 2pi/alat
        k(    1) = (   0.0000000   0.0000000   0.0000000), wk =   0.0625000
        k(    2) = (   0.0000000  -0.0000001   0.2390024), wk =   0.1250000
        k(    3) = (   0.0000000   0.0000002  -0.4780048), wk =   0.0625000
        k(    4) = (   0.0000000  -0.2833604   0.0000001), wk =   0.0625000
        k(    5) = (   0.0000000  -0.2833604   0.2390025), wk =   0.1250000
        k(    6) = (   0.0000000  -0.2833602  -0.4780047), wk =   0.0625000
        k(    7) = (   0.2351175   0.0000000   0.0000000), wk =   0.1250000
        k(    8) = (   0.2351175  -0.0000001   0.2390024), wk =   0.2500000
        k(    9) = (   0.2351175   0.0000002  -0.4780048), wk =   0.1250000
        k(   10) = (   0.2351175  -0.2833604   0.0000001), wk =   0.1250000
        k(   11) = (   0.2351175  -0.2833604   0.2390025), wk =   0.2500000
        k(   12) = (   0.2351175  -0.2833602  -0.4780047), wk =   0.1250000
        k(   13) = (  -0.4702350   0.0000000   0.0000000), wk =   0.0625000
        k(   14) = (  -0.4702350  -0.0000001   0.2390024), wk =   0.1250000
        k(   15) = (  -0.4702350   0.0000002  -0.4780048), wk =   0.0625000
        k(   16) = (  -0.4702350  -0.2833604   0.0000001), wk =   0.0625000
        k(   17) = (  -0.4702350  -0.2833604   0.2390025), wk =   0.1250000
        k(   18) = (  -0.4702350  -0.2833602  -0.4780047), wk =   0.0625000

                       cryst. coord.
        k(    1) = (   0.0000000   0.0000000   0.0000000), wk =   0.0625000
        k(    2) = (   0.0000000  -0.0000000   0.2500000), wk =   0.1250000
        k(    3) = (   0.0000000   0.0000000  -0.5000000), wk =   0.0625000
        k(    4) = (   0.0000000  -0.5000000   0.0000000), wk =   0.0625000
        k(    5) = (   0.0000000  -0.5000000   0.2500000), wk =   0.1250000
        k(    6) = (   0.0000000  -0.5000000  -0.5000000), wk =   0.0625000
        k(    7) = (   0.2500000   0.0000000   0.0000000), wk =   0.1250000
        k(    8) = (   0.2500000  -0.0000000   0.2500000), wk =   0.2500000
        k(    9) = (   0.2500000   0.0000000  -0.5000000), wk =   0.1250000
        k(   10) = (   0.2500000  -0.5000000   0.0000000), wk =   0.1250000
        k(   11) = (   0.2500000  -0.5000000   0.2500000), wk =   0.2500000
        k(   12) = (   0.2500000  -0.5000000  -0.5000000), wk =   0.1250000
        k(   13) = (  -0.5000000   0.0000000   0.0000000), wk =   0.0625000
        k(   14) = (  -0.5000000  -0.0000000   0.2500000), wk =   0.1250000
        k(   15) = (  -0.5000000   0.0000000  -0.5000000), wk =   0.0625000
        k(   16) = (  -0.5000000  -0.5000000   0.0000000), wk =   0.0625000
        k(   17) = (  -0.5000000  -0.5000000   0.2500000), wk =   0.1250000
        k(   18) = (  -0.5000000  -0.5000000  -0.5000000), wk =   0.0625000

     Initial potential from superposition of free atoms

     starting charge     103.9764, renormalised to     104.0000

[...]

     Starting wfcs are   72 randomized atomic wfcs
     Checking if some PAW data can be deallocated...

     Self-consistent Calculation

[...]

     total energy              =   -2266.60636556 Ry
     estimated scf accuracy    <          5.3E-09 Ry

     iteration # 26     ecut=    70.00 Ry     beta= 0.70
     Davidson diagonalization with overlap

     ethr =  2.91E-12,  avg # of iterations =  1.9

[...]

     End of self-consistent calculation

[...]

          k = 0.2351-0.2834-0.4780 ( 11392 PWs)   bands (ev):

[...]

          k =-0.4702-0.2834-0.4780 ( 11400 PWs)   bands (ev):

    -7.6393  -7.6393  -7.6393  -7.6393  -7.6076  -7.6076  -7.6076  -7.6076
    -7.5830  -7.5830  -7.5830  -7.5830  -7.5782  -7.5782  -7.5782  -7.5782
    -7.4223  -7.4223  -7.4223  -7.4223  -7.4203  -7.4203  -7.4203  -7.4203
    -7.3559  -7.3559  -7.3559  -7.3559  -7.3517  -7.3517  -7.3517  -7.3517
    -7.2674  -7.2674  -7.2674  -7.2674  -7.2309  -7.2309  -7.2309  -7.2309
     0.9699   0.9699   0.9699   0.9699   1.9761   1.9761   1.9762   1.9762
     6.6049   6.6049   6.6049   6.6049   8.5377   8.5377   8.5377   8.5377
    14.3512  14.3512  14.3512  14.3512  15.2023  15.2023

     occupation numbers
     1.0000   1.0000   1.0000   1.0000   1.0000   1.0000   1.0000   1.0000
     1.0000   1.0000   1.0000   1.0000   1.0000   1.0000   1.0000   1.0000
     1.0000   1.0000   1.0000   1.0000   1.0000   1.0000   1.0000   1.0000
     1.0000   1.0000   1.0000   1.0000   1.0000   1.0000   1.0000   1.0000
     1.0000   1.0000   1.0000   1.0000   1.0000   1.0000   1.0000   1.0000
     1.0000   1.0000   1.0000   1.0000   1.0000   1.0000   1.0000   1.0000
     1.0000   1.0000   1.0000   1.0000   0.0000   0.0000   0.0000   0.0000
     0.0000   0.0000   0.0000   0.0000   0.0000   0.0000

     the Fermi energy is     7.8379 ev

!    total energy              =   -2266.60636556 Ry
     total all-electron energy =    -31147.923654 Ry
     estimated scf accuracy    <          4.2E-10 Ry
     smearing contrib. (-TS)   =      -0.00079755 Ry
     internal energy E=F+TS    =   -2266.60556801 Ry

     The total energy is F=E-TS. E is the sum of the following terms:
     one-electron contribution =    -836.13291216 Ry
     hartree contribution      =     523.23161201 Ry
     xc contribution           =    -314.13159405 Ry
     ewald contribution        =    -718.08192002 Ry
     one-center paw contrib.   =    -921.49075379 Ry
      -> PAW hartree energy AE =     141.29566883 Ry
      -> PAW hartree energy PS =    -139.13912700 Ry
      -> PAW xc energy AE      =    -156.69006593 Ry
      -> PAW xc energy PS      =      39.34717971 Ry
      -> total E_H with PAW    =     525.38815384 Ry
      -> total E_XC with PAW   =    -431.47448027 Ry

     convergence has been achieved in  26 iterations

[...]

     Forces acting on atoms (cartesian axes, Ry/au):

     atom    1 type  1   force =     0.00000000    0.00000494    0.00004004
     atom    2 type  1   force =     0.00000000   -0.00000248    0.00003892
     atom    3 type  1   force =     0.00000000   -0.00000494   -0.00004004
     atom    4 type  1   force =     0.00000000    0.00000248   -0.00003892
     atom    5 type  1   force =     0.00000000    0.00000128    0.00003861
     atom    6 type  1   force =    -0.00000000   -0.00000359    0.00003893
     atom    7 type  1   force =     0.00000000   -0.00000128   -0.00003861
     atom    8 type  1   force =    -0.00000000    0.00000359   -0.00003893
     The non-local contrib.  to forces
     atom    1 type  1   force =     0.00000000   -0.12191443   -0.03113489
     atom    2 type  1   force =     0.00000000    0.12191275   -0.03113505
     atom    3 type  1   force =     0.00000000    0.12191443    0.03113489
     atom    4 type  1   force =     0.00000000   -0.12191275    0.03113505
     atom    5 type  1   force =     0.00000000   -0.12191046   -0.03113546
     atom    6 type  1   force =     0.00000000    0.12191305   -0.03113374
     atom    7 type  1   force =     0.00000000    0.12191046    0.03113546
     atom    8 type  1   force =     0.00000000   -0.12191305    0.03113374
     The ionic contribution  to forces
     atom    1 type  1   force =    -0.00000028    3.00163779    0.14678692
     atom    2 type  1   force =    -0.00000028   -3.00119910    0.14673058
     atom    3 type  1   force =    -0.00000028   -3.00163779   -0.14678692
     atom    4 type  1   force =    -0.00000028    3.00119910   -0.14673058
     atom    5 type  1   force =     0.00000028    3.00114482    0.14671197
     atom    6 type  1   force =     0.00000028   -3.00155186    0.14676030
     atom    7 type  1   force =     0.00000028   -3.00114482   -0.14671197
     atom    8 type  1   force =     0.00000028    3.00155186   -0.14676030
     The local contribution  to forces
     atom    1 type  1   force =     0.00000000   -2.88200741   -0.11620232
     atom    2 type  1   force =    -0.00000000    2.88158428   -0.11614653
     atom    3 type  1   force =     0.00000000    2.88202029    0.11620989
     atom    4 type  1   force =     0.00000000   -2.88157133    0.11615422
     atom    5 type  1   force =     0.00000386   -2.88152080   -0.11612780
     atom    6 type  1   force =     0.00000386    2.88193702   -0.11617727
     atom    7 type  1   force =     0.00000386    2.88153368    0.11613537
     atom    8 type  1   force =     0.00000386   -2.88192407    0.11618496
     The core correction contribution to forces
     atom    1 type  1   force =     0.00000000    0.00229458    0.00059397
     atom    2 type  1   force =     0.00000000   -0.00229398    0.00059405
     atom    3 type  1   force =     0.00000000   -0.00229363   -0.00059341
     atom    4 type  1   force =     0.00000000    0.00229492   -0.00059349
     atom    5 type  1   force =     0.00000028    0.00229507    0.00059406
     atom    6 type  1   force =     0.00000028   -0.00229383    0.00059393
     atom    7 type  1   force =     0.00000028   -0.00229412   -0.00059350
     atom    8 type  1   force =     0.00000028    0.00229477   -0.00059337
     The Hubbard contrib.    to forces
     atom    1 type  1   force =     0.00000000    0.00000000    0.00000000
     atom    2 type  1   force =     0.00000000    0.00000000    0.00000000
     atom    3 type  1   force =     0.00000000    0.00000000    0.00000000
     atom    4 type  1   force =     0.00000000    0.00000000    0.00000000
     atom    5 type  1   force =     0.00000000    0.00000000    0.00000000
     atom    6 type  1   force =     0.00000000    0.00000000    0.00000000
     atom    7 type  1   force =     0.00000000    0.00000000    0.00000000
     atom    8 type  1   force =     0.00000000    0.00000000    0.00000000
     The SCF correction term to forces
     atom    1 type  1   force =     0.00000000    0.00000132    0.00000043
     atom    2 type  1   force =     0.00000000    0.00000051    0.00000000
     atom    3 type  1   force =     0.00000000   -0.00000132   -0.00000043
     atom    4 type  1   force =     0.00000000   -0.00000051   -0.00000000
     atom    5 type  1   force =    -0.00000000   -0.00000044   -0.00000008
     atom    6 type  1   force =    -0.00000000   -0.00000103   -0.00000017
     atom    7 type  1   force =    -0.00000000    0.00000044    0.00000008
     atom    8 type  1   force =    -0.00000000    0.00000103    0.00000017

     Total force =     0.000111     Total SCF correction =     0.000003

     Computing stress (Cartesian axis) and pressure

     Non-local corr. energy    =       3.79614264 Ry

          total   stress  (Ry/bohr**3)                   (kbar)     P=        0.29
  -0.00000437   0.00000000   0.00000000           -0.64        0.00        0.00
   0.00000000   0.00000512  -0.00000000            0.00        0.75       -0.00
   0.00000000  -0.00000000   0.00000515            0.00       -0.00        0.76

     kinetic stress (kbar)  10173.79      0.00      0.00
                                0.00  10196.23     -0.00
                                0.00     -0.00  10180.55

     local   stress (kbar)    -71.62      0.00     -0.00
                                0.00   8327.93     -0.02
                               -0.00     -0.02   1285.89

     nonloc. stress (kbar)   2880.91      0.00      0.00
                                0.00   2939.51     -0.00
                                0.00     -0.00   2905.03

     hartree stress (kbar)  23713.37      0.00      0.00
                                0.00  19944.93      0.01
                                0.00      0.01  23097.40

     exc-cor stress (kbar)   7092.73      0.00      0.00
                                0.00   7093.82      0.00
                                0.00      0.00   7092.47

     corecor stress (kbar) -15241.50     -0.00     -0.00
                               -0.00 -15243.49     -0.00
                               -0.00     -0.00 -15241.60

     ewald   stress (kbar) -28711.17     -0.00     -0.00
                               -0.00 -33422.31      0.01
                               -0.00      0.01 -29481.90

     hubbard stress (kbar)      0.00      0.00      0.00
                                0.00      0.00      0.00
                                0.00      0.00      0.00

     DFT-D   stress (kbar)      0.00      0.00      0.00
                                0.00      0.00      0.00
                                0.00      0.00      0.00

     XDM     stress (kbar)      0.00      0.00      0.00
                                0.00      0.00      0.00
                                0.00      0.00      0.00

     dft-nl  stress (kbar)    162.84     -0.00     -0.00
                               -0.00    164.12     -0.00
                               -0.00     -0.00    162.94

     TS-vdW  stress (kbar)      0.00      0.00      0.00
                                0.00      0.00      0.00
                                0.00      0.00      0.00

     MDB     stress (kbar)      0.00      0.00      0.00
                                0.00      0.00      0.00
                                0.00      0.00      0.00

     3D-RISM stress (kbar)      0.00      0.00      0.00
                                0.00      0.00      0.00
                                0.00      0.00      0.00

     Writing all to output data dir ./PbI2.save/

     General routines

     Parallel routines

     PAW routines

   This run was terminated on:   8:44: 3  21Feb2024

   JOB DONE.