     Program PWSCF v.7.1 starts on 28Mar2024 at 14:21:51

     Reading input from espresso.pwi
Warning: card &CELL ignored
Warning: card    CELL_DYNAMICS    = 'BFGS' ignored
Warning: card / ignored

     Current dimensions of program PWSCF are:
     Max number of different atomic species (ntypx) = 10
     Max number of k-points (npk) =  40000
     Max angular momentum in pseudopotentials (lmaxx) =  4
     file Pb.pbe-dn-kjpaw_psl.1.0.0.UPF: wavefunction(s)  6S 6P 5D renormalized
     file I.pbe-dn-kjpaw_psl.1.0.0.UPF: wavefunction(s)  5S 5P renormalized

     IMPORTANT: XC functional enforced from input :
     Exchange-correlation= BEEF-VDW
                           (   1   4  43  14   2   0   0)
     Any further DFT definition will be discarded
     Please, verify this is what you really want

     Found identity + (  0.5000 -0.0000  0.0000) symmetry
     This is a supercell, fractional translations are disabled

     R & G space division:  proc/nbgrp/npool/nimage =      20
     Subspace diagonalization in iterative solution of the eigenvalue problem:
     a serial algorithm will be used

     Using Slab Decomposition

     bravais-lattice index     =            4
     lattice parameter (alat)  =      17.8060  a.u.
     unit-cell volume          =    7656.2263 (a.u.)^3
     number of atoms/cell      =           24
     number of atomic types    =            2
     number of electrons       =       384.00
     number of Kohn-Sham states=          230
     kinetic-energy cutoff     =      70.0000  Ry
     charge density cutoff     =     350.0000  Ry
     scf convergence threshold =      1.0E-07
     mixing beta               =       0.7000
     number of iterations used =            8  plain     mixing
     Exchange-correlation= BEEF-VDW
                           (   1   4  43  14   2   0   0)

     celldm(1)=  17.806016  celldm(2)=   0.000000  celldm(3)=   1.565971
     celldm(4)=   0.000000  celldm(5)=   0.000000  celldm(6)=   0.000000

     crystal axes: (cart. coord. in units of alat)
               a(1) = (   1.000000   0.000000   0.000000 )
               a(2) = (  -0.500000   0.866025   0.000000 )
               a(3) = (   0.000000   0.000000   1.565971 )

     reciprocal axes: (cart. coord. in units 2 pi/alat)
               b(1) = (  1.000000  0.577350 -0.000000 )
               b(2) = (  0.000000  1.154701  0.000000 )
               b(3) = (  0.000000 -0.000000  0.638581 )

     PseudoPot. # 1 for Pb read from file:
     /trace/group/acmegroup/atimmins/packages/espresso/pseudo/psl_1.0.0/pslibrary.1.0.0/pbe/PSEUDOPOTENTIALS/Pb.pbe-dn-kjpaw_psl.1.0.0.UPF
     MD5 check sum: 39ab5b8a6bbd56b7735ad9f188aac93a
     Pseudo is Projector augmented-wave + core cor, Zval = 14.0
     Generated using 'atomic' code by A. Dal Corso  v.7.1
     Shape of augmentation charge: PSQ
     Using radial grid of 1281 points,  6 beta functions with:
                l(1) =   0
                l(2) =   0
                l(3) =   1
                l(4) =   1
                l(5) =   2
                l(6) =   2
     Q(r) pseudized with 0 coefficients

     PseudoPot. # 2 for I  read from file:
     /trace/group/acmegroup/atimmins/packages/espresso/pseudo/psl_1.0.0/pslibrary.1.0.0/pbe/PSEUDOPOTENTIALS/I.pbe-dn-kjpaw_psl.1.0.0.UPF
     MD5 check sum: bfa8781bc1224d19af3f3980e3fab11e
     Pseudo is Projector augmented-wave + core cor, Zval = 17.0
     Generated using 'atomic' code by A. Dal Corso  v.7.1
     Shape of augmentation charge: PSQ
     Using radial grid of 1247 points,  6 beta functions with:
                l(1) =   0
                l(2) =   0
                l(3) =   1
                l(4) =   1
                l(5) =   2
                l(6) =   2
     Q(r) pseudized with 0 coefficients

     atomic species   valence    mass     pseudopotential
        Pb            14.00   207.20000     Pb( 1.00)
        I             17.00   126.90447     I ( 1.00)

     No symmetry found

                                    s                        frac. trans.

      isym =  1     identity

 cryst.   s( 1) = (     1          0          0      )
                  (     0          1          0      )
                  (     0          0          1      )

 cart.    s( 1) = (  1.0000000  0.0000000  0.0000000 )
                  (  0.0000000  1.0000000  0.0000000 )
                  (  0.0000000  0.0000000  1.0000000 )

     point group C_1 (1)
     there are  1 classes
     the character table:

       E
A      1.00

     the symmetry operations in each class and the name of the first element:

     E        1
          identity

   Cartesian axes

     site n.     atom                  positions (alat units)
         1           Pb  tau(   1) = (   0.2500170   0.4329745   1.5659650  )
         2           Pb  tau(   2) = (   0.2500068   0.4329836   0.7829793  )
         3           Pb  tau(   3) = (   0.0000153   0.8659852   1.5659567  )
         4           Pb  tau(   4) = (   0.0000051   0.8659943   0.7829710  )
         5           Pb  tau(   5) = (   0.7500170   0.4329726   1.5659715  )
         6           Pb  tau(   6) = (   0.7500068   0.4329816   0.7829858  )
         7           Pb  tau(   7) = (   0.5000153   0.8659833   1.5659633  )
         8           Pb  tau(   8) = (   0.5000051   0.8659923   0.7829776  )
         9           I   tau(   9) = (   0.2500107   0.1443099   0.5818649  )
        10           I   tau(  10) = (   0.2500209   0.1443009   1.3648506  )
        11           I   tau(  11) = (   0.0000091   0.5773207   0.5818567  )
        12           I   tau(  12) = (   0.0000193   0.5773116   1.3648424  )
        13           I   tau(  13) = (   0.7500107   0.1443080   0.5818714  )
        14           I   tau(  14) = (   0.7500209   0.1442990   1.3648571  )
        15           I   tau(  15) = (   0.5000091   0.5773187   0.5818632  )
        16           I   tau(  16) = (   0.5000193   0.5773097   1.3648489  )
        17           I   tau(  17) = (  -0.0000034   0.2886595   0.2011110  )
        18           I   tau(  18) = (   0.0000068   0.2886504   0.9840967  )
        19           I   tau(  19) = (  -0.2500051   0.7216702   0.2011027  )
        20           I   tau(  20) = (  -0.2499949   0.7216611   0.9840884  )
        21           I   tau(  21) = (   0.4999966   0.2886575   0.2011175  )
        22           I   tau(  22) = (   0.5000068   0.2886485   0.9841032  )
        23           I   tau(  23) = (   0.2499949   0.7216682   0.2011092  )
        24           I   tau(  24) = (   0.2500051   0.7216592   0.9840949  )

   Crystallographic axes

     site n.     atom                  positions (cryst. coord.)
         1           Pb  tau(   1) = (  0.4999949  0.4999559  0.9999959  )
         2           Pb  tau(   2) = (  0.4999900  0.4999663  0.4999959  )
         3           Pb  tau(   3) = (  0.4999921  0.9999536  0.9999906  )
         4           Pb  tau(   4) = (  0.4999871  0.9999640  0.4999906  )
         5           Pb  tau(   5) = (  0.9999938  0.4999537  1.0000001  )
         6           Pb  tau(   6) = (  0.9999888  0.4999641  0.5000001  )
         7           Pb  tau(   7) = (  0.9999910  0.9999514  0.9999948  )
         8           Pb  tau(   8) = (  0.9999860  0.9999618  0.4999948  )
         9           I   tau(   9) = (  0.3333281  0.1666348  0.3715680  )
        10           I   tau(  10) = (  0.3333331  0.1666243  0.8715680  )
        11           I   tau(  11) = (  0.3333253  0.6666325  0.3715628  )
        12           I   tau(  12) = (  0.3333303  0.6666220  0.8715628  )
        13           I   tau(  13) = (  0.8333270  0.1666326  0.3715722  )
        14           I   tau(  14) = (  0.8333320  0.1666221  0.8715722  )
        15           I   tau(  15) = (  0.8333242  0.6666303  0.3715669  )
        16           I   tau(  16) = (  0.8333292  0.6666198  0.8715669  )
        17           I   tau(  17) = (  0.1666542  0.3333152  0.1284257  )
        18           I   tau(  18) = (  0.1666592  0.3333048  0.6284257  )
        19           I   tau(  19) = (  0.1666514  0.8333129  0.1284204  )
        20           I   tau(  20) = (  0.1666564  0.8333025  0.6284204  )
        21           I   tau(  21) = (  0.6666531  0.3333130  0.1284299  )
        22           I   tau(  22) = (  0.6666581  0.3333026  0.6284299  )
        23           I   tau(  23) = (  0.6666503  0.8333107  0.1284246  )
        24           I   tau(  24) = (  0.6666553  0.8333003  0.6284246  )

     number of k points=     4  Gaussian smearing, width (Ry)=  0.0100
                       cart. coord. in units 2pi/alat
        k(    1) = (   0.0000000   0.0000000   0.0000000), wk =   0.5000000
        k(    2) = (   0.0000000  -0.5773503   0.0000000), wk =   0.5000000
        k(    3) = (   0.5000000  -0.2886751   0.0000000), wk =   0.5000000
        k(    4) = (  -0.5000000  -0.2886751   0.0000000), wk =   0.5000000

                       cryst. coord.
        k(    1) = (   0.0000000   0.0000000   0.0000000), wk =   0.5000000
        k(    2) = (   0.0000000  -0.5000000   0.0000000), wk =   0.5000000
        k(    3) = (   0.5000000  -0.5000000   0.0000000), wk =   0.5000000
        k(    4) = (  -0.5000000  -0.0000000   0.0000000), wk =   0.5000000

     Atomic positions and unit cell read from directory:
     ./PbI2.save/
     Atomic positions from file used, from input discarded

     Check: negative core charge=   -0.000001

     The initial density is read from file :
     ./PbI2.save/charge-density

     %%%%%%%%%%%%%%%%%%%%%%%%%%%%%%%%%%%%%%%%%%%%%%%%%%%%%%%%%%%%%%%%%%%%%%%%
     %                                                                      %
     % You are using vdW-DF, which was implemented by the Thonhauser group. %
     % Please cite the following two papers that made this development      %
     % possible and the two reviews that describe the various versions:     %
     %                                                                      %
     %   T. Thonhauser et al., PRL 115, 136402 (2015).                      %
     %   T. Thonhauser et al., PRB 76, 125112 (2007).                       %
     %   K. Berland et al., Rep. Prog. Phys. 78, 066501 (2015).             %
     %   D.C. Langreth et al., J. Phys.: Condens. Matter 21, 084203 (2009). %
     %                                                                      %
     % If you are calculating stress with vdW-DF, please also cite:         %
     %                                                                      %
     %   R. Sabatini et al., J. Phys.: Condens. Matter 24, 424209 (2012).   %
     %                                                                      %
     %%%%%%%%%%%%%%%%%%%%%%%%%%%%%%%%%%%%%%%%%%%%%%%%%%%%%%%%%%%%%%%%%%%%%%%%

     %%%%%%%%%%%%%%%%%%%%%%%%%%%%%%%%%%%%%%%%%%%%%%%%%%%%%%%%%%%%%%%%%%%%%%%%
     %                                                                      %
     %  vdW-DF NEWS:                                                        %
     %                                                                      %
     %  * vdW-DF3 is now available. DOI: 10.1021/acs.jctc.0c00471           %
     %    use with input_dft = 'vdW-DF3-opt1' or 'vdW-DF3-opt2'             %
[...]
     atom   21 type  2   force =     0.00000427    0.00000666   -0.24719348
     atom   22 type  2   force =     0.00000257    0.00002572   -0.24717932
     atom   23 type  2   force =    -0.00000176    0.00003685   -0.24718312
     atom   24 type  2   force =     0.00001963   -0.00000193   -0.24717444
     The ionic contribution  to forces
     atom    1 type  1   force =    -0.00008913    0.00187711   -0.00117425
     atom    2 type  1   force =    -0.00016821    0.00074462    0.00104887
     atom    3 type  1   force =    -0.00057499   -0.00000908    0.00052355
     atom    4 type  1   force =    -0.00035770   -0.00058183   -0.00114602
     atom    5 type  1   force =    -0.00094100    0.00199184   -0.00025024
     atom    6 type  1   force =     0.00028113    0.00145294   -0.00044750
     atom    7 type  1   force =    -0.00037635   -0.00043107    0.00018129
     atom    8 type  1   force =     0.00069478   -0.00026035   -0.00008100
     atom    9 type  2   force =    -0.00033214   -0.00094817  -14.20717822
     atom   10 type  2   force =    -0.00059251   -0.00014095  -14.21010950
     atom   11 type  2   force =    -0.00119449    0.00007764  -14.20614585
     atom   12 type  2   force =    -0.00010661   -0.00036488  -14.20890609
     atom   13 type  2   force =    -0.00012846    0.00027091  -14.20785205
     atom   14 type  2   force =     0.00027626   -0.00004398  -14.21051277
     atom   15 type  2   force =     0.00105000    0.00023434  -14.20701111
     atom   16 type  2   force =    -0.00010912    0.00014023  -14.20905015
     atom   17 type  2   force =     0.00050272   -0.00089491   14.20934939
     atom   18 type  2   force =     0.00019172    0.00005543   14.20852100
     atom   19 type  2   force =     0.00037079   -0.00088774   14.20861718
     atom   20 type  2   force =     0.00002282   -0.00062996   14.20782588
     atom   21 type  2   force =     0.00076763   -0.00051657   14.20865943
     atom   22 type  2   force =    -0.00008691    0.00021300   14.20862912
     atom   23 type  2   force =     0.00084806   -0.00068092   14.20815296
     atom   24 type  2   force =     0.00005171   -0.00066765   14.20835607
     The local contribution  to forces
     atom    1 type  1   force =     0.00004617   -0.00182818    0.00116948
     atom    2 type  1   force =     0.00017748   -0.00070789   -0.00103323
     atom    3 type  1   force =     0.00055257    0.00004729   -0.00052078
     atom    4 type  1   force =     0.00034786    0.00057067    0.00117409
     atom    5 type  1   force =     0.00092722   -0.00194860    0.00023151
     atom    6 type  1   force =    -0.00028415   -0.00138770    0.00043638
     atom    7 type  1   force =     0.00034663    0.00048992   -0.00018761
     atom    8 type  1   force =    -0.00066643    0.00024512    0.00009527
     atom    9 type  2   force =     0.00032086    0.00094553   13.96622148
     atom   10 type  2   force =     0.00058908    0.00012128   13.96908844
     atom   11 type  2   force =     0.00118852   -0.00009329   13.96520700
     atom   12 type  2   force =     0.00010548    0.00035125   13.96789986
     atom   13 type  2   force =     0.00013051   -0.00027118   13.96688664
     atom   14 type  2   force =    -0.00026621    0.00003372   13.96948950
     atom   15 type  2   force =    -0.00104482   -0.00024334   13.96607168
     atom   16 type  2   force =     0.00012088   -0.00014744   13.96803381
     atom   17 type  2   force =    -0.00047603    0.00088035  -13.96835528
     atom   18 type  2   force =    -0.00018531   -0.00005825  -13.96752885
     atom   19 type  2   force =    -0.00034614    0.00086865  -13.96762767
     atom   20 type  2   force =    -0.00001157    0.00062381  -13.96685286
     atom   21 type  2   force =    -0.00076177    0.00049291  -13.96766672
     atom   22 type  2   force =     0.00008087   -0.00022847  -13.96764272
     atom   23 type  2   force =    -0.00084344    0.00064880  -13.96716730
     atom   24 type  2   force =    -0.00006783    0.00065891  -13.96737724
     The core correction contribution to forces
     atom    1 type  1   force =    -0.00000124   -0.00000140   -0.00000023
     atom    2 type  1   force =     0.00000096    0.00000025    0.00000210
     atom    3 type  1   force =     0.00000040    0.00000179   -0.00000122
     atom    4 type  1   force =    -0.00000062    0.00000026    0.00000152
     atom    5 type  1   force =     0.00000090   -0.00000208   -0.00000026
     atom    6 type  1   force =    -0.00000094    0.00000103    0.00000165
     atom    7 type  1   force =    -0.00000077    0.00000306   -0.00000079
     atom    8 type  1   force =     0.00000070   -0.00000084    0.00000136
     atom    9 type  2   force =    -0.00000075    0.00000199   -0.00543799
     atom   10 type  2   force =    -0.00000087    0.00000213   -0.00543599
     atom   11 type  2   force =    -0.00000083    0.00000212   -0.00543885
     atom   12 type  2   force =    -0.00000089    0.00000239   -0.00543693
     atom   13 type  2   force =    -0.00000069    0.00000222   -0.00543667
     atom   14 type  2   force =    -0.00000081    0.00000225   -0.00543581
     atom   15 type  2   force =    -0.00000040    0.00000220   -0.00543847
     atom   16 type  2   force =    -0.00000075    0.00000243   -0.00543553
     atom   17 type  2   force =    -0.00000009    0.00000189    0.00543574
     atom   18 type  2   force =    -0.00000045    0.00000225    0.00543421
     atom   19 type  2   force =    -0.00000015    0.00000172    0.00543437
     atom   20 type  2   force =    -0.00000053    0.00000217    0.00543526
     atom   21 type  2   force =    -0.00000037    0.00000190    0.00543663
     atom   22 type  2   force =    -0.00000092    0.00000218    0.00543515
     atom   23 type  2   force =    -0.00000028    0.00000161    0.00543533
     atom   24 type  2   force =    -0.00000082    0.00000195    0.00543500
     The Hubbard contrib.    to forces
     atom    1 type  1   force =     0.00000000    0.00000000    0.00000000
     atom    2 type  1   force =     0.00000000    0.00000000    0.00000000
     atom    3 type  1   force =     0.00000000    0.00000000    0.00000000
     atom    4 type  1   force =     0.00000000    0.00000000    0.00000000
     atom    5 type  1   force =     0.00000000    0.00000000    0.00000000
     atom    6 type  1   force =     0.00000000    0.00000000    0.00000000
     atom    7 type  1   force =     0.00000000    0.00000000    0.00000000
     atom    8 type  1   force =     0.00000000    0.00000000    0.00000000
     atom    9 type  2   force =     0.00000000    0.00000000    0.00000000
     atom   10 type  2   force =     0.00000000    0.00000000    0.00000000
     atom   11 type  2   force =     0.00000000    0.00000000    0.00000000
     atom   12 type  2   force =     0.00000000    0.00000000    0.00000000
     atom   13 type  2   force =     0.00000000    0.00000000    0.00000000
     atom   14 type  2   force =     0.00000000    0.00000000    0.00000000
     atom   15 type  2   force =     0.00000000    0.00000000    0.00000000
     atom   16 type  2   force =     0.00000000    0.00000000    0.00000000
     atom   17 type  2   force =     0.00000000    0.00000000    0.00000000
     atom   18 type  2   force =     0.00000000    0.00000000    0.00000000
     atom   19 type  2   force =     0.00000000    0.00000000    0.00000000
     atom   20 type  2   force =     0.00000000    0.00000000    0.00000000
     atom   21 type  2   force =     0.00000000    0.00000000    0.00000000
     atom   22 type  2   force =     0.00000000    0.00000000    0.00000000
     atom   23 type  2   force =     0.00000000    0.00000000    0.00000000
     atom   24 type  2   force =     0.00000000    0.00000000    0.00000000
     The SCF correction term to forces
     atom    1 type  1   force =     0.00002350    0.00002038    0.00001335
     atom    2 type  1   force =    -0.00001519   -0.00001449   -0.00003514
     atom    3 type  1   force =    -0.00000969   -0.00001207    0.00001575
     atom    4 type  1   force =     0.00001273    0.00001286   -0.00003377
     atom    5 type  1   force =    -0.00002418    0.00003210    0.00001172
     atom    6 type  1   force =     0.00001548   -0.00002977   -0.00003193
     atom    7 type  1   force =     0.00000971   -0.00004016    0.00001188
     atom    8 type  1   force =    -0.00001301    0.00003081   -0.00003309
     atom    9 type  2   force =    -0.00000891    0.00001158   -0.00006284
     atom   10 type  2   force =     0.00000793   -0.00001490   -0.00000149
     atom   11 type  2   force =     0.00000793   -0.00001223   -0.00006834
     atom   12 type  2   force =    -0.00000666    0.00001517    0.00000655
     atom   13 type  2   force =     0.00000874    0.00000263   -0.00005079
     atom   14 type  2   force =    -0.00000805   -0.00000720   -0.00001234
     atom   15 type  2   force =    -0.00000840   -0.00000198   -0.00008715
     atom   16 type  2   force =     0.00000656    0.00000633    0.00002830
     atom   17 type  2   force =     0.00000331    0.00000551    0.00005130
     atom   18 type  2   force =    -0.00000719   -0.00000985    0.00001688
     atom   19 type  2   force =    -0.00000961   -0.00000876    0.00001274
     atom   20 type  2   force =     0.00000261    0.00000758    0.00005062
     atom   21 type  2   force =    -0.00000360    0.00001629    0.00003208
     atom   22 type  2   force =     0.00000737   -0.00001327    0.00003665
     atom   23 type  2   force =     0.00000957   -0.00001249    0.00002625
     atom   24 type  2   force =    -0.00000248    0.00001570    0.00003766

     Total force =     0.002911     Total SCF correction =     0.000213

     Computing stress (Cartesian axis) and pressure

[...]

          total   stress  (Ry/bohr**3)                   (kbar)     P=        0.99
   0.00000643  -0.00000001   0.00000002            0.95       -0.00        0.00
  -0.00000001   0.00000641  -0.00000002           -0.00        0.94       -0.00
   0.00000002  -0.00000002   0.00000728            0.00       -0.00        1.07

     kinetic stress (kbar)  14991.04      0.00      0.00
                                0.00  14991.04     -0.00
                                0.00     -0.00  15001.65

     local   stress (kbar)  -7409.21      0.32     -0.28
                                0.32  -7408.67      0.24
                               -0.28      0.24   1415.36

     nonloc. stress (kbar)  -1072.51     -0.00      0.00
                               -0.00  -1072.51     -0.00
                                0.00     -0.00  -1078.70

     hartree stress (kbar)  11990.33     -0.12      0.11
                               -0.12  11990.13     -0.09
                                0.11     -0.09   8013.51

     exc-cor stress (kbar)   6946.55     -0.00      0.00
                               -0.00   6946.55     -0.00
                                0.00     -0.00   6945.53

     corecor stress (kbar) -11310.02      0.00     -0.00
                                0.00 -11310.02      0.00
                               -0.00      0.00 -11310.01

     ewald   stress (kbar) -14218.53     -0.20      0.17
                               -0.20 -14218.88     -0.15
                                0.17     -0.15 -19070.86

     hubbard stress (kbar)      0.00      0.00      0.00
                                0.00      0.00      0.00
                                0.00      0.00      0.00

     DFT-D   stress (kbar)      0.00      0.00      0.00
                                0.00      0.00      0.00
                                0.00      0.00      0.00

     XDM     stress (kbar)      0.00      0.00      0.00
                                0.00      0.00      0.00
                                0.00      0.00      0.00

     dft-nl  stress (kbar)     83.30      0.00     -0.00
                                0.00     83.30      0.00
                               -0.00      0.00     84.60

     TS-vdW  stress (kbar)      0.00      0.00      0.00
                                0.00      0.00      0.00
                                0.00      0.00      0.00

     MDB     stress (kbar)      0.00      0.00      0.00
                                0.00      0.00      0.00
                                0.00      0.00      0.00

     3D-RISM stress (kbar)      0.00      0.00      0.00
                                0.00      0.00      0.00
                                0.00      0.00      0.00

[...]

     Non-local corr. energy    =      11.50682998 Ry

 BEEFens 2000 ensemble energies
             -0.967161092727815E+01
             -0.973136681358349E+02
             -0.442771673143983E+02
              0.339850134268986E+02
             -0.743763731991827E+02
             -0.910669143362151E+02
              0.467411848155125E+02
              0.196191108411938E+00
              0.787719583733456E+02
             -0.498608243132230E+01
              0.403398392962831E+02
              0.411314327821543E+01
             -0.308914542495060E+01
             -0.249896525462088E+01
              0.502733822016166E+02
             -0.378585857266569E+02
             -0.743239941749869E+02
             -0.239891632623051E+02
              0.214884898690324E+02
             -0.460008670351954E+00
              0.109589390497408E+03
              0.914725229185189E+02
             -0.563408174859743E+02
              0.194729403652306E+02
             -0.117387213759067E+03
              0.963532314476292E+02
              0.329499836660057E+02
              0.870055763471513E+02
              0.586384357274476E+02
             -0.272265525761843E+02
              0.214577095313530E+02
             -0.383604128308555E+02
              0.160217843749433E+02
              0.583405056988698E+02
              0.627758671765516E+02
             -0.272807128320798E+02
              0.138484894458873E+03
             -0.557296858466655E+02
             -0.371246756440321E+02
              0.553918958537129E+02
              0.244257558665458E+02
              0.420891481052562E+02
             -0.812894074369077E+02
             -0.528316232190241E+01
              0.779873021496917E+02
              0.101933450621298E+03
             -0.103499250888372E+03
              0.664150284541701E+01
              0.359037091366457E+02
              0.231789942526673E+02
              0.404717166059793E+02
              0.888732001130639E+02
             -0.577217812742117E+02
             -0.560233938428207E+02
             -0.780362269066507E+02
             -0.113181265825453E+02
             -0.665748954472685E+02
              0.859913387176402E+01
             -0.960186057043086E+01
             -0.528120880847941E+02
[...]
              0.659451866013797E+02
              0.422415434534258E+02
              0.430688310192497E+02
             -0.797029846988725E+02
             -0.823115551406011E+02
             -0.185596451651354E+02
             -0.735811538586546E+02
              0.116815007234553E+03
              0.983946435282819E+02
              0.464095812542259E+02
              0.127937932087866E+03
             -0.639288243268314E+02
             -0.275362587055764E+02
             -0.396961538157515E+02
              0.110680081677318E+03

 BEEF-vdW xc energy contributions
            1 :    -1000.482702272847
            2 :     916.7492872961070
            3 :    -773.9865468745643
            4 :     610.2650163524878
            5 :    -461.4230467058644
            6 :     349.5036094868094
            7 :    -279.1614489432266
            8 :     241.0042490648527
            9 :    -218.7169882768965
           10 :     196.8915995176905
           11 :    -166.8890534876375
           12 :     128.7207184737904
           13 :    -88.64151692370615
           14 :     54.34239987149886
           15 :    -30.64039362814651
           16 :     17.66273427640226
           17 :    -11.70900965325995
           18 :     7.681652020296497
           19 :    -1.672426870488835
           20 :    -7.417042467422789
           21 :     17.82964456941613
           22 :    -26.39086282298194
           23 :     30.58511381560902
           24 :    -30.07193514380151
           25 :     26.82750858255872
           26 :    -23.96715255648110
           27 :     24.02900940444056
           28 :    -27.66900201726321
           29 :     33.39255646330480
           30 :    -38.40328592934770
           31 :    -86.12815253593362
           32 :    -61.96567315133893

     Writing all to output data dir ./PbI2.save/

     General routines

     Parallel routines

     PAW routines

   This run was terminated on:  14:23:48  28Mar2024

   JOB DONE.